
units lj                  # Use reduced LJ style units
atom_style atomic         # Uncharged point particles
atom_modify map hash      # Needed for indexing of clusters etc
                          # Used to be able to find where atoms are in relation to each other.

lattice fcc 1.0 spacing 1 1 1
Lattice spacing in x,y,z = 1.5874011 1.5874011 1.5874011
region box block 0 10 0 10 0 10 units lattice
create_box 2 box
Created orthogonal box = (0.0000000 0.0000000 0.0000000) to (15.874011 15.874011 15.874011)
  3 by 4 by 4 MPI processor grid
create_atoms 1 box
Created 4000 atoms
  using lattice units in orthogonal box = (0.0000000 0.0000000 0.0000000) to (15.874011 15.874011 15.874011)
  create_atoms CPU = 0.002 seconds
set type 1 type/fraction 2 0.65 78393
Setting atom values ...
  2613 settings made for type/fraction
mass 1 1.0
mass 2 1.0
pair_style lj/cut  3.5
pair_modify tail  yes
pair_coeff 1  1  1.0  1.0   # Intearaction between 1 and 1 set with epsilon = 1 and sigma = 1
pair_coeff 1  2  1.5  0.8
pair_coeff 2  2  0.5  0.88

write_data data.0
System init for write_data ...
Neighbor list info ...
  update every 1 steps, delay 10 steps, check yes
  max neighbors/atom: 2000, page size: 100000
  master list distance cutoff = 3.8
  ghost atom cutoff = 3.8
  binsize = 1.9, bins = 9 9 9
  1 neighbor lists, perpetual/occasional/extra = 1 0 0
  (1) pair lj/cut, perpetual
      attributes: half, newton on
      pair build: half/bin/atomonly/newton
      stencil: half/bin/3d
      bin: standard
WARNING: Not all mixed pair coeffs generated from mixing. Use write_data with 'pair ij' option to store all pair coeffs. (../write_data.cpp:312)


#############################
#   M E L T   S Y S T E M   #
#############################

velocity all create 2.4 1741580 mom yes dist gaussian # Assign velocities
                                                    # Temperature 2.4, random number seed, zero linear momentum
                                                                                # Gaussian distribution

timestep 0.002   # simulation timestep
thermo 1000       # output thermodynamic data every 1000 steps bf 100

# Define a fix  in this case with index 1 applied to all
# particles in the simulation. This fix is for simulations
# in the anisotropic NPT ensemble. Note that we use the MTK
# correction.
fix 1 all npt temp 2.4 2.4 0.1 iso 5.68 5.68 0.5 mtk yes tchain 5 pchain 5 # Use NPT ensemble
                                                                         # Set temperature and pressure and damping
                                                                         # Numbers of thermostats in chain and in barostat
run 10000          # run for 10000 steps
Per MPI rank memory allocation (min/avg/max) = 3.642 | 3.644 | 3.648 Mbytes
Step Temp E_pair E_mol TotEng Press Volume 
       0          2.4   -4.4517567            0  -0.85265669   -3.9326408         4000 
    1000    2.4532309   -4.1268232            0  -0.44789688    5.7615925    3631.3247 
    2000    2.4189706   -4.1883631            0  -0.56081425    5.5638052     3617.326 
    3000    2.3508175   -4.1238746            0  -0.59852986    5.4678855    3653.4858 
    4000    2.3901179   -4.1724903            0  -0.58820984    5.5472689    3618.7447 
    5000    2.4325484   -4.1950879            0   -0.5471775    5.6624171    3606.4545 
    6000    2.4418989   -4.2082034            0  -0.54627076    5.5374867    3607.7882 
    7000    2.3766225   -4.1452632            0  -0.58122069      5.68278    3624.2552 
    8000    2.4423167   -4.1699886            0  -0.50742939    5.8836263    3598.1908 
    9000     2.401611   -4.0968877            0  -0.49537192    5.9577421    3621.3136 
   10000    2.4328195   -4.1541856            0  -0.50586868    5.8214402    3609.0657 
Loop time of 2.71821 on 48 procs for 10000 steps with 4000 atoms

Performance: 635712.564 tau/day, 3678.892 timesteps/s
99.5% CPU use with 48 MPI tasks x no OpenMP threads

MPI task timing breakdown:
Section |  min time  |  avg time  |  max time  |%varavg| %total
---------------------------------------------------------------
Pair    | 1.2062     | 1.2621     | 1.3309     |   2.3 | 46.43
Neigh   | 0.21842    | 0.22322    | 0.23425    |   0.6 |  8.21
Comm    | 0.83256    | 0.91004    | 0.99381    |   3.7 | 33.48
Output  | 0.00024411 | 0.00024863 | 0.00032617 |   0.0 |  0.01
Modify  | 0.26762    | 0.30626    | 0.35141    |   4.4 | 11.27
Other   |            | 0.01634    |            |       |  0.60

Nlocal:        83.3333 ave          94 max          71 min
Histogram: 1 1 2 8 13 4 9 5 3 2
Nghost:        1758.94 ave        1784 max        1731 min
Histogram: 2 2 2 6 9 11 6 6 2 2
Neighs:        10583.8 ave       12283 max        8656 min
Histogram: 1 1 4 9 7 8 7 6 3 2

Total # of neighbors = 508020
Ave neighs/atom = 127.00500
Neighbor list builds = 907
Dangerous builds = 200

# Equilibrate just above the melting temperature to avoid step fn in T

fix 1 all npt temp 1.25 1.25 0.1 iso 5.68 5.68 0.5 mtk yes tchain 5 pchain 5
run 2000
Per MPI rank memory allocation (min/avg/max) = 3.644 | 3.646 | 3.650 Mbytes
Step Temp E_pair E_mol TotEng Press Volume 
   10000    2.4328195   -4.1541856            0  -0.50586868    5.8214402    3609.0657 
   11000    1.2531391   -6.1158615            0   -4.2366228    5.7818145    2766.8091 
   12000    1.2493771   -6.1713511            0    -4.297754    5.7085847    2756.4733 
Loop time of 0.65656 on 48 procs for 2000 steps with 4000 atoms

Performance: 526379.987 tau/day, 3046.180 timesteps/s
99.7% CPU use with 48 MPI tasks x no OpenMP threads

MPI task timing breakdown:
Section |  min time  |  avg time  |  max time  |%varavg| %total
---------------------------------------------------------------
Pair    | 0.30021    | 0.32112    | 0.36562    |   2.0 | 48.91
Neigh   | 0.041391   | 0.043759   | 0.04886    |   0.6 |  6.66
Comm    | 0.19534    | 0.24429    | 0.27186    |   2.7 | 37.21
Output  | 4.9136e-05 | 5.036e-05  | 6.6504e-05 |   0.0 |  0.01
Modify  | 0.036857   | 0.04265    | 0.048081   |   1.6 |  6.50
Other   |            | 0.00469    |            |       |  0.71

Nlocal:        83.3333 ave          91 max          76 min
Histogram: 2 2 5 2 11 8 13 1 3 1
Nghost:        2109.90 ave        2130 max        2085 min
Histogram: 2 2 4 2 8 9 8 7 5 1
Neighs:        13834.0 ave       15610 max       11823 min
Histogram: 1 1 5 3 10 11 9 5 2 1

Total # of neighbors = 664034
Ave neighs/atom = 166.00850
Neighbor list builds = 144
Dangerous builds = 12

#############################
# L I N E A R  Q U E N C H  #
#############################

# Define solid atoms. This closely follows ten Wolde  Ruiz-Montero and Frenkel  Faraday Discuss  1996  104  93-110
# Compute components of the per-atom q6 vector
compute q6 all orientorder/atom degrees 1 6 components 6 nnn NULL cutoff 1.3 # compute the Q6 parameter.
                                                                             # Use all neighbours within 1.3 unit cell.

# get number of connections
compute coord_number all coord/atom orientorder q6 0.5

# An atom is solid if it has 8 or more connections (of a possible 14)
variable is_solid atom c_coord_number>=8
group solid dynamic all var is_solid    # Must be dynamic to update
dynamic group solid defined

# do clustering
compute cluster solid cluster/atom 1.3 # Create a cluster where all atoms within are solid and max 1.3 units from another member

# define chunks one chunk per cluster
compute clus_chunks solid chunk/atom c_cluster nchunk every compress yes  # Says which atoms are in which chunk

# count the size of each chunk
compute size_chunks solid property/chunk clus_chunks count


# Find the maximum entry in the vector of chunk sizes
variable max_n equal max(c_size_chunks)


# Thermo style which includes this variable
# thermo_style custom step temp pe vol v_max_n

thermo ${N}  # Print the thermo information every 100 steps
thermo 1000  

# Reset the npt fix at a lower temperature (below freezing)
fix 1  all npt temp  ${temp} ${temp}  0.1  iso  5.68  5.68  0.5  mtk yes tchain  5  pchain  5
fix 1  all npt temp  0.45 ${temp}  0.1  iso  5.68  5.68  0.5  mtk yes tchain  5  pchain  5
fix 1  all npt temp  0.45 0.45  0.1  iso  5.68  5.68  0.5  mtk yes tchain  5  pchain  5

dump dmp2 all dcd ${N} traj.dcd
dump dmp2 all dcd 1000 traj.dcd


compute msd all msd com yes
variable twopoint equal c_msd[4]/6/(step*dt+1.0e-6)
fix 9 all vector 10 c_msd[4]
variable fit equal slope(f_9)/6/(10*dt)
thermo_style custom step temp pe c_msd[4] v_twopoint v_fit v_max_n

fix 1 all npt temp 1.25 ${temp} 0.1 iso 5.68 5.68 0.5 mtk yes tchain 5 pchain 5
fix 1 all npt temp 1.25 0.45 0.1 iso 5.68 5.68 0.5 mtk yes tchain 5 pchain 5
run 5000000 # 5000000  # Run for this many steps
Neighbor list info ...
  update every 1 steps, delay 10 steps, check yes
  max neighbors/atom: 2000, page size: 100000
  master list distance cutoff = 3.8
  ghost atom cutoff = 3.8
  binsize = 1.9, bins = 8 8 8
  4 neighbor lists, perpetual/occasional/extra = 1 3 0
  (1) pair lj/cut, perpetual
      attributes: half, newton on
      pair build: half/bin/atomonly/newton
      stencil: half/bin/3d
      bin: standard
  (2) compute orientorder/atom, occasional
      attributes: full, newton on
      pair build: full/bin/atomonly
      stencil: full/bin/3d
      bin: standard
  (3) compute coord/atom, occasional
      attributes: full, newton on
      pair build: full/bin/atomonly
      stencil: full/bin/3d
      bin: standard
  (4) compute cluster/atom, occasional
      attributes: full, newton on
      pair build: full/bin/atomonly
      stencil: full/bin/3d
      bin: standard
Per MPI rank memory allocation (min/avg/max) = 9.846 | 9.851 | 9.856 Mbytes
Step Temp PotEng c_msd[4] v_twopoint v_fit v_max_n 
   12000    1.2493771   -6.1713511 2.0962006e-30 1.4556948e-32 8.3333333e+20            1 
   13000    1.2336976   -6.1567836   0.54672465 0.0035046451  0.045397715            3 
   14000    1.2545479   -6.1783015    1.0625354 0.0063246153   0.04397905            2 
   15000    1.2630376   -6.2116754    1.5369458 0.0085385876  0.042271739            2 
   16000    1.2266639   -6.1955966    2.0565896  0.010711404  0.041709648            1 
   17000    1.2738613   -6.2075396     2.566949  0.012583083  0.042147677            2 
   18000    1.2519549   -6.1577429    3.0866067  0.014289845  0.042154478            3 
   19000    1.2292672   -6.2195774     3.644896  0.015986386   0.04256469            3 
   20000    1.2550554   -6.1496098    4.1912443  0.017463517  0.042904393            1 
   21000     1.235651   -6.1739246    4.6247388  0.018352138  0.043079523            4 
   22000    1.2526712   -6.2350479    5.1412093  0.019474277  0.043003633            2 
   23000    1.2309422    -6.197008    5.6470568   0.02046035  0.042971984            4 
   24000    1.2533668   -6.2331833    6.1100858  0.021215575  0.042773304            2 
   25000    1.2426648   -6.2114538     6.583065  0.021943549  0.042563802            1 
   26000    1.2477196   -6.1531087    7.1827702  0.023021699  0.042442633            2 
   27000    1.2263976   -6.2234096     7.579809  0.023394472  0.042344703            2 
   28000    1.2310616   -6.2050746    8.0762735  0.024036528  0.042100573            3 
   29000    1.2583253   -6.1692677    8.4326751  0.024231824  0.041859384            1 
   30000    1.2710246   -6.2276267    8.9699444  0.024916512  0.041599072            4 
   31000    1.2585292   -6.2060682    9.4828937  0.025491649  0.041489283            3 
   32000     1.237118   -6.2242592    10.127198  0.026372911  0.041475924       -1e+20 
   33000    1.2621937   -6.1904416    10.538222  0.026611672  0.041523738            3 
   34000    1.2366592   -6.2282584    11.083918  0.027166465  0.041572262            3 
   35000    1.2320122    -6.181049    11.596117  0.027609801  0.041558757            3 
   36000     1.248218   -6.1724343    12.060187  0.027917099  0.041545777            2 
   37000    1.2329477   -6.2419218    12.535899  0.028234007   0.04155004            3 
   38000    1.2250087   -6.2109889    12.990018  0.028486881  0.041519838            3 
   39000     1.245234   -6.1856612    13.403559  0.028640084  0.041459305            3 
   40000    1.2391873   -6.2221266    13.964569  0.029092851  0.041397939            3 
   41000    1.2557517    -6.192604     14.45015  0.029370223  0.041345408            2 
   42000    1.2707601     -6.19747    15.095437  0.029951264  0.041360827            2 
   43000    1.2476662     -6.23735     15.64736  0.030324341  0.041409235            7 
   44000    1.2239725    -6.218306    16.107896  0.030507378  0.041481774            2 
   45000     1.236536   -6.1717919    16.764586  0.031045528  0.041554928            3 
   46000    1.2457792   -6.1941158    17.243686  0.031238561  0.041637649            2 
   47000    1.2567093   -6.2301836    17.642669  0.031281328  0.041700848            7 
   48000     1.255477   -6.1674057    18.192278  0.031583815  0.041731606            3 
   49000    1.2265254   -6.1916473    18.778981  0.031937043  0.041773731            3 
   50000    1.2274888   -6.2438431    19.308324   0.03218054  0.041809879            2 
   51000    1.2301893   -6.2030025    19.775246  0.032312493  0.041861475            2 
   52000    1.2583361   -6.1768705    20.271736  0.032486755  0.041890307            2 
   53000    1.2799997   -6.2403044    20.654149  0.032475077  0.041911102            4 
   54000    1.2378522   -6.2144469    21.255253  0.032801316  0.041928793            4 
   55000     1.267818   -6.1513799    21.877336  0.033147478   0.04196728            2 
   56000    1.2271225   -6.2001742     22.29817    0.0331818  0.041993967            2 
   57000    1.2380183   -6.1857923     22.87944  0.033449473  0.042021164            4 
   58000    1.2488565   -6.2433614    23.355352  0.033556541  0.042047558            2 
   59000    1.2497614   -6.2407926    23.885688  0.033736847  0.042096526            1 
   60000    1.2423291   -6.2047638    24.533327  0.034074065  0.042142428            2 
   61000    1.2568135   -6.2132989    24.958837  0.034096771   0.04218523            1 
   62000    1.2260392   -6.2419108    25.504523  0.034280273  0.042221582            3 
   63000    1.2435264   -6.2560224    25.948793    0.0343238   0.04224402            5 
   64000    1.2476738   -6.2493831     26.56031  0.034583737  0.042274943            4 
   65000    1.2677138   -6.2156439    27.087989  0.034728191  0.042321092            2 
   66000    1.2325973   -6.1916498    27.699996  0.034974742  0.042360978            1 
   67000    1.2470358    -6.234412    28.127023  0.034983859   0.04240208            4 
   68000    1.2372314   -6.2067985    28.758874  0.035243717   0.04243833            3 
   69000    1.2645951   -6.1952055    29.148421  0.035203407  0.042469751            1 
   70000    1.2276791    -6.208787    29.620264  0.035262219   0.04247561            4 
   71000    1.2367574   -6.2639603    30.056596  0.035277695  0.042479106            2 
   72000     1.250603   -6.1907413    30.743342  0.035582572   0.04251435            1 
   73000    1.2384701    -6.174504    31.270864  0.035697333  0.042540437            2 
   74000    1.2522755   -6.2275829    31.728587  0.035730391  0.042567697            1 
   75000    1.2046849   -6.2129375    32.255311  0.035839234  0.042589197            1 
   76000    1.2419145   -6.1732652    32.819054  0.035985805  0.042612977            1 
   77000    1.2324268   -6.2236277    33.297851  0.036036635  0.042637324            3 
   78000    1.2274153   -6.2087298    33.723655  0.036029546   0.04265215            4 
   79000    1.2409074   -6.2084967    34.107347  0.035978214  0.042653164            5 
   80000    1.2166841   -6.2075923    34.647713  0.036091368  0.042647951            2 
   81000    1.2740318   -6.2140158    35.248334  0.036263718  0.042647394            2 
   82000    1.2522772   -6.2175762    35.764305  0.036345838  0.042644193            2 
   83000    1.2637638   -6.2191701    36.203056  0.036348449  0.042649133            5 
   84000     1.260921   -6.2025469    36.723522  0.036432066  0.042641963            3 
   85000    1.2416002   -6.2297386    37.205595  0.036476073  0.042637967            1 
   86000    1.2482873    -6.214338    37.794159  0.036622247   0.04264806            3 
   87000    1.2407398   -6.2130259    38.246146  0.036634239  0.042661838            2 
   88000    1.2550249   -6.1926839    38.716004  0.036662882  0.042661722            5 
   89000    1.2248595    -6.244607     39.29116  0.036789475   0.04266033            1 
   90000    1.2045137   -6.2397684    39.891988  0.036937025  0.042668381            3 
   91000    1.2369342   -6.2523462    40.623652  0.037201146  0.042682213            3 
   92000    1.2574631   -6.2357689    41.138787  0.037263394  0.042697167            2 
   93000    1.2097438   -6.2317277    41.654841  0.037325126   0.04271766            2 
   94000    1.2293847   -6.2218686     42.37006   0.03756211  0.042737815            2 
   95000     1.249648   -6.2453406    42.686523  0.037444318  0.042764467            2 
   96000    1.2249438   -6.2270614    43.272617  0.037563035  0.042779421            2 
   97000    1.2418199    -6.234029    43.562765  0.037425056   0.04278898            3 
   98000    1.2148975   -6.2433299    44.043105  0.037451619  0.042790174            5 
   99000    1.2301566   -6.2093976    44.660755  0.037593228  0.042799132            2 
  100000    1.2440547   -6.2370776    45.207185  0.037672654  0.042811333            1 
  101000    1.2376701   -6.2690882    45.696728   0.03770357  0.042828615            2 
  102000    1.2159291   -6.2526409    46.523441  0.038009347  0.042851069            4 
  103000     1.264944   -6.2335344    46.949184  0.037984776  0.042869924            1 
  104000    1.2252375   -6.2558555    47.391782  0.037974184  0.042887682            2 
  105000    1.2132415   -6.2280824    47.784732  0.037924391  0.042896745            4 
  106000    1.2432691   -6.1903762     48.36893  0.038025888  0.042906538            3 
  107000    1.2479337   -6.2594673    48.694838  0.037924329  0.042914154            4 
  108000    1.2217507   -6.2040293     49.65354  0.038312916  0.042925523            2 
  109000    1.2338319   -6.1766466    49.922393  0.038166967  0.042929681            2 
  110000    1.2229757   -6.2213886    50.291679  0.038099757  0.042935873            2 
  111000    1.2344677   -6.2482883    50.906156  0.038217834  0.042942791            2 
  112000    1.2169608   -6.2007417    51.855465  0.038582935  0.042955878            3 
  113000    1.2167502   -6.2401577    51.991204  0.038341596  0.042962223            1 
  114000    1.2339032   -6.2422834    52.294932  0.038227289  0.042962124            3 
  115000    1.2349277   -6.2276838    52.662193  0.038161009   0.04295658            2 
  116000    1.2456188   -6.3028217    53.056089  0.038115006  0.042949107            3 
  117000    1.2228214    -6.226803    53.761642  0.038291768  0.042941724            3 
  118000    1.2398273   -6.2483257    53.976608  0.038119073  0.042924513            1 
  119000    1.2350653   -6.2652819    54.354297  0.038063233  0.042897531            3 
  120000    1.2271642   -6.2120883    55.127493  0.038282981  0.042875635            4 
  121000    1.2002969   -6.2772248    55.151447   0.03798309  0.042853226            1 
  122000    1.2205515    -6.225425    55.903175  0.038185229  0.042827818            1 
  123000    1.1868381   -6.2372632    56.536682  0.038303985  0.042807521            1 
  124000    1.2205663   -6.1970599    57.155745  0.038411119  0.042790956            2 
  125000    1.2569059   -6.2218705    57.678728  0.038452485  0.042780637            3 
  126000    1.2226449   -6.2251989    58.250485  0.038525453  0.042769303            2 
  127000    1.2489532   -6.2102149     58.47935  0.038372277  0.042754848            3 
  128000    1.2352146   -6.2286849    58.713762  0.038225105  0.042731646            1 
  129000     1.222949    -6.219108    58.989116  0.038106664  0.042705136            3 
  130000    1.2269165   -6.2418593    59.356829  0.038049249  0.042670713            2 
  131000    1.2629272   -6.2509947    59.541274  0.037876129  0.042628306            3 
  132000    1.2263252   -6.2598281    60.072194  0.037924365  0.042590195            2 
  133000    1.2187291   -6.1870001    61.000699  0.038220989  0.042554143            1 
  134000    1.2250027    -6.237826    61.470472  0.038227906  0.042525875            2 
  135000    1.2327287   -6.2687017    61.582637  0.038013973  0.042495781            3 
  136000     1.215785   -6.2512218    62.291204   0.03816863  0.042463587            1 
  137000     1.216975   -6.2516053    62.882201  0.038249514  0.042435317            7 
  138000    1.2549951   -6.2124325    63.523599  0.038359661  0.042411124            2 
  139000    1.2588687   -6.2297462    64.153614  0.038461399  0.042390855            3 
  140000    1.2335297   -6.2628683    64.439723  0.038356978  0.042371778            2 
  141000    1.2070147   -6.2734052    64.877594  0.038343732  0.042350324            3 
  142000    1.2168027   -6.2462663    65.435995  0.038401406  0.042327859            4 
  143000    1.2305348   -6.2526241    65.737629  0.038308641  0.042299809            4 
  144000    1.2164404   -6.2363642     66.16032  0.038287222  0.042268098            5 
  145000    1.2334715   -6.2437694    66.505715  0.038221675  0.042241983            2 
  146000    1.2379852   -6.2358797    66.883976  0.038175785  0.042209755            1 
  147000     1.213292    -6.219678    67.545822  0.038291282  0.042181053            4 
  148000    1.2071553   -6.1915318    68.240479  0.038423693  0.042152475            2 
  149000    1.2243152   -6.2597547    68.167261  0.038124866  0.042119207            2 
  150000    1.2383724   -6.1997033    68.888004  0.038271113  0.042087904            4 
  151000     1.240591   -6.2602551    69.064461  0.038115045  0.042055224            9 
  152000    1.2046271   -6.2323171    69.680893  0.038202244   0.04202346            2 
  153000     1.240386   -6.2037891    70.051372  0.038154342  0.041993355            4 
  154000    1.2372527   -6.2671461    70.283959  0.038032445  0.041962664            2 
  155000    1.2269487   -6.2621459    70.996763  0.038170303  0.041928721            3 
  156000    1.2151744   -6.2879515    71.566725  0.038230088  0.041900812            2 
  157000    1.2272037   -6.2516037    71.828346  0.038125449  0.041874791            2 
  158000    1.2372868   -6.2357086    72.513609  0.038245574  0.041848161            2 
  159000    1.2599586   -6.2770694    72.905953  0.038210667  0.041823279            1 
  160000    1.2233582   -6.2727198    73.516627   0.03828991  0.041796557            3 
  161000     1.221066   -6.2142162    73.904225  0.038252704  0.041772495            3 
  162000    1.2268856   -6.2577637    74.088463  0.038111349   0.04174512            2 
  163000    1.2162059   -6.2589561    75.044566  0.038366342  0.041720571            2 
  164000    1.2239412   -6.2096738    75.531694  0.038379926  0.041693522            2 
  165000    1.2191354    -6.251547    75.631433  0.038197693  0.041665455            2 
  166000    1.2462015   -6.2639963    76.140001  0.038222892  0.041639764            2 
  167000    1.2330774   -6.2512997    76.763018  0.038304899  0.041617098            2 
  168000     1.213151   -6.2510464    77.129944  0.038258901  0.041596113            2 
  169000     1.236832   -6.2768223    77.454742  0.038192674  0.041574454            5 
  170000    1.1934469   -6.2227334    78.141346  0.038304581  0.041554207            1 
  171000    1.2147581     -6.27241    78.527626  0.038268824  0.041532577            2 
  172000    1.2144677   -6.2963424    78.932464  0.038242473  0.041508797            3 
  173000     1.226393   -6.2314707    79.752286  0.038416322  0.041488932            4 
  174000    1.2312679    -6.254169    80.115252  0.038369373  0.041468806            3 
  175000    1.2350211   -6.2706791    80.397654  0.038284597  0.041448152            3 
  176000    1.2183223   -6.2319859    81.217962  0.038455474  0.041427711            3 
  177000     1.249091   -6.2663446    81.626213   0.03843042  0.041408252            2 
  178000    1.2130877   -6.2744801    82.142808  0.038456371  0.041390904            2 
  179000    1.2331751   -6.2575114    82.661508  0.038483011   0.04137881            4 
  180000    1.2408892   -6.2474817    83.689577  0.038745175  0.041367723            4 
  181000    1.2333176   -6.2172512    84.029799  0.038687753  0.041360302            5 
  182000    1.2188047   -6.2792414    84.076936  0.038496766  0.041351035            3 
  183000     1.202884   -6.2282156    84.946957  0.038682585  0.041338025            6 
  184000    1.2200851   -6.2940712    85.085252  0.038534987  0.041326791            3 
  185000    1.2039353   -6.2500348    85.711953  0.038608988  0.041316652            2 
  186000    1.2258371   -6.2614776    86.020862  0.038539813  0.041304313            3 
  187000     1.242686   -6.2281784    87.160721  0.038841676  0.041293428            1 
  188000    1.2323633    -6.245534    87.462357  0.038768775  0.041281778            1 
  189000    1.2252881    -6.279681    87.859438  0.038738729  0.041274699            4 
  190000    1.2441205     -6.27243    88.326472  0.038739681  0.041266839            2 
  191000    1.2122203    -6.282399    88.635797  0.038671814  0.041258354            6 
  192000    1.2599573   -6.2817099    88.958257  0.038610355  0.041244786            3 
  193000    1.2049964   -6.2750115    89.745066  0.038750028  0.041230234            5 
  194000     1.207349   -6.2609785    89.853427  0.038596833  0.041218225            3 
  195000      1.23114   -6.2513702    90.565915  0.038703382  0.041206623            4 
  196000     1.205102   -6.2578471    90.966068  0.038676049  0.041192856            3 
  197000    1.1998394   -6.2567733    91.236068  0.038593937  0.041182055            2 
  198000     1.204687   -6.2112127    92.155175  0.038785848  0.041169872            3 
  199000     1.191139   -6.2798456     92.08246  0.038560494  0.041159238            3 
  200000    1.2372364   -6.2526062    93.148962  0.038812067  0.041145558            5 
  201000    1.2195094   -6.3053716    93.164847  0.038625558  0.041131244            7 
  202000    1.1952347   -6.3017634    93.514046  0.038578402  0.041118258            1 
  203000     1.235082   -6.2235378    94.458739  0.038776165  0.041105462            2 
  204000    1.2145483   -6.2777088    94.451821   0.03858326   0.04109254            4 
  205000    1.1859162   -6.2323734    94.693955  0.038493478  0.041076672            1 
  206000    1.2223561   -6.3004469    94.976728  0.038421006  0.041061437            2 
  207000    1.2221717   -6.3001738    95.836509  0.038581525  0.041048517            3 
  208000    1.2082942    -6.268802    96.717118  0.038748845  0.041034737            3 
  209000     1.255142   -6.2763919    96.998586  0.038675672  0.041024186            2 
  210000     1.199625   -6.2234989    97.782556  0.038802602  0.041012281            3 
  211000    1.2296543   -6.2528594    97.888572  0.038660573  0.041002791            3 
  212000    1.2135001   -6.2738631    98.071576  0.038550148  0.040989356            4 
  213000    1.2083033   -6.2922188    97.960144  0.038325565  0.040972512            2 
  214000    1.2069069   -6.3326077    97.910972  0.038127326  0.040954338            3 
  215000    1.2170817   -6.2521617    99.270124  0.038476792   0.04093423            4 
  216000    1.2356976   -6.2265898    99.896693  0.038540391  0.040918406            2 
  217000     1.209228   -6.2725926    100.54298  0.038610976  0.040904309            4 
  218000    1.1932606   -6.2939646    101.13448  0.038659971  0.040893909            4 
  219000     1.205821    -6.274935    101.59088  0.038657106   0.04088313            2 
  220000    1.2005858   -6.3066854    101.88989  0.038594656  0.040873364            2 
  221000    1.1990149   -6.2418457    102.93736  0.038814992  0.040862607            3 
  222000    1.2384307   -6.2622401    103.59751  0.038887952  0.040855373            2 
  223000    1.2252457   -6.2701705    103.67068  0.038740911  0.040847847            3 
  224000    1.2112302   -6.2571069    104.55807   0.03889809  0.040841459            1 
  225000    1.2367588    -6.315838    104.56254  0.038726867  0.040835547            3 
  226000    1.2317369   -6.2942816    105.25386  0.038810422    0.0408277            5 
  227000     1.214664   -6.2682119    105.47768  0.038721614  0.040816892            2 
  228000    1.2180216   -6.3133885    105.74642  0.038650009  0.040806568            5 
  229000    1.2214518   -6.2794037    105.65515  0.038448018   0.04079204            2 
  230000    1.2272194   -6.2914241    105.82911  0.038343879  0.040775396           10 
  231000    1.2066348   -6.2737948    107.04236   0.03861557   0.04075982            3 
  232000    1.2115694   -6.3155941     106.7186  0.038332832  0.040742039            2 
  233000    1.2104246   -6.2544708    107.71091  0.038523214  0.040725579            2 
  234000     1.213458   -6.3130903     107.4123  0.038252243  0.040707903            4 
  235000    1.2264374   -6.2711223    108.37719  0.038431628  0.040689133            1 
  236000     1.217127   -6.3158734    108.71268  0.038387246  0.040671635            3 
  237000    1.2169719   -6.2828021    109.36384  0.038454233  0.040655178            2 
  238000    1.1728775   -6.2902458    109.37402  0.038296226  0.040638115            3 
  239000    1.2281239   -6.2406715     110.0231  0.038362309  0.040623108            1 
  240000    1.2116796   -6.2992777    110.53947  0.038381759   0.04060507            3 
  241000    1.2093198   -6.2389869    111.56656  0.038577648  0.040588261            5 
  242000     1.189849   -6.2620159    111.39452  0.038358994  0.040571367            4 
  243000    1.2336251   -6.2914967    111.80083  0.038340476  0.040554503            2 
  244000    1.2170055   -6.3001202    111.85062  0.038200349   0.04053768            3 
  245000    1.2148701    -6.306113    112.65556  0.038318217  0.040520842            2 
  246000    1.2139618   -6.3050099    113.25612  0.038365894   0.04050268            3 
  247000    1.2417326    -6.272621    113.31005  0.038228763  0.040485093            2 
  248000    1.2065758   -6.2720644    114.40864  0.038443764    0.0404684            2 
  249000    1.2005951   -6.2866968    114.48048  0.038313415  0.040450924            5 
  250000    1.1948979   -6.2289241     115.8356  0.038611866  0.040435261            3 
  251000     1.218867    -6.274689    115.78108  0.038439935  0.040422002            2 
  252000     1.216774   -6.2557112    116.40672  0.038494287  0.040408746            5 
  253000    1.2004173   -6.3178287    116.60128   0.03840622  0.040396134            2 
  254000    1.1911585   -6.2707027    117.50547  0.038551662    0.0403836            2 
  255000    1.2198411   -6.2536321    118.11188  0.038598653  0.040374064            3 
  256000    1.2208798   -6.2521417    118.14065  0.038457242  0.040363072            2 
  257000    1.2046457   -6.2877711    118.89274  0.038551473  0.040351753            4 
  258000    1.2138368   -6.3085373    119.03806  0.038448986  0.040338839            5 
  259000     1.219396   -6.2648873    120.04148  0.038623385  0.040325754            3 
  260000    1.1811649   -6.3026839    119.20716  0.038207423  0.040311492            3 
  261000    1.1999066    -6.308139    120.24955  0.038393854  0.040296822            1 
  262000    1.2108048   -6.3031471    120.63337  0.038369394  0.040282718            2 
  263000    1.2283787   -6.3142388    120.70628  0.038246605  0.040266127            3 
  264000    1.2189728   -6.2626787    121.43579  0.038332004  0.040249878            2 
  265000    1.2311307   -6.2672265    121.85473  0.038319096  0.040233108            2 
  266000     1.223408   -6.3151753    121.91486  0.038193879  0.040217703            3 
  267000    1.1732843   -6.2812996    122.91658  0.038363476   0.04020303            2 
  268000    1.2126146    -6.243905    123.07005  0.038268051  0.040188311            2 
  269000    1.2038435    -6.277412    123.34804  0.038211909  0.040172647            3 
  270000    1.2273364   -6.2955635    124.00177   0.03827215   0.04015621            2 
  271000    1.2160769   -6.3306629    124.82078  0.038382775  0.040140121            4 
  272000    1.2080968   -6.2957901     124.9194  0.038271876  0.040125324            3 
  273000    1.2182928    -6.303535    125.22372  0.038224577  0.040110739            2 
  274000    1.2069026   -6.2711171    125.69044   0.03822702  0.040096976            2 
  275000    1.2014017   -6.2760031    126.64173  0.038376281  0.040084675            3 
  276000    1.1977117   -6.3306834    126.44107  0.038176651  0.040073967            4 
  277000    1.1943477   -6.2418982    128.31342  0.038602111  0.040064003            2 
  278000    1.2111438   -6.2797512    128.06009  0.038387318  0.040055787            1 
  279000    1.1848582   -6.2431512    129.02664  0.038538422  0.040046752            4 
  280000    1.1997392   -6.3083395    129.45135  0.038527189  0.040036162            2 
  281000    1.1992929   -6.2707163    129.83487  0.038503817  0.040024782            2 
  282000    1.1977729   -6.3214298     129.9045  0.038387853  0.040012093            4 
  283000    1.2058238   -6.3324635      130.263  0.038357775   0.04000173            4 
  284000    1.2216426   -6.2728915    131.28731  0.038523273  0.039989918            3 
  285000    1.2097302   -6.2742127    131.05933  0.038321441  0.039979741            2 
  286000    1.1923466   -6.3030717    130.72852   0.03809106  0.039966875            3 
  287000    1.2000808   -6.2793658    131.39003  0.038150415  0.039952337            5 
  288000    1.1913994   -6.3099998    131.99032  0.038191644  0.039938644            2 
  289000    1.1865125   -6.3003339     132.8238  0.038299827  0.039926412            3 
  290000    1.1935679   -6.3029081    133.05466  0.038234096  0.039913769            3 
  291000    1.2217384   -6.3212862    133.52679  0.038237913  0.039901703            2 
  292000    1.1964321   -6.2999556    134.26557  0.038317799  0.039891373            2 
  293000     1.187413   -6.2801229    134.96736  0.038386622  0.039879508            1 
  294000    1.1824118   -6.2842101    134.81848  0.038213855  0.039867626            2 
  295000    1.2114178     -6.29803    134.79311  0.038077149  0.039852206            1 
  296000    1.2168306   -6.3357969    135.14389  0.038047267  0.039837284            3 
  297000    1.1816983    -6.296065    135.48471  0.038014789  0.039822203            2 
  298000    1.1802401   -6.3271514    136.29032  0.038112504  0.039807592            2 
  299000     1.209964   -6.3276582    136.98519  0.038178705  0.039793209            2 
  300000    1.1886307   -6.2972553    137.67981  0.038244393  0.039779774            2 
  301000    1.2336369   -6.2726187    138.28398  0.038284601  0.039767408            1 
  302000    1.1936023   -6.2639787    138.98402     0.038351  0.039756333            2 
  303000    1.2087996   -6.2804903    138.86246  0.038190995  0.039746078            2 
  304000     1.223464    -6.322668    139.40847  0.038215042  0.039734023            3 
  305000    1.2014941   -6.3137266    139.20239   0.03803344   0.03972189            3 
  306000     1.180091    -6.255022    140.21504  0.038184925  0.039709162            1 
  307000    1.2033017   -6.2956608     140.3578  0.038099295  0.039695947            2 
  308000    1.2143644    -6.329298    140.31589  0.037964257  0.039681543            2 
  309000    1.1750045   -6.3568351    141.21068  0.038082709  0.039666385            2 
  310000    1.2186065   -6.3175344    141.35795   0.03799945  0.039652174            2 
  311000    1.2428712   -6.3453105    141.43115  0.037896879  0.039636958            2 
  312000    1.1920652    -6.338429    141.78573   0.03787012  0.039621474            2 
  313000    1.1991425   -6.2955632    143.10563  0.038100542  0.039606428            3 
  314000    1.1823428   -6.3060862    142.93492  0.037933897  0.039590444            2 
  315000    1.1858972    -6.313109    143.62112  0.037995004   0.03957513            2 
  316000    1.1860632   -6.3049995    144.26853  0.038045498  0.039560802            4 
  317000    1.2001898    -6.307092    144.87662  0.038085337  0.039548037            2 
  318000     1.194153   -6.2963193    145.43122  0.038110906  0.039535828            2 
  319000    1.2132865   -6.3185409    145.50363  0.038010352  0.039523951            2 
  320000    1.2372452   -6.2946484    146.56887  0.038168977  0.039512351            1 
  321000    1.1997148   -6.3416639    146.57455  0.038051543  0.039499985            2 
  322000    1.2274609   -6.3144388    147.45085  0.038160157  0.039488541            1 
  323000    1.1936732   -6.3060168     147.5296  0.038062332  0.039477617            2 
  324000    1.1922058   -6.3462888    147.96166  0.038055984  0.039467806            2 
  325000    1.1961401    -6.321857    148.69738  0.038127532   0.03945807            3 
  326000    1.1842358   -6.3624978    149.33604  0.038173835   0.03944745            4 
  327000    1.1998811    -6.293724    149.11471   0.03800069  0.039436687            2 
  328000    1.1985912     -6.29896     150.1602  0.038150458  0.039426461            4 
  329000    1.2175131   -6.3127344    150.28357  0.038065747  0.039417176            2 
  330000    1.2352133    -6.277186    151.05878  0.038146156  0.039406062            3 
  331000    1.2304263   -6.3341558    150.87905  0.037985661  0.039395179            5 
  332000    1.1753274   -6.3132694    150.66822  0.037818329  0.039383216            2 
  333000    1.1872435    -6.312272     151.0309  0.037795522  0.039370492            5 
  334000    1.2103626   -6.3297957    152.16395  0.037965057  0.039357544            4 
  335000    1.1892926   -6.2761338    152.85436  0.038023473   0.03934486            1 
  336000    1.2083215   -6.3019704    153.03599  0.037955354  0.039333384            4 
  337000    1.2123145   -6.3252351    153.63374   0.03799054  0.039320484            2 
  338000    1.2005551    -6.311255     154.5741  0.038109985  0.039309033            2 
  339000    1.2258733   -6.2902542    155.16786  0.038143525   0.03929942            2 
  340000    1.2053598   -6.3218376    154.21779  0.037798478  0.039287995            3 
  341000    1.2155012   -6.3118858     155.2924  0.037950245  0.039274921            3 
  342000    1.2185871   -6.3247294    155.34649  0.037852458  0.039261963            3 
  343000    1.1846851   -6.2963175    155.66993  0.037820684  0.039247581            2 
  344000    1.1796841    -6.342298    155.55305  0.037682426  0.039233213            2 
  345000    1.1916328     -6.29859    156.22012  0.037734327  0.039219769            3 
  346000    1.1877612   -6.3053411    157.12724  0.037843747  0.039205706            3 
  347000    1.1894035    -6.299384    157.75134  0.037884568  0.039191799            2 
  348000      1.20757   -6.2669769    158.06596  0.037851043  0.039179378            3 
  349000     1.179935   -6.2924807    158.71739  0.037898136  0.039168565            3 
  350000    1.2066654   -6.3665286    158.93403  0.037841435   0.03915801            4 
  351000    1.2297155   -6.3552188    159.36932  0.037836971  0.039145408            2 
  352000    1.1918371   -6.3410533    160.07721  0.037897066  0.039133294            1 
  353000     1.200874   -6.3240892    160.38299  0.037861895   0.03912237            2 
  354000    1.1720882   -6.3149281    161.35801  0.037984465  0.039111775            3 
  355000    1.1970299   -6.3308847    161.22532  0.037846319  0.039100454            2 
  356000    1.2245274   -6.3254264    161.89952  0.037897828  0.039089782            6 
  357000    1.1909285   -6.3597002    162.51712  0.037935837  0.039079014            3 
  358000     1.190475   -6.3897444    162.89058  0.037916802  0.039068119            2 
  359000    1.2056431   -6.2991396     163.1378  0.037868571  0.039057166            3 
  360000    1.2024837   -6.3482377    162.92431  0.037713961  0.039045383            2 
  361000    1.2275486   -6.3607566    163.27783  0.037691096  0.039033626            4 
  362000    1.1791808   -6.2950208    164.05781  0.037766531  0.039022497            2 
  363000    1.1931655   -6.3054703    164.97043  0.037871999    0.0390115            2 
  364000    1.1997833    -6.325106    165.45635    0.0378792  0.039001099            3 
  365000    1.2016322   -6.2863043    165.72308  0.037836319  0.038990134            3 
  366000    1.1952967   -6.3299165    166.13864  0.037827558  0.038979625            4 
  367000    1.1850924   -6.3283516    166.22783  0.037744739  0.038968467            2 
  368000    1.2077148   -6.3437855    166.24582  0.037646245  0.038956129            3 
  369000    1.1851194    -6.317857    166.89376  0.037690551  0.038942463            2 
  370000    1.2095855   -6.3383625    167.05623  0.037625276  0.038928842            5 
  371000    1.1915528   -6.3382152    167.14231  0.037543195  0.038915029            3 
  372000    1.1891846   -6.3288938    168.57161  0.037762456  0.038902136            5 
  373000    1.1928366   -6.2901165     169.0783  0.037774419  0.038889984            3 
  374000    1.1700842   -6.3386094    169.07187  0.037671986  0.038879452            3 
  375000    1.1888506   -6.3256168    169.75244  0.037722765  0.038868292            3 
  376000     1.180594   -6.3030624    170.47079  0.037781648  0.038856028            2 
  377000    1.1725785   -6.3197626    170.06003  0.037590634  0.038844051            7 
  378000    1.1785961   -6.3475088    171.00964  0.037700538  0.038831342            1 
  379000    1.1897856   -6.3380615    171.29401   0.03766359  0.038819052            2 
  380000    1.1681181   -6.3798626    171.37801  0.037582896  0.038807444            7 
  381000    1.1633854   -6.3481371    172.50845  0.037731508  0.038796379            4 
  382000    1.2087937   -6.3046143     172.8593  0.037709272  0.038786559            3 
  383000    1.1805661   -6.3257501    173.89177  0.037835458  0.038777138            2 
  384000    1.2177222   -6.3426533    174.04527   0.03777024  0.038769141            3 
  385000    1.1761157   -6.3282614    174.62286  0.037797155  0.038759688            2 
  386000     1.216812   -6.3606317    174.13257  0.037593387  0.038749268            6 
  387000    1.1781269   -6.3176198    175.73752  0.037841842  0.038738926            2 
  388000    1.2111975   -6.3805392    175.44575  0.037681646  0.038729478            2 
  389000    1.1852998   -6.3386581    176.28758  0.037765121  0.038720418            6 
  390000    1.1897791   -6.3145454    176.02077  0.037611275  0.038710615            5 
  391000    1.1888244   -6.3439346    176.31492  0.037577775  0.038699991            2 
  392000    1.1811619   -6.3843426    176.62845  0.037548564   0.03868829            3 
  393000    1.1858015   -6.3250377    177.07362  0.037547418  0.038676285            3 
  394000    1.1942441   -6.3574713     177.7121  0.037587162  0.038665789            2 
  395000    1.1956484   -6.3187754    177.79336  0.037509147  0.038653581            2 
  396000    1.1678437   -6.3510798    177.71412  0.037397753  0.038641787            2 
  397000    1.1922747   -6.3227642    179.05215  0.037584415  0.038629413            3 
  398000     1.164716   -6.3597474    179.36635  0.037555768  0.038618272            3 
  399000    1.2020832   -6.3388916    179.69907  0.037531135  0.038606639            2 
  400000    1.1860011   -6.3370499    180.06579  0.037513705  0.038595606            2 
  401000     1.184521   -6.3560583    180.43426  0.037496729  0.038584715            3 
  402000    1.1852346   -6.3719149    180.49018  0.037415046  0.038573341            2 
  403000     1.203133   -6.3485789    181.49771  0.037530543  0.038562747            2 
  404000    1.1488498   -6.3507082    181.92491  0.037525764  0.038552946            2 
  405000    1.1940592   -6.3403399    182.33441  0.037517368  0.038542795            3 
  406000    1.1734955   -6.3492721    182.85776  0.037532381  0.038533071            1 
  407000    1.2036547   -6.3436706    183.94055  0.037661866  0.038523858            8 
  408000     1.179938   -6.3527409    183.84815  0.037550685  0.038515266            2 
  409000    1.1770794   -6.3327297    184.68757  0.037629904  0.038506408            4 
  410000    1.1818764   -6.3709963    183.95533  0.037389295  0.038496066            1 
  411000    1.2034874   -6.3485677    184.71074  0.037451489  0.038486689            4 
  412000    1.1987625   -6.2998245    185.74624  0.037570032   0.03847813            3 
  413000    1.1854261   -6.3279796    186.42825  0.037616678  0.038470568            1 
  414000    1.1859167   -6.3299613    187.39155  0.037719717  0.038463968            3 
  415000     1.166407   -6.3536139    187.57609  0.037665881  0.038456029            4 
  416000    1.1935593   -6.3293294    188.01101  0.037662462  0.038448055            3 
  417000    1.2009876   -6.3787765    188.15301  0.037600521  0.038440125            2 
  418000    1.1923138   -6.3144483    189.71047  0.037821067  0.038433868            4 
  419000    1.1675299    -6.323853    188.95309  0.037580169  0.038427821            1 
  420000    1.1960287   -6.3535479    190.28029  0.037754026  0.038422001            2 
  421000    1.2001357   -6.4107949    189.08262  0.037427281  0.038415813            4 
  422000    1.1948668    -6.343226    191.31305  0.037779039  0.038408902            2 
  423000    1.1854803   -6.3714383    190.98335  0.037624773   0.03840279            5 
  424000    1.1817622   -6.3320705    192.12574  0.037760563  0.038396276            4 
  425000    1.1767282   -6.3793047      191.677  0.037583726  0.038388659            2 
  426000    1.1765777   -6.3263555    191.54573  0.037469822  0.038380664            3 
  427000    1.1663763   -6.3931013    192.37511  0.037543931  0.038372196            2 
  428000    1.2045095    -6.339158    193.77588  0.037728948   0.03836424            2 
  429000    1.1651419   -6.3585333    193.46276  0.037580179  0.038357501            2 
  430000    1.1786238   -6.3930876    193.42144  0.037484775  0.038349692            4 
  431000    1.1751273   -6.3560688    194.79484  0.037663349  0.038341932            2 
  432000    1.1679862   -6.3292379    195.08152  0.037631467  0.038334648            1 
  433000    1.1867319   -6.3106904    195.80107  0.037683039  0.038327749            4 
  434000    1.1824184   -6.3374617    195.95604  0.037625968   0.03832164            1 
  435000    1.1774211   -6.3277657    195.78768  0.037507218  0.038314592            2 
  436000    1.1649162   -6.3327118    196.43729  0.037545353  0.038306949            4 
  437000    1.1611484   -6.3035109    197.52116  0.037666125  0.038299578            3 
  438000    1.1749995   -6.3555769    197.19489  0.037518054  0.038291888            3 
  439000    1.1687566   -6.3771485    197.29421  0.037451445  0.038284031            3 
  440000    1.1736204   -6.3982331    196.88778  0.037289352  0.038275762            2 
  441000    1.1670127   -6.3858387    197.29273  0.037281317  0.038267323            4 
  442000    1.1997969   -6.3768396    197.93098  0.037317304  0.038259084            3 
  443000    1.1993929   -6.3237745    198.89052  0.037413567  0.038250962            4 
  444000    1.1552226   -6.3777092    200.07672  0.037551936  0.038243763            1 
  445000    1.1615733   -6.3641502    200.29906  0.037509188   0.03823613            2 
  446000    1.2071782   -6.3670048    200.54533    0.0374711  0.038228901            3 
  447000    1.1885091   -6.3875177    200.70223  0.037416524  0.038222642            5 
  448000    1.1681225   -6.3950779    202.06744  0.037586949  0.038215575            3 
  449000    1.1887265   -6.3248495    202.43254  0.037570999  0.038209159            3 
  450000    1.1584681   -6.3359606    202.19102  0.037442782  0.038202231            2 
  451000    1.1811428   -6.3252048    202.98347  0.037506184  0.038195293            5 
  452000    1.1725908   -6.3716991    202.99399  0.037425146  0.038187649            2 
  453000    1.1778978   -6.3809427    202.33718  0.037221704  0.038178201            4 
  454000    1.2011682    -6.331613    203.58299  0.037368391  0.038169425            3 
  455000    1.1755274   -6.3793501     203.6611  0.037300569  0.038161452            4 
  456000    1.1651944   -6.3695046    204.08973    0.0372971  0.038153109            3 
  457000    1.1887803   -6.3352913    204.59144  0.037306974  0.038144702            2 
  458000    1.1823499   -6.3571925    204.94573  0.037289979  0.038136258            5 
  459000    1.1460327   -6.3764149    205.61382  0.037330033  0.038127635            2 
  460000     1.168107   -6.3614475    205.36068  0.037203022  0.038119352            6 
  461000    1.1731001   -6.3618635    206.25529  0.037284036  0.038111414            3 
  462000    1.1978356   -6.4135422    205.64625  0.037093479  0.038102538            5 
  463000    1.1978971   -6.3218134    207.91763   0.03742218  0.038093527            2 
  464000    1.1605203   -6.3858905    207.00098  0.037176901  0.038085382            2 
  465000    1.1938662     -6.35905    208.80313  0.037419915  0.038076235            4 
  466000     1.190115    -6.363726    208.43733  0.037274201   0.03806692            2 
  467000    1.1576188   -6.3635116    208.52871   0.03721069  0.038058612            4 
  468000    1.1989004   -6.3760532    209.00623  0.037216209  0.038050196            3 
  469000    1.1896073   -6.3451167    209.87407  0.037291056  0.038041551            3 
  470000    1.1777451   -6.3929665    210.31573  0.037290023  0.038034226            2 
  471000    1.1928667   -6.3627253     210.8521  0.037305751  0.038026315            2 
  472000    1.1783722   -6.3896066    210.20693  0.037112805  0.038018457            1 
  473000    1.1684856   -6.4154906    210.74425  0.037129009  0.038009327            5 
  474000    1.2000409   -6.3852155    210.92372   0.03708223  0.038000662            3 
  475000    1.1631452   -6.3910464    211.41901  0.037091054  0.037992286            3 
  476000    1.1622785   -6.3632842    212.89866  0.037272174  0.037983377            3 
  477000    1.1702783   -6.3361817    213.22331  0.037250752  0.037974107            1 
  478000    1.1697438   -6.3797116    212.73796  0.037088207  0.037964977            3 
  479000    1.1908304   -6.3301359    214.01933  0.037233704  0.037955213            1 
  480000    1.2072296   -6.3675447    213.26998  0.037026038  0.037946256            5 
  481000    1.1933306   -6.3604088    214.29682  0.037126962  0.037936951            3 
  482000    1.1490621   -6.4252125    214.24331  0.037040682  0.037926582            3 
  483000    1.1502127   -6.3570428    215.40818  0.037164972  0.037916533            1 
  484000    1.2085518    -6.383445    215.46218  0.037097483  0.037907018            4 
  485000     1.214454   -6.3524813    216.10348  0.037131182  0.037898027            3 
  486000    1.1795438   -6.3963781    214.67091  0.036809141  0.037887923            2 
  487000    1.1621188    -6.408601    215.12966  0.036812057  0.037877396            3 
  488000    1.1761359   -6.3313946    216.75208  0.037013674   0.03786703            3 
  489000    1.1696154   -6.4404484    217.08264  0.036994315  0.037856258            3 
  490000    1.1757462   -6.3466568    217.79362  0.037039732  0.037845973            2 
  491000    1.1835098   -6.3607364     218.8638  0.037145927  0.037836028            4 
  492000    1.1547548   -6.3791702    217.96368  0.036917968  0.037826891            2 
  493000    1.1766614   -6.3557442    219.42762  0.037090537  0.037817074            4 
  494000    1.1729825   -6.3230506    219.53728  0.037033954  0.037808136            2 
  495000    1.1738163    -6.358685    219.44595  0.036943762  0.037799102            3 
  496000    1.1602528   -6.3770092    220.34598  0.037020493  0.037789687            2 
  497000    1.1837271   -6.3796889    220.76093  0.037015582  0.037780681            4 
  498000     1.155416   -6.3877043     221.1793  0.037011262  0.037772104            3 
  499000    1.1457151   -6.3523219    222.24916  0.037115759  0.037763225            9 
  500000    1.1710267    -6.362342    222.30254  0.037050423  0.037754806            3 
  501000    1.1855618   -6.3895833    221.98933  0.036924373  0.037745746            2 
  502000    1.1804644   -6.3992899    222.35303  0.036911194   0.03773655            2 
  503000    1.1781268   -6.4503645    222.19394  0.036811455   0.03772623            4 
  504000    1.1677757   -6.4099056    222.68683  0.036819913  0.037716301            3 
  505000    1.1737544    -6.357272     223.0519  0.036807243  0.037706768            1 
  506000    1.1629507    -6.437973    224.81784  0.037025336  0.037697347            8 
  507000    1.1925463   -6.3930946    224.84592  0.036956922  0.037687639            3 
  508000    1.1719011   -6.4304936    224.51511  0.036829906  0.037677812            4 
  509000    1.1750981   -6.3815668    225.87608  0.036980367  0.037668775            2 
  510000    1.1963512   -6.3619299    227.01397  0.037093785  0.037660039            2 
  511000    1.1719599   -6.4072924    226.08178  0.036869174  0.037650738            4 
  512000    1.1849999   -6.3848689    226.23287  0.036821756  0.037640576            4 
  513000    1.1628088   -6.3634986    226.93007  0.036863235  0.037631619            1 
  514000    1.1930859   -6.3553319    227.48686  0.036881787   0.03762233            5 
  515000    1.1456599   -6.4062556    227.23051  0.036768691  0.037612377            3 
  516000    1.1532413   -6.4325684    226.12773  0.036519336  0.037601505            2 
  517000    1.1544855   -6.4106731    226.84059  0.036563603  0.037590379            4 
  518000    1.1627133   -6.4339616    228.22535  0.036715789  0.037579464            8 
  519000    1.1661617    -6.392245    228.05487  0.036617673  0.037568387            3 
  520000    1.1602757   -6.4389911    228.08153  0.036551528  0.037557149            3 
  521000     1.167486   -6.4037232    229.00891  0.036629705  0.037545961            2 
  522000    1.1978299   -6.3841338    229.50631  0.036638939  0.037535782            1 
  523000    1.1479466   -6.3409505    231.15173   0.03683106  0.037525138            3 
  524000    1.1804945   -6.3912764       231.36  0.036793893  0.037515273            1 
  525000    1.1622701   -6.3550379    231.61338  0.036764029  0.037505601            2 
  526000    1.1597464   -6.3970338    231.61772  0.036694822   0.03749584            3 
  527000    1.1454367   -6.3979133    231.74405  0.036645168  0.037486447            5 
  528000    1.1882867   -6.3586107    232.54666   0.03670244  0.037476425            5 
  529000    1.1965696   -6.3809857    232.91847  0.036691631  0.037466643            2 
  530000    1.1459873   -6.3955835    232.66476   0.03658251  0.037456556            2 
  531000    1.1773186   -6.3911807    234.92916  0.036868983  0.037447107            2 
  532000    1.1601873   -6.3996398    235.25545  0.036850791  0.037438244            2 
  533000    1.1786757   -6.4132185    234.45033  0.036655774  0.037429726            3 
  534000    1.1832905   -6.3820904     236.3616  0.036885393   0.03742155            6 
  535000    1.1504971   -6.3993825    235.58872  0.036696062  0.037413015            3 
  536000    1.1795278   -6.3964019    237.10864  0.036863906   0.03740532            3 
  537000    1.1706998   -6.4256479    235.83278  0.036597265  0.037397342            6 
  538000    1.1639251   -6.3931462    237.74737    0.0368258  0.037389016            4 
  539000    1.1796889   -6.3686612    237.75882  0.036759248   0.03738054            4 
  540000    1.1773622   -6.3943383    237.35502  0.036628862  0.037371326            2 
  541000    1.1632386   -6.4049955    238.55375  0.036745803  0.037362036            5 
  542000    1.1609209   -6.3851131    238.98363    0.0367441  0.037353257            3 
  543000    1.1456966   -6.3964881    239.16943  0.036704946  0.037344639            4 
  544000    1.1542743    -6.376412    239.86096  0.036743407  0.037336574            2 
  545000    1.1854767   -6.3817508    239.30922  0.036591624  0.037327735            2 
  546000    1.1481191   -6.3939904    240.02777  0.036634275  0.037318077            3 
  547000    1.1864245   -6.3603945     240.2472  0.036600731  0.037308699            3 
  548000    1.1606238   -6.4052965    241.14322  0.036670198  0.037299818            3 
  549000    1.1467543   -6.4006103    240.77661  0.036547755  0.037290678            2 
  550000    1.1587999   -6.4085881    240.78368  0.036482376   0.03728167            3 
  551000    1.1554062    -6.337995    243.07314  0.036762423  0.037273152            2 
  552000    1.1705861   -6.3927998    243.10541  0.036700696  0.037264964            4 
  553000    1.1524791    -6.442074    241.94546  0.036459533  0.037255663            3 
  554000    1.1920237   -6.3956047     243.1597  0.036576369  0.037246277            2 
  555000     1.156951   -6.4137177    243.83487  0.036611843   0.03723754            2 
  556000    1.1662161   -6.4291387    243.79887  0.036540598  0.037228052            3 
  557000    1.1817144   -6.4303955    244.46371  0.036574463  0.037219415            3 
  558000    1.1638827    -6.421704    245.55929  0.036672535  0.037210537            5 
  559000    1.1617656   -6.4651017    245.09586  0.036537845  0.037201991            2 
  560000    1.1758791   -6.3894326    247.24575  0.036792522  0.037193603            3 
  561000    1.1752322   -6.3447696    247.85545  0.036817506  0.037185402            2 
  562000    1.1511897   -6.4511651     246.4931  0.036549985  0.037177951            3 
  563000    1.1580653   -6.3849522    248.03796  0.036713729  0.037170797            4 
  564000    1.1658012   -6.4085141    248.23497  0.036677743  0.037164291            2 
  565000    1.1616369   -6.3763502    248.56709  0.036661813  0.037157478            2 
  566000    1.1731631   -6.3855052     248.3202  0.036560689  0.037151079            2 
  567000    1.1551123   -6.3721551    249.66982  0.036694564  0.037144368            2 
  568000    1.1385187   -6.4363733    249.44238  0.036596593  0.037137708            3 
  569000    1.1424716   -6.4005991    250.14664  0.036635419   0.03713133            4 
  570000    1.1627603    -6.398808    250.41999  0.036611109  0.037124704            3 
  571000    1.1683256     -6.37813    251.27587  0.036671902  0.037117628            2 
  572000     1.173165   -6.4264757    250.97898  0.036564536  0.037109737            9 
  573000      1.17816   -6.4140378    251.54749  0.036583404  0.037102111            2 
  574000    1.1756662   -6.3722368    252.32835  0.036633036  0.037093912            3 
  575000    1.1648493   -6.4238204    252.10797  0.036537386     0.037086            2 
  576000    1.1730903   -6.3898585    252.88221  0.036585968   0.03707765            3 
  577000    1.1663526   -6.4279893     252.8161  0.036513013  0.037070011            2 
  578000    1.1788704   -6.3809877    253.95738  0.036614385  0.037062936            2 
  579000    1.1527696   -6.4253888    253.06849  0.036423214  0.037055879            2 
  580000    1.1494044   -6.3936486     254.4366  0.036556983  0.037048647            2 
  581000    1.1887396   -6.4191126     254.7428   0.03653798  0.037041308            4 
  582000    1.1983746   -6.4076274     255.7521  0.036619717   0.03703416            2 
  583000    1.1662893   -6.4219184    255.72925  0.036553638  0.037027374            2 
  584000    1.1778163   -6.4054156     255.5843  0.036470363   0.03702018            3 
  585000    1.1534913   -6.4357236    255.50758  0.036397091  0.037012826            3 
  586000    1.1785076   -6.4322314    256.82076  0.036521724  0.037004899            5 
  587000    1.1777329   -6.4514572    256.57229  0.036424232  0.036997114            3 
  588000    1.1620449   -6.3705245    257.98205  0.036562082  0.036989128            4 
  589000    1.1350254   -6.3946665    256.45106  0.036283398  0.036981082            3 
  590000    1.1639029    -6.401762    258.03162  0.036445144  0.036973168            5 
  591000     1.144876     -6.40603    258.33366  0.036426066  0.036964768            3 
  592000    1.1366857   -6.4301136    257.36806  0.036228613  0.036955719            2 
  593000    1.1469463   -6.4221128    258.44064  0.036318247  0.036946725            2 
  594000    1.1645849   -6.4327066    258.24985  0.036230338   0.03693749            6 
  595000    1.1584054   -6.4303461    258.29057   0.03617515  0.036928309            3 
  596000    1.1726749   -6.3963461    260.09107    0.0363662  0.036918791            1 
  597000    1.1353693   -6.3815889    260.83624  0.036409302  0.036909436            2 
  598000    1.1507271   -6.3607894    261.82159  0.036485728  0.036900871            1 
  599000    1.1788266   -6.4016016    261.54722  0.036386647  0.036893064            2 
  600000    1.1537174   -6.4021859    261.77093  0.036357074  0.036884755            2 
  601000    1.1690721   -6.4280568    261.75194  0.036293946   0.03687702            6 
  602000    1.1372696   -6.4210656    263.12396  0.036423583  0.036868934            2 
  603000    1.1657723   -6.4339331    261.54891   0.03614551  0.036860149            3 
  604000    1.1635596   -6.4218022    263.81123  0.036397797  0.036851532            3 
  605000     1.148425   -6.4067298    263.18558  0.036251457  0.036842869            2 
  606000    1.1477452   -6.3848891    264.24848  0.036337799   0.03683389            2 
  607000    1.1801584   -6.4268958    263.66727  0.036198142   0.03682458            2 
  608000    1.1699615   -6.3907408    265.13912   0.03634034  0.036816301            2 
  609000    1.1818171   -6.3955102    265.22754  0.036292767   0.03680803            6 
  610000    1.1581706   -6.4575876    264.46594  0.036129227  0.036800084            2 
  611000    1.1505688   -6.4254052     265.8018  0.036252292  0.036791345            3 
  612000    1.1632505   -6.4253043    265.42408  0.036141623  0.036782187            3 
  613000    1.1453783    -6.455157    265.89283  0.036146388  0.036773782            4 
  614000    1.1621143   -6.4090488    266.90961  0.036225517  0.036765428            2 
  615000    1.1712828   -6.3817233    268.11701  0.036330218  0.036757928            2 
  616000    1.1410038   -6.4020376     268.4389  0.036314786  0.036750793            3 
  617000     1.145398   -6.4278392     269.1043    0.0363458   0.03674389            2 
  618000    1.1567878    -6.429534    269.54287  0.036346126  0.036736607            3 
  619000    1.1518607   -6.4277917    269.56485  0.036290367  0.036729614            2 
  620000    1.1746759   -6.4185102    270.77723  0.036394789  0.036722586            6 
  621000    1.1675178   -6.3615324    271.15744  0.036387203  0.036716039            2 
  622000    1.1526249   -6.4592273    270.75103  0.036274254  0.036709473            5 
  623000    1.1521227    -6.394551    271.63279  0.036333973  0.036703467            4 
  624000    1.1465419   -6.4538374     272.1457  0.036344244  0.036697618            3 
  625000    1.1386973   -6.4180114    272.81476  0.036375301  0.036691963            2 
  626000    1.1497657   -6.4016612    273.52991  0.036412395  0.036686451            4 
  627000     1.134252   -6.3781177    274.68154  0.036507382  0.036680231            3 
  628000    1.1573603   -6.4058182    274.74625  0.036457835  0.036674143            2 
  629000    1.1510427    -6.431249    274.44446  0.036359891  0.036667814            3 
  630000     1.130252    -6.450303    274.61424  0.036324635  0.036661046            2 
  631000    1.1361445   -6.4039978     275.3765  0.036367737  0.036654298            2 
  632000    1.1157542   -6.4708712    274.47828  0.036191756  0.036648126            5 
  633000    1.1308731   -6.4430902    275.75072  0.036302095  0.036641688            2 
  634000    1.1749305    -6.457099    276.24187  0.036309393  0.036635415            3 
  635000    1.1459821   -6.4096404    277.45491  0.036411406  0.036629702            3 
  636000    1.1605317   -6.4265182    276.94771  0.036287698  0.036623683            4 
  637000    1.1611115   -6.4708355    277.75809  0.036336746  0.036617518            3 
  638000    1.1593182   -6.4618141    277.87332  0.036294843  0.036611288            2 
  639000    1.1420061   -6.4273635    278.05581  0.036261843  0.036605227            4 
  640000    1.1579052   -6.4242606     279.1794  0.036351485  0.036599738            1 
  641000    1.1654734   -6.4197964    280.42904  0.036457234  0.036594445            2 
  642000    1.1549308   -6.4220593    280.72953  0.036439451  0.036589031            4 
  643000    1.1628335   -6.4311442    279.90688  0.036276164  0.036583298            3 
  644000    1.1702424   -6.4089411    281.34092  0.036405398  0.036577941            2 
  645000    1.1422987   -6.4673818    280.70358  0.036266612  0.036572237            4 
  646000    1.1460249   -6.4467037    282.30655  0.036417253  0.036566607            3 
  647000    1.1438846   -6.4473238    281.61925  0.036272444  0.036561079            4 
  648000    1.1590479   -6.4316471    283.11085  0.036408288  0.036555663            3 
  649000    1.1572315   -6.4112823    283.31449  0.036378337  0.036550092            3 
  650000    1.1453379   -6.4917527    282.01958  0.036156357  0.036544261            4 
  651000    1.1281732   -6.4702766    282.90008  0.036213528  0.036538267            5 
  652000    1.1515667   -6.4322912    283.49426  0.036233929  0.036532237            6 
  653000    1.1373636   -6.4595421    283.87608  0.036227167  0.036526293            3 
  654000    1.1644608   -6.4332407    285.02175  0.036317756  0.036520288            2 
  655000    1.1554296   -6.4530412    284.46746  0.036191788  0.036514309            2 
  656000    1.1375943   -6.4395336    284.99919  0.036204165  0.036508336            2 
  657000    1.1397241   -6.4492148    285.34973  0.036193522  0.036502217            3 
  658000     1.142404   -6.4591742    285.38206  0.036142612  0.036495949            4 
  659000    1.1542436   -6.4303307    285.54243  0.036108046  0.036489849            6 
  660000    1.1418986   -6.4446487    287.26496  0.036270828  0.036483098            3 
  661000    1.1314875   -6.4288493    286.95013  0.036176265  0.036476555            2 
  662000    1.1507096   -6.4416339    286.57892  0.036074889  0.036469552            3 
  663000    1.1499851   -6.4351248    287.07124  0.036082359  0.036462517            6 
  664000    1.1602335   -6.4206548    287.19275  0.036043266  0.036455101            6 
  665000    1.1220978   -6.4344601    287.41722  0.036017196  0.036448298            3 
  666000    1.1345959   -6.4547027     287.4077  0.035961925  0.036440471            3 
  667000    1.1511387   -6.4809965    287.72014  0.035947044  0.036432793            3 
  668000    1.1376296   -6.4031521    289.55868  0.036122589  0.036425125            2 
  669000    1.1390309    -6.426819    289.31534  0.036038283  0.036417811            6 
  670000    1.1237639   -6.4619092    288.41486  0.035872496  0.036410371            4 
  671000    1.1361652   -6.4466476    290.06435  0.036023888   0.03640315            2 
  672000    1.1686836   -6.4636922    289.95538  0.035956768  0.036395341            6 
  673000    1.1475865   -6.4591319    291.13983  0.036050003  0.036387822            2 
  674000    1.1350892    -6.440668    290.83743  0.035959129  0.036380645            3 
  675000    1.1614989   -6.4846585    291.57574  0.035997005  0.036372957            6 
  676000     1.142531   -6.4066863    292.95984  0.036114378  0.036366214            2 
  677000    1.1661104   -6.4166717    293.68604  0.036150423  0.036359292            2 
  678000    1.1473406   -6.4503881    292.49991  0.035951316  0.036352619            2 
  679000    1.1467162   -6.4337209    293.54274  0.036026355  0.036345411            2 
  680000    1.1443242   -6.4601363    293.21745  0.035933511  0.036338274            2 
  681000    1.1301176   -6.4345677    293.51236  0.035916834  0.036331246            2 
  682000    1.1379166   -6.4442457    293.43719  0.035854984  0.036323435            4 
  683000    1.1317787   -6.4821667    293.48256  0.035808024  0.036315469            2 
  684000    1.1434756   -6.4738739    293.87784   0.03580383  0.036307247            2 
  685000    1.1366007   -6.4627641    294.20834  0.035791768  0.036299406            2 
  686000    1.1343357   -6.4387743    295.26369  0.035867796  0.036291432            2 
  687000     1.172076   -6.4752599    294.57424  0.035731955  0.036283614            2 
  688000    1.1454865   -6.4363152    295.69742  0.035816063  0.036275503            2 
  689000    1.1422878   -6.4164269    297.81522  0.036020225  0.036268038            4 
  690000    1.1487666   -6.4803232    296.41896  0.035799392  0.036260675            5 
  691000    1.1571052    -6.471757    296.86257  0.035801081  0.036253515            3 
  692000    1.1371561   -6.4528556     297.9364  0.035878661   0.03624658            2 
  693000    1.1318541   -6.4257529    298.98554  0.035953047  0.036239964            3 
  694000    1.1575598   -6.4428126    298.77049  0.035875419  0.036232984            2 
  695000    1.1561328   -6.4667558    299.01535  0.035853159  0.036225572            2 
  696000    1.1522766   -6.4336975    298.64709  0.035757553   0.03621829            3 
  697000    1.1546312   -6.4287678    300.74043  0.035956532  0.036211239            3 
  698000    1.1404711   -6.4839184     299.0602  0.035704418  0.036204228            4 
  699000     1.133818   -6.4629657    300.04985  0.035771322  0.036196914            3 
  700000    1.1377215   -6.4519322    300.53668  0.035778176  0.036190032            3 
  701000    1.1782443   -6.4741674    301.07457   0.03579108  0.036182993            3 
  702000      1.12636   -6.4679912     301.5404  0.035795394  0.036175466            4 
  703000    1.1446195   -6.4561293    301.06208  0.035687776  0.036168285            4 
  704000     1.137111   -6.4352106    303.14124  0.035883196  0.036160934            8 
  705000     1.140092    -6.460969    303.29118  0.035850021  0.036154144            4 
  706000    1.1558917   -6.4463051     304.4134  0.035931704  0.036147636            2 
  707000    1.1196616   -6.4643825    303.71408  0.035798454  0.036140826            4 
  708000    1.1238902   -6.4646768    304.29303  0.035816035  0.036133916            3 
  709000    1.1119098   -6.4487506    305.29773  0.035883607  0.036127029            3 
  710000    1.1471229    -6.425624    305.81601  0.035893898  0.036120106            2 
  711000    1.1401818    -6.477564    304.60918  0.035701967  0.036113475            3 
  712000    1.1437534   -6.4489845    306.45874  0.035868299  0.036106614            2 
  713000    1.1513292   -6.4352982    306.03798  0.035768815  0.036099746            5 
  714000    1.1424247   -6.4815982    305.00842  0.035598555  0.036092881            3 
  715000    1.1412655   -6.4740528    307.48026   0.03583686  0.036085925            4 
  716000    1.1539005   -6.4952261    305.80383  0.035591693  0.036078498            4 
  717000    1.1543651   -6.4804738    306.60653  0.035635347  0.036071381            2 
  718000    1.1558235   -6.4616977    307.66795  0.035708908  0.036064555            4 
  719000    1.1315058   -6.4088902    308.89127  0.035801028  0.036057667            4 
  720000     1.144192   -6.4504457    310.09923  0.035891115  0.036051257            2 
  721000    1.1536975   -6.4937628    309.22991  0.035740859  0.036044509            3 
  722000    1.1095456   -6.4743142    308.66903  0.035626619  0.036037382            4 
  723000    1.1312863   -6.4443774    311.13668  0.035861766  0.036031033            2 
  724000    1.1398109   -6.4760021    310.43577  0.035731557  0.036024337            2 
  725000    1.1546235   -6.4431334    310.90951  0.035736726  0.036017573            4 
  726000    1.1324702   -6.4981939    310.05261  0.035589143   0.03601059            3 
  727000    1.1249307   -6.4758665    310.91335  0.035638853  0.036003382            3 
  728000    1.1526454   -6.4656283    311.48873  0.035655761  0.035996187            2 
  729000    1.1357311   -6.4456547    311.59292  0.035618761   0.03598896            3 
  730000    1.1459884   -6.4569574    311.71008  0.035583342  0.035981567            3 
  731000    1.1334026   -6.4487266    311.88151  0.035554208  0.035974157            3 
  732000    1.1374795   -6.4880709    312.00696  0.035519918   0.03596641            3 
  733000     1.137306    -6.496564     312.4949  0.035526932  0.035958898            5 
  734000    1.1039225   -6.4512498     313.4117  0.035582618  0.035951072            4 
  735000    1.1341952   -6.4779772    312.56672  0.035438404   0.03594362            1 
  736000    1.1465376   -6.5028118    313.03751  0.035443558  0.035935295            6 
  737000    1.1315736    -6.532114    312.84204  0.035373365  0.035927474            3 
  738000    1.1474398   -6.5050404    312.83772  0.035324946  0.035919328            5 
  739000    1.1435608    -6.478485    315.44047  0.035570644  0.035911374            6 
  740000    1.1432879   -6.4862337    315.02946  0.035476291  0.035903277            3 
  741000    1.1337596    -6.465531    315.78751  0.035513666  0.035895446            5 
  742000    1.1191194   -6.5260941    315.15949  0.035395271  0.035887222            8 
  743000    1.1310082   -6.4608765    316.60225  0.035509449  0.035879013            2 
  744000    1.1385626   -6.4680526     315.6435  0.035354335  0.035871047            4 
  745000    1.1427074   -6.5537144    315.27486  0.035265644  0.035862518            4 
  746000    1.1267976   -6.4938641    316.61869  0.035368487  0.035853864            5 
  747000    1.1448142    -6.496987    316.44177  0.035301402  0.035845307            4 
  748000    1.1360609   -6.4649972     318.4624  0.035479323  0.035837136            4 
  749000    1.1183969   -6.4820046    318.65776  0.035453689  0.035829313            4 
  750000    1.1515163   -6.5191628    317.86512  0.035318346  0.035821552           10 
  751000    1.1595466   -6.5017196    318.30552  0.035320186  0.035813382            2 
  752000    1.1459293   -6.5224018    318.61131  0.035307104  0.035805458            2 
  753000    1.1200601     -6.50528    318.49026  0.035246819  0.035797358            2 
  754000    1.1462112   -6.4660919    320.99094  0.035476452  0.035789574            3 
  755000    1.1202401    -6.503097    319.65222  0.035281702  0.035782091            3 
  756000    1.1218542   -6.4553894    321.75678  0.035467017   0.03577365            3 
  757000    1.1190888   -6.4633508    321.56288   0.03539882   0.03576571            3 
  758000    1.1131502   -6.5140925    320.89922  0.035279158  0.035757726            3 
  759000    1.1323886    -6.474773    321.52928  0.035301853  0.035749855            4 
  760000     1.088199   -6.4631719    321.95161  0.035301711  0.035742196            4 
  761000    1.1388002   -6.4742979    323.16972  0.035388713  0.035734497            5 
  762000    1.1545262   -6.4677045    323.98548  0.035431483  0.035727383            3 
  763000    1.1214577   -6.5364334    323.94308  0.035380415  0.035719875            2 
  764000    1.1066078     -6.51665    323.48297  0.035283919  0.035712521            4 
  765000    1.1132063   -6.5142715     323.3541  0.035223758  0.035705035            3 
  766000     1.107571    -6.445869    325.94794  0.035459958  0.035697605            3 
  767000     1.146753   -6.4738336    326.20328  0.035441469  0.035690668            2 
  768000    1.1190132   -6.4877652    325.14915  0.035280941   0.03568417            2 
  769000    1.1274012    -6.480414    326.72713   0.03540606   0.03567751            4 
  770000    1.1471974   -6.4954714    327.07473  0.035397698  0.035670854            4 
  771000    1.1078941   -6.5072491    327.68206   0.03541743  0.035664299            4 
  772000     1.137334   -6.4613926    329.52395  0.035570375   0.03565769            7 
  773000     1.127337   -6.4678942    329.05841  0.035474171  0.035651055            3 
  774000    1.1125709   -6.4776465    329.59658  0.035486281  0.035644548            4 
  775000    1.1530784   -6.5322933     328.5763  0.035330785  0.035637878            4 
  776000    1.1013666   -6.5189281    328.89297  0.035319262  0.035630782            3 
  777000    1.1242831   -6.4980266    329.58139   0.03534764  0.035624161            4 
  778000    1.1360846   -6.4698483    329.74293  0.035319508  0.035617194            3 
  779000    1.1276064   -6.4472279    331.42711  0.035454334  0.035610352            2 
  780000    1.1252774   -6.5033208    330.89001  0.035351496  0.035604051            8 
  781000    1.1166033   -6.4684438    332.12425  0.035437927  0.035597791            2 
  782000    1.1264378   -6.5073479     332.6328  0.035446803  0.035591403            5 
  783000    1.1331548   -6.4751905    332.69174  0.035407806  0.035584902            4 
  784000    1.1384376   -6.4716673    331.67905  0.035255001  0.035578132            2 
  785000    1.1420446   -6.5105584    332.86789  0.035336294  0.035571326            2 
  786000    1.1148652    -6.535938     331.6175  0.035158768  0.035564417            2 
  787000    1.1117779   -6.5144663    332.72154  0.035230998  0.035557117            2 
  788000    1.1368939   -6.4878659    334.00967  0.035322512  0.035549992            4 
  789000    1.1496025   -6.5009215    333.59882   0.03523435  0.035543031            5 
  790000    1.1279585   -6.4903259    333.59097  0.035188921  0.035536254            2 
  791000    1.1059042   -6.4929807    334.39614   0.03522926  0.035529419            4 
  792000    1.1417824   -6.4453126    335.52493  0.035303549  0.035522582            3 
  793000    1.1092354   -6.5629409    333.76746  0.035074344  0.035516028            3 
  794000    1.1133862   -6.4888351    337.06318  0.035376069  0.035509382            2 
  795000    1.1161376   -6.4841447    335.89994  0.035209637  0.035502631            3 
  796000    1.1188064   -6.5140037       335.65  0.035139238  0.035495386            2 
  797000    1.1134124    -6.485764     337.1522  0.035252216  0.035488595            4 
  798000    1.1160537    -6.495987    336.90844  0.035182586  0.035481981            2 
  799000    1.1135666   -6.4963869    337.49864  0.035200108  0.035474875            2 
  800000    1.1344087   -6.5189465    337.47019  0.035153145  0.035467825            2 
  801000    1.1130956   -6.5224566     337.7166  0.035134894  0.035461262            3 
  802000    1.1218522   -6.4727757    338.63444  0.035186455  0.035454818            3 
  803000    1.1057891   -6.4948085    338.68789  0.035148183  0.035448592            2 
  804000    1.1044623   -6.4560288    340.44695   0.03528679  0.035442092            8 
  805000    1.1112411   -6.4886276    340.74306  0.035273609  0.035435356           10 
  806000     1.114396   -6.5044136    340.90136  0.035246212  0.035428739            2 
  807000    1.1385771   -6.5238563    340.60692  0.035172131   0.03542223            3 
  808000    1.1161403   -6.5067596    341.55787  0.035226678  0.035415759            3 
  809000    1.1538165   -6.5149984    340.74595    0.0350995  0.035408874            5 
  810000    1.1160713   -6.5211728    341.99361  0.035184528   0.03540245            2 
  811000    1.1106878   -6.4817816    341.82112   0.03512342  0.035396202            6 
  812000    1.1451366   -6.5229649     342.8151  0.035182174  0.035390034            2 
  813000    1.1303042   -6.5529246    342.56252   0.03511301  0.035383162            7 
  814000    1.1471582   -6.4995531    343.08894  0.035123765  0.035376174            2 
  815000     1.123967    -6.518637    343.49173  0.035121854  0.035369392            2 
  816000    1.1318801   -6.5476694    342.36165  0.034963404  0.035362166            5 
  817000    1.1160046   -6.4896253    343.53246   0.03504003  0.035355012            2 
  818000    1.1228974   -6.5083286    344.59143  0.035105077  0.035348083            3 
  819000    1.1064002   -6.5388121    344.53635  0.035056609  0.035340997            5 
  820000    1.1138323   -6.5145255    344.78663  0.035039292  0.035334188            3 
  821000    1.1228938   -6.5000414    346.42804   0.03516322  0.035326944            4 
  822000      1.13261   -6.4961114    345.79518  0.035056284  0.035320339            3 
  823000    1.1143309   -6.5748832    345.05628   0.03493887  0.035313011            3 
  824000    1.1125461   -6.4946519    346.57713  0.035050276  0.035306038            3 
  825000    1.1151849   -6.5047858    347.02156  0.035052683  0.035299382            2 
  826000    1.1091084   -6.5491837    347.72076  0.035080786  0.035292574            1 
  827000    1.1226706   -6.5012615    347.70316  0.035036594  0.035285868            5 
  828000    1.1152769   -6.5463029    347.48158  0.034971978   0.03527926            2 
  829000    1.1097449   -6.4634337    348.39371  0.035021483   0.03527227            4 
  830000    1.1371644   -6.5092811    348.05788   0.03494557  0.035265412            4 
  831000     1.106585   -6.5321173    349.93214  0.035091471  0.035258632            2 
  832000    1.1295137   -6.5118122    349.63992  0.035020024  0.035251996            2 
  833000    1.1229644    -6.541669    349.90511  0.035004513    0.0352449            6 
  834000    1.1070041   -6.5640342    348.26862  0.034799023  0.035237661            6 
  835000    1.1059509   -6.5167341    349.57248  0.034887473  0.035230312            2 
  836000    1.1180836   -6.5198828      351.267  0.035014653  0.035223405            3 
  837000    1.1294275   -6.4944866    351.46241  0.034992275   0.03521622            2 
  838000    1.1287539   -6.5193259    351.39426  0.034943741  0.035209088            6 
  839000    1.1077693   -6.5291589    351.58191   0.03492073  0.035202105            3 
  840000    1.1169719   -6.5151159    351.62049  0.034882985   0.03519516            2 
  841000    1.1282045    -6.548134    351.34992  0.034814696  0.035188132            3 
  842000    1.1252149   -6.5313672    351.88378  0.034826185  0.035181088            2 
  843000    1.1256867   -6.5306063    352.21386  0.034817503  0.035173863            2 
  844000    1.1102042   -6.4993448    353.47299  0.034900572  0.035166772            5 
  845000    1.1397936   -6.4837343    353.79931   0.03489145  0.035159798            3 
  846000    1.1273059   -6.5028464    353.96811  0.034866835  0.035152831            3 
  847000    1.1104088   -6.5006235    353.69116  0.034798422  0.035145762            4 
  848000    1.1175206   -6.4973823    354.64866   0.03485148  0.035138425            4 
  849000    1.1273882   -6.5578369    353.97962   0.03474476  0.035131573            2 
  850000    1.1065175   -6.4784453    357.48409  0.035047459  0.035124501            2 
  851000    1.1121364   -6.5215193    355.56233   0.03481809  0.035117706            4 
  852000    1.1155152   -6.5588619    354.93797  0.034716155  0.035110666            3 
  853000    1.1192983   -6.4727912    356.41615  0.034819867  0.035103895            2 
  854000    1.1165469   -6.5148811    357.30624  0.034865949  0.035096848            2 
  855000    1.1123782   -6.5334417    356.29998  0.034727094  0.035089956           15 
  856000    1.1019225   -6.5253873    356.84563  0.034739644  0.035082897            3 
  857000    1.1239706   -6.5415297    357.12661  0.034726431  0.035075558            4 
  858000    1.1035641    -6.505939    358.89289  0.034857506  0.035068284            6 
  859000    1.1098498    -6.502152    358.50643  0.034779436   0.03506116            4 
  860000    1.1058436   -6.5157627      358.506  0.034738954  0.035054067            3 
  861000    1.0964342   -6.5313776    358.19239  0.034668253  0.035046928            5 
  862000    1.1218983   -6.5657415    358.94897  0.034701177  0.035039444            2 
  863000    1.0974752   -6.5270588    359.50994  0.034715135  0.035031816            3 
  864000    1.1140224   -6.5586732    359.10502  0.034635901    0.0350238            4 
  865000    1.1041906   -6.5521513     359.7364  0.034656686  0.035016084            4 
  866000    1.1009915   -6.5365207    358.96902  0.034542823  0.035008293            5 
  867000    1.1042629   -6.5001636    361.04514  0.034702532  0.035000414            1 
  868000    1.1180668   -6.5138194    360.50921  0.034611099  0.034992506            6 
  869000    1.1073878   -6.5556673    359.86291  0.034509294  0.034984392            2 
  870000    1.1010088   -6.5462388    361.21451  0.034599091  0.034976629            3 
  871000    1.1344474   -6.4811549    362.06219   0.03464047  0.034968946            2 
  872000    1.0798755   -6.4929813     363.2003  0.034709508  0.034961608            3 
  873000    1.1227915   -6.5362237    361.98902  0.034554126   0.03495388            4 
  874000    1.1206553    -6.495355    362.55315  0.034568379  0.034946183            4 
  875000    1.1068976   -6.5338798    362.90971   0.03456283  0.034938538            3 
  876000    1.1055245   -6.5255018    363.47223  0.034576887  0.034930888            3 
  877000    1.1158471   -6.5280957     363.9897   0.03458663  0.034923412            3 
  878000    1.1092146   -6.5759147    362.80639  0.034434927  0.034916008            6 
  879000    1.1257339   -6.5731921    364.99419  0.034603166  0.034908617            5 
  880000    1.1280151   -6.5163739    365.67254  0.034628081  0.034901278            3 
  881000    1.0909715   -6.5575887    366.52201  0.034669127  0.034894052            4 
  882000    1.1344498   -6.5329084    365.18315  0.034503321  0.034886702            2 
  883000    1.1147069   -6.5412102    365.60875  0.034504412   0.03487946            3 
  884000    1.0972646   -6.5460855    366.08815  0.034510572  0.034871829            3 
  885000    1.0989449   -6.5028008    366.55255  0.034515306  0.034864341            3 
  886000     1.100716   -6.5667136    366.60921  0.034481679   0.03485674            1 
  887000    1.1192557   -6.5436736    366.93158  0.034473091  0.034849274            6 
  888000     1.117266   -6.5693869    367.38135  0.034476478  0.034841901            3 
  889000    1.1100779   -6.5574986    366.45051  0.034350441  0.034834288            5 
  890000    1.1112399     -6.54134    367.17628  0.034379802  0.034826373            2 
  891000    1.0979007   -6.5121097    367.81427  0.034400885  0.034818514            3 
  892000    1.1095472   -6.5411463    369.59244  0.034528442  0.034810828            3 
  893000    1.0963417   -6.4761301    369.97932  0.034525879  0.034803655            3 
  894000    1.1016192   -6.5744773    368.95674  0.034391941  0.034795541            3 
  895000    1.1186264   -6.5015832    371.26438  0.034568378  0.034787915            6 
  896000    1.1039182   -6.5541353    370.42867  0.034452071  0.034780372            4 
  897000    1.1235552   -6.5325956    369.54485  0.034331555   0.03477279            2 
  898000     1.128604   -6.5267752     371.6294  0.034486767  0.034765133            1 
  899000    1.1173343    -6.559821    370.20699  0.034316555  0.034757361            2 
  900000    1.1155985   -6.5723415    371.62508   0.03440973   0.03474957            4 
  901000    1.1056727   -6.5658581    370.47753  0.034265402  0.034741387            4 
  902000     1.089465   -6.5679373    371.48402  0.034320401   0.03473338            3 
  903000    1.1145482   -6.5323267    372.48625  0.034374884  0.034725144            4 
  904000    1.1253186    -6.555003    371.73675  0.034267768  0.034717332            1 
  905000    1.1138954   -6.5200607     372.8897  0.034336069   0.03470927            6 
  906000    1.0913022   -6.5684846    373.95347  0.034396014  0.034701717            7 
  907000    1.1002545   -6.5399595    374.42096  0.034401044  0.034694212            7 
  908000    1.0925803   -6.5507579    373.47713  0.034276536  0.034686876            3 
  909000    1.1184928    -6.501232     374.2167  0.034306628  0.034679398            3 
  910000    1.0991846   -6.5309922    373.88076  0.034238165   0.03467171            2 
  911000    1.1105365    -6.571295    374.19774  0.034229577  0.034664148            2 
  912000    1.1269464   -6.5326752    375.42893  0.034304544   0.03465652            4 
  913000     1.101931   -6.5216983    376.93588  0.034404516  0.034648886            6 
  914000     1.107691   -6.5597787    375.10072  0.034199555  0.034641251            2 
  915000    1.1214647   -6.5157905    377.17325  0.034350933  0.034633919            3 
  916000    1.0839512   -6.5019031    378.61371  0.034444479  0.034626841            3 
  917000    1.0995672   -6.4945781    379.02576  0.034444362  0.034619766            2 
  918000    1.1137085   -6.5343912     378.0193  0.034315477  0.034612689            5 
  919000     1.128506   -6.5256476    377.97738  0.034274336  0.034605712            6 
  920000    1.1050978   -6.5215255     378.9809   0.03432798  0.034598526            5 
  921000    1.1171201   -6.5936504    376.42945  0.034059849  0.034590713            4 
  922000    1.1100254   -6.5901102    378.64697  0.034223335   0.03458323            4 
  923000    1.1051772   -6.5650583    380.55549  0.034358567  0.034575944            2 
  924000    1.1046092   -6.5395881    380.08815  0.034279234  0.034568577            7 
  925000    1.1105342   -6.5246996    381.14343  0.034337246  0.034561157            3 
  926000    1.0915561   -6.5383251      380.111  0.034207253  0.034553803            2 
  927000    1.0971446   -6.5545411     380.2404  0.034181985  0.034546431            2 
  928000    1.0813112   -6.6065085    380.73634  0.034189685  0.034538827            2 
  929000     1.119461   -6.5740336    382.08404  0.034273774  0.034531365           12 
  930000    1.0989778   -6.5524932    383.13334  0.034330944  0.034524637            8 
  931000    1.0992056   -6.5482017    383.59659  0.034335535  0.034517436            3 
  932000    1.1102343   -6.5461183    383.27579   0.03427001  0.034510047            5 
  933000    1.0898427   -6.5681462    383.31266  0.034236572  0.034502654            6 
  934000    1.1046445   -6.5647637    383.74512  0.034238501  0.034495623            5 
  935000    1.0930885    -6.583788    384.17238  0.034239963  0.034488335            4 
  936000    1.0851162   -6.5311893    385.49705  0.034321319  0.034481358            2 
  937000      1.09799   -6.5420341    384.27216  0.034175753  0.034474344            5 
  938000     1.106608   -6.5396241    384.01205  0.034116209   0.03446684            5 
  939000    1.0948827   -6.5127438    386.15203  0.034269793  0.034458873            5 
  940000    1.1060113   -6.5631824    384.03025  0.034045235   0.03445113            2 
  941000    1.1032999   -6.5492267    384.00425  0.034006753  0.034443137            2 
  942000    1.0984506   -6.5678818    385.31242  0.034086378  0.034435168            2 
  943000    1.1065467   -6.5521361    386.16018  0.034125148  0.034427282            2 
  944000    1.0996056   -6.5605442    385.29209  0.034012367  0.034419174            1 
  945000     1.109732   -6.5717315    385.09204  0.033958734  0.034411099            3 
  946000    1.1123948   -6.5680761    385.66361  0.033973187   0.03440252            3 
  947000    1.1203056   -6.5502017    385.87795  0.033956173  0.034394394            3 
  948000    1.0773051   -6.5154864    386.67501  0.033990419  0.034386238            3 
  949000    1.1108422   -6.5786853    386.65849  0.033953151  0.034378046            4 
  950000    1.1003832   -6.6285369    385.15382  0.033785423  0.034369457            6 
  951000    1.1080844   -6.5426644     387.4192  0.033948405   0.03436091            3 
  952000    1.0805838   -6.5777591    388.15582  0.033977225  0.034352577            2 
  953000    1.0918253   -6.5937336    386.87002  0.033829138  0.034343955            2 
  954000    1.1046441   -6.5865134    387.64484  0.033861359  0.034335506            3 
  955000    1.1008249   -6.5688732    388.48098  0.033898864  0.034327275            4 
  956000    1.0973175   -6.5556258    389.43914  0.033946927  0.034318949            1 
  957000    1.1003737   -6.5873366    388.81772  0.033857343  0.034310578            2 
  958000    1.0880291   -6.5496129    389.95078  0.033920562  0.034302173            3 
  959000    1.1082648   -6.5152123    390.25771  0.033911862  0.034293819            3 
  960000    1.0739486   -6.5442531    390.64227  0.033909919  0.034285596            5 
  961000    1.1023455   -6.5911106    389.34019  0.033761723  0.034277108            3 
  962000    1.0985391   -6.5420354    389.84846  0.033770656  0.034268593            2 
  963000    1.0848913   -6.5456684    391.83792  0.033907747  0.034260011            2 
  964000    1.0711512   -6.6114486    390.17499   0.03372882  0.034251146            4 
  965000    1.0890171     -6.58325    390.55139  0.033726372  0.034242267            2 
  966000    1.0907385   -6.5662878    390.12244  0.033654454   0.03423357            5 
  967000    1.1024772   -6.5700452    391.76386  0.033761105  0.034224989            4 
  968000    1.1212205    -6.538925    393.22865  0.033852329  0.034216754            2 
  969000    1.0974181   -6.5185431    394.09573  0.033891961   0.03420855            1 
  970000    1.1160693   -6.5617705     393.4146  0.033798505  0.034200636            3 
  971000    1.1143443   -6.6067889    393.78383  0.033795386  0.034192405            3 
  972000    1.0921846   -6.5826081    393.85812  0.033766986  0.034184181            5 
  973000     1.088132    -6.550992    394.91221   0.03382256  0.034176297            9 
  974000    1.1315038   -6.5590978    395.24976  0.033816714  0.034168298            7 
  975000    1.0849295   -6.5668584    393.60902  0.033641797  0.034159924            3 
  976000    1.1002313   -6.5279813    395.84275  0.033798049  0.034151562            5 
  977000    1.1201163   -6.5849624    394.53082  0.033651554  0.034143161            4 
  978000    1.1056278    -6.572362     395.7317   0.03371947  0.034134679            3 
  979000     1.122296   -6.5731959    396.73579  0.033770497  0.034126269            2 
  980000    1.0693325   -6.5688184    397.28657  0.033782872  0.034118196            5 
  981000    1.1074118   -6.6285807    395.15281  0.033567177  0.034110009            3 
  982000    1.0981098   -6.6002572    395.13371  0.033531374  0.034101545            3 
  983000    1.0554132   -6.5965883    396.63979   0.03362494  0.034093168            3 
  984000    1.0792629    -6.564609    397.66029  0.033677193  0.034084667            5 
  985000    1.0955171   -6.6216413    397.81168  0.033655811   0.03407651            3 
  986000    1.0900983   -6.5849933    398.42585  0.033673584  0.034067869            5 
  987000    1.1082779   -6.6059794    398.73949  0.033665948  0.034059541            5 
  988000    1.0873915   -6.5981943    397.51726  0.033528784  0.034050621            2 
  989000    1.0899817   -6.5948113    397.85471  0.033523315  0.034042011            2 
  990000    1.0826387   -6.5701301    399.63244  0.033639094   0.03403314            2 
  991000    1.0864762   -6.5486732    400.15197  0.033648837  0.034024284            2 
  992000    1.0915348   -6.5869256    398.76682  0.033498556  0.034015295            4 
  993000    1.1015504   -6.5794403    399.04794  0.033488414  0.034006189            3 
  994000    1.0898763    -6.537747    400.62518  0.033586953  0.033997552            2 
  995000     1.095808   -6.5780234    398.95432   0.03341326  0.033988913            4 
  996000    1.0854081   -6.5549095    401.12214  0.033561089  0.033979826            2 
  997000    1.0753626   -6.5758099    401.16395  0.033530922  0.033970874            3 
  998000    1.0908971   -6.5602789    402.81621  0.033635288  0.033961853            2 
  999000    1.0855952   -6.6060595    401.31598  0.033476475  0.033952898            4 
 1000000    1.0819281   -6.5371354    402.95076   0.03357923  0.033944168            5 
 1001000    1.0752761   -6.6033161    402.14237  0.033478385  0.033935791            3 
 1002000    1.1042644   -6.5855588    401.45963  0.033388193  0.033927107            3 
 1003000    1.0912544   -6.5786547    403.10744  0.033491812  0.033918584            2 
 1004000    1.0875971   -6.5529341    403.89848   0.03352411   0.03390999            3 
 1005000      1.08733   -6.5655273    404.60065  0.033548976  0.033901227            4 
 1006000    1.1200043   -6.5716512    404.35919  0.033495625  0.033892763            3 
 1007000     1.084869   -6.5719827    403.66385   0.03340482  0.033884301            4 
 1008000    1.0941886   -6.5415096     405.7771  0.033546388  0.033875484            4 
 1009000     1.068079   -6.5328357     405.6351  0.033501412  0.033867107            4 
 1010000    1.1178355   -6.6019714    405.24207  0.033435814  0.033858386            5 
 1011000     1.077497   -6.5853821    404.49219  0.033340932  0.033849498            4 
 1012000    1.0859778   -6.6170404    405.19413  0.033365788  0.033840889            3 
 1013000    1.0850672   -6.6143289    403.77031  0.033215721  0.033832307            3 
 1014000    1.1005702     -6.58471    405.64931  0.033337386  0.033823681            3 
 1015000    1.0910723   -6.5613651    407.13194  0.033426268  0.033815494            4 
 1016000    1.0781606   -6.5982877    407.07135  0.033388398   0.03380669            3 
 1017000    1.0883737   -6.5924747    407.19066  0.033365344  0.033798179            4 
 1018000    1.0850293   -6.5450367    407.22588  0.033335452  0.033789433            2 
 1019000    1.0914167   -6.6094195    408.29138  0.033389874  0.033780759            4 
 1020000    1.0803505   -6.6109821    407.58581  0.033299494  0.033771928            4 
 1021000    1.1028754   -6.5764817    409.96673  0.033461208   0.03376347            4 
 1022000    1.1063547   -6.6126003    408.85913  0.033338155  0.033754831            4 
 1023000    1.0826426    -6.573497    409.60164  0.033366051  0.033746034            3 
 1024000    1.0939192   -6.6044652    409.07054  0.033290246  0.033737415            2 
 1025000     1.104065   -6.5890426    407.87846  0.033160851   0.03372868            5 
 1026000    1.1086192    -6.574042    409.17728  0.033234022  0.033720052            7 
 1027000    1.0668015   -6.5804517    411.24357  0.033369326  0.033711297            3 
 1028000    1.0852024   -6.5649271    410.59436  0.033284238  0.033702713            5 
 1029000    1.0735922   -6.6252469    410.14062  0.033215146  0.033693897            4 
 1030000    1.0846302   -6.6310849    410.43353  0.033206596  0.033685215            5 
 1031000    1.1134582   -6.6010556    411.29344  0.033243893  0.033676657            3 
 1032000    1.0919988   -6.6164307    410.81801  0.033173289  0.033667898            2 
 1033000    1.0697039   -6.6182434    411.25232  0.033176211  0.033659065            5 
 1034000     1.092017   -6.5789537    413.01068  0.033285838  0.033650229           11 
 1035000    1.1052575   -6.5942232    413.33945  0.033280149  0.033641564            2 
 1036000    1.1142618   -6.5975986    413.65908  0.033273736  0.033632634            2 
 1037000    1.1110153   -6.6195699    412.72721  0.033166764  0.033623663            2 
 1038000    1.0940321   -6.5894237    413.97243   0.03323478  0.033614886            5 
 1039000    1.1043745   -6.6167396    414.43831  0.033240159  0.033606293            4 
 1040000    1.0870923    -6.586601    413.19952  0.033108936  0.033597395            3 
 1041000    1.0888635   -6.6092713    414.47102  0.033178916  0.033588615            4 
 1042000    1.0970469   -6.5682358    415.30869  0.033214067  0.033579998            1 
 1043000    1.0803992   -6.5808512    414.35841  0.033106297  0.033570983            2 
 1044000    1.0927307   -6.5778652    415.15251  0.033137972  0.033562396            4 
 1045000    1.0911135   -6.6139218    415.92497   0.03316786  0.033553751            9 
 1046000    1.0939902    -6.634095    413.13988  0.032914267   0.03354483            5 
 1047000    1.0759206   -6.6197312    415.98247  0.033109079  0.033535777            5 
 1048000    1.0877603    -6.613678    414.28243  0.032942305  0.033526675            4 
 1049000     1.080664   -6.5854646    416.66276  0.033099997  0.033517826            4 
 1050000    1.0742146    -6.599622    416.61488  0.033064673  0.033508832            3 
 1051000    1.0978016    -6.563073    418.65883  0.033195277  0.033499955            1 
 1052000    1.0592539   -6.5931131    417.32414  0.033057996  0.033491512            2 
 1053000    1.0922513   -6.6273912    417.96373  0.033077218  0.033482785            3 
 1054000    1.0833623   -6.5596698    418.05585  0.033053119  0.033473996            2 
 1055000    1.0789408   -6.6020369    417.44673  0.032973675  0.033465769            2 
 1056000    1.0935095    -6.602303    419.15349  0.033077138  0.033457235            2 
 1057000    1.0922012   -6.5662337    419.20395  0.033049823  0.033448721            4 
 1058000     1.095671   -6.6072796    418.39089  0.032954544   0.03344032            4 
 1059000    1.0705794   -6.5978586    419.19526  0.032986721  0.033431712            3 
 1060000    1.0952939    -6.616235    419.40625  0.032972189  0.033423048            3 
 1061000    1.1031743   -6.6368348    419.05448  0.032913484  0.033414033            3 
 1062000    1.0928677    -6.599022    419.11179  0.032886989   0.03340496            6 
 1063000    1.0796967   -6.6138494    419.86396  0.032915017  0.033396282            4 
 1064000    1.1054656    -6.599916    419.43694  0.032850637  0.033387535            3 
 1065000    1.0629666   -6.5672669    421.16702  0.032955166  0.033378913            2 
 1066000    1.0990198   -6.6114969    420.20094  0.032848729  0.033370151            8 
 1067000    1.0729019   -6.6120921    422.05589  0.032962816  0.033361188            3 
 1068000    1.0708477   -6.6075744    421.75123   0.03290818   0.03335217            2 
 1069000     1.080821   -6.6202953    420.40308  0.032772301  0.033343253            2 
 1070000    1.0728608   -6.5851925    422.20567  0.032882061  0.033334457            4 
 1071000    1.0867787   -6.6212496    423.01449  0.032914293  0.033325782            2 
 1072000     1.055065   -6.5950805    421.35081  0.032754261  0.033316448            3 
 1073000    1.0712248   -6.6313542    422.03904  0.032777185  0.033307253            3 
 1074000    1.0719724   -6.5686771    423.81064  0.032884128  0.033298486            4 
 1075000     1.064341   -6.6036738    423.92283  0.032862235  0.033289504            2 
 1076000    1.0903464   -6.6395207    423.36073   0.03278816  0.033280515            4 
 1077000    1.0966252   -6.6387482     423.3503   0.03275691  0.033271427            4 
 1078000    1.0946175   -6.6137364    425.77395   0.03291388  0.033262536            3 
 1079000    1.0891692   -6.6134245    424.44056  0.032780395  0.033253452            6 
 1080000    1.0905355   -6.6527043    424.13828  0.032726719  0.033244352            4 
 1081000    1.0836954   -6.6166014    425.47437  0.032799443  0.033234991            5 
 1082000    1.0681568   -6.6515956    423.77578  0.032638307  0.033225501            2 
 1083000     1.084221   -6.6277766    425.22286  0.032719518  0.033215844            4 
 1084000    1.0577717   -6.6319187    424.96418  0.032669448  0.033206431            4 
 1085000     1.086229   -6.6210603    425.83556  0.032706264  0.033197085            6 
 1086000    1.0749109   -6.6548329    425.42874  0.032644931  0.033187676            5 
 1087000    1.0772264   -6.6151222    424.70486  0.032559403  0.033178047            3 
 1088000    1.0995975   -6.6198339    426.81336  0.032690974   0.03316857            4 
 1089000    1.0893272   -6.6205784    426.98751  0.032674281  0.033159324            2 
 1090000    1.0755136   -6.5754874    427.26612  0.032665605   0.03314992            3 
 1091000    1.0982285   -6.5984162    428.14102  0.032702491  0.033140533            2 
 1092000    1.0838176   -6.6223417    426.81075  0.032571028  0.033131047            4 
 1093000     1.065908   -6.6474241    427.84345  0.032619964  0.033121518            5 
 1094000    1.0866218   -6.6460662    427.31453  0.032549857  0.033111894            6 
 1095000    1.0719255   -6.6064448    427.54944  0.032538009  0.033102596            4 
 1096000    1.0762568   -6.6369357    427.64686  0.032515728  0.033093137            4 
 1097000    1.0941628   -6.6117305    429.32825  0.032613814  0.033083668            7 
 1098000    1.0840911   -6.6003932    430.02736  0.032637171  0.033074454            2 
 1099000    1.0580888   -6.6513907    429.15093  0.032541017  0.033065115            5 
 1100000    1.0865144   -6.6511979    429.33275  0.032525209  0.033055772            4 
 1101000    1.0825345   -6.6108719     429.1909  0.032484931  0.033046585            3 
 1102000    1.0900163     -6.62872    431.10651  0.032600311  0.033037462            6 
 1103000    1.0748766   -6.6035429     431.0597  0.032567218  0.033028398            8 
 1104000    1.0756066   -6.6249642     432.9724  0.032682095  0.033019344            2 
 1105000    1.0718187   -6.5954678    432.77606  0.032637712  0.033010293            2 
 1106000      1.07358   -6.6410933    432.10705  0.032557795  0.033001136            3 
 1107000    1.0898305   -6.6133444    431.20113  0.032460187  0.032991601            6 
 1108000    1.0643386   -6.6321393    431.84646  0.032479427  0.032982189            2 
 1109000    1.0362533   -6.6425788    431.42704  0.032418623   0.03297277            4 
 1110000    1.0765636    -6.599999     432.8397  0.032495473  0.032963293            3 
 1111000     1.067325   -6.6288964    431.44985  0.032361975  0.032953995            3 
 1112000     1.075926    -6.603507    433.34375  0.032474802  0.032944666            3 
 1113000    1.0749534   -6.6183738    433.50782  0.032457908  0.032935161            5 
 1114000    1.0855305   -6.5911369    434.30951  0.032488742  0.032925814            2 
 1115000    1.0537275   -6.6146323    433.09463  0.032368807  0.032916672            4 
 1116000    1.0806962   -6.6244642    434.47991  0.032443243  0.032907536            6 
 1117000    1.0574608   -6.6024839    435.36433   0.03248018  0.032898481            5 
 1118000    1.0589301   -6.6487328    433.24724  0.032293325   0.03288908            3 
 1119000     1.080926   -6.6581721    432.25767  0.032190771  0.032879697            4 
 1120000    1.0678861   -6.6454969    434.87766  0.032356969   0.03287022            3 
 1121000    1.0692229   -6.6676379    435.38583  0.032365881  0.032860754            5 
 1122000    1.0730987   -6.6323323    434.78562  0.032292456  0.032851215            2 
 1123000    1.0781473   -6.6182795    434.11107  0.032213644  0.032841368            4 
 1124000    1.0770786   -6.6085076    436.16342  0.032337146  0.032831802            2 
 1125000    1.0457854   -6.6229451    436.03062  0.032298565  0.032822356            6 
 1126000    1.0780142   -6.6614182    435.23078  0.032210685  0.032812494            2 
 1127000    1.0707717   -6.6478027    436.67539  0.032288923  0.032802579            4 
 1128000    1.0578628   -6.5732722    437.93531  0.032353377  0.032792823            3 
 1129000    1.0803721   -6.6526642    436.36316  0.032208677  0.032783198            2 
 1130000    1.0827545   -6.5916742    438.15481  0.032312302   0.03277364            3 
 1131000    1.0743548   -6.6348039    437.60375  0.032243129  0.032764174            5 
 1132000    1.0800597   -6.6318123    437.69843  0.032221616   0.03275474            4 
 1133000    1.0604297   -6.6276719    437.55337  0.032182507  0.032745437            4 
 1134000    1.0473416   -6.6540942    437.31451  0.032136574  0.032735715            8 
 1135000    1.0482766   -6.6637042     437.0844  0.032091365  0.032726013            2 
 1136000    1.0477355   -6.6142541    438.49107  0.032166305  0.032716069            6 
 1137000    1.0474227    -6.653545    438.45253   0.03213519  0.032706291            3 
 1138000    1.0647376   -6.6408907    439.16963  0.032159464  0.032696424            4 
 1139000    1.0954055   -6.6210486    438.83895  0.032107035  0.032686709            3 
 1140000    1.1007465   -6.6522021    438.72964   0.03207088  0.032676908            2 
 1141000    1.0841253   -6.6479104    437.82376  0.031976611  0.032667032            3 
 1142000    1.0524272   -6.6179674    440.11542  0.032115836  0.032657093            3 
 1143000    1.0589734   -6.6346849    438.43326  0.031965096  0.032647194            3 
 1144000    1.0712058   -6.6480458    440.01945  0.032052699  0.032637376            5 
 1145000    1.0569023    -6.641965    440.54469  0.032062932  0.032627466            5 
 1146000     1.064688   -6.6836221     439.1648  0.031934613  0.032617491            3 
 1147000    1.0602707   -6.6403155    440.98771  0.032039211  0.032607825            4 
 1148000       1.0702   -6.6388083    441.60655  0.032056225  0.032597895            4 
 1149000    1.0635615    -6.662816    440.12215  0.031920667  0.032587916            6 
 1150000    1.0616092   -6.6162127    442.57183  0.032070422   0.03257792            4 
 1151000    1.0575628   -6.6263962    442.09042  0.032007705  0.032568077            5 
 1152000    1.0642724   -6.6324842    441.89216  0.031965579  0.032558459            4 
 1153000    1.0675278    -6.661389    440.86939  0.031863934  0.032548605            4 
 1154000    1.0696023   -6.6866652    441.75494   0.03190027  0.032538472            3 
 1155000    1.0651657   -6.6441785    441.56586  0.031859008  0.032528591            7 
 1156000    1.0755422    -6.638529    443.66356  0.031982667   0.03251859            2 
 1157000    1.0756771    -6.647693    441.59872  0.031806304  0.032508246            6 
 1158000    1.0598265   -6.6111498    445.01264  0.032024513  0.032498032            5 
 1159000    1.0526717   -6.6291089     443.6512  0.031898993  0.032488139            3 
 1160000    1.0744014    -6.694002    443.65785  0.031871972  0.032478223            3 
 1161000    1.0857046   -6.6214406    443.99761  0.031868907  0.032468408            4 
 1162000    1.0767598   -6.6404079    443.44435  0.031801804  0.032458518            3 
 1163000    1.0637128   -6.6362125    443.49618  0.031778173  0.032448157            3 
 1164000    1.0685711    -6.613386    444.87106  0.031849303  0.032437765            5 
 1165000    1.0395764   -6.6672162    443.26047  0.031706758  0.032427566            3 
 1166000    1.0672916   -6.6914161    442.15746  0.031600733  0.032417159            5 
 1167000    1.0486392   -6.6366267    443.82636  0.031692828  0.032406936            3 
 1168000     1.048732    -6.619625    445.93817  0.031816365  0.032396673            6 
 1169000    1.0651745   -6.6640523    445.23282  0.031738866  0.032386149            7 
 1170000    1.0458644   -6.6935194    444.72015  0.031675224  0.032375513            3 
 1171000    1.0712342   -6.6156442    445.09509  0.031674857  0.032365102            2 
 1172000     1.055585   -6.6644086    445.99607  0.031711893  0.032354705            3 
 1173000    1.0596455   -6.7036883    443.04363  0.031475109  0.032343909            4 
 1174000    1.0696376   -6.6524698    445.92308  0.031652689  0.032333189            3 
 1175000    1.0664973   -6.6828362    444.71286  0.031539919  0.032322774            4 
 1176000    1.0599845   -6.6707058    446.12974  0.031613502  0.032312039            4 
 1177000    1.0860861   -6.6502251    446.53738  0.031615504  0.032301329            2 
 1178000    1.0884199   -6.6419819     447.6358  0.031666369  0.032291013            3 
 1179000    1.0458656   -6.6470002    447.37342  0.031620966  0.032280585            2 
 1180000    1.0387848   -6.6527009    447.32409  0.031590684  0.032270241            6 
 1181000    1.0810615   -6.6552888    446.98014  0.031539666  0.032260141            2 
 1182000    1.0486448   -6.6481773    448.51951  0.031621511  0.032249856            6 
 1183000     1.055378     -6.63322    447.03696  0.031490347  0.032239394           11 
 1184000    1.0465228   -6.6300998    449.07333  0.031607075   0.03222912            4 
 1185000    1.0591474   -6.6220348    448.45434  0.031536874  0.032218594            2 
 1186000    1.0588446   -6.6598499    448.24577  0.031495628  0.032208209            1 
 1187000    1.0631568   -6.6791295    447.55345   0.03142049  0.032197546            5 
 1188000    1.0826165   -6.6712637    448.45293  0.031457136  0.032186859            3 
 1189000    1.0475761   -6.6685409    448.59278  0.031440481  0.032176187            5 
 1190000    1.0461211   -6.6297169    449.66924  0.031489443  0.032165609            6 
 1191000    1.0803547   -6.6989138    449.96688  0.031483829   0.03215504            3 
 1192000    1.0853794   -6.6932259    450.01828   0.03146101  0.032144504            4 
 1193000    1.0456095   -6.6810799    450.91682  0.031497403  0.032133994            4 
 1194000    1.0571414    -6.705069    449.28945  0.031357444  0.032123223            5 
 1195000    1.0771282   -6.6597331    451.23733  0.031467039  0.032112606            6 
 1196000    1.0464474   -6.6955635    449.34453  0.031308844  0.032102069            6 
 1197000    1.0587746   -6.6592292    450.60065  0.031370137  0.032091512            5 
 1198000    1.0736739   -6.6711913    451.51958  0.031407873  0.032081096            6 
 1199000    1.0697885   -6.6755198     451.9489  0.031411516  0.032070683            5 
 1200000    1.0735174   -6.6722679    451.78658  0.031374068  0.032060192            4 
 1201000     1.053641   -6.6767161    453.21036  0.031446736  0.032049856            3 
 1202000     1.050018   -6.6750881    452.26054  0.031354724  0.032039435            3 
 1203000    1.0604615   -6.6508359    452.97449  0.031378117  0.032029017            2 
 1204000     1.059482   -6.6713516    453.74533  0.031405408  0.032018667            4 
 1205000    1.0713625   -6.6547711    454.66073  0.031442651  0.032008236            3 
 1206000    1.0250042   -6.6899172    455.18103  0.031452531  0.031998046            5 
 1207000    1.0510086   -6.6891176    454.76461  0.031397722  0.031987865            8 
 1208000    1.0633909   -6.6748333    453.82401  0.031306844  0.031977536            2 
 1209000    1.0480716   -6.6893377     454.6761  0.031339681  0.031967143            3 
 1210000    1.0622239   -6.6993244    455.27416   0.03135497  0.031956918            2 
 1211000    1.0471984   -6.6422816    454.89582  0.031303043  0.031946382            4 
 1212000    1.0561726   -6.6241376    455.77246   0.03133749  0.031936271            3 
 1213000    1.0371096   -6.6598613    455.61876  0.031301097  0.031926115            6 
 1214000    1.0364392   -6.6733959    456.14007  0.031311097  0.031915875            3 
 1215000    1.0530839   -6.6607547    454.60896  0.031180313  0.031905393            4 
 1216000    1.0588916   -6.6639273    456.48994  0.031283576  0.031895057            3 
 1217000    1.0629309   -6.6988659    455.10013  0.031162704  0.031884662            4 
 1218000    1.0652152   -6.6582228    456.20928  0.031213005  0.031874009            5 
 1219000    1.0775071   -6.6637902    455.81051  0.031160138  0.031863513            3 
 1220000    1.0538099   -6.6494461    457.62236  0.031258358  0.031852951            2 
 1221000    1.0696668   -6.6998316    457.01672  0.031191422  0.031842688            3 
 1222000    1.0421503   -6.6743718    456.46248  0.031128101  0.031832101            4 
 1223000    1.0677928   -6.6884952    457.63208  0.031182344  0.031821386            3 
 1224000    1.0438328    -6.690803    457.10351  0.031120882  0.031810621            2 
 1225000    1.0378889   -6.6319266    458.41496  0.031184691  0.031799982            4 
 1226000    1.0418295   -6.6995293    456.36471  0.031019896  0.031789419            3 
 1227000    1.0447219   -6.6861057    456.52645    0.0310056  0.031778526            3 
 1228000    1.0478753   -6.6896863    457.91737   0.03107474   0.03176757            6 
 1229000    1.0576321   -6.6998572    455.73966  0.030901794  0.031756659            5 
 1230000    1.0431653   -6.6698235     457.4416  0.030991979  0.031745657            3 
 1231000    1.0694636   -6.7114166    457.12299  0.030945234  0.031734727            6 
 1232000    1.0596867   -6.7089568    456.98549  0.030910815   0.03172347            4 
 1233000    1.0312495   -6.6832373    458.16701    0.0309656   0.03171243            3 
 1234000    1.0503324   -6.7143737     458.3179  0.030950695  0.031701468            6 
 1235000    1.0537364   -6.6626784    458.97573  0.030970022  0.031690538            4 
 1236000    1.0488817   -6.6695656    459.70948  0.030994436  0.031679683            4 
 1237000    1.0452748   -6.6562558    459.93719   0.03098472  0.031668875            6 
 1238000    1.0655533   -6.6472857     461.8542  0.031088732  0.031658289            4 
 1239000    1.0505668   -6.6585858    459.76064   0.03092283  0.031647569            2 
 1240000    1.0579077   -6.6702838    459.24045  0.030862933  0.031636825            2 
 1241000    1.0400478   -6.6715657    460.30145   0.03090931  0.031626149            3 
 1242000    1.0639877   -6.6565253    462.66305  0.031042878  0.031615624            5 
 1243000    1.0506094   -6.6439574    462.77542  0.031025437  0.031604984            4 
 1244000     1.050365   -6.6675033    462.52152  0.030983489  0.031594555            2 
 1245000    1.0632675   -6.6619379    461.78841  0.030909532  0.031584105            6 
 1246000    1.0463927    -6.725921    461.05374   0.03083559  0.031573574            3 
 1247000    1.0501217   -6.6701699    462.86478  0.030931889   0.03156302            2 
 1248000    1.0669743   -6.6738752    463.10018  0.030922822  0.031552714            3 
 1249000    1.0397844   -6.6505994    464.68837  0.031004028  0.031542474            3 
 1250000    1.0503998   -6.6422742    464.67385  0.030978257    0.0315323            5 
 1251000    1.0631878   -6.6897051    463.94844  0.030905172  0.031522113            3 
 1252000    1.0581017   -6.6720079    464.33423  0.030906165  0.031511805            5 
 1253000    1.0650817    -6.688373    464.98767  0.030924958  0.031501888            3 
 1254000    1.0483975     -6.68026    465.18552  0.030913445  0.031491903            3 
 1255000    1.0340846   -6.6976051    464.34454  0.030832971   0.03148176            2 
 1256000     1.062503   -6.7093268    466.54533  0.030954441   0.03147145            4 
 1257000    1.0498063   -6.6928343    467.66497  0.031004042  0.031461389            3 
 1258000    1.0449696   -6.7246032    465.78267  0.030854708  0.031451223            4 
 1259000    1.0464407   -6.7301406    465.07097  0.030783093  0.031441041            2 
 1260000    1.0477328   -6.6833226    467.36262  0.030910226  0.031430905            4 
 1261000    1.0537282   -6.7359943    465.59692  0.030769027   0.03142062            6 
 1262000    1.0908851   -6.7210022    466.24375  0.030787358  0.031410521            3 
 1263000    1.0353512   -6.7096698    467.23644   0.03082848  0.031400569            3 
 1264000    1.0374664   -6.6974396    467.95441  0.030851424  0.031390622            4 
 1265000    1.0329096   -6.7300598    467.80066  0.030816908   0.03138057            4 
 1266000    1.0507061   -6.6848868    468.39953  0.030831986  0.031370425            8 
 1267000    1.0223139   -6.7195621     467.2959  0.030735063  0.031360445            3 
 1268000    1.0530852   -6.6593438    470.37408  0.030913123  0.031350374            4 
 1269000     1.041245   -6.6828777    470.41314  0.030891328  0.031340194            6 
 1270000    1.0633597   -6.6930763    469.89989  0.030833326  0.031330132            4 
 1271000    1.0433301   -6.6876359    470.20694  0.030829198  0.031320136            3 
 1272000    1.0547174   -6.6890388    470.15345  0.030801458  0.031310207            2 
 1273000    1.0432668   -6.7073582    470.60805  0.030807021  0.031300119            4 
 1274000    1.0455145   -6.6915185    471.28951  0.030827414  0.031290113            3 
 1275000    1.0594304   -6.7121709    470.45059  0.030748405  0.031280346            2 
 1276000    1.0425299    -6.667663    470.39162  0.030720456  0.031270445            6 
 1277000    1.0385474   -6.7270408    469.31273  0.030625994  0.031260417            3 
 1278000    1.0511182   -6.7094618    470.16401  0.030657539   0.03125027            3 
 1279000    1.0470495   -6.7501918    469.89047  0.030615746  0.031239889            7 
 1280000    1.0521297   -6.6787795    472.67263  0.030772958  0.031229696            3 
 1281000    1.0452605   -6.7477788    471.36167  0.030663653  0.031219643            4 
 1282000    1.0394585   -6.7090931    471.60082  0.030655279  0.031209709            7 
 1283000    1.0613017   -6.6857329    472.42558  0.030684956  0.031199801            2 
 1284000    1.0329846   -6.6772799    473.76263  0.030747834  0.031189866            5 
 1285000    1.0399114   -6.7312411    473.64519   0.03071629  0.031179999            6 
 1286000    1.0254926   -6.6807982    474.47537  0.030746201  0.031170167            6 
 1287000    1.0507657   -6.7449752    472.82748   0.03061561  0.031160424            6 
 1288000    1.0333096   -6.6818321    473.59504  0.030641501  0.031150354            3 
 1289000    1.0632286   -6.6763512     475.5257  0.030742546  0.031140312            2 
 1290000    1.0383816   -6.7104061    473.85968   0.03061109  0.031130198            4 
 1291000    1.0710015    -6.742531     472.7463  0.030515511  0.031120258            3 
 1292000    1.0319425   -6.6909201    475.77892  0.030687495  0.031110615            7 
 1293000    1.0239627   -6.7369712    475.22349  0.030627964  0.031101033            2 
 1294000    1.0313084   -6.6992917    476.04671   0.03065731  0.031091247            3 
 1295000    1.0790199   -6.7170185    475.67663  0.030609822  0.031081632            4 
 1296000    1.0652122   -6.6825353    477.47493  0.030701834  0.031072184            8 
 1297000    1.0383639   -6.7184603    477.98476   0.03071092  0.031062503            4 
 1298000    1.0686808   -6.7428108    476.63631  0.030600688  0.031052844            3 
 1299000    1.0687614      -6.6771    476.77083   0.03058576  0.031043298            2 
 1300000    1.0291234   -6.6999264    476.77798  0.030562691  0.031033911            5 
 1301000    1.0477876   -6.7240162     477.8344  0.030606866  0.031024342            6 
 1302000    1.0567681   -6.6866811    476.47805  0.030496547   0.03101469            5 
 1303000    1.0351113   -6.7212582    478.14334  0.030579646   0.03100498            2 
 1304000    1.0556548   -6.6532579    479.11989  0.030618602  0.030995305            1 
 1305000     1.060274    -6.704315    479.03767   0.03058989  0.030985749            4 
 1306000    1.0359692   -6.7371852    477.01574  0.030437452  0.030976009            3 
 1307000    1.0342483   -6.7069066    479.26299  0.030557446  0.030966353            3 
 1308000    1.0505938   -6.7235224    478.76307  0.030502235  0.030956472            2 
 1309000     1.034042   -6.7182385    479.55931  0.030529622  0.030946939            3 
 1310000    1.0243485   -6.6973258    480.22486  0.030548655  0.030937389            2 
 1311000    1.0341712   -6.7316374    478.56132  0.030419611  0.030927732            3 
 1312000    1.0569381   -6.7113282    481.68477  0.030594815   0.03091803            7 
 1313000    1.0705247   -6.7124105    479.68119  0.030444351  0.030908328            6 
 1314000      1.04532   -6.7271978    480.36108    0.0304643  0.030898482            7 
 1315000    1.0488704   -6.7408064    480.56462  0.030454032  0.030888845            3 
 1316000    1.0411104   -6.6988967    481.49866  0.030490037  0.030879517            4 
 1317000    1.0433365   -6.7400937    480.79944  0.030422642    0.0308699            2 
 1318000    1.0587781   -6.6956442     482.7082  0.030520245  0.030860308            3 
 1319000    1.0385042   -6.7383226    481.09766  0.030395354  0.030850744            5 
 1320000    1.0311113   -6.7186131    481.46559  0.030395555  0.030841085            3 
 1321000    1.0250695   -6.7370548    480.61828  0.030319094  0.030831332            5 
 1322000    1.0396752   -6.7223905    480.63308  0.030297093  0.030821652            2 
 1323000    1.0263874   -6.7543894    480.95454  0.030294441  0.030811815            3 
 1324000    1.0627198   -6.7033415    481.17186  0.030285238  0.030801959            3 
 1325000    1.0265386   -6.6748346     483.2725  0.030394497  0.030792099            4 
 1326000    1.0551658   -6.7158978    483.52357  0.030387354  0.030782315            4 
 1327000    1.0372338   -6.7476422    481.74218  0.030252586  0.030772601            5 
 1328000    1.0493025   -6.6996489    484.34697  0.030393259  0.030762897            2 
 1329000    1.0501418   -6.7403595    483.71719    0.0303309  0.030753153            5 
 1330000    1.0036159   -6.7036903    483.84354  0.030316011   0.03074372            6 
 1331000    1.0274458   -6.6923311    485.06152  0.030369492  0.030734178            3 
 1332000    1.0519655   -6.7407235    484.71281  0.030324876  0.030724631            3 
 1333000    1.0415831   -6.7294203    485.61177  0.030358325  0.030714751            2 
 1334000    1.0359197   -6.6926308    485.73924   0.03034353  0.030705021            2 
 1335000    1.0214942   -6.7214398    484.63482  0.030251861  0.030695171            5 
 1336000    1.0227214   -6.6963194    486.71293  0.030358841  0.030685492            5 
 1337000    1.0302918   -6.7253227    484.43925  0.030194419  0.030675767            3 
 1338000     1.032645   -6.7169201    486.88426  0.030324132  0.030665966            4 
 1339000    1.0331849   -6.7173018    485.99836  0.030246351  0.030656063            4 
 1340000      1.04875   -6.6996508    485.67175  0.030203467  0.030646293            2 
 1341000    1.0417663   -6.7035475    486.33683  0.030222274  0.030636665            4 
 1342000    1.0543542    -6.723046    485.76813  0.030164439  0.030627083            2 
 1343000    1.0279699   -6.7844041    484.93062  0.030090011  0.030617461            3 
 1344000    1.0350059   -6.7067854    487.53169  0.030228899  0.030607706            4 
 1345000    1.0499441   -6.7556514    485.79055  0.030098547  0.030597983            8 
 1346000    1.0455121   -6.7318622    486.05137  0.030092333   0.03058813            5 
 1347000    1.0587276   -6.7302234    488.86009  0.030243757  0.030578549            7 
 1348000    1.0318743   -6.7624538    486.65806  0.030085192  0.030568745            7 
 1349000    1.0602383   -6.7554369    487.45739  0.030112268  0.030558865            2 
 1350000    1.0310626   -6.7259453    487.36191  0.030084069  0.030549239            3 
 1351000     1.029567   -6.7024266    487.95663  0.030098484  0.030539672            3 
 1352000    1.0334534   -6.7194998    488.98858  0.030139829   0.03052998            3 
 1353000    1.0389579   -6.7408817    487.87958  0.030049248  0.030520383            2 
 1354000    1.0547713   -6.7297286    488.87442  0.030088283  0.030510618            4 
 1355000    1.0321546   -6.7155808    490.33409  0.030155848  0.030500904            2 
 1356000    1.0324592   -6.7617009    489.14027  0.030060243  0.030491229            3 
 1357000    1.0378161   -6.7703724    488.06063   0.02997179  0.030481484            2 
 1358000    1.0380409   -6.6982731    491.61914  0.030168087  0.030471819            2 
 1359000    1.0417979   -6.7498234    490.31983  0.030066215  0.030462058            6 
 1360000    1.0499337   -6.7656502    487.78052  0.029888512  0.030452122            5 
 1361000    1.0493753   -6.7477987    489.79639  0.029989982  0.030442478            5 
 1362000    1.0318855   -6.7722095     489.4965  0.029949615  0.030432716            4 
 1363000    1.0403135   -6.7216095    490.22279  0.029972046  0.030422954            4 
 1364000    1.0284128    -6.725291    492.59148  0.030094787  0.030413366            5 
 1365000    1.0238934   -6.7545181    489.94816  0.029911365   0.03040371            5 
 1366000    1.0439304   -6.7241203     491.7765  0.030001006  0.030393955            4 
 1367000    1.0380381   -6.7068074    491.97638  0.029991245  0.030384321            4 
 1368000    1.0483073   -6.7743648     491.3371  0.029930379  0.030374683            5 
 1369000    1.0450131   -6.7231063    492.10604  0.029955323  0.030364921            2 
 1370000    1.0198317   -6.7132762    493.52068  0.030019506  0.030355224            3 
 1371000    1.0246215   -6.7279732     491.9243  0.029900578  0.030345501            3 
 1372000    1.0330423    -6.746448    491.55947  0.029856625   0.03033565            5 
 1373000    1.0207235   -6.7340928     492.7616  0.029907842  0.030325929           11 
 1374000    1.0191961   -6.7309863    493.71859  0.029944117  0.030316367            9 
 1375000    1.0375824   -6.7480222     492.2842  0.029835406  0.030306837            4 
 1376000    1.0463827   -6.7894402     491.9827  0.029795464  0.030297077            4 
 1377000     1.037822    -6.723844    494.68245  0.029937209  0.030287333            3 
 1378000    1.0322883   -6.7771852    490.50341  0.029662761  0.030277625            3 
 1379000    1.0308723    -6.720412    493.34791  0.029813144  0.030267856            2 
 1380000    1.0364415   -6.7085806    493.98587  0.029830064   0.03025815            5 
 1381000    1.0180555   -6.6991441    494.61412  0.029846375  0.030248266            2 
 1382000    1.0300599   -6.7538189    495.05033  0.029851081  0.030238481            6 
 1383000    1.0337977   -6.7535634    493.95977  0.029763784  0.030228553            2 
 1384000    1.0498235   -6.7211798    496.00861  0.029865644  0.030218727            3 
 1385000    1.0301238   -6.7569973    494.07931  0.029727997  0.030208801           10 
 1386000    1.0287987   -6.7600748    494.44274  0.029728399  0.030199116            1 
 1387000    1.0294573   -6.7379577    494.60278  0.029716581  0.030189348            3 
 1388000    1.0519653   -6.6962527    496.06455  0.029782934  0.030179585            3 
 1389000    1.0499009   -6.7617067    495.00984  0.029698214  0.030170094            2 
 1390000    1.0184356   -6.7587717       495.44  0.029702638  0.030160525            5 
 1391000    1.0376987   -6.7223361    495.55228  0.029688011  0.030150917            6 
 1392000     1.022423   -6.7432098    496.84749  0.029744222  0.030141257            5 
 1393000    1.0468559    -6.765519    495.95269   0.02966934  0.030131792            2 
 1394000    1.0582462   -6.7562126    497.09557  0.029716378  0.030122156            5 
 1395000    1.0172588   -6.7177386    499.68703  0.029849882  0.030112639            5 
 1396000     1.045067   -6.7455738    499.53323  0.029819319  0.030103172            4 
 1397000    1.0111202    -6.720865    499.02016  0.029767368  0.030093655            3 
 1398000    1.0196948   -6.7503769    498.04589     0.029688  0.030084201            4 
 1399000    1.0393805   -6.7688251    497.68343  0.029645189  0.030074698            5 
 1400000    1.0163647    -6.762108    497.80469  0.029631231  0.030065036            3 
 1401000    1.0381358   -6.7503935    498.28765  0.029638808  0.030055498            2 
 1402000    1.0330671   -6.7635708    499.03762  0.029662246  0.030045905            6 
 1403000    1.0265212   -6.7918418    497.65454  0.029558953   0.03003614            7 
 1404000    1.0112125   -6.7496633    499.99226  0.029676654  0.030026447            5 
 1405000    1.0320135   -6.7418405    500.14079  0.029664341  0.030016736           10 
 1406000    1.0150939   -6.7338808    500.87184  0.029686572  0.030007142            2 
 1407000   0.99456434   -6.7223308    499.97691  0.029612468  0.029997561            7 
 1408000    1.0405719     -6.74413     500.7658  0.029638127  0.029988292           10 
 1409000    1.0261921   -6.7212775     502.4232  0.029715117  0.029978918            4 
 1410000    1.0126182   -6.7905998    500.72401  0.029593618  0.029969404            4 
 1411000    1.0187945   -6.7758798    500.85981  0.029580664   0.02995978            4 
 1412000    1.0204862   -6.7415605    502.03476  0.029629058  0.029950544            6 
 1413000    1.0258531   -6.7381409    502.18912  0.029617193  0.029941149            5 
 1414000    1.0145451   -6.7515359    502.65148  0.029623496  0.029931715            8 
 1415000    1.0015433   -6.7454119    502.33751   0.02958407   0.02992222            3 
 1416000      1.02107   -6.7842227    500.98137  0.029483367  0.029912713            4 
 1417000    1.0101165   -6.7838017    503.70355  0.029622651  0.029903242            6 
 1418000    1.0303754   -6.7825904    502.13522  0.029509592  0.029893754            3 
 1419000    1.0181043   -6.7842279    501.17605  0.029432467  0.029884096            5 
 1420000    1.0474675   -6.7641865    501.98812  0.029459397  0.029874425            6 
 1421000    1.0255006   -6.7360051    504.13799  0.029564742  0.029864977            4 
 1422000    1.0119317   -6.7916499    505.43307  0.029619847  0.029855646            5 
 1423000    1.0210762   -6.7864038    504.72526  0.029557582  0.029846353            5 
 1424000    1.0435085   -6.7679705    504.77188  0.029539553  0.029837029            4 
 1425000    1.0265772   -6.7139269    507.07961  0.029653778  0.029827943            3 
 1426000    1.0362978   -6.7497647    505.52649  0.029542221  0.029819031            5 
 1427000    1.0302025   -6.7723181    506.03693  0.029551327  0.029809968            2 
 1428000    1.0035617   -6.7553691    507.58807  0.029621153  0.029800896            6 
 1429000     1.041197   -6.7765697    505.50195   0.02947877  0.029791647            4 
 1430000    1.0083059   -6.7857512    505.92367  0.029482731  0.029782604            2 
 1431000     1.016527   -6.7471639    507.39979   0.02954809  0.029773418            5 
 1432000     1.028017   -6.7269981    508.04652  0.029565091   0.02976431            4 
 1433000    1.0432967   -6.7400946    506.97734  0.029482283  0.029755431            9 
 1434000    1.0475217   -6.7676612     506.7347  0.029447623   0.02974639            4 
 1435000    1.0474745   -6.7664774    507.66445  0.029481095  0.029737228            6 
 1436000    1.0209767   -6.7756971    507.11335  0.029428583  0.029728102            8 
 1437000    1.0136783   -6.7918321    508.12402  0.029466714  0.029718932            9 
 1438000    1.0287893   -6.7711479    507.17107  0.029390998  0.029709754            4 
 1439000     1.033696   -6.7644055    508.74258  0.029461581  0.029700657            6 
 1440000    1.0013135   -6.8028782    506.57218   0.02931552  0.029691489            3 
 1441000    1.0152735   -6.7498833    508.31222  0.029395803  0.029682322            3 
 1442000    1.0430033   -6.7834996    507.99876  0.029357303  0.029673185            3 
 1443000    1.0369058   -6.7514313    508.81182  0.029383912  0.029663879            3 
 1444000    1.0289971   -6.7820723    509.52455  0.029404694  0.029654518            7 
 1445000    1.0223847   -6.7703269    508.33562   0.02931578  0.029645102            6 
 1446000    1.0287224   -6.7997028    508.58647  0.029309962  0.029635687            3 
 1447000    1.0116073   -6.7889391    508.04602  0.029258582  0.029626146            4 
 1448000    1.0045001   -6.7739386    506.78061  0.029165551  0.029616504            3 
 1449000    1.0276107   -6.7768428    508.11299  0.029222049  0.029606903            7 
 1450000    1.0056489   -6.7621226    508.12107  0.029202361  0.029597273            4 
 1451000    1.0251017   -6.7547048     509.1717  0.029242574  0.029587707            4 
 1452000    1.0288596   -6.7742347    509.33438  0.029231771  0.029578241            4 
 1453000     1.019766    -6.773881    509.38915  0.029214794  0.029568629            4 
 1454000    1.0319666   -6.8199285    508.60848  0.029149959  0.029558993            6 
 1455000     1.035565   -6.8073548    509.34945  0.029172362  0.029549272            7 
 1456000   0.99780898   -6.8047227    509.55647  0.029164175  0.029539654            3 
 1457000    1.0123663    -6.818205    510.13017  0.029176971   0.02953006            3 
 1458000   0.99739796   -6.7556184    510.32405  0.029168041  0.029520467            4 
 1459000    1.0241844   -6.7969143    509.73281   0.02911428  0.029510934            3 
 1460000    1.0008112   -6.7453374    512.02986  0.029225448  0.029501515            5 
 1461000    1.0278965   -6.7843172    512.57746  0.029236679   0.02949228            6 
 1462000   0.99976698   -6.7538047    514.38842  0.029319905  0.029482786            4 
 1463000     1.011593   -6.7813021    512.54733  0.029194995  0.029473249            7 
 1464000    1.0289386   -6.7452752    512.17999  0.029154143  0.029463907            5 
 1465000    1.0297675   -6.7483498    511.69403    0.0291066  0.029454453            7 
 1466000    1.0023153   -6.7479812    512.53233  0.029134398  0.029445102            7 
 1467000    1.0098035   -6.8121963    511.71572   0.02906815  0.029435551            5 
 1468000    1.0245437   -6.7838521    513.06078  0.029124704   0.02942594            4 
 1469000   0.98548278   -6.7738213    513.54041  0.029132086  0.029416348            4 
 1470000    1.0383925   -6.7910698    513.65167  0.029118575  0.029406757            4 
 1471000    1.0051578   -6.7794488    512.95579  0.029059358  0.029397265            2 
 1472000     1.033908   -6.7636261    512.78215  0.029029787  0.029387748            7 
 1473000    1.0196587   -6.8105151    512.99105  0.029021897  0.029378266            5 
 1474000   0.99981893   -6.7574664    514.06697  0.029063036  0.029368897            6 
 1475000   0.99376929    -6.791076    512.86895  0.028975647  0.029359479            2 
 1476000    1.0447616    -6.833528     512.7543  0.028949542  0.029350051            5 
 1477000    1.0210588   -6.7851493    514.79671  0.029045177  0.029340472            4 
 1478000    1.0114459   -6.7540838    515.29836  0.029053809  0.029330984            4 
 1479000    1.0124756   -6.8085706    514.29635  0.028977707  0.029321517            5 
 1480000    1.0245008   -6.7866878    514.96399   0.02899572  0.029312059            5 
 1481000    1.0185811   -6.8052859    514.79024  0.028966365  0.029302587            3 
 1482000    1.0074098   -6.8132114    514.74785  0.028944436  0.029292963            5 
 1483000   0.99720069   -6.7683887    517.15187  0.029060006  0.029283619            4 
 1484000    1.0236575    -6.776846    516.60174  0.029009532  0.029274295            5 
 1485000    1.0218368   -6.7827733    516.43275  0.028980514  0.029265126            2 
 1486000    1.0191234   -6.7903533    515.90718  0.028931538  0.029255907            7 
 1487000    1.0228044   -6.7501031     518.2734  0.029044687  0.029246568            5 
 1488000    1.0021017   -6.7763446     518.3122  0.029027341  0.029237413            7 
 1489000    1.0123193   -6.8016718    515.37028  0.028843199  0.029227989            9 
 1490000   0.99260477   -6.7748659    517.53437  0.028944875   0.02921857            3 
 1491000    1.0318588    -6.816211    516.24343   0.02885331  0.029209143            5 
 1492000    1.0197733   -6.7898605     518.0044  0.028932328  0.029199917            3 
 1493000    1.0197673   -6.7879143    516.62437  0.028835922  0.029190363            2 
 1494000    1.0208173   -6.8092962    517.08334  0.028842221  0.029180985            3 
 1495000    1.0334906   -6.7475536    518.35529  0.028893829  0.029171569            7 
 1496000    1.0092994   -6.7796566    518.34622  0.028874009  0.029162022            9 
 1497000   0.99674388   -6.7999021     519.5349  0.028920892  0.029152615            3 
 1498000   0.99399112   -6.7818622     520.2215  0.028939781  0.029143301            5 
 1499000    1.0187579   -6.7708556    519.86945  0.028900904  0.029133979            5 
 1500000     1.035991   -6.7770513    520.75328  0.028930738  0.029124554            6 
 1501000    1.0181659   -6.7963528    518.23445  0.028771622  0.029115321            3 
 1502000    1.0168344   -6.7878344    518.43478  0.028763581  0.029105883            2 
 1503000    1.0117851   -6.8003778     518.0481  0.028723004  0.029096463            4 
 1504000    1.0160066   -6.7950774    518.47234  0.028727413  0.029086952            3 
 1505000   0.99132493   -6.8006652     518.7393  0.028723106  0.029077445            6 
 1506000   0.99439178   -6.7787851    519.41782  0.028741579  0.029068181            5 
 1507000    1.0325139   -6.7674484     521.9354  0.028861723  0.029058873            6 
 1508000   0.99918902   -6.8405072    520.13431  0.028743054  0.029049409            4 
 1509000   0.99598198   -6.8323894    518.84237   0.02865266  0.029039998            3 
 1510000   0.99289608   -6.8049961    520.14107  0.028705357    0.0290306            3 
 1511000    1.0199242   -6.8292138    519.25084  0.028637262  0.029021318            3 
 1512000    1.0156106   -6.7856806    522.12102  0.028776511  0.029011999            5 
 1513000    1.0109988   -6.7845027    521.55486  0.028726309  0.029002783            2 
 1514000     1.018783   -6.8061569    519.89726  0.028616097  0.028993429            4 
 1515000    1.0074405   -6.7965991     522.5531  0.028743295  0.028984119            4 
 1516000   0.99143262    -6.784922    520.95619  0.028636554  0.028974818            8 
 1517000    1.0171505   -6.8131728    521.99299  0.028674632  0.028965604            8 
 1518000    1.0099194   -6.7777083    520.60967  0.028579802  0.028956373            4 
 1519000    1.0337267   -6.7842369    523.42682  0.028715537  0.028947065            3 
 1520000    1.0092793   -6.8269445    521.78043  0.028606383  0.028937662            2 
 1521000   0.99403277   -6.8205371    520.25796  0.028504162  0.028928231            2 
 1522000    1.0135303   -6.7776551     523.8091  0.028679868  0.028918769            4 
 1523000   0.99463129   -6.7782085      522.039  0.028564183   0.02890937            4 
 1524000    1.0193852   -6.7804529    522.70078  0.028581626  0.028900143            7 
 1525000   0.98652763   -6.8332098    523.47919   0.02860542  0.028890849            6 
 1526000    1.0150505   -6.7990749    523.50962  0.028588336   0.02888143            4 
 1527000    1.0023518   -6.8207418    523.64819  0.028577177  0.028871996            3 
 1528000   0.99066495   -6.8070835    523.92977  0.028573831  0.028862615            5 
 1529000    1.0095365   -6.7957773    524.20342  0.028570058  0.028853273            6 
 1530000    1.0285621   -6.8129299    524.56063   0.02857084  0.028843994            3 
 1531000    1.0000003   -6.8158763    524.45005   0.02854616   0.02883484            3 
 1532000    1.0166036   -6.8178568     525.0138  0.028558192  0.028825533            4 
 1533000   0.99544927   -6.7758122    525.88341  0.028586835  0.028816215            3 
 1534000    1.0038433   -6.8105515    525.10805  0.028526078  0.028806891            4 
 1535000    1.0049016   -6.7802892    525.06867  0.028505357  0.028797468            4 
 1536000    1.0089873   -6.8042099    524.62302  0.028462621  0.028787997            5 
 1537000   0.98571586   -6.8152661     524.0431   0.02841266  0.028778641            5 
 1538000     1.012877   -6.8433711    524.66654  0.028427966  0.028769163            6 
 1539000    1.0151407   -6.8409762    524.71138  0.028411922  0.028759574            5 
 1540000    1.0213592   -6.8217317    526.22548  0.028475405  0.028749929            8 
 1541000     1.013224   -6.8104399    526.20989  0.028456083  0.028740564            2 
 1542000    1.0384508   -6.8066936    526.53262   0.02845507  0.028731229            9 
 1543000    1.0153605   -6.8054856    525.69245  0.028391253  0.028721851            4 
 1544000    1.0036201   -6.7663728    528.39433  0.028518692  0.028712536            6 
 1545000    1.0049526   -6.8105173    526.78074  0.028413201   0.02870329            3 
 1546000   0.99903504   -6.7809113    529.29648  0.028530427  0.028694077            3 
 1547000    1.0102695   -6.8300345    526.80306   0.02837767  0.028684904            3 
 1548000    1.0146022   -6.8331916    526.34373  0.028334611  0.028675712            2 
 1549000   0.96964779   -6.8161824    529.48001  0.028485045  0.028666538            9 
 1550000   0.97579278   -6.8155808    527.78385  0.028375476  0.028657291            3 
 1551000    1.0156312   -6.8340646    529.39615  0.028443808  0.028648175            5 
 1552000    1.0032355   -6.7959874    529.42036  0.028426781  0.028639129            4 
 1553000    1.0219184   -6.7849302    530.00675  0.028439942   0.02863011            3 
 1554000   0.98165615   -6.8631512    528.64783  0.028348768  0.028620728            4 
 1555000   0.98062137   -6.8249657    528.91657  0.028344939   0.02861153            3 
 1556000   0.97244628   -6.8380283    530.17465  0.028394101  0.028602388            6 
 1557000   0.98354496   -6.8050001    529.90483  0.028361423    0.0285932            4 
 1558000    1.0232912   -6.7758514    531.23679  0.028414463  0.028584137            5 
 1559000    1.0019357   -6.8481117    528.35322  0.028242101  0.028575135            3 
 1560000    1.0021805   -6.8008847    533.36145  0.028491531  0.028566008            8 
 1561000    1.0183428   -6.8219981    531.95022   0.02839794  0.028556944            2 
 1562000    1.0258324   -6.8484968    530.52541  0.028303746  0.028547662            2 
 1563000   0.99356006   -6.8588644    530.28283  0.028272704  0.028538523            3 
 1564000    1.0045399   -6.8564415    529.87885  0.028233102  0.028529443            3 
 1565000    1.0083332   -6.8624488    530.08575  0.028226078  0.028520262            6 
 1566000   0.98796524   -6.8046052    531.46072  0.028281222  0.028510946            4 
 1567000    1.0095538    -6.855314    528.97688  0.028131083    0.0285017            8 
 1568000   0.99972408   -6.8288723    531.03843  0.028222706  0.028492385            5 
 1569000    1.0258899   -6.8330239    531.30061  0.028218643  0.028483109            1 
 1570000   0.99642472   -6.8104541    530.59433  0.028163181  0.028473717            4 
 1571000    1.0073958   -6.8426733    531.85914  0.028212346  0.028464341            6 
 1572000     0.991996   -6.8376048    532.19739   0.02821233  0.028455081            5 
 1573000   0.99761964   -6.8016847    532.44971  0.028207762   0.02844575            5 
 1574000    0.9984471    -6.838741    531.05597  0.028116051  0.028436516            5 
 1575000    1.0186384   -6.8309661    532.59517  0.028179638  0.028427226           13 
 1576000    1.0042339   -6.8105374    531.19767  0.028087863  0.028417958            3 
 1577000    1.0029499   -6.8134663    532.88222  0.028159069  0.028408529            5 
 1578000   0.99690516   -6.8421774    531.46702  0.028066488  0.028399109            2 
 1579000   0.98474356   -6.8172108    533.35276  0.028148235  0.028389762            3 
 1580000    0.9993718   -6.8420739    531.76726  0.028046796  0.028380436            7 
 1581000    1.0227803   -6.8586746    533.26184  0.028107835  0.028371068            3 
 1582000    1.0008422   -6.8361745    533.33829  0.028094095  0.028361722            4 
 1583000   0.99098107    -6.797605    534.72162  0.028149169   0.02835244            4 
 1584000   0.99989413   -6.8192534    532.50546  0.028014807   0.02834321            2 
 1585000   0.99731291   -6.8003854    534.77133  0.028116264  0.028334037            4 
 1586000    1.0112008   -6.8259449    534.35831  0.028076834  0.028324851            8 
 1587000   0.98386789   -6.8433452    534.01041  0.028040874  0.028315772            6 
 1588000    1.0067059   -6.8511797    538.25169  0.028245785  0.028306686            2 
 1589000   0.99720662   -6.8211735    537.32285  0.028179298  0.028297665            1 
 1590000   0.99386558   -6.8096739    537.26521  0.028158554  0.028288632            3 
 1591000   0.97926988   -6.8173509    536.77146  0.028114994  0.028279639            4 
 1592000   0.97456906   -6.8492768    536.11217  0.028062823  0.028270544            3 
 1593000    1.0096644   -6.8361678    535.84816  0.028031396  0.028261546            3 
 1594000   0.99940851   -6.8109952    537.85648  0.028118804  0.028252622            2 
 1595000    1.0015945   -6.8368979     537.9295   0.02810499  0.028243621            7 
 1596000   0.98641634   -6.8186578    537.00519  0.028039118  0.028234675            6 
 1597000    1.0049126   -6.8340685    537.32874  0.028038444  0.028225687            3 
 1598000    1.0157993   -6.8389562    536.33298  0.027968971  0.028216573            5 
 1599000    1.0092339   -6.8037645    536.74002  0.027972692  0.028207536            3 
 1600000   0.96272907   -6.7847397    537.09937  0.027973925  0.028198429            7 
 1601000   0.99719585   -6.8584246     537.1668  0.027959963  0.028189339            8 
 1602000    1.0193053   -6.8361828     537.2513  0.027946905  0.028180231            4 
 1603000   0.99668777   -6.8456122    537.47705  0.027941206  0.028171039            5 
 1604000   0.99773237    -6.823382    537.94486  0.027948091  0.028161817            4 
 1605000   0.98293164   -6.8582759    537.38858  0.027901795  0.028152741            5 
 1606000    1.0070981   -6.8271061    538.99939  0.027968005  0.028143705            5 
 1607000   0.98648527   -6.8035533    539.69284  0.027986561   0.02813463            3 
 1608000   0.98246604   -6.8131798    539.42421  0.027955235  0.028125662            6 
 1609000    1.0057377    -6.846424    539.65541  0.027949835  0.028116646            2 
 1610000   0.98245542   -6.8101976    538.94772  0.027895845  0.028107512            3 
 1611000   0.98715424   -6.8317584    539.90276  0.027927931  0.028098327            5 
 1612000     1.001603   -6.8465878    539.45807  0.027887617  0.028089158            3 
 1613000   0.99079507   -6.8713777    538.16908  0.027803734  0.028079988            8 
 1614000     1.006973    -6.849173    538.91681  0.027825114  0.028070745            4 
 1615000   0.98039289   -6.8394626    538.97691  0.027810986  0.028061611            7 
 1616000    1.0137576   -6.8566854    539.50823  0.027821175  0.028052495            3 
 1617000   0.97600493    -6.836722    542.42241  0.027954154  0.028043448            6 
 1618000   0.99850157   -6.8459635    540.96166  0.027861643  0.028034509            3 
 1619000    1.0054102   -6.7899255    542.26222  0.027911376  0.028025583           13 
 1620000   0.99826058   -6.8378844    539.87192  0.027771189  0.028016673            4 
 1621000    1.0056135   -6.8172342    540.76171    0.0277998  0.028007714            2 
 1622000   0.98642166   -6.8762093    540.37855  0.027762975  0.027998567            5 
 1623000    1.0074747   -6.8224042    542.89956  0.027875311   0.02798954            5 
 1624000   0.99148964   -6.8513614    541.99262  0.027811608  0.027980499            2 
 1625000   0.99986059   -6.8519108    542.01204  0.027795489  0.027971549            4 
 1626000   0.97811104   -6.8036364    541.78953  0.027766991   0.02796261            5 
 1627000   0.99953706   -6.8788304    542.03856   0.02776268  0.027953651            3 
 1628000   0.97806983   -6.8433446    543.11562  0.027800758  0.027944791            6 
 1629000    1.0200432   -6.8502465    542.84315  0.027769754   0.02793598            4 
 1630000    1.0055591   -6.8281475    542.20453  0.027720068   0.02792711            3 
 1631000   0.99464357   -6.8630137    542.01565  0.027693422  0.027918158            3 
 1632000    1.0093472   -6.8679413    544.13243   0.02778454  0.027909251            4 
 1633000   0.97503929   -6.8489882    543.09291  0.027714478   0.02790029            5 
 1634000   0.96097836   -6.8754566    543.66226  0.027726553  0.027891302           11 
 1635000   0.99331525   -6.8664208    543.85455  0.027719396  0.027882167            6 
 1636000   0.99019234   -6.8671116     542.9092  0.027654299  0.027873089            5 
 1637000   0.98858688   -6.8537358    545.19752  0.027753895  0.027864156           10 
 1638000    1.0161875   -6.8357242     543.5383  0.027652539  0.027855096            3 
 1639000   0.99715523   -6.8633634    543.50362  0.027633904  0.027846108            5 
 1640000   0.99507778   -6.8660519    543.84764  0.027634535  0.027836919            6 
 1641000   0.97597095   -6.8659025     544.0053  0.027625701  0.027827764            4 
 1642000   0.96519279   -6.8234108    544.52418   0.02763521  0.027818681            3 
 1643000   0.97384519   -6.8352082    544.30824  0.027607438  0.027809768            4 
 1644000   0.98698235    -6.836011    544.02615  0.027576346   0.02780064            4 
 1645000   0.99300739   -6.8630706    546.01169  0.027660167  0.027791707            4 
 1646000   0.98605419   -6.8384158    545.16314  0.027600402  0.027782534            5 
 1647000   0.99860998     -6.84785    544.58968  0.027554629  0.027773358            3 
 1648000   0.98158306   -6.8856047    543.53175  0.027484413  0.027764148            4 
 1649000   0.99752951   -6.8643918    545.10499   0.02754725  0.027754889            6 
 1650000   0.97480232   -6.8632088    545.32815  0.027541826  0.027745768            3 
 1651000   0.96661938   -6.8375905    545.24136  0.027520763  0.027736629            2 
 1652000   0.98367562   -6.8792864    544.42067  0.027462705  0.027727337            7 
 1653000   0.98313514   -6.8770109    544.90952  0.027470736  0.027718027            2 
 1654000   0.98243013   -6.8713204    546.20164  0.027519228  0.027708844            5 
 1655000   0.98626043   -6.8160795    545.70273  0.027477479  0.027699879            4 
 1656000   0.97307407   -6.8313111    546.51774  0.027501899  0.027690952            9 
 1657000   0.96358724   -6.8483167    545.93347  0.027455918  0.027681983            4 
 1658000   0.97284687   -6.8715086    546.49649  0.027467656  0.027672886            4 
 1659000   0.98120372   -6.8296478    547.61692   0.02750738  0.027663772            2 
 1660000   0.98846665    -6.864634     548.4099  0.027530617  0.027654892            6 
 1661000   0.96192512   -6.8483675    546.92735  0.027439662  0.027645886            9 
 1662000    1.0014895    -6.870009    546.18819  0.027386091  0.027636775            7 
 1663000   0.96771042   -6.8769856    547.27601  0.027424134  0.027627765            4 
 1664000   0.97330094   -6.8940573    548.00433  0.027444127  0.027618763            4 
 1665000   0.98322063   -6.8622482    547.45697  0.027400249  0.027609716           12 
 1666000   0.99015399   -6.8817788     548.8113  0.027451546  0.027600546            4 
 1667000    1.0081622   -6.9032042    546.78108  0.027333587  0.027591351            5 
 1668000   0.98737384   -6.8603477    549.00536  0.027428325  0.027582346            5 
 1669000   0.98298488   -6.8659814    549.04952  0.027414096  0.027573285            7 
 1670000   0.99448886   -6.9230894    548.17586  0.027354085  0.027564201            4 
 1671000   0.99110246   -6.8882946    547.70854   0.02731441  0.027555062            6 
 1672000   0.98992997   -6.8579045    548.05403  0.027315293  0.027545973            3 
 1673000   0.98761742   -6.8686072    548.54128  0.027323236   0.02753692            9 
 1674000   0.97466521   -6.8442921    550.55458  0.027407137  0.027527964            7 
 1675000   0.97761018   -6.8603259     549.1369  0.027320244   0.02751888            4 
 1676000   0.98754513   -6.9240912    548.29296  0.027261981  0.027509776            3 
 1677000   0.98806827   -6.9041324    547.96829  0.027229591  0.027500571           10 
 1678000   0.98609075   -6.8678102    550.95294  0.027361588    0.0274915            5 
 1679000   0.98011752   -6.8574607    551.40733  0.027367845  0.027482666            3 
 1680000     1.022451    -6.883516     549.6073  0.027262267  0.027473547            5 
 1681000   0.98765083   -6.8812265    549.22578  0.027227136  0.027464419            4 
 1682000   0.99215591   -6.8866547     550.0463    0.0272516  0.027455289            3 
 1683000   0.98216254   -6.8551585    550.61888  0.027263759  0.027446182            5 
 1684000   0.97970282   -6.8913639    550.03585  0.027218718  0.027436968            6 
 1685000   0.97573262   -6.8786761    551.41115  0.027270581   0.02742768            3 
 1686000   0.98464896    -6.906251    549.98261  0.027183799  0.027418506            5 
 1687000   0.99202948   -6.8982204    551.44628  0.027239986  0.027409399            2 
 1688000   0.98326017   -6.8754795     551.6496  0.027233886  0.027400321            4 
 1689000   0.98960163   -6.8681677    551.44334  0.027207585   0.02739127            4 
 1690000     0.958394   -6.8928672    550.10978  0.027125729  0.027382194            5 
 1691000   0.98908778   -6.8594557    552.43532  0.027224291  0.027373052            7 
 1692000   0.98881237   -6.8488428    551.07112  0.027141012  0.027363999            4 
 1693000   0.98012052   -6.8928366    549.66316  0.027055678  0.027354894            4 
 1694000    0.9731924   -6.8986403    551.42388  0.027126322  0.027345779            7 
 1695000   0.96535431   -6.8964726    550.24461  0.027052341  0.027336527            6 
 1696000   0.97193716   -6.8785141    550.44617  0.027046293  0.027327252            5 
 1697000    0.9813744   -6.8923974    553.17508  0.027164363  0.027318011            4 
 1698000     1.000008   -6.9053286    551.18424   0.02705066  0.027308758            7 
 1699000   0.98867665   -6.8695205    552.28401   0.02708868  0.027299592            8 
 1700000   0.96886347   -6.8688253    551.84589  0.027051269  0.027290498            7 
 1701000   0.96055695   -6.8911443    552.40233  0.027062626  0.027281282            5 
 1702000   0.96219646   -6.8615421    552.17196  0.027035447  0.027272146            9 
 1703000   0.96403768   -6.9194913    552.17444  0.027019693  0.027263024            4 
 1704000   0.97463363   -6.8887132    551.19378  0.026955877  0.027253734           11 
 1705000   0.97256793   -6.8911093    552.28007  0.026993161  0.027244562            7 
 1706000   0.99584143   -6.8911358    554.77568  0.027099242  0.027235402            5 
 1707000   0.98450472   -6.9346272    554.68999  0.027079183  0.027226276            4 
 1708000   0.95113919   -6.9090526    553.18812  0.026990053  0.027217093            4 
 1709000   0.95374426   -6.8964244    553.79521  0.027003863  0.027207989            7 
 1710000   0.96649708   -6.8994287    553.71969   0.02698439  0.027198884            3 
 1711000   0.96750924   -6.9147868    553.76592  0.026970871  0.027189733           11 
 1712000   0.99043061   -6.8899154    555.77063  0.027052698  0.027180753            4 
 1713000   0.96694737    -6.910963    556.16163  0.027055927  0.027171701            4 
 1714000   0.96587296   -6.8561262    556.40325  0.027051889  0.027162635            5 
 1715000   0.97853647   -6.8649247    555.55278   0.02699479  0.027153612            4 
 1716000   0.95974677   -6.8871195    556.08155  0.027004737  0.027144713            6 
 1717000   0.97095023   -6.8900017     555.1635  0.026944452  0.027135742            7 
 1718000   0.98726472   -6.8693689    556.34381  0.026986021  0.027126717            4 
 1719000   0.97476006   -6.8389492     556.3423  0.026970249  0.027117683            3 
 1720000   0.98231782   -6.9153811    554.55227  0.026867843  0.027108539            4 
 1721000   0.98467152   -6.8768727    556.46234  0.026944719  0.027099517            4 
 1722000   0.98543812   -6.8742441    557.26649  0.026967987  0.027090366            7 
 1723000   0.99458639   -6.8996439    556.30381  0.026905775  0.027081188            4 
 1724000   0.97770992   -6.9228152    554.54071  0.026804945  0.027071829            5 
 1725000   0.98672925   -6.9405748    554.62038  0.026793255  0.027062527            4 
 1726000    0.9781412    -6.905686    554.32548  0.026763494  0.027053046            3 
 1727000   0.99187433   -6.9438833     553.2557  0.026696376  0.027043549            4 
 1728000   0.96557007   -6.9177521    556.36389   0.02683082   0.02703419            7 
 1729000   0.98225568   -6.8846391    555.63942  0.026780385  0.027024827            5 
 1730000   0.95973283   -6.9216618    555.79743  0.026772516  0.027015517            3 
 1731000   0.96170783   -6.9083276    558.27871  0.026876503  0.027006262            4 
 1732000    1.0002171   -6.8836682    557.41452  0.026819405  0.026997017            7 
 1733000    0.9589523   -6.9019866    557.10254  0.026788928  0.026987844            5 
 1734000   0.97520828   -6.9273775    556.45053  0.026742144  0.026978601           14 
 1735000   0.98161897   -6.9054247    559.73486  0.026884479  0.026969432            5 
 1736000   0.99170243   -6.9040917    557.14385  0.026744617  0.026960282            4 
 1737000   0.98473627   -6.9201667    555.71099  0.026660477  0.026951027            6 
 1738000   0.96798774   -6.8890016    558.81725  0.026794076  0.026941868            6 
 1739000   0.96236653   -6.8850945    558.91698  0.026783447  0.026932771            8 
 1740000   0.98900781   -6.9151465    558.47482  0.026746878  0.026923626            4 
 1741000   0.96215977   -6.9182079    559.40919  0.026776239  0.026914541            8 
 1742000   0.96456281   -6.9014527    560.88411  0.026831425  0.026905455            1 
 1743000   0.95915249   -6.9199306    558.57917  0.026705831  0.026896335            4 
 1744000   0.97450799   -6.8606884    560.42978  0.026778946  0.026887228           11 
 1745000   0.95789577   -6.9034779    559.17439  0.026703648  0.026878178            9 
 1746000   0.97257124   -6.9356527    558.27769  0.026645556  0.026869036            3 
 1747000   0.97765248   -6.8985623    558.99562   0.02666455  0.026859912            5 
 1748000   0.96840396   -6.9014293    559.79585  0.026687445  0.026850704            3 
 1749000   0.95032953   -6.9388369    557.87602  0.026580714   0.02684163            7 
 1750000   0.99592255   -6.9267755    559.83084  0.026658611    0.0268325            4 
 1751000   0.97409396   -6.9274447    558.67743  0.026588494  0.026823365            4 
 1752000   0.98412902   -6.8941975    560.24133  0.026647704  0.026814365            3 
 1753000   0.97763124   -6.8689906    561.39277   0.02668724  0.026805413            3 
 1754000   0.98689151   -6.9436793    560.69731  0.026638983  0.026796397            5 
 1755000   0.96885452   -6.8836586    562.09595  0.026690216  0.026787427            4 
 1756000   0.94706714   -6.9277855    561.89152  0.026665315   0.02677852            4 
 1757000   0.95424684   -6.8862222    562.80357  0.026693396  0.026769653           14 
 1758000    0.9615811   -6.9022042    562.75831  0.026676067  0.026760837            6 
 1759000   0.95837925   -6.9078293    562.34866  0.026641494  0.026751942            3 
 1760000   0.98356965     -6.91758    563.37755  0.026675073  0.026743073            6 
 1761000   0.98709381   -6.9264128    561.77218  0.026583957  0.026734079            7 
 1762000   0.96809555   -6.8945602    561.65361  0.026563262  0.026725108            9 
 1763000   0.97002122   -6.9202701    563.02825  0.026613171  0.026716291            5 
 1764000   0.96407703   -6.9189866    562.54903  0.026575446  0.026707254            4 
 1765000   0.97723666   -6.9092207    563.31065  0.026596348  0.026698345            6 
 1766000   0.95779433   -6.9291735    563.39906  0.026585459  0.026689426            5 
 1767000   0.95892009   -6.9255199    562.95417  0.026549432  0.026680448            7 
 1768000   0.97217263    -6.935653    564.32694  0.026599121  0.026671568            5 
 1769000   0.97329557   -6.9231831    564.18194  0.026577254  0.026662731            8 
 1770000   0.96536242   -6.9396882    564.07083  0.026557007  0.026653883            4 
 1771000   0.96504786   -6.8883292    564.46892  0.026560744   0.02664512            5 
 1772000   0.98253509   -6.8603979    565.29172  0.026584449  0.026636369            3 
 1773000   0.97495868   -6.9287745    565.47538  0.026578087  0.026627634            5 
 1774000   0.97226209   -6.9270239    565.01473  0.026541466  0.026618809            4 
 1775000   0.98040719   -6.8759534    565.94638  0.026570252  0.026610152            4 
 1776000   0.95024396   -6.9276848    565.41229  0.026530231  0.026601447            6 
 1777000   0.96464241   -6.9479251    565.44561  0.026516864  0.026592709            8 
 1778000   0.96738029   -6.9327816    564.63552  0.026463982  0.026583906            5 
 1779000   0.95286896   -6.8847464    565.91723  0.026509145  0.026575117            3 
 1780000   0.97297967   -6.9596726    564.70659  0.026437575  0.026566282            5 
 1781000   0.97767584   -6.9370732    565.52859  0.026461192  0.026557397            4 
 1782000   0.97220781   -6.9147045    565.72834  0.026455684  0.026548502            4 
 1783000   0.96679367   -6.9074095    566.86002  0.026493738  0.026539699            6 
 1784000   0.95404759   -6.9221477    567.13618  0.026491787   0.02653092            4 
 1785000   0.97592113   -6.9039679    565.53535   0.02640221  0.026522073            9 
 1786000   0.95439826   -6.8970577    566.40489     0.026428  0.026513131            3 
 1787000   0.94528404   -6.9247951    565.87944  0.026388708  0.026504278            5 
 1788000    0.9678905   -6.9330713    566.79136   0.02641645  0.026495387            6 
 1789000   0.96516873   -6.9332456    566.63886  0.026394581  0.026486612            5 
 1790000   0.96960938    -6.921168    566.20316  0.026359551  0.026477842           10 
 1791000   0.97182682   -6.9426161    565.72799  0.026322724  0.026469067            6 
 1792000   0.96880192   -6.9216022    567.06981  0.026370434  0.026460276            7 
 1793000   0.98576424   -6.9133395    567.33435  0.026368021  0.026451482            2 
 1794000   0.95732712   -6.9624725    566.87514  0.026331993  0.026442764            3 
 1795000   0.98266647   -6.9032531    568.70819  0.026402423  0.026433924            4 
 1796000   0.95670863   -6.9637961    565.77793   0.02625176  0.026425028            4 
 1797000    0.9620296   -6.8829629    567.89202  0.026335189   0.02641622            5 
 1798000   0.95129947   -6.9091131    568.70022  0.026358001  0.026407526            3 
 1799000    0.9660921   -6.9451717    566.89334  0.026259651  0.026398681            6 
 1800000   0.97261399   -6.9573828    566.15486  0.026210873  0.026389901            8 
 1801000   0.96997819   -6.8892701    571.03863  0.026422295  0.026381143            7 
 1802000   0.96446975    -6.918869    568.18297  0.026275572  0.026372453            6 
 1803000   0.97518276   -6.9181709    569.60084  0.026326532  0.026363634            5 
 1804000   0.97458332   -6.9297518    568.92398  0.026280672  0.026354895            9 
 1805000   0.97642349    -6.959951    566.92768  0.026173947  0.026346035            8 
 1806000   0.96318756   -6.9513025    567.39572   0.02618105  0.026337087           11 
 1807000   0.99030226   -6.8891056    570.28345  0.026299735  0.026328202            5 
 1808000   0.95569794   -6.9399644     568.6592  0.026210324  0.026319272            9 
 1809000   0.97523546   -6.9225146    568.31063  0.026179778  0.026310332            4 
 1810000   0.96741961   -6.9379119    569.35456  0.026213378  0.026301372            5 
 1811000   0.96076543   -6.9536602    568.28881  0.026149862  0.026292364            8 
 1812000   0.92839037   -6.9547932    568.55645  0.026147739  0.026283359            6 
 1813000   0.98797864   -6.9764643    568.79866   0.02614445  0.026274285            6 
 1814000   0.95315729   -6.9434249    570.84304  0.026223954  0.026265277            5 
 1815000    0.9756686    -6.949043      568.766  0.026114141  0.026256293            4 
 1816000    0.9549734   -6.9301738    568.78015   0.02610041  0.026247292            3 
 1817000   0.93838304   -6.9411645    570.38483  0.026159642   0.02623845            9 
 1818000   0.96124755   -6.9342945     570.1794  0.026135836  0.026229611            3 
 1819000   0.95971157   -6.9172391    572.47917  0.026226827  0.026220914            4 
 1820000   0.97479067   -6.9559655    569.97129  0.026097587  0.026212092            6 
 1821000   0.95425015   -6.9596774    569.99927  0.026084535  0.026203138            6 
 1822000   0.96508985   -6.9501482    570.71262  0.026102846    0.0261943            6 
 1823000   0.95461514   -6.9736945     569.4505  0.026030833  0.026185413            5 
 1824000   0.95841883   -6.9319818    570.81972  0.026079117  0.026176553            3 
 1825000   0.96058492   -6.9432002    571.08164  0.026076787  0.026167817           12 
 1826000   0.95338035   -6.9689921    571.84916  0.026097534   0.02615906            6 
 1827000   0.93643577   -6.9487248    572.11503  0.026095376  0.026150221            4 
 1828000   0.95469881   -6.9845489    569.73486  0.025972596  0.026141344           10 
 1829000   0.94075011    -6.912998    571.66191  0.026046196  0.026132556            5 
 1830000   0.97349532   -6.9717658    570.47884  0.025978089  0.026123799            5 
 1831000   0.94969088   -6.9819969    570.20894  0.025951618  0.026115023            8 
 1832000   0.95076818   -6.9164411    571.41353  0.025992246  0.026106183            9 
 1833000   0.99022566   -6.9815339    572.15155  0.026011618  0.026097382           12 
 1834000   0.94427748   -6.9482336    573.62205  0.026064252  0.026088612            6 
 1835000   0.96208892    -6.961522    573.19815  0.026030797  0.026079832            2 
 1836000   0.94805531   -6.9964185    571.18463  0.025925228   0.02607101            5 
 1837000   0.97422327   -6.9448824    573.70363  0.026025387  0.026062219            4 
 1838000   0.94412089   -6.9951663    571.09614  0.025893006   0.02605326            4 
 1839000   0.94384661   -6.9606355    572.82031  0.025957056  0.026044411            5 
 1840000   0.94598878   -6.9586105    573.00059  0.025951113  0.026035589            8 
 1841000   0.95248697   -6.9817382    572.17384  0.025899594  0.026026831            3 
 1842000   0.94327917   -6.9699171     572.7772   0.02591283  0.026017931            7 
 1843000   0.95747321   -6.9435671    572.67755  0.025894264    0.0260092            5 
 1844000   0.94787698   -6.9428472    574.51964  0.025963469  0.026000496            4 
 1845000   0.95132323   -6.9356276    574.93799  0.025968292    0.0259917            3 
 1846000   0.96679788   -6.9300711    574.05975  0.025914579  0.025982932            6 
 1847000   0.93718018   -6.9543854    574.01455  0.025898509  0.025974208            4 
 1848000   0.96189151   -6.9379631    573.89589  0.025879144  0.025965445            3 
 1849000   0.95096966   -6.9586585    574.00066  0.025869869  0.025956576            4 
 1850000    0.9505082   -6.9019484    576.78309   0.02598122  0.025947794            2 
 1851000    0.9392595   -6.9525452    573.49372  0.025819094  0.025939015            8 
 1852000   0.94310982   -6.9429163    575.90584   0.02591369  0.025930249            3 
 1853000   0.95185746   -6.9194627    574.64462  0.025842985  0.025921552            5 
 1854000   0.94273444   -6.9324682    576.35019  0.025905708  0.025912887            5 
 1855000   0.93339537   -6.9389111    576.33493  0.025891057  0.025904151            3 
 1856000   0.95698007   -6.9358576    575.90949  0.025858005  0.025895344            3 
 1857000   0.94873678   -6.9564155    575.04598   0.02580533  0.025886469            5 
 1858000   0.96973796   -6.9695221     573.7536  0.025733477  0.025877696           10 
 1859000   0.93690164   -6.9487072    574.72231  0.025763058  0.025868975            2 
 1860000   0.94715324   -6.9472726    577.51381  0.025874275  0.025860171            5 
 1861000   0.94493222   -6.9866296    575.76988   0.02578228  0.025851336            2 
 1862000    0.9482882   -7.0042187    574.02227   0.02569022  0.025842491            4 
 1863000    0.9457492   -6.9456683    575.52313  0.025743564  0.025833641            4 
 1864000   0.94669857   -6.9736402    575.32111  0.025720722  0.025824764            3 
 1865000   0.96820282   -6.9674671    574.59891  0.025674661  0.025815902            4 
 1866000   0.94443474   -6.9719985    574.85052  0.025672138  0.025806987            4 
 1867000   0.96241067   -6.9607763    574.16493  0.025627786   0.02579816            5 
 1868000   0.94254501   -6.9885984     577.7631  0.025774585  0.025789238            3 
 1869000   0.97986817   -6.9722601    575.78062  0.025672401  0.025780329            5 
 1870000   0.93766071   -6.9156471    577.41824  0.025731651  0.025771468           11 
 1871000    0.9597956   -6.9875967    577.79314  0.025734596  0.025762643            5 
 1872000   0.95564859   -6.9527749    577.18433  0.025693747  0.025753949            5 
 1873000   0.94575847   -6.9690377    577.48505  0.025693408  0.025745188            8 
 1874000   0.96681573   -6.9810941    577.79842  0.025693633  0.025736424           12 
 1875000   0.94219108    -6.968903    576.10456  0.025604647  0.025727674            5 
 1876000   0.94396824    -6.966511    576.67452  0.025616317  0.025718843            9 
 1877000   0.96092966   -7.0253918    574.37437  0.025500549  0.025709982           10 
 1878000   0.95504945   -6.9722912    577.35234  0.025619113  0.025701113            6 
 1879000    0.9482063   -6.9267439    577.91851  0.025630589  0.025692362            5 
 1880000   0.96291454   -6.9689901     578.1546   0.02562742  0.025683675            2 
 1881000   0.94369224   -6.9833199    578.89262  0.025646492  0.025675051            6 
 1882000   0.95076488   -6.9741699     579.1555  0.025644505  0.025666424            4 
 1883000   0.94469503   -6.9670982    577.97259  0.025578536  0.025657719            7 
 1884000   0.93227248   -6.9722978     578.0353  0.025567733  0.025649099           10 
 1885000   0.96205486   -6.9852374    577.16801  0.025515827  0.025640468            4 
 1886000   0.93629047   -6.9375025    579.43461  0.025602448  0.025631735            7 
 1887000   0.95948037    -6.986951    578.09718  0.025529817  0.025622929            3 
 1888000   0.94666531   -6.9693781    579.42377  0.025574849  0.025614152            3 
 1889000   0.96609467   -6.9354042    579.13464  0.025548555  0.025605384            5 
 1890000   0.93856868    -6.985651    578.58537  0.025510819   0.02559674            5 
 1891000   0.95300815   -6.9658389    578.81326  0.025507371  0.025587968            3 
 1892000   0.92286792   -7.0054216     579.5461  0.025526167  0.025579203            7 
 1893000   0.91961213   -6.9444637    580.29046  0.025545451  0.025570519            3 
 1894000   0.97402526   -6.9926166    579.14114  0.025481395  0.025561939            7 
 1895000   0.93146709    -6.996143    580.07594  0.025509056  0.025553224            7 
 1896000   0.96120768   -6.9808583    579.60016   0.02547469  0.025544412            3 
 1897000   0.94676752   -6.9641315    580.52931  0.025502078  0.025535662            5 
 1898000   0.95124214   -6.9628675    581.98025  0.025552347  0.025526853            3 
 1899000   0.95173642   -6.9866282    579.75755  0.025441353   0.02551806            7 
 1900000      0.94479   -6.9593423    581.19117  0.025490841  0.025509324           10 
 1901000    0.9381893   -6.9982113    578.17203  0.025345083  0.025500476           12 
 1902000   0.94031891   -6.9970449    579.53516  0.025391481  0.025491552            6 
 1903000   0.94182709   -6.9926531    580.27376  0.025410482  0.025482586            5 
 1904000   0.94017681   -6.9581533    580.19206   0.02539356  0.025473719            6 
 1905000   0.93428397     -6.97277    581.07237  0.025418739  0.025464878            4 
 1906000   0.95593105   -6.9686768    581.45529  0.025422145  0.025456192            5 
 1907000   0.94369239   -6.9605764    580.45536  0.025365118  0.025447536            3 
 1908000   0.95343299   -6.9595593    582.32896  0.025433655  0.025438783            9 
 1909000    0.9458349   -6.9607466    582.55546  0.025430219  0.025429997            8 
 1910000   0.93232063   -6.9792714    581.03256  0.025350461   0.02542128            6 
 1911000   0.95109375   -6.9510011    581.51182  0.025358095  0.025412499            6 
 1912000    0.9348546   -6.9636214    581.80144  0.025357455  0.025403778            4 
 1913000   0.93594942   -6.9699169    581.23797  0.025319654  0.025395021            7 
 1914000   0.96107732   -6.9781158    582.96809  0.025381752  0.025386325            4 
 1915000   0.93972138   -6.9467997    582.84345  0.025363074  0.025377691            6 
 1916000   0.94563375   -6.9771901    582.67226  0.025342391  0.025368985            6 
 1917000   0.92501058   -7.0139723    580.54048  0.025236501  0.025360171           12 
 1918000   0.95231541   -7.0081237    580.73724  0.025231892  0.025351306            8 
 1919000   0.95497024   -7.0014614    581.47717  0.025250876  0.025342421            5 
 1920000   0.95149576   -7.0268525    580.74621  0.025205999  0.025333549            7 
 1921000    0.9498301   -7.0199272     582.6741  0.025276509  0.025324623            4 
 1922000   0.94745741   -7.0017772     581.1344  0.025196601  0.025315815            4 
 1923000   0.93916456   -6.9719812    583.33244   0.02527875  0.025307108            4 
 1924000   0.94682521   -6.9334013    583.92847  0.025291427  0.025298377            8 
 1925000   0.94458838   -6.9617302     583.8115  0.025273225   0.02528973            7 
 1926000   0.94869756   -6.9617574    584.67376  0.025297411  0.025281102            3 
 1927000   0.94361911   -6.9657834    585.15036  0.025304894  0.025272473            4 
 1928000   0.92759257   -6.9940785    582.62117   0.02518245  0.025263716            6 
 1929000   0.95862788    -6.962924    583.20967  0.025194819  0.025254894            6 
 1930000   0.92784555   -7.0089077    583.09279  0.025176718  0.025246093            7 
 1931000   0.95257598   -7.0149111    581.08371  0.025076977  0.025237263            9 
 1932000   0.95416019   -6.9746935    585.57742  0.025257825  0.025228464            6 
 1933000   0.93425079   -7.0336712    581.15457  0.025054086  0.025219479            8 
 1934000   0.94872898   -7.0161016    580.62203  0.025018185  0.025210548            6 
 1935000     0.942802   -7.0033486    581.50125   0.02504312  0.025201533            4 
 1936000   0.92612464   -7.0142954    581.36406  0.025024279  0.025192611            6 
 1937000   0.94627401   -7.0033919    582.58401  0.025063845  0.025183541            6 
 1938000   0.95449576   -7.0146204    582.64069  0.025053349  0.025174573            5 
 1939000   0.93674285   -6.9738682    584.08069  0.025102316  0.025165612            5 
 1940000   0.94932617   -6.9883322    582.76025  0.025032657  0.025156682            5 
 1941000    0.9265954   -7.0286084     583.5348  0.025053014  0.025147813            3 
 1942000   0.96129293   -6.9964361    582.93088  0.025014199  0.025138924            3 
 1943000    0.9236056   -7.0177091    583.48934  0.025025276  0.025129978            3 
 1944000   0.93816965   -6.9634214    583.89441  0.025029767  0.025121104            6 
 1945000   0.93356079   -7.0034195    584.09753  0.025025601  0.025112245           11 
 1946000   0.96090557   -6.9911781    585.03967  0.025053086  0.025103392            8 
 1947000    0.9466735   -6.9909274    582.97462  0.024951833  0.025094564            4 
 1948000   0.93266698   -7.0188834    582.58056  0.024922166  0.025085714            5 
 1949000   0.94221181   -6.9911253    583.75916  0.024959773   0.02507675            3 
 1950000   0.96674558   -6.9896066    584.65744  0.024985361  0.025067979            3 
 1951000   0.93139246   -6.9975108    583.84773  0.024937969  0.025059109            4 
 1952000   0.94797128   -6.9914508    584.68373  0.024960883  0.025050244            3 
 1953000   0.92194863   -6.9932144    585.81312  0.024996293  0.025041462            3 
 1954000   0.93905494   -6.9327975    586.31768  0.025005019  0.025032736            5 
 1955000   0.93576986   -6.9633743    586.29026   0.02499106  0.025024075            2 
 1956000   0.93230711   -6.9467216     586.6013  0.024991534  0.025015337            5 
 1957000   0.92366675   -6.9501485    586.39007   0.02496977  0.025006565            9 
 1958000   0.94448851   -6.9631311    588.54404  0.025048691  0.024997875            7 
 1959000   0.94613796   -6.9837296    585.37033  0.024900899  0.024989115            9 
 1960000   0.92048039   -7.0117097    587.47024  0.024977476  0.024980359            3 
 1961000   0.93439458   -7.0044171    585.93507  0.024899501  0.024971593            3 
 1962000   0.93648376   -6.9939525    586.80248  0.024923653  0.024962877            5 
 1963000   0.93388813   -7.0507993    586.58354  0.024901661  0.024954071            7 
 1964000   0.90177661   -7.0358642    584.98025  0.024820954  0.024945224            4 
 1965000    0.9568137   -7.0184539    585.31384   0.02482247  0.024936483           14 
 1966000   0.93085995   -6.9743554    587.42768  0.024899444  0.024927762            4 
 1967000   0.93301259   -6.9788682    590.54672  0.025018926  0.024919057           12 
 1968000    0.9600705   -7.0286219    586.14666  0.024819896  0.024910259            3 
 1969000   0.91528302   -7.0268627    585.33382  0.024772889  0.024901384            5 
 1970000   0.94261683   -6.9694735    587.51338  0.024852512  0.024892702            4 
 1971000   0.92123924   -7.0106454    588.59649  0.024885696  0.024884067            7 
 1972000   0.94413077   -6.9970476    588.61297  0.024873773  0.024875387            5 
 1973000    0.9202315   -6.9886718    588.71597  0.024865517  0.024866696            5 
 1974000   0.92159969   -6.9535944    590.84145  0.024942648  0.024858019            6 
 1975000    0.9313175   -7.0355663    588.18838  0.024818075  0.024849353            6 
 1976000   0.95328643   -6.9832899    589.15955  0.024846472  0.024840633            3 
 1977000   0.92352748   -6.9812934    587.93302  0.024782205  0.024831999            6 
 1978000   0.92674673    -6.996001    588.32036  0.024785994  0.024823329            6 
 1979000   0.93676297   -7.0314034    588.76083  0.024792017   0.02481457           10 
 1980000   0.93013729   -7.0543553    588.53008  0.024769784  0.024805881            6 
 1981000   0.93327923    -7.008782    588.46438  0.024754517  0.024797129            5 
 1982000   0.93963825    -7.009597    591.45276  0.024867674   0.02478838            4 
 1983000   0.93501634   -7.0322084    586.91888  0.024664603  0.024779669            4 
 1984000   0.92730345   -7.0153548    586.65332  0.024641017  0.024770941           13 
 1985000   0.93733468   -7.0179762    588.73256  0.024715892  0.024762187            5 
 1986000   0.94631208    -6.997766    589.20255  0.024723169  0.024753579            4 
 1987000   0.93791117   -7.0067862    589.52316  0.024724172  0.024744918            3 
 1988000   0.95036866   -7.0021457    587.57276  0.024629978  0.024736255            9 
 1989000   0.92491785   -7.0241224    590.52086  0.024741112  0.024727525            3 
 1990000   0.93870444   -7.0176313    589.35051   0.02467967  0.024718868            8 
 1991000   0.95798602   -7.0218742    589.33248   0.02466652  0.024710216            6 
 1992000   0.93628138   -6.9967037    590.10763  0.024686564  0.024701533            5 
 1993000   0.93952789   -6.9813277    590.94992  0.024709396  0.024692934           13 
 1994000   0.93685931   -7.0329683    589.88583  0.024652534   0.02468429            9 
 1995000   0.95728164   -7.0186019     590.1167   0.02464982  0.024675675            8 
 1996000     0.950386   -6.9964227    589.93956  0.024630075  0.024666981            4 
 1997000   0.94372623   -7.0076874    589.72077  0.024608612  0.024658258            7 
 1998000   0.93170143   -7.0076404    589.30074  0.024578776  0.024649565            8 
 1999000    0.9314237   -6.9950044    591.61563  0.024662983  0.024640888            7 
 2000000   0.92289945   -7.0043834     588.7225  0.024530104  0.024632152           16 
 2001000   0.91473875    -6.995597    590.07749  0.024574275  0.024623442            7 
 2002000   0.90427233   -6.9736403    590.03708  0.024560318  0.024614757            3 
 2003000   0.94578713   -6.9919127    591.92451  0.024626582  0.024606163            6 
 2004000   0.93748603   -6.9876706    593.03779  0.024660587  0.024597599            3 
 2005000    0.9293379     -7.03112    590.79976  0.024555269  0.024588903            3 
 2006000   0.94991403   -7.0420291    590.27701  0.024521311  0.024580244            6 
 2007000   0.95497673   -7.0324693    590.02168  0.024498492  0.024571536            5 
 2008000   0.92381689   -7.0219731    591.20644   0.02453546  0.024562954            2 
 2009000   0.92912254   -6.9652269    594.33194  0.024652893  0.024554406            2 
 2010000    0.9355101   -6.9811971    592.45132  0.024562658  0.024545832            2 
 2011000   0.93399617   -6.9953091    593.35443  0.024587868  0.024537321            3 
 2012000   0.94566901   -7.0051712    592.42802  0.024537277  0.024528757            4 
 2013000   0.92636658   -7.0224369    591.77046  0.024497866  0.024520105            7 
 2014000   0.93865026   -7.0207719    592.04568   0.02449709  0.024511402            4 
 2015000   0.92798962   -6.9884083    593.20261   0.02453278  0.024502713            5 
 2016000   0.91082162    -7.024599    591.54609  0.024452137  0.024493921            5 
 2017000   0.92263494   -7.0337094    591.85095  0.024452609  0.024485096            7 
 2018000       0.9251   -7.0292924    591.09051  0.024409089  0.024476301            3 
 2019000   0.96047606   -7.0246858    593.18266  0.024483352  0.024467564            8 
 2020000   0.92359277   -7.0746089    589.96748  0.024338593  0.024458835            5 
 2021000   0.95066786   -7.0079457    593.10563  0.024455947  0.024450029            7 
 2022000     0.926181   -6.9887424    594.04779  0.024482682  0.024441384           11 
 2023000   0.92070976   -7.0215381      592.398   0.02440262  0.024432664            6 
 2024000    0.9130409   -7.0415949    592.06007   0.02437665  0.024423804            2 
 2025000     0.918993   -7.0528101    591.29267  0.024333032   0.02441504            8 
 2026000   0.89960681   -7.0466143    592.50005  0.024370683   0.02440625            9 
 2027000   0.90747195   -7.0617136    591.49524  0.024317351  0.024397484            5 
 2028000   0.93449426   -7.0322448    593.46186  0.024386171  0.024388751            6 
 2029000     0.899804    -7.016127     591.7132  0.024302333  0.024379939            6 
 2030000   0.92809941    -7.003614    592.24583  0.024312226  0.024371121            5 
 2031000    0.9113693   -7.0097448    593.17061    0.0243382  0.024362351            3 
 2032000   0.94709402   -7.0095195    594.21609  0.024369098  0.024353557            8 
 2033000   0.90927283    -7.006616    593.43401  0.024325054  0.024344733            7 
 2034000   0.92456114   -7.0190044    592.54074  0.024276497  0.024336002            4 
 2035000   0.92786565   -7.0390174    591.80951  0.024234624  0.024327276            5 
 2036000   0.94846411   -7.0357716     592.0688  0.024233333  0.024318594            5 
 2037000   0.94323924   -7.0077388    592.75627  0.024249561  0.024309897           11 
 2038000   0.90585819   -7.0744563    590.74446    0.0241554  0.024301101           10 
 2039000    0.9442585   -7.0720814    592.05909  0.024197282  0.024292194            5 
 2040000   0.93155929   -7.0491051    593.22775   0.02423316  0.024283416            5 
 2041000   0.92968745   -7.0456095    591.70812   0.02415924  0.024274632            7 
 2042000   0.93473103   -7.0447861     593.6844  0.024228061  0.024265959            4 
 2043000   0.92892919   -7.0262638     592.6422  0.024173691  0.024257251            6 
 2044000   0.92134659   -7.0307326     593.2935  0.024188417  0.024248521            4 
 2045000   0.92717624   -7.0231316    592.85994  0.024158922  0.024239848            8 
 2046000   0.91707286   -7.0109987    593.01637  0.024153485  0.024231169            2 
 2047000   0.92277609   -7.0447297    594.35702  0.024196263  0.024222484            4 
 2048000   0.92941795   -7.0593684    596.14054  0.024257021  0.024213796            6 
 2049000   0.92000211    -7.093962    593.66605  0.024144544  0.024205018            8 
 2050000   0.91436518   -7.0436365    595.17307  0.024194027  0.024196261            7 
 2051000   0.92916303   -7.0755656    594.57097  0.024157767  0.024187577            5 
 2052000   0.92423726   -7.0661309    592.63636  0.024067428  0.024178825            7 
 2053000   0.91268386    -7.082774    594.74671  0.024141367  0.024170064           10 
 2054000   0.92071185   -7.0318745    595.10831  0.024144284  0.024161316            4 
 2055000   0.90615706   -7.0465963    593.62188  0.024072258  0.024152614            5 
 2056000   0.92221335   -7.0969483    591.97821  0.023993929  0.024143846            7 
 2057000   0.91790673   -7.0386246    594.15692  0.024070528  0.024135067            9 
 2058000   0.92145464   -6.9815144    596.08295  0.024136822  0.024126351            7 
 2059000    0.9203849   -7.0607263    594.07849  0.024043973  0.024117637            8 
 2060000   0.91434451   -7.0773546    593.76892  0.024019778  0.024108823            9 
 2061000   0.91160392   -7.0639852    595.95228  0.024096405  0.024100021           12 
 2062000   0.91865427   -7.0503051    595.33976  0.024059964  0.024091185            7 
 2063000   0.93429585   -6.9998435    596.09989  0.024079006  0.024082458           12 
 2064000   0.92156858   -7.0331467    595.44478  0.024040891  0.024073738            6 
 2065000   0.92940757   -7.0327936    594.40225  0.023987177   0.02406498            7 
 2066000   0.89567224    -7.020907    595.47649  0.024018897  0.024056291            6 
 2067000   0.92143249   -7.0748606    594.51536  0.023968527  0.024047555            5 
 2068000   0.92773766   -7.0319727    596.14046  0.024022423  0.024038872            6 
 2069000   0.92263755   -7.0270463    596.33524  0.024018658  0.024030256            3 
 2070000   0.90458533   -7.0491249    595.87771  0.023988636  0.024021633            6 
 2071000   0.94303366   -7.0459545    596.69843  0.024010077  0.024012987            5 
 2072000    0.9348109   -7.0715536    594.98276  0.023929487  0.024004327           22 
 2073000   0.91947925   -7.0374791    596.24113  0.023968529  0.023995686            6 
 2074000   0.91958874   -7.0340442    598.85017  0.024061804  0.023987074            4 
 2075000   0.91775056   -7.0246212    597.39601  0.023991808  0.023978518            6 
 2076000   0.91951125   -7.0633597    596.51066  0.023944712  0.023969895            5 
 2077000   0.90592973   -7.0648305    596.50705  0.023933038   0.02396122            8 
 2078000   0.92923171   -7.0729468    596.69555  0.023929081  0.023952553            4 
 2079000   0.93520964    -7.069673       596.64  0.023915344  0.023943851            7 
 2080000   0.92764419   -7.0473441    597.18538  0.023925696  0.023935149           12 
 2081000   0.90642463   -7.0029407    598.05012  0.023948827  0.023926428            4 
 2082000   0.92365596   -7.0503828    597.17458  0.023902281  0.023917774            7 
 2083000   0.90994502   -7.0721453    595.45065  0.023821838   0.02390915            9 
 2084000   0.90719948    -7.048029    597.67093  0.023899189  0.023900463            8 
 2085000   0.92819919    -7.054986     598.0904  0.023904492  0.023891769            6 
 2086000   0.90326985   -7.0887144     596.4851  0.023828903  0.023883098            8 
 2087000    0.9292227   -7.0583664    598.78994  0.023909517  0.023874418            7 
 2088000   0.91674003   -7.0762691    599.10765  0.023910746  0.023865835           10 
 2089000   0.93063824    -7.039869      599.104  0.023899154  0.023857265            6 
 2090000   0.90429463   -7.0893493    599.12658   0.02388862  0.023848729            8 
 2091000   0.90498148   -7.0517867    600.27793   0.02392308  0.023840207            6 
 2092000   0.92049092   -7.0679985    598.61757  0.023845505  0.023831714            8 
 2093000   0.91012241   -7.0574864    599.04833  0.023851263  0.023823198           12 
 2094000   0.90237852   -7.0879197     596.2398  0.023728104  0.023814693            8 
 2095000   0.91775551   -7.0648947    599.04371   0.02382831  0.023806041            6 
 2096000   0.91543831   -7.0794425    598.18072   0.02378263  0.023797461            5 
 2097000   0.91665414   -7.0651354    599.28989  0.023815367  0.023788949            5 
 2098000   0.91208585   -7.0911935    598.15895  0.023759094  0.023780473           13 
 2099000   0.90741545   -7.0924993    598.40966  0.023757728  0.023771994            4 
 2100000   0.92709107   -7.0769049    599.03779  0.023771341  0.023763492            7 
 2101000   0.92124707   -7.0657204    600.11215   0.02380264   0.02375507            4 
 2102000   0.92596713   -7.0830177    600.07507  0.023789846   0.02374665            9 
 2103000   0.90797527    -7.041292    602.21131  0.023863184   0.02373832           11 
 2104000   0.94750353   -7.0792381    600.39954  0.023780083  0.023729916            7 
 2105000   0.91334467   -7.0938959    600.94841  0.023790515   0.02372149            5 
 2106000   0.93202608   -7.0752323    602.16205  0.023827242   0.02371311            4 
 2107000   0.90509046   -7.0717479      601.357  0.023784093  0.023704732            2 
 2108000   0.92582035   -7.0882903    598.96126  0.023678102  0.023696244            5 
 2109000   0.90516389   -7.0691523    599.37411  0.023683188  0.023687843            4 
 2110000   0.90673195   -7.0438522    603.64663  0.023840704  0.023679563            5 
 2111000   0.91288707   -7.0576583    602.96878  0.023802652  0.023671334            5 
 2112000   0.92876853   -7.0483265    601.20077  0.023721621  0.023663084            6 
 2113000   0.91746744    -7.075592     601.0948  0.023706216  0.023654634           12 
 2114000   0.91400983   -7.1015332    602.55555  0.023752584  0.023646202           12 
 2115000   0.90695842   -7.0782225    602.51255  0.023739659  0.023637761            5 
 2116000   0.91637528   -7.0558669    602.74089  0.023737433  0.023629398            8 
 2117000   0.91392933   -7.0488905    602.52172  0.023717592  0.023620945           11 
 2118000    0.9198198   -7.0840256    600.83323   0.02363996  0.023612566            8 
 2119000   0.92450932   -7.0850755    602.54266   0.02369603  0.023604128            9 
 2120000   0.89769616   -7.0560938    603.68415  0.023729723  0.023595769            7 
 2121000    0.9144906    -7.067932    602.28178  0.023663436  0.023587397            9 
 2122000    0.9003381    -7.041941    602.69746  0.023668609  0.023579101            3 
 2123000   0.93259806   -7.0587512    603.82742  0.023701814  0.023570841            5 
 2124000   0.91460691   -7.0812567    604.01679  0.023698085  0.023562516            3 
 2125000   0.90207252   -7.0859409    601.97828  0.023606991  0.023554137            4 
 2126000   0.90977421   -7.0875364     603.5404  0.023657118  0.023545758            5 
 2127000   0.90556594   -7.0532905    603.92836  0.023661196  0.023537431            8 
 2128000   0.92078128   -7.1033533    603.85194  0.023647084  0.023529118            4 
 2129000   0.90828489   -7.0555263    604.66577  0.023667832  0.023520778           11 
 2130000   0.89508058   -7.0616284    603.92234  0.023627634  0.023512512            4 
 2131000   0.91267749   -7.0761873    604.45173  0.023637249  0.023504231            8 
 2132000   0.91939926   -7.0760362    604.49658  0.023627915  0.023495968            5 
 2133000   0.91203761   -7.0778313    602.28643   0.02353049  0.023487699            5 
 2134000   0.89522361   -7.0735085    605.31387  0.023637686  0.023479374            3 
 2135000   0.92226112   -7.0999207    604.05684   0.02357755  0.023471069            6 
 2136000   0.91339973   -7.0725822    603.37831   0.02354004  0.023462724            2 
 2137000   0.91430533   -7.0258282    605.33296  0.023605247  0.023454541            8 
 2138000   0.89198074   -7.0542224    605.04174  0.023582855   0.02344639            8 
 2139000   0.88620059   -7.0496237    605.53798  0.023591163  0.023438221            4 
 2140000   0.90806022   -7.0550617    605.08828  0.023562628  0.023430026            3 
 2141000   0.92518027   -7.0819735    603.62344  0.023494607  0.023421821            4 
 2142000   0.89520127   -7.0911272    603.67721   0.02348573  0.023413564            4 
 2143000   0.93890538   -7.0829148    604.46951   0.02350558  0.023405311            4 
 2144000   0.90466646   -7.0666984    603.89639  0.023472341  0.023397015            6 
 2145000   0.90711165     -7.07047    605.21875  0.023512772  0.023388798            4 
 2146000    0.8984467   -7.1068363    605.57694  0.023515725  0.023380613            4 
 2147000   0.91804803   -7.0745354    605.17188   0.02348905   0.02337237            8 
 2148000   0.90572166   -7.1004512    604.30905   0.02344464  0.023364135            7 
 2149000   0.93324252   -7.1484979     604.8498    0.0234547  0.023355853            6 
 2150000   0.90691805   -7.0778563     607.1405  0.023532578  0.023347633            4 
 2151000   0.87548741   -7.0824041    605.98233  0.023476768  0.023339406            4 
 2152000   0.89237247   -7.0910685    606.18369  0.023473656  0.023331227            4 
 2153000   0.90154259   -7.1056419    605.36509  0.023431068  0.023323057           14 
 2154000   0.89124843   -7.1028347    606.57624  0.023467047  0.023314861            6 
 2155000   0.88999715   -7.0677149    605.96888  0.023432671  0.023306627           10 
 2156000   0.90126515   -7.0643859    607.95373  0.023498521  0.023298471            5 
 2157000   0.90017558   -7.0831347    606.73178  0.023440418  0.023290277            7 
 2158000   0.89898469   -7.0568248    607.93385  0.023475975  0.023282038            4 
 2159000   0.89027835   -7.1054031    606.67842  0.023416644  0.023273765            5 
 2160000   0.89613631    -7.064503    607.89253  0.023452644  0.023265479            2 
 2161000    0.9105382   -7.0507648    607.34864  0.023420818   0.02325721           10 
 2162000    0.9235232    -7.078723     604.8875  0.023315121  0.023249062            4 
 2163000   0.89031087   -7.0716911    606.04352   0.02334888  0.023240769            3 
 2164000   0.88923354   -7.1075358    605.91615  0.023333185  0.023232434            7 
 2165000   0.91466909   -7.1064308    605.46311   0.02330497  0.023224108            5 
 2166000   0.91731186   -7.1112586    604.77958  0.023267912  0.023215728            3 
 2167000   0.91628856   -7.0781728    605.32508  0.023278152  0.023207371            6 
 2168000   0.92395841   -7.0883966    607.82681  0.023363577  0.023199027            5 
 2169000   0.91353983   -7.0886375    607.56243  0.023342648  0.023190714            7 
 2170000   0.91723596    -7.106738    605.16213  0.023239713  0.023182357            7 
 2171000   0.92555818   -7.0793385    607.66625  0.023325129  0.023174056            7 
 2172000    0.9022662   -7.0718337    607.67153  0.023314592  0.023165798            8 
 2173000   0.90189975   -7.1105878    606.66653  0.023265322  0.023157508            3 
 2174000   0.92931483   -7.1128544    606.55093  0.023250189   0.02314917            5 
 2175000   0.90519752    -7.090996    605.87139  0.023213463  0.023140818            6 
 2176000   0.90673313   -7.1151246    606.47624  0.023225959   0.02313245            9 
 2177000   0.91352799   -7.1037204    609.15827  0.023317955  0.023124185            6 
 2178000   0.89681653   -7.0744161    609.28756  0.023312196  0.023115964           12 
 2179000    0.8929309   -7.1042908    606.82996   0.02320751  0.023107743            6 
 2180000   0.91031137   -7.1011316    608.06144  0.023243939  0.023099488            4 
 2181000   0.91098736    -7.074281    608.09306  0.023234489  0.023091252            5 
 2182000    0.9126952   -7.0938126     609.0323  0.023259712  0.023083012            6 
 2183000   0.89850323   -7.0531132    609.37128  0.023261997  0.023074794            6 
 2184000   0.90288816   -7.0946528    608.70189  0.023225805  0.023066585            8 
 2185000   0.90594928   -7.1234649    608.15498  0.023194316   0.02305838            5 
 2186000   0.91250156   -7.1094493    607.43884  0.023156406  0.023050105            4 
 2187000   0.89954366   -7.0913382    609.02346  0.023206198  0.023041838           17 
 2188000   0.89209587   -7.0736283    610.24852   0.02324225  0.023033573           10 
 2189000   0.91752321    -7.138687    605.87761  0.023065236  0.023025287            8 
 2190000   0.89484499   -7.0888067    608.13828  0.023140726  0.023017043            8 
 2191000   0.91014237   -7.0846443    609.69181  0.023189252  0.023008868           12 
 2192000   0.89723892   -7.1013071    609.81323  0.023183289  0.023000709            4 
 2193000   0.90499032   -7.1361582    608.32537  0.023116179  0.022992571            9 
 2194000   0.90852937   -7.0697855    611.65515  0.023232116  0.022984434            6 
 2195000   0.90865628   -7.1019301    610.87465    0.0231919  0.022976373            8 
 2196000   0.88780793   -7.0592997    612.32576  0.023236405  0.022968326            6 
 2197000   0.90615382   -7.1309607    608.66729  0.023087061  0.022960285            9 
 2198000   0.91365412   -7.0524233    610.93304   0.02316246  0.022952191            3 
 2199000   0.90781337   -7.1050043    610.65059  0.023141223  0.022944157            9 
 2200000   0.89127176   -7.0833281     610.2568  0.023115788  0.022936098            5 
 2201000   0.87972638   -7.1352707    608.46165  0.023037318  0.022927992            9 
 2202000   0.88620219   -7.1034714    610.29768   0.02309634   0.02291986            5 
 2203000   0.89551926   -7.0790666    610.76458  0.023103517  0.022911779           10 
 2204000   0.89010534   -7.1180182     611.1742  0.023108522  0.022903662           10 
 2205000   0.89863947   -7.1176766     610.7374  0.023081534  0.022895555           10 
 2206000   0.91243702   -7.1279857    609.88571  0.023038898  0.022887418            5 
 2207000   0.87881647   -7.1343604    609.73008  0.023022583  0.022879321            6 
 2208000   0.88979403    -7.141168    610.11649   0.02302674  0.022871242            5 
 2209000   0.88588515   -7.1136279    611.42678  0.023065745   0.02286311            8 
 2210000    0.8962352   -7.1176773    611.19067  0.023046405  0.022854947            7 
 2211000   0.90683149   -7.1319317    609.40063  0.022968514  0.022846764            7 
 2212000   0.88707815   -7.1080268    610.04416  0.022982375  0.022838605            4 
 2213000   0.90783278   -7.1109466    611.38718  0.023022563  0.022830486            7 
 2214000   0.89445613   -7.1016189    610.48373  0.022978159   0.02282235            3 
 2215000   0.88783447   -7.0912872    610.81841  0.022980377  0.022814289           10 
 2216000   0.91396473   -7.1185833    611.03988  0.022978335  0.022806176            8 
 2217000   0.89508007   -7.1273695    611.07787  0.022969398  0.022798026            6 
 2218000   0.89066952   -7.1321316    609.98089  0.022917827  0.022789853            8 
 2219000   0.91067924   -7.1691575    608.82927  0.022864251  0.022781653            3 
 2220000   0.89133846   -7.1106092    612.10918  0.022977071  0.022773443            8 
 2221000    0.8920648   -7.1345893     609.8122  0.022880542  0.022765313            6 
 2222000   0.90183992   -7.1379996    611.68267  0.022940394  0.022757107            7 
 2223000   0.89499317    -7.157825    610.31692  0.022878877  0.022748872            7 
 2224000   0.90150742   -7.1408527    612.78414  0.022961037  0.022740704            5 
 2225000   0.88552593   -7.1043686    612.55378  0.022942089  0.022732489            4 
 2226000   0.89778237   -7.1751461    608.64384  0.022785409  0.022724265            7 
 2227000   0.87976544   -7.1402757    612.68757  0.022926492  0.022716068            9 
 2228000   0.91471123   -7.1270986     611.9348  0.022888046  0.022707969            8 
 2229000   0.89484778   -7.1546174    610.50116   0.02282418  0.022699842            8 
 2230000   0.90711892   -7.1293161     612.2103  0.022877814  0.022691705           10 
 2231000   0.88850166   -7.1250645    612.45627  0.022876747  0.022683604            9 
 2232000   0.91045179   -7.1010426    613.80252  0.022916761  0.022675533           16 
 2233000   0.90485396   -7.1171746    612.93387  0.022874081  0.022667498            8 
 2234000   0.89510178   -7.1409455    613.78641  0.022895643  0.022659457           10 
 2235000   0.88749192   -7.1301085    613.13158  0.022860984  0.022651385            7 
 2236000   0.86451748    -7.113857    612.41773  0.022824155  0.022643312            9 
 2237000   0.89409787   -7.1154607    613.18438  0.022842512  0.022635274            4 
 2238000   0.90339096   -7.1133496    613.60294   0.02284789  0.022627243            5 
 2239000   0.92067922   -7.1283269    613.70374  0.022841437  0.022619278            4 
 2240000   0.90831638   -7.1238005    612.66386  0.022792554  0.022611276            3 
 2241000    0.8763702   -7.0997638    614.02257  0.022832908  0.022603317            9 
 2242000   0.87785896   -7.1329674    613.63754  0.022808413  0.022595305            9 
 2243000   0.90436105   -7.0991892    615.67104  0.022873794  0.022587377            3 
 2244000    0.8920498   -7.1149606    614.60943  0.022824177  0.022579493            8 
 2245000   0.90335589   -7.1043965    613.97015   0.02279028  0.022571587            9 
 2246000   0.89725722    -7.140942     615.4962  0.022836754  0.022563662            5 
 2247000   0.89937195   -7.1657396    612.34732   0.02270981  0.022555624            8 
 2248000   0.87639298   -7.1275487    613.49718  0.022742333  0.022547594           11 
 2249000   0.88724386   -7.1529226    614.90699  0.022784459  0.022539596            4 
 2250000     0.896851   -7.1657315    612.74216  0.022694154  0.022531588           11 
 2251000   0.90520851   -7.1674271    613.51372  0.022712636  0.022523534            5 
 2252000   0.90483273   -7.1168255    615.63606  0.022781086  0.022515522            5 
 2253000    0.8914328   -7.1055437    615.27494  0.022757617  0.022507569            4 
 2254000   0.87498319   -7.1335522    615.00546  0.022737558  0.022499698            5 
 2255000   0.88766212   -7.1708067    613.94003  0.022688102  0.022491789            3 
 2256000   0.90705704   -7.1526374    614.76796  0.022708627  0.022483851            6 
 2257000   0.89038362   -7.1450553    614.96096  0.022705692  0.022475897           10 
 2258000    0.8877869   -7.1613948    615.32363  0.022709021  0.022467929            8 
 2259000   0.89436988    -7.157518    615.44097  0.022703297  0.022459947            7 
 2260000   0.89943254   -7.1242537    615.14268  0.022682252  0.022451933            9 
 2261000   0.90041049   -7.1768771    613.15999  0.022599145  0.022443968            7 
 2262000   0.89359224    -7.159728    615.57955  0.022678292  0.022435981            5 
 2263000   0.88955289    -7.107776    617.09992  0.022724257   0.02242804            8 
 2264000   0.90478044   -7.1901044    614.64068    0.0226237  0.022420102            9 
 2265000   0.88815139   -7.1377888    616.64544   0.02268747  0.022412172            4 
 2266000   0.87088981   -7.1202723    618.47743   0.02274483  0.022404318            4 
 2267000   0.88865412   -7.1342862    617.39183  0.022694892  0.022396544            6 
 2268000   0.89096222    -7.114913    619.84708  0.022775099  0.022388743            5 
 2269000   0.88273879    -7.121472    618.53212  0.022716767   0.02238091            5 
 2270000   0.90742463   -7.1295477    616.77229  0.022642155  0.022373095           11 
 2271000   0.87366718   -7.0851193     619.1052  0.022717789   0.02236529            2 
 2272000   0.88595492   -7.1389773     617.4167  0.022645859  0.022357522           19 
 2273000   0.88740001   -7.1328912    618.23755   0.02266599  0.022349703            7 
 2274000   0.89197335   -7.1330174    618.28866  0.022657896  0.022341863            4 
 2275000   0.86969236   -7.1509543    617.76985  0.022628932  0.022334005            9 
 2276000   0.88313397   -7.1908274     617.2943  0.022601578  0.022326161            9 
 2277000   0.89392192   -7.1584359    617.46775     0.022598  0.022318301           26 
 2278000   0.90204942   -7.1718437     616.4082  0.022549319  0.022310416            3 
 2279000   0.91201127    -7.192521    616.77973   0.02255301  0.022302532            7 
 2280000   0.87194116   -7.1480227    618.34642  0.022600381  0.022294653            9 
 2281000   0.86774903   -7.1876358    616.81769  0.022534623   0.02228681            5 
 2282000   0.90588704   -7.1986618    617.07016  0.022533967  0.022278909            6 
 2283000   0.87582815   -7.1663885    616.81456  0.022514767  0.022271005            6 
 2284000    0.8735822    -7.144545    617.56623  0.022532335   0.02226315            6 
 2285000   0.87273918   -7.1950917    616.86015  0.022496723  0.022255276           12 
 2286000   0.88448433   -7.1448158    617.95494  0.022526791  0.022247411            4 
 2287000   0.87349051   -7.1615762    618.76774  0.022546558  0.022239625            6 
 2288000   0.89175263   -7.1286684    620.47261  0.022598798  0.022231959            6 
 2289000   0.87685512   -7.1207107    620.14084  0.022576847   0.02222428            8 
 2290000   0.88114817   -7.1311264    619.47814  0.022542873  0.022216639            4 
 2291000   0.89249949   -7.1758484    617.74641  0.022470043  0.022208952           11 
 2292000   0.90400553   -7.1529531    620.74444  0.022569242  0.022201249            5 
 2293000   0.88747096   -7.1477391    616.96815   0.02242216  0.022193573            4 
 2294000   0.86498592   -7.1786588    617.32198  0.022425239  0.022185849            7 
 2295000    0.8754969    -7.168548    618.53816  0.022459628  0.022178115           14 
 2296000   0.88251916    -7.124597    622.01669  0.022576099  0.022170457           10 
 2297000   0.87828702   -7.1359627    619.60073  0.022478622  0.022162799           15 
 2298000   0.87995072   -7.1483734    621.27041  0.022529388  0.022155136            9 
 2299000     0.868927   -7.1297114    620.26033  0.022482976  0.022147508            4 
 2300000   0.89701596   -7.1667672    621.54681  0.022519812  0.022139861           10 
 2301000   0.89149403    -7.145201    618.62188  0.022404095  0.022132174            5 
 2302000   0.88996552   -7.1604318    618.92443  0.022405315   0.02212449            6 
 2303000   0.88909305   -7.1437916    620.18931  0.022441356  0.022116858            9 
 2304000   0.88851327   -7.1480927    619.66586  0.022412683  0.022109237            6 
 2305000   0.87490949    -7.156476    621.61541  0.022473442  0.022101602            5 
 2306000   0.88038591   -7.1532675    621.98116  0.022476914  0.022094016            5 
 2307000   0.89332467   -7.1415817    620.86961   0.02242702  0.022086469            9 
 2308000   0.90467209   -7.1158937    622.83103  0.022488122  0.022078918            9 
 2309000   0.90710481   -7.1121631    623.13064  0.022489196  0.022071374            7 
 2310000   0.86313198    -7.159118    622.25367  0.022447824  0.022063776            5 
 2311000   0.88757112   -7.1503152    623.48103  0.022482368  0.022056176           13 
 2312000   0.87584323   -7.1417166     623.3319  0.022467269  0.022048609            4 
 2313000   0.87675964   -7.1597495    620.77817  0.022365549  0.022041042           18 
 2314000   0.88307211   -7.1632361    621.61229  0.022385922  0.022033466            9 
 2315000   0.88563812   -7.2340758    620.49691  0.022336102  0.022025848           10 
 2316000      0.87657   -7.1704868    622.78106  0.022408645  0.022018257            4 
 2317000   0.88508778   -7.1878527    622.96615   0.02240563  0.022010721            7 
 2318000   0.87247666   -7.1721937    622.33654   0.02237333   0.02200319            4 
 2319000   0.86200582   -7.1567259    622.29929  0.022362343   0.02199571           10 
 2320000   0.89117017   -7.1504842    623.14224  0.022382983  0.021988192           11 
 2321000   0.89782836   -7.1430389    624.11683  0.022408331  0.021980679            2 
 2322000   0.88272054   -7.1901938    621.32206   0.02229838   0.02197311            9 
 2323000   0.87376382   -7.1546709    623.99641  0.022384719  0.021965534            8 
 2324000   0.88080791     -7.12973     624.8994  0.022407466  0.021957963            8 
 2325000   0.87241522   -7.1650641    622.60264  0.022315507  0.021950384           23 
 2326000   0.87794834   -7.1822662    620.22268  0.022220646  0.021942802            8 
 2327000   0.88381804   -7.1813992    622.31908  0.022286173  0.021935254            4 
 2328000   0.87954433   -7.2122197    621.61358  0.022251345  0.021927662            8 
 2329000   0.87686088    -7.195772    620.88275  0.022215642  0.021920042            5 
 2330000    0.8731803   -7.2268158     623.0492  0.022283591    0.0219124            6 
 2331000    0.8838127   -7.1926407     623.4096  0.022286915  0.021904795            6 
 2332000   0.86442656   -7.1392338    624.36855  0.022311626  0.021897277            9 
 2333000   0.86526519   -7.1569302     624.5584  0.022308844   0.02188981            8 
 2334000   0.89574783   -7.1578408    625.68965  0.022339676  0.021882316            9 
 2335000   0.87934977   -7.1487967    623.53876  0.022253346  0.021874848            5 
 2336000   0.86540096   -7.1804235    624.82115  0.022289567  0.021867371            3 
 2337000   0.89467001   -7.2079386    623.15658  0.022220674  0.021859877           11 
 2338000   0.87210693    -7.171607    623.38295  0.022219238  0.021852371            4 
 2339000   0.85405557   -7.1932819    622.23569  0.022168865  0.021844815            4 
 2340000    0.8650341   -7.1853946    622.03494  0.022152241  0.021837257           13 
 2341000   0.89304231    -7.194403    623.27536  0.022186934  0.021829685            6 
 2342000   0.89528464   -7.1942289    624.56809  0.022223459  0.021822174            5 
 2343000   0.89256517   -7.1975713    623.73623  0.022184387  0.021814627            4 
 2344000   0.86470526   -7.1985229    623.81845  0.022177846  0.021807104            6 
 2345000   0.89847913   -7.1706767    625.13311  0.022215107  0.021799581            8 
 2346000   0.88531928   -7.1790209    626.54864  0.022255919  0.021792105           11 
 2347000    0.9025978   -7.1605403    625.60197  0.022212824  0.021784702            6 
 2348000   0.87213659   -7.1504991    625.68145  0.022206184  0.021777344            4 
 2349000   0.88032434   -7.1950191     625.3205  0.022183926  0.021769866           14 
 2350000   0.87379779   -7.1635337    624.98152  0.022162465  0.021762358            8 
 2351000   0.85652471   -7.1659488    625.82711  0.022183011  0.021754933           16 
 2352000   0.86575973   -7.1489131    626.14312  0.022184776  0.021747521            4 
 2353000   0.86669074   -7.1709384    626.46521  0.022186755  0.021740111            5 
 2354000   0.87168058   -7.1906395    625.61312  0.022147165  0.021732726            7 
 2355000   0.87776605   -7.1845326    625.75947   0.02214294  0.021725274           13 
 2356000   0.89850955   -7.2079837    624.68494  0.022095534  0.021717739            7 
 2357000    0.8659188   -7.2108365    625.83022  0.022126652  0.021710263            8 
 2358000   0.87085776   -7.2356305    624.38174  0.022066078   0.02170269            7 
 2359000   0.87263261   -7.1962872    624.67667  0.022067143  0.021695163           16 
 2360000   0.85423258   -7.2159483    624.62913  0.022056113  0.021687621            4 
 2361000    0.8779743   -7.2015899    624.27524  0.022034281  0.021680083            5 
 2362000   0.87203784   -7.1907931    625.69764  0.022075135  0.021672585           12 
 2363000   0.86842402   -7.2234689    624.10024   0.02200946  0.021665109            7 
 2364000    0.8906574   -7.1819972    625.35262  0.022044297  0.021657589            9 
 2365000   0.87608202   -7.1821899    624.83435  0.022016714  0.021650076            4 
 2366000   0.87792799   -7.1608278    625.15076  0.022018553  0.021642567            6 
 2367000    0.8546601   -7.1810096    625.54911  0.022023275   0.02163503            7 
 2368000    0.8725805   -7.1980478    625.23985  0.022003091  0.021627521           12 
 2369000   0.85374182   -7.1792026    626.86515  0.022050976  0.021620065            9 
 2370000   0.89749314   -7.2379179    623.02855   0.02190677  0.021612545           20 
 2371000    0.8994318     -7.22476    624.86619  0.021962118  0.021604971            7 
 2372000   0.89353578   -7.2051317    625.29513  0.021967929  0.021597425            8 
 2373000   0.86949577    -7.205498    624.45421  0.021929141  0.021589873            4 
 2374000   0.85142387   -7.1988888    625.44075  0.021954533  0.021582359            9 
 2375000   0.87410543   -7.1842228    626.81694  0.021993577  0.021574863            4 
 2376000   0.88195145   -7.2046711    625.85956  0.021950742  0.021567413            4 
 2377000   0.87086032   -7.1973989    625.74907  0.021937634  0.021559922            6 
 2378000   0.85348853   -7.2207039    625.27537  0.021911808   0.02155247           10 
 2379000   0.85131471   -7.1713763     627.9158  0.021995089  0.021545022            5 
 2380000   0.88773268   -7.2226354    626.35287  0.021931123  0.021537584           10 
 2381000   0.86670563   -7.2229983    627.27617  0.021954227  0.021530121            6 
 2382000   0.88668705   -7.1838375    628.68078   0.02199415  0.021522666            7 
 2383000   0.87943314   -7.1911012    626.57401  0.021911247  0.021515265            4 
 2384000   0.86956079   -7.1704972    628.32702  0.021963333  0.021507846           11 
 2385000   0.87162117   -7.1886521    626.81545  0.021901309  0.021500437            6 
 2386000   0.86308104   -7.1756316    629.83995  0.021997763  0.021493024           10 
 2387000   0.86371018   -7.1832455    629.39255  0.021972928  0.021485681            4 
 2388000   0.86475199   -7.1964232     626.3926  0.021859038  0.021478249           13 
 2389000   0.87932211   -7.2101694    627.89622  0.021902338  0.021470838            4 
 2390000    0.8747834   -7.2091623    627.09877  0.021865369  0.021463293            6 
 2391000   0.87828037   -7.2073647    626.86109   0.02184794  0.021455808            5 
 2392000   0.86543549   -7.2067913    627.56633  0.021863376  0.021448329            5 
 2393000   0.86223397   -7.1881385    627.20974  0.021841821  0.021440878            8 
 2394000   0.86554325   -7.2170759    627.35028   0.02183759  0.021433383            8 
 2395000   0.86360379    -7.232291    627.44022  0.021831601  0.021425873           17 
 2396000   0.89771242   -7.2078726    627.76349  0.021833733  0.021418379            6 
 2397000   0.86795642   -7.2021499    628.15117  0.021838102  0.021410868           10 
 2398000   0.86611712   -7.1939881    626.97699  0.021788191   0.02140344           11 
 2399000     0.854759   -7.2281206    627.02755  0.021780865  0.021396005            7 
 2400000   0.88276163   -7.2112377    627.51011  0.021788545  0.021388538            7 
 2401000   0.87694534   -7.1980139    627.97563  0.021795628  0.021381095           14 
 2402000   0.84724812   -7.2156755    626.82653  0.021746688  0.021373616           12 
 2403000   0.87139185   -7.2104084    625.46782   0.02169052  0.021366106            6 
 2404000   0.87726155   -7.2136539    628.23604  0.021777456  0.021358618            6 
 2405000   0.87910124   -7.2441505    626.80793  0.021718916  0.021351107            5 
 2406000   0.86316775   -7.2215455    626.79439  0.021709421  0.021343622            9 
 2407000   0.84761815   -7.2056911    627.81796  0.021735839  0.021336121           11 
 2408000    0.8697064   -7.2111444    627.06266  0.021700674  0.021328606            7 
 2409000   0.85144132   -7.1656426    628.55906   0.02174343  0.021321148           13 
 2410000   0.87133076   -7.1834358    628.23024  0.021723037   0.02131372            5 
 2411000    0.8849157   -7.2045079    628.91164  0.021737579   0.02130631           12 
 2412000    0.8839248   -7.2271319    627.67708  0.021685913  0.021298839            5 
 2413000   0.84340573   -7.2148355    628.89189   0.02171888  0.021291388            9 
 2414000   0.84053391   -7.2246873    628.80795  0.021706985  0.021283894            6 
 2415000   0.86655617   -7.2116004    628.96804  0.021703521  0.021276369            8 
 2416000   0.86195132   -7.2344644    627.57051  0.021646334  0.021268889           13 
 2417000   0.87159587   -7.2169546    626.75206  0.021609159  0.021261363           11 
 2418000   0.87080068   -7.2325542     627.7756  0.021635498  0.021253839            6 
 2419000   0.86102011   -7.2099696    627.61818  0.021621131  0.021246363           36 
 2420000   0.86206966   -7.2029806    627.28735  0.021600804  0.021238871            6 
 2421000   0.87039273   -7.2251698    629.32776  0.021662115  0.021231391            8 
 2422000   0.86536107   -7.2438937    629.21293   0.02164922  0.021223923           12 
 2423000   0.86622913   -7.2122059    628.17654  0.021604641  0.021216418            9 
 2424000   0.86773188    -7.236676    626.96275     0.021554  0.021208885           23 
 2425000   0.86110305   -7.2280589    628.37371  0.021593598   0.02120137            7 
 2426000   0.85887514   -7.2358435    627.44245  0.021552709  0.021193849           12 
 2427000   0.85904597   -7.2467857    626.88243  0.021524599  0.021186316            7 
 2428000   0.85811364   -7.2243991    627.30099    0.0215301  0.021178799           10 
 2429000   0.85686465   -7.2373263    626.47234  0.021492807  0.021171259            7 
 2430000   0.84883778   -7.1801603     629.6103  0.021591574  0.021163698           12 
 2431000   0.84732899    -7.227634    626.70492  0.021483097  0.021156139           14 
 2432000   0.85736303   -7.2468056    626.59715  0.021470571  0.021148571            6 
 2433000   0.86102438   -7.2316135    627.99302  0.021509557  0.021141029            6 
 2434000   0.87012183    -7.232031    628.70506  0.021525098  0.021133456            5 
 2435000   0.86856492   -7.2024053    628.77032  0.021518492  0.021125949            8 
 2436000   0.85993119   -7.1866289    629.66426  0.021540239  0.021118431           13 
 2437000   0.86476112   -7.2025799      628.945  0.021506805  0.021110955            6 
 2438000   0.85356128   -7.1814155     629.1776  0.021505934  0.021103483           10 
 2439000   0.85076471   -7.1960771    628.63186   0.02147847   0.02109607            7 
 2440000   0.86017778   -7.2385987    627.99675  0.021447977  0.021088575           10 
 2441000   0.85344025   -7.2321514    627.57347   0.02142474  0.021081036           15 
 2442000   0.85151888   -7.1897394    631.64183  0.021554799  0.021073506           16 
 2443000   0.85801733   -7.2398471    628.31475  0.021432486  0.021065945           11 
 2444000   0.87275226   -7.2563424    627.78755   0.02140574  0.021058358           17 
 2445000    0.8451642   -7.2120985    628.41326  0.021418311  0.021050742            6 
 2446000    0.8339544   -7.2451506    627.60623   0.02138206  0.021043184            6 
 2447000     0.864107   -7.2481516    625.70151  0.021308456  0.021035619           19 
 2448000   0.87547248   -7.2296207     627.5154  0.021361499  0.021028067           10 
 2449000   0.85365176   -7.2379259     628.5504  0.021387995  0.021020481           10 
 2450000   0.86353945   -7.2243338    630.16254    0.0214341  0.021012951            7 
 2451000   0.84417039   -7.2586416    628.06545  0.021354054  0.021005375            6 
 2452000    0.8657303   -7.2317568    629.00229  0.021377185  0.020997815           11 
 2453000   0.84805962   -7.2561096    628.41259  0.021348437  0.020990227            9 
 2454000   0.85748728   -7.2373326    627.07146  0.021294195  0.020982687            6 
 2455000   0.86420141   -7.2699725    628.50572  0.021334206  0.020975139            4 
 2456000   0.85546594   -7.2541806    627.74084  0.021299567  0.020967554            6 
 2457000   0.85982191   -7.2674125    627.86317  0.021295047  0.020959933           15 
 2458000   0.87684696   -7.2636224    627.02447  0.021257949  0.020952331            8 
 2459000   0.86012421   -7.2455046    629.41853  0.021330437  0.020944777            6 
 2460000    0.8431769   -7.2437715    629.88649  0.021337618  0.020937212            6 
 2461000   0.86652238   -7.2399743    628.45439  0.021280455  0.020929669           11 
 2462000   0.86645892   -7.2390071    628.10494  0.021259983  0.020922095           10 
 2463000   0.86992537   -7.2527894     627.6753  0.021236815  0.020914551            9 
 2464000    0.8650698   -7.2650912    628.33737  0.021250587  0.020906986           11 
 2465000   0.85187356   -7.2500239    629.31425  0.021274991  0.020899422            7 
 2466000   0.84473559   -7.2475569    628.60215    0.0212423  0.020891847           14 
 2467000   0.85055087   -7.2725939    628.09474   0.02121655   0.02088428            5 
 2468000   0.85586943   -7.2664766    627.18538  0.021177248  0.020876648            9 
 2469000   0.85452812   -7.2763045    627.39895  0.021175879  0.020869036            8 
 2470000    0.8545307    -7.225856    629.83845   0.02124961  0.020861462            8 
 2471000   0.84637306   -7.2553378    629.79203  0.021239445  0.020853951            7 
 2472000   0.88282086   -7.2538484    630.22314  0.021245386  0.020846501            8 
 2473000   0.86193146   -7.2281039    629.43503  0.021210238  0.020839017           13 
 2474000   0.85047681   -7.2680908    630.04301  0.021222144   0.02083151            8 
 2475000   0.84942398   -7.2585289     629.7982  0.021205327  0.020824013            7 
 2476000    0.8628189   -7.2410833    630.68652   0.02122666  0.020816562           11 
 2477000   0.87794441   -7.2390306    629.97016   0.02119399  0.020809109            6 
 2478000    0.8535138   -7.2599629    629.14375  0.021157646  0.020801667            8 
 2479000   0.85195514   -7.2472225    629.10769  0.021147899  0.020794151            7 
 2480000   0.86391818   -7.2645739    630.09054  0.021172397  0.020786644           17 
 2481000   0.85593931   -7.2771962    626.83308   0.02105445  0.020779102            7 
 2482000   0.85123965   -7.2619722    629.09971  0.021122069  0.020771554           17 
 2483000   0.88035554   -7.2818824    630.96296  0.021176096  0.020763988            8 
 2484000   0.86057384   -7.2510967    631.18684  0.021175082  0.020756451            7 
 2485000    0.8517646    -7.228058    629.88039   0.02112275  0.020748941            7 
 2486000    0.8637783   -7.2652681    629.34752  0.021096391  0.020741392           13 
 2487000   0.86918596   -7.2407404    628.93337  0.021074031  0.020733879            5 
 2488000   0.86246345   -7.2423981    631.54979  0.021153195  0.020726454            6 
 2489000   0.84916615   -7.2651287    628.86683  0.021054869  0.020718946            6 
 2490000   0.83847086   -7.2341446    631.52071  0.021135231  0.020711425           14 
 2491000   0.84975311   -7.2803901    630.28376  0.021085366  0.020703951            7 
 2492000    0.8542391   -7.2749629    628.94723  0.021032211  0.020696451            6 
 2493000   0.87501983   -7.2720377    628.98954  0.021025189   0.02068893            4 
 2494000   0.85773478   -7.2412641    628.79557  0.021010277   0.02068143            7 
 2495000   0.84455718   -7.2742477    629.02489  0.021009515  0.020673913            2 
 2496000   0.86057772   -7.2947273    627.53985  0.020951517  0.020666359            9 
 2497000   0.85781982   -7.2192688    630.90094  0.021055298   0.02065887            4 
 2498000   0.83489727   -7.2731967     628.8161  0.020977318  0.020651375           11 
 2499000   0.85980795   -7.2386087    631.92289  0.021072525  0.020643955            7 
 2500000   0.86288035   -7.2686372    631.01987  0.021033996  0.020636504           17 
 2501000   0.85977258   -7.2459229     631.9123  0.021055321  0.020629079           25 
 2502000   0.86311258   -7.2744167    632.05338  0.021051605  0.020621655            9 
 2503000   0.83328264   -7.2554458    631.13883  0.021012746  0.020614248           22 
 2504000   0.84918765   -7.2352046    633.79851  0.021092868  0.020606898           32 
 2505000   0.84208996    -7.232757    633.85153  0.021086212  0.020599581           20 
 2506000   0.85021851   -7.2638267    632.42693  0.021030424  0.020592261           10 
 2507000   0.85028134   -7.2897702    631.74204   0.02099927  0.020584902           10 
 2508000   0.85465264   -7.2600395    633.35917   0.02104463  0.020577574           19 
 2509000   0.86590133   -7.2387758    633.40556  0.021037783  0.020570264           14 
 2510000   0.85068017   -7.2839032    633.13584  0.021020446  0.020562924            6 
 2511000   0.85440026   -7.2344413    635.09162  0.021076982  0.020555614           12 
 2512000   0.86062303   -7.2532333    632.05243  0.020967769  0.020548348           10 
 2513000   0.84448448   -7.2600898    632.22822  0.020965255   0.02054106            5 
 2514000   0.83521915   -7.2533579    633.24352   0.02099057  0.020533779           10 
 2515000   0.85304977   -7.2608201    632.01043  0.020941366  0.020526512           10 
 2516000   0.84475096   -7.2227927    633.43858  0.020980345  0.020519247           12 
 2517000   0.84093198   -7.2265586    634.81842  0.021017694  0.020512014           10 
 2518000   0.84947156   -7.2800494    631.50428  0.020899665  0.020504702            6 
 2519000    0.8520006   -7.2518606    632.04579  0.020909282   0.02049737            7 
 2520000   0.84673241   -7.2921478    633.31605  0.020942991  0.020490008            9 
 2521000   0.85543436   -7.2781431    632.40015  0.020904408   0.02048271            9 
 2522000   0.85727608   -7.2768479    633.95283  0.020947424  0.020475358            9 
 2523000   0.85702896   -7.3158486    631.77981  0.020867347   0.02046802            9 
 2524000   0.83396089   -7.2649126    632.87428  0.020895215  0.020460642           15 
 2525000   0.83692306   -7.2732158     634.1686  0.020929657  0.020453278           10 
 2526000    0.8434659   -7.2873799     632.1455  0.020854629  0.020445883           18 
 2527000   0.86034419   -7.2631688    632.79923  0.020867934  0.020438514           16 
 2528000   0.86117944   -7.2962501    633.77073  0.020891704   0.02043117            7 
 2529000   0.84472135   -7.2942117    632.01869  0.020825711  0.020423784            7 
 2530000   0.86008257   -7.3026707    632.62956  0.020837601  0.020416389            8 
 2531000   0.84938224   -7.3306175    630.71563  0.020766352  0.020408902           14 
 2532000   0.83603472   -7.3072977     630.6054  0.020754522  0.020401421            8 
 2533000   0.84703277   -7.3089506    631.58817  0.020778661  0.020394019           11 
 2534000    0.8633272   -7.2834043    631.66268  0.020772911  0.020386621           13 
 2535000   0.84434157   -7.2672855    634.09131  0.020844553  0.020379299            5 
 2536000   0.82731448    -7.297339    633.53233  0.020817966  0.020371977           11 
 2537000   0.84200974   -7.2792187     634.7096   0.02084843  0.020364713            5 
 2538000   0.87035405   -7.2728952    635.07615  0.020852251  0.020357418            6 
 2539000   0.83355069   -7.2704407    632.95453  0.020774404  0.020350113            7 
 2540000   0.83970161   -7.2984109    632.80075  0.020761179  0.020342824            7 
 2541000   0.84697548   -7.2823298     634.0695  0.020794618  0.020335522            7 
 2542000   0.83968925    -7.309088    633.28539  0.020760733  0.020328212           12 
 2543000   0.85403903   -7.2614341    634.75697  0.020800792  0.020320985           16 
 2544000   0.83220573   -7.2377514    635.62505  0.020821051  0.020313769           12 
 2545000    0.8467245   -7.2689209    634.37916  0.020772075  0.020306495           28 
 2546000   0.84270407   -7.3134297    632.56758  0.020704621  0.020299176            9 
 2547000   0.84457067   -7.3063792    632.36976   0.02069002  0.020291838           26 
 2548000   0.85787436   -7.3259823     633.2116  0.020709432  0.020284514            9 
 2549000   0.84474923   -7.2859369    633.19763  0.020700851  0.020277203           12 
 2550000   0.84603205   -7.2529378    635.30853  0.020761717  0.020269939           11 
 2551000   0.82525186   -7.3148667    632.57944  0.020664427  0.020262651           13 
 2552000    0.8507541   -7.2693131     634.0302  0.020703703  0.020255369            4 
 2553000   0.83258648   -7.2623173    635.06809  0.020729471  0.020248105           18 
 2554000   0.83810279   -7.2814392    636.01707  0.020752319  0.020240863            7 
 2555000   0.85868261   -7.3095806    635.35691  0.020722665   0.02023359            4 
 2556000   0.83598921   -7.2883517    635.42319  0.020716719  0.020226362            8 
 2557000   0.83285105   -7.3012275    634.02419  0.020663023  0.020219139            7 
 2558000    0.8353571   -7.2785926    634.65678  0.020675553  0.020211891            7 
 2559000   0.83797594   -7.2691676    635.82148  0.020705402  0.020204667            7 
 2560000   0.83040903   -7.2873089    634.48119  0.020653685  0.020197458            6 
 2561000   0.84142508   -7.2691348    635.69732  0.020685192  0.020190282            9 
 2562000   0.83196687   -7.2554888    636.26809  0.020695683  0.020183158            9 
 2563000   0.84916775   -7.2798452    635.36136  0.020658127  0.020175958            8 
 2564000   0.83870817   -7.2706548    636.27545  0.020679779  0.020168768           13 
 2565000   0.84330618     -7.27808    636.36203   0.02067453  0.020161606            8 
 2566000   0.84020468   -7.2641997    636.07764  0.020657237  0.020154405            6 
 2567000   0.86054275   -7.2645658    637.19089  0.020685329  0.020147227            3 
 2568000   0.83541363   -7.3033155    633.90472  0.020570636  0.020140044            7 
 2569000   0.84026628   -7.3039275    634.61731  0.020585744   0.02013284            6 
 2570000   0.83796172    -7.266609    638.04757  0.020688962  0.020125636            6 
 2571000   0.84372885   -7.2893356    636.38224  0.020626936  0.020118461           14 
 2572000   0.83462513   -7.2889405    634.92423  0.020571677  0.020111242           10 
 2573000   0.84506962   -7.2999514    632.97184  0.020500448     0.020104            8 
 2574000   0.85759237   -7.2999743     635.2076  0.020564866  0.020096802            7 
 2575000   0.83943718   -7.3095831    636.10453  0.020585907   0.02008963           10 
 2576000   0.83248747   -7.2759954    638.22213   0.02064642  0.020082469           13 
 2577000   0.84185139   -7.3256418    636.08716  0.020569369  0.020075269            6 
 2578000   0.85140127   -7.3173756    636.78854  0.020584062  0.020068105           17 
 2579000   0.83492739   -7.2836864    635.07085  0.020520578  0.020060887            8 
 2580000   0.83977928   -7.3005043    636.46421  0.020557629  0.020053649            9 
 2581000   0.82875688   -7.3032898    635.33576   0.02051323  0.020046439            9 
 2582000   0.83543485   -7.2705858    636.14494  0.020531401  0.020039244            6 
 2583000   0.84322702   -7.2791737    635.51251  0.020503049  0.020032148           20 
 2584000   0.82085124   -7.2591686     637.3817  0.020555395  0.020025045            7 
 2585000   0.84384484   -7.2577265    635.41759  0.020484126  0.020017969            8 
 2586000   0.82510727   -7.2672017    638.09837  0.020562592  0.020010894           16 
 2587000   0.85292703   -7.2920956    636.62406  0.020507153  0.020003778            4 
 2588000   0.84538074   -7.2584765    637.95066  0.020541946  0.019996679            6 
 2589000   0.85622949   -7.3090724    637.43098  0.020517284  0.019989589            8 
 2590000   0.84625383   -7.3079875    637.42175  0.020509065  0.019982471            6 
 2591000   0.82868556   -7.3254176    635.31571  0.020433414   0.01997536           10 
 2592000   0.82081145   -7.2911548    636.88806  0.020476082  0.019968209           12 
 2593000   0.84531018   -7.3174796     634.8315  0.020402092  0.019961075           22 
 2594000   0.84186037   -7.3028681    638.11258  0.020499633  0.019953929           15 
 2595000   0.82537413    -7.343187    633.85516  0.020355015  0.019946783           20 
 2596000   0.84150264   -7.3197927    636.39761  0.020428788  0.019939625            7 
 2597000   0.82817521    -7.305284    636.55116  0.020425849  0.019932458           22 
 2598000   0.84397465   -7.3197188    637.49567  0.020448283  0.019925314           14 
 2599000   0.82898034   -7.3238709    637.88777  0.020452987  0.019918172           27 
 2600000   0.83157107   -7.2851826    637.82767  0.020443195  0.019911067           17 
 2601000    0.8461191   -7.3077915    637.13341  0.020413092  0.019903974            6 
 2602000   0.83191257   -7.2987544    638.58133  0.020451618   0.01989685           16 
 2603000   0.84003739    -7.290887    637.72019  0.020416192  0.019889766            7 
 2604000   0.82716188    -7.331148    639.46161  0.020464081   0.01988269            8 
 2605000   0.82879528   -7.2864727    638.95466  0.020440008  0.019875613            9 
 2606000   0.82948587   -7.2910089    638.09146  0.020404562  0.019868559            7 
 2607000   0.85172161   -7.2871818    638.50234  0.020409869  0.019861523            7 
 2608000   0.82066133   -7.2795222    639.93992  0.020447978  0.019854451            9 
 2609000   0.83424621   -7.3066497    639.06453   0.02041218  0.019847424           13 
 2610000   0.82556749   -7.3161134     636.7069  0.020329084  0.019840315            9 
 2611000   0.83099178   -7.3245186    636.94183  0.020328796  0.019833234            5 
 2612000   0.83215954   -7.3194147    637.94616  0.020353055   0.01982611            4 
 2613000   0.84778192    -7.319631     637.9144  0.020344253  0.019819014            6 
 2614000   0.83180709    -7.314447    638.19678  0.020345473  0.019811899            6 
 2615000   0.83211211   -7.3477063    637.65686  0.020320486  0.019804827           18 
 2616000    0.8371909   -7.3021523    638.72877  0.020346864  0.019797731           13 
 2617000   0.85197083   -7.3424274    637.24893  0.020291967  0.019790627           20 
 2618000   0.83815414   -7.3469669    637.18966  0.020282329  0.019783535           15 
 2619000   0.84229501     -7.34576    637.92881  0.020298104    0.0197764           17 
 2620000   0.84569736   -7.3050469     637.9624  0.020291425  0.019769305           10 
 2621000   0.83481244   -7.3160596    638.58911  0.020303609  0.019762192            8 
 2622000   0.83231816   -7.3069743    638.26877  0.020285684  0.019755106            7 
 2623000   0.83858142   -7.3360854    639.10632   0.02030456  0.019748081            7 
 2624000   0.84208012   -7.3498433     637.6077  0.020249228  0.019740984           11 
 2625000   0.83772386    -7.321093    639.09556  0.020288748  0.019733904           14 
 2626000   0.81344164   -7.3107519    640.73076  0.020332913  0.019726848            6 
 2627000    0.8278286   -7.3260833     639.4316  0.020283962  0.019719768           13 
 2628000   0.84969887   -7.3299226     638.2798   0.02023972  0.019712678            7 
 2629000   0.85826917   -7.3324711    638.22152  0.020230174  0.019705598           11 
 2630000   0.84742285   -7.2884614    640.00395  0.020278959    0.0196985           13 
 2631000   0.83445323   -7.3407598    634.89283  0.020109364   0.01969141           29 
 2632000   0.82272828   -7.3553924    638.38906   0.02021242    0.0196843            8 
 2633000   0.84184433   -7.3239683    638.05962  0.020194316  0.019677193            7 
 2634000   0.82294562   -7.3068163    637.87351  0.020180761  0.019670143           16 
 2635000    0.8307874   -7.3193543    638.49659  0.020192808  0.019663088           14 
 2636000   0.84935076   -7.3153327    638.48582  0.020184807  0.019656011            8 
 2637000   0.82502813   -7.3345405    640.16141  0.020230104   0.01964894            4 
 2638000   0.85802405   -7.2922722    637.97317   0.02015331  0.019641845           13 
 2639000   0.81937338   -7.3213802    640.09209  0.020212583  0.019634765            7 
 2640000   0.83135113   -7.3087336    640.50197  0.020217865  0.019627716            9 
 2641000   0.84970759   -7.3701795    638.08551  0.020133962  0.019620623           19 
 2642000   0.84017366   -7.3486037    636.51464  0.020076793  0.019613514           12 
 2643000   0.83852726   -7.3662082    638.35954  0.020127366  0.019606367           13 
 2644000   0.82197443   -7.3083963    639.13935  0.020144332  0.019599302           12 
 2645000   0.84448632   -7.3504365    639.53101  0.020149055  0.019592239           10 
 2646000   0.81951314   -7.3455521     637.6462   0.02008208  0.019585177           12 
 2647000   0.81956184   -7.3184846    639.05849  0.020118955  0.019578103            9 
 2648000   0.83166891   -7.3084887    640.21732  0.020147826  0.019571098           12 
 2649000   0.82279242    -7.277168    641.91721  0.020193696  0.019564133           19 
 2650000   0.82837328   -7.2974519    639.59156  0.020112942  0.019557155            9 
 2651000   0.82113527   -7.3395026    638.97137   0.02008586  0.019550151            8 
 2652000   0.81558238    -7.312629    640.67651  0.020131866  0.019543196           23 
 2653000   0.81565763   -7.3321437    640.17558  0.020108543  0.019536204            8 
 2654000   0.84309867   -7.3318298    639.60068  0.020082915   0.01952918           38 
 2655000   0.82757146   -7.3287333    639.01159  0.020056861  0.019522142           47 
 2656000   0.82199209   -7.3364164    640.27912  0.020089079  0.019515104           22 
 2657000   0.82474477   -7.3229758    638.97333  0.020040564  0.019508113           25 
 2658000   0.82064957   -7.3332767    639.88004  0.020061451  0.019501134           15 
 2659000   0.81515908   -7.3202645    639.82043  0.020052038  0.019494131           11 
 2660000    0.8387604   -7.3161304    639.35143  0.020029807  0.019487164           15 
 2661000   0.83277815   -7.3819252    639.50521  0.020027095  0.019480212            5 
 2662000   0.82239475    -7.332474    640.31629  0.020044963  0.019473257            6 
 2663000   0.80927947   -7.3430738    641.61883  0.020078196  0.019466336           16 
 2664000   0.82573789   -7.3313044    640.05238  0.020021659  0.019459392           17 
 2665000   0.82838156   -7.3251933     640.4969  0.020028046  0.019452454            6 
 2666000   0.83177751   -7.3387515    640.68312  0.020026354  0.019445501            8 
 2667000   0.84026007    -7.324239    641.72841  0.020051506  0.019438568            6 
 2668000   0.82169603   -7.3068807      642.742   0.02007565  0.019431724            7 
 2669000   0.82538916   -7.3001729    641.40677  0.020026438  0.019424879           16 
 2670000   0.81306023   -7.3421414    641.83328   0.02003225   0.01941803           15 
 2671000   0.82306904   -7.3490383    641.01122  0.019999102  0.019411113            6 
 2672000   0.82337892   -7.3667587    640.91909  0.019988744  0.019404191           12 
 2673000   0.82598617   -7.3573239      640.081  0.019955138   0.01939728            5 
 2674000   0.83294824   -7.3820636    640.72059  0.019967608  0.019390368           10 
 2675000   0.81383257   -7.3455522     640.5056  0.019953445  0.019383463           12 
 2676000   0.83822329   -7.3722753    639.68178  0.019920334  0.019376536            8 
 2677000   0.81719242     -7.37432    640.57019  0.019940549  0.019369608            6 
 2678000   0.80481408   -7.3514044    642.13554  0.019981813  0.019362681           12 
 2679000   0.82513589   -7.3524344    640.59234  0.019926351  0.019355755            7 
 2680000   0.80336761   -7.3393658    641.59521    0.0199501  0.019348862           34 
 2681000   0.83753784   -7.3458455    642.20168   0.01996151  0.019341951           16 
 2682000   0.80959621   -7.3839422    641.50545  0.019932434  0.019335036           11 
 2683000   0.82785684   -7.3534417    641.60124   0.01992798  0.019328108           14 
 2684000    0.8452775   -7.3582754    642.27295   0.01994141  0.019321209           20 
 2685000    0.8097714   -7.3650657    641.99978  0.019925505  0.019314326            5 
 2686000   0.84017831   -7.3432571    642.80087  0.019942941  0.019307461           11 
 2687000   0.83037104   -7.3513435    644.06901  0.019974848  0.019300648            6 
 2688000    0.8210487   -7.3199392    643.64247  0.019954194  0.019293838            7 
 2689000   0.81589185   -7.3706652    643.00878  0.019927135  0.019287025            5 
 2690000    0.8127438   -7.3477455    642.57113  0.019906169  0.019280135           16 
 2691000   0.81974039   -7.4004207    641.20449   0.01985645  0.019273253            6 
 2692000   0.81331236   -7.3539803    642.67884  0.019894714  0.019266384           14 
 2693000   0.80852663   -7.3729628    642.29884  0.019875568  0.019259566           27 
 2694000   0.84382067   -7.4017972    642.63132  0.019878474  0.019252739            6 
 2695000   0.81973023   -7.3643049    643.01339  0.019882913  0.019245926            8 
 2696000   0.80639578   -7.3518523    643.12043  0.019878846  0.019239108           15 
 2697000   0.82807796    -7.343346    644.08736  0.019901352   0.01923231            8 
 2698000   0.82688238   -7.3591178     642.4137  0.019842281  0.019225484           20 
 2699000    0.8117553   -7.3064706    643.43314  0.019866405  0.019218701            5 
 2700000   0.81162697   -7.3108504    644.95185  0.019905921  0.019211941           12 
 2701000   0.82211626   -7.3337754    644.24524  0.019876751  0.019205192            9 
 2702000   0.82106208   -7.3508191    645.43849  0.019906196  0.019198459           13 
 2703000   0.81647023   -7.3550221    643.60767  0.019842387  0.019191746           28 
 2704000   0.83439981   -7.3476793    644.34352  0.019857727  0.019185011            4 
 2705000   0.81960429   -7.3439981    644.17069  0.019845061  0.019178235            6 
 2706000   0.80973434   -7.3107658    644.31034  0.019842028  0.019171512           10 
 2707000   0.79318097   -7.3198471     645.6918  0.019877226  0.019164788           10 
 2708000   0.79374111   -7.3510456    643.35891  0.019798096  0.019158027           10 
 2709000    0.8099631   -7.3416147     643.1469  0.019784265  0.019151294           19 
 2710000   0.82003991   -7.3260934    646.70991  0.019886529  0.019144549           12 
 2711000   0.81834384   -7.3178071    644.33004  0.019806038  0.019137775           23 
 2712000   0.82338967   -7.3730627    644.73259  0.019811105  0.019131008           45 
 2713000   0.80499311   -7.3662351    643.41343  0.019763283  0.019124211           11 
 2714000   0.83258688   -7.3404739    642.99401  0.019743122  0.019117429           18 
 2715000   0.80803377   -7.3398288    645.07889  0.019799843  0.019110637           12 
 2716000   0.83550735   -7.3729823    643.39493  0.019740885  0.019103868           22 
 2717000   0.83214062   -7.3730423    644.91924  0.019780372  0.019097089           12 
 2718000   0.81665713   -7.3675618    641.89103   0.01968025  0.019090334           13 
 2719000   0.79770734   -7.3574956    643.86268   0.01973344  0.019083581            9 
 2720000   0.80050705    -7.366219    645.13521  0.019765172  0.019076839           12 
 2721000   0.83255275   -7.3633023    642.75603  0.019685043  0.019070045            8 
 2722000   0.81007271   -7.3764421     643.2428  0.019692714  0.019063257           10 
 2723000   0.82828391   -7.3766411    644.56426  0.019725923  0.019056469           13 
 2724000   0.82916624   -7.3721211    645.16272   0.01973699  0.019049662            7 
 2725000   0.78841529   -7.3652624    644.55938  0.019711296  0.019042888            9 
 2726000   0.80590225   -7.3781698    642.86612  0.019652302  0.019036144           19 
 2727000   0.82248068   -7.3465916    644.73432  0.019702186  0.019029424           10 
 2728000   0.84299917   -7.3685558    644.80339  0.019697073  0.019022712           11 
 2729000   0.81640268   -7.3566668    644.70576  0.019686874  0.019015989           16 
 2730000   0.81858717    -7.372704    644.33971  0.019668489  0.019009298            8 
 2731000   0.82932462   -7.3503367    646.07593  0.019714266  0.019002583           11 
 2732000   0.79789023     -7.34553    645.18681   0.01967993  0.018995944            4 
 2733000   0.81297998   -7.3588838    644.99248  0.019666803  0.018989262           11 
 2734000   0.81905228   -7.3831018    644.30129  0.019638542  0.018982575            9 
 2735000   0.81505391   -7.3824684    645.12349  0.019656413  0.018975841           12 
 2736000   0.82921861   -7.3679594    643.71007  0.019606179   0.01896915           12 
 2737000    0.8024451   -7.4024177    644.25163  0.019615505  0.018962458           11 
 2738000   0.80519305   -7.3844561    647.36422  0.019703075  0.018955797           10 
 2739000   0.82046635   -7.3905597    645.71166  0.019645603  0.018949113            9 
 2740000   0.80691914   -7.4081135    644.27355  0.019594694  0.018942401           29 
 2741000   0.82680766   -7.3853304    643.93726  0.019577321  0.018935684           12 
 2742000    0.8189413    -7.376063    645.56877  0.019619766  0.018928993           18 
 2743000   0.80696824   -7.3800403     646.2932  0.019634621  0.018922326            8 
 2744000   0.79779245     -7.38153     644.1873  0.019563511   0.01891567            7 
 2745000   0.82159278   -7.3791896    647.20782  0.019648082  0.018908993           13 
 2746000   0.81095716   -7.3492835    646.84983  0.019630063  0.018902363           12 
 2747000   0.80735552   -7.3463014    648.32073  0.019667538  0.018895719            6 
 2748000   0.81476286   -7.4063026    644.17651  0.019534707   0.01888906           10 
 2749000   0.81146488   -7.3837602    646.62945   0.01960196  0.018882434            7 
 2750000   0.81663549   -7.3868662    647.79018  0.019630005  0.018875804            7 
 2751000   0.80101325   -7.3877044    645.50545  0.019553661  0.018869157           16 
 2752000    0.8104531   -7.3731777    647.38256  0.019603396  0.018862537           18 
 2753000   0.78103677   -7.3869162    646.26682  0.019562502  0.018855918           16 
 2754000   0.83430292   -7.3819229    645.52222  0.019532868  0.018849324           16 
 2755000   0.81270877   -7.3775965    645.97365  0.019539433  0.018842719           12 
 2756000   0.78215268   -7.3642057    647.01508  0.019563833  0.018836176            9 
 2757000   0.81820359   -7.3545832    647.39827  0.019568319   0.01882959           21 
 2758000   0.83490355   -7.3790376     648.0909  0.019582152  0.018822999           20 
 2759000   0.80964163   -7.3634152    648.08396  0.019574845  0.018816394           17 
 2760000   0.80787199    -7.368855    647.90525  0.019562356   0.01880978           16 
 2761000   0.82822768   -7.3997129    645.87713  0.019494058  0.018803151            8 
 2762000   0.81738898   -7.3671279    648.79194  0.019574944  0.018796534           15 
 2763000   0.79465888   -7.4009539    647.56871  0.019530966  0.018789966           20 
 2764000   0.79393687   -7.4226023    646.39046  0.019488376  0.018783398           11 
 2765000   0.81607791   -7.3983034    646.20026  0.019475595  0.018776795           10 
 2766000   0.80324655   -7.4210632    644.41084  0.019414643  0.018770137            9 
 2767000   0.79133754   -7.4301821    646.17975  0.019460901  0.018763493           10 
 2768000   0.78767852   -7.3979622     647.1412  0.019482815  0.018756905           25 
 2769000   0.78862794   -7.3543542    648.59209  0.019519444  0.018750372           12 
 2770000   0.81702345   -7.3949643    648.92428  0.019522391  0.018743861            8 
 2771000   0.80374144   -7.3740028    647.49171  0.019472263  0.018737363            6 
 2772000   0.79520182   -7.3772807    648.23365  0.019487544  0.018730851           15 
 2773000   0.81038809   -7.3621296    648.82729  0.019498356  0.018724371           18 
 2774000   0.79743059   -7.3791779    649.07076  0.019498641  0.018717844           14 
 2775000   0.80415148   -7.4024407    646.47144  0.019413557  0.018711325           13 
 2776000   0.79145316   -7.3763649    647.09301  0.019425222  0.018704734            3 
 2777000   0.80686984   -7.4131104    646.70167  0.019406484  0.018698147            8 
 2778000   0.79740449   -7.4028498    648.44252  0.019451719  0.018691598            7 
 2779000   0.78530388   -7.4009755    647.62266  0.019420135  0.018684968            4 
 2780000   0.79959242   -7.4082306    645.73888  0.019356681   0.01867838           19 
 2781000   0.81436504   -7.4040697    647.10119  0.019390543  0.018671788           15 
 2782000   0.81168343   -7.3779767    648.08128  0.019412931  0.018665185           11 
 2783000   0.80147664   -7.3755747    648.12694  0.019407322  0.018658597           10 
 2784000   0.81590934   -7.3732339     649.3691  0.019437533  0.018652004           11 
 2785000   0.80881894   -7.4045083    647.92272  0.019387275  0.018645408           10 
 2786000   0.80481284   -7.4146647    646.00807  0.019323046   0.01863878           13 
 2787000   0.81168697   -7.4169196    647.53826  0.019361866  0.018632147            9 
 2788000   0.80063504   -7.3923286    647.38067  0.019350211  0.018625543           10 
 2789000   0.81018507   -7.4083023    647.21761  0.019338401  0.018618942           10 
 2790000   0.79748788   -7.4029743    648.21847  0.019361364  0.018612316           10 
 2791000   0.81728643   -7.4185781    647.78052  0.019341351  0.018605698           13 
 2792000   0.81275747   -7.3932828    647.77927  0.019334386  0.018599111           10 
 2793000   0.80404679   -7.4232754    646.04188  0.019275626  0.018592522            7 
 2794000   0.78831989   -7.4143395    647.26721  0.019305273  0.018585917           25 
 2795000   0.82054894   -7.3904445    646.59284   0.01927826   0.01857936            9 
 2796000   0.79549284   -7.4147401    646.64164   0.01927282  0.018572767           20 
 2797000   0.78568244   -7.3857426    648.38068  0.019317742  0.018566192            8 
 2798000    0.8011355   -7.4041971    647.57288  0.019286779  0.018559601           11 
 2799000   0.81704624   -7.4099091    648.56722  0.019309492  0.018553036           11 
 2800000   0.78562943   -7.3947769    648.45911  0.019299378  0.018546532           11 
 2801000   0.79033272   -7.4230259    648.02302  0.019279514  0.018539992            9 
 2802000   0.82288856    -7.407449    646.99098   0.01924194   0.01853346           10 
 2803000   0.78863191   -7.4495347    646.99856    0.0192353  0.018526874            8 
 2804000   0.79039059   -7.4371246    646.34621  0.019209053  0.018520265           19 
 2805000   0.83152621   -7.4639263    647.48826  0.019236134  0.018513659            9 
 2806000   0.79505926   -7.4681165    645.40631  0.019167448  0.018507036           22 
 2807000   0.81102653   -7.4019296    646.51085  0.019193411  0.018500433           30 
 2808000    0.7938991   -7.4025374    647.63508   0.01921994   0.01849389           15 
 2809000    0.8009641   -7.4227376    646.39813  0.019176401  0.018487338           16 
 2810000   0.79423386   -7.4128787    647.90182   0.01921417  0.018480739           13 
 2811000   0.79465379   -7.3953916    648.03649  0.019211327  0.018474189           16 
 2812000   0.81841681   -7.4368367    646.81059  0.019168166  0.018467609           14 
 2813000   0.78705573   -7.4023121    647.20315  0.019172981  0.018461054           16 
 2814000   0.81786787    -7.409134    648.12187  0.019193374  0.018454504           19 
 2815000   0.81920815   -7.3393021    650.88312  0.019268298  0.018448027           16 
 2816000   0.78945227   -7.3532326    648.31972  0.019185598  0.018441561           14 
 2817000   0.80189575   -7.4314418    647.89107  0.019166107  0.018435061           15 
 2818000   0.79148061    -7.443566    647.85293  0.019158178  0.018428528           42 
 2819000   0.80077755    -7.412251    648.94755   0.01918374  0.018422028           19 
 2820000   0.79724884   -7.4062642    649.39896  0.019190277  0.018415525           22 
 2821000   0.82231067   -7.4114394    649.47399   0.01918569  0.018409054           23 
 2822000   0.81378798   -7.4307187    647.83212  0.019130407  0.018402561           11 
 2823000   0.78256827   -7.4235409    647.64944  0.019118238  0.018396053           22 
 2824000   0.80724147   -7.4185927    650.22829  0.019187568  0.018389561           13 
 2825000   0.79348329   -7.4159567    647.96434  0.019113992  0.018383082           16 
 2826000   0.78622945   -7.4032486    649.22675  0.019144455  0.018376572           12 
 2827000   0.81632873   -7.4253149    648.19806  0.019107359  0.018370038           15 
 2828000   0.80161596   -7.4420635    647.81107  0.019089199  0.018363514           12 
 2829000   0.80777876   -7.4370251    647.37119  0.019069494  0.018356987           12 
 2830000   0.79333988   -7.4154005    648.59319  0.019098739  0.018350441            9 
 2831000   0.79300088   -7.4272973    648.36659  0.019085323  0.018343925           14 
 2832000    0.8003283   -7.4351515    647.30703  0.019047405  0.018337378           16 
 2833000     0.802075   -7.4309051    646.70112  0.019022859  0.018330841           13 
 2834000   0.81194518   -7.4494906    647.90264  0.019051477  0.018324269           13 
 2835000   0.80022132   -7.4618936    647.79021  0.019041452  0.018317715           19 
 2836000   0.81854498   -7.4678943    646.42824  0.018994718  0.018311152           13 
 2837000   0.79658373   -7.4652851    646.54339  0.018991405  0.018304617           22 
 2838000   0.79766949   -7.4522801    647.78353  0.019021128  0.018298069           23 
 2839000   0.79829772    -7.460758    648.36895  0.019031612   0.01829153           17 
 2840000   0.79430237   -7.4391002    648.38283  0.019025318  0.018285008           17 
 2841000    0.8000641   -7.4533329    646.71024   0.01896956  0.018278495           27 
 2842000   0.81687692   -7.4285964     650.0671  0.019061315  0.018271976           25 
 2843000   0.80380626   -7.4499057    648.03243  0.018994971  0.018265485           42 
 2844000   0.79284225   -7.4773138    646.90599  0.018955286  0.018258982           17 
 2845000   0.79234866   -7.4485689    648.07193  0.018982775  0.018252473           17 
 2846000   0.79211077   -7.4599683    646.96141  0.018943588  0.018245985           34 
 2847000   0.82078563   -7.4432043    650.29733  0.019034578  0.018239498           25 
 2848000   0.77896206   -7.4615262    648.66213  0.018980048   0.01823303           28 
 2849000   0.80051453   -7.4725402    649.11475  0.018986625  0.018226524           20 
 2850000   0.82014889   -7.4623965     647.8288  0.018942363  0.018220031           35 
 2851000   0.79989636   -7.4166115     649.7102  0.018990711  0.018213542           44 
 2852000   0.79387305   -7.4853877    649.58917  0.018980516  0.018207068           31 
 2853000   0.78746726   -7.4531478    649.25107  0.018963987  0.018200615           13 
 2854000   0.79488412   -7.4337971    649.37921  0.018961084   0.01819413           42 
 2855000   0.79202799   -7.4118217    650.33099  0.018982224   0.01818769           16 
 2856000    0.7926471   -7.4471958    648.50754  0.018922372   0.01818129           13 
 2857000   0.78475943   -7.4345127    649.30646  0.018939052  0.018174855           26 
 2858000   0.78747246   -7.4586496    648.67482  0.018914008  0.018168408           13 
 2859000   0.79976122    -7.457191    649.22424  0.018923407  0.018161965           14 
 2860000    0.8066063    -7.432482    649.49732  0.018924747  0.018155493           12 
 2861000   0.79906526   -7.4619937    649.88102  0.018929308  0.018149055           16 
 2862000   0.79199929   -7.4522894    647.64832  0.018857685  0.018142606           15 
 2863000   0.78837704   -7.4376049    648.68431  0.018881253  0.018136138           15 
 2864000   0.77899323   -7.4501146    649.24326  0.018890924   0.01812968            5 
 2865000   0.79061418   -7.4501866    649.23747  0.018884161  0.018123212           21 
 2866000   0.80824238   -7.4674221    649.56286  0.018887034  0.018116762           16 
 2867000   0.79177061   -7.4599899     650.5313  0.018908595   0.01811032           12 
 2868000   0.80397841   -7.4627737    650.61227  0.018904355  0.018103865           24 
 2869000   0.77588162   -7.4823268     649.7955  0.018874042  0.018097397           16 
 2870000     0.787672   -7.4299891    650.36944   0.01888413  0.018090948           14 
 2871000   0.79418043   -7.4382951    650.14746  0.018871109  0.018084545            8 
 2872000   0.81212802   -7.4389607    650.36575  0.018870872  0.018078141            7 
 2873000   0.78759427   -7.4636113    649.43489  0.018837304  0.018071708            7 
 2874000   0.78422541    -7.449134    648.57124  0.018805708  0.018065269            9 
 2875000   0.77649502    -7.437805    649.81759  0.018835292  0.018058825           11 
 2876000   0.79829457   -7.4742813    648.13251  0.018779917  0.018052353            8 
 2877000   0.77932036   -7.4511044    648.77112  0.018791887  0.018045894            6 
 2878000    0.8014641   -7.4800627    647.68585  0.018753934  0.018039448           13 
 2879000   0.78570113   -7.4654969    649.64852  0.018804229  0.018032961           13 
 2880000   0.79138134     -7.45061     647.9753  0.018749285  0.018026475           27 
 2881000   0.78490644   -7.4870132    647.98996  0.018743201  0.018020004           26 
 2882000   0.78826832   -7.4417558    649.59848  0.018783208  0.018013553           43 
 2883000   0.79548963   -7.4296648    650.41806  0.018800383  0.018007112           25 
 2884000   0.79914667    -7.466092    649.90181  0.018778947  0.018000662           14 
 2885000   0.78651402    -7.449765    648.80929  0.018740881   0.01799424           36 
 2886000   0.78750247   -7.5097869    648.68717  0.018730861   0.01798779           36 
 2887000    0.7850239   -7.4805629    648.49773  0.018718904  0.017981292           23 
 2888000   0.80558581   -7.4559727    650.70098  0.018775998  0.017974809           19 
 2889000   0.80571684   -7.4786929    647.50467  0.018677301  0.017968357           15 
 2890000   0.78689532   -7.4743592    650.24733  0.018749923  0.017961919           13 
 2891000   0.79629584   -7.4937972    648.68592  0.018698429  0.017955467           31 
 2892000   0.77274223   -7.4391301    649.87932  0.018726352  0.017949017           14 
 2893000   0.78552875   -7.4674035    648.28103   0.01867384  0.017942548           22 
 2894000   0.79371389   -7.4535484    649.22553  0.018694585  0.017936094           15 
 2895000   0.80792414   -7.4560701    648.55951  0.018668955   0.01792965            9 
 2896000   0.78925167   -7.4624421    651.00328  0.018732829   0.01792318            8 
 2897000   0.78879881   -7.4741182    648.85642  0.018664608  0.017916766           15 
 2898000   0.80658698   -7.4781775    649.61332  0.018679932  0.017910312           10 
 2899000   0.78512598   -7.4924823    648.83186  0.018651025  0.017903875           14 
 2900000   0.79669182   -7.4835734    648.75066   0.01864226  0.017897432           19 
 2901000   0.78108608    -7.457912    649.66983  0.018662238   0.01789099           20 
 2902000   0.79817132    -7.493912    649.27201  0.018644384  0.017884553           11 
 2903000   0.77948159   -7.4587517    649.19004  0.018635608  0.017878136           12 
 2904000   0.77769615   -7.4605216      649.507  0.018638286  0.017871726           13 
 2905000   0.80587161   -7.4857604       648.04  0.018589788  0.017865291           15 
 2906000   0.78469662   -7.4883368    647.11671  0.018556914  0.017858867            5 
 2907000   0.78793467   -7.4804196    647.25926  0.018554617  0.017852438            9 
 2908000   0.78465293    -7.469272     649.0458  0.018599433  0.017846019            5 
 2909000   0.78759342   -7.4782998    649.12072  0.018595185  0.017839583           19 
 2910000   0.78173572   -7.5052097    649.94758  0.018612474  0.017833125           16 
 2911000   0.79997382   -7.4697639    650.17971  0.018612725  0.017826681            9 
 2912000   0.79170982   -7.4943045     649.1405  0.018576594  0.017820255           23 
 2913000   0.76914169   -7.4849328    649.76514  0.018588086  0.017813826           10 
 2914000   0.78574908   -7.5166368    648.16125   0.01853584    0.0178074           29 
 2915000   0.77291451   -7.4704339    650.59973  0.018599192  0.017800984           36 
 2916000   0.79361523   -7.4853236    648.36607   0.01852898  0.017794538           17 
 2917000   0.78750177   -7.4985636    648.04349  0.018513412  0.017788079           22 
 2918000   0.78784256   -7.4798005     650.1361  0.018566829  0.017781635           14 
 2919000    0.7924974   -7.4832528    648.89069  0.018524914  0.017775202           23 
 2920000   0.78525605   -7.4910774    650.22434  0.018556631  0.017768785           31 
 2921000   0.79979937   -7.4777338    649.55415  0.018531158  0.017762386           52 
 2922000   0.79405748   -7.4694982    649.46997  0.018522415  0.017756007           35 
 2923000   0.79466096   -7.4458607    650.46106  0.018544334  0.017749622           22 
 2924000   0.79753021   -7.4576859    650.85817  0.018549309  0.017743275           23 
 2925000   0.75281919   -7.4681164    650.89141  0.018543915  0.017736926            9 
 2926000    0.7716416   -7.4893423     650.4987  0.018526393  0.017730585           24 
 2927000   0.78239654   -7.4591331    652.03706  0.018563861  0.017724258            7 
 2928000   0.77612418   -7.4685873    651.41183  0.018539727  0.017717909           11 
 2929000   0.78293226   -7.4583045    650.00036  0.018493239   0.01771152           13 
 2930000   0.79084376   -7.4704592    649.39539  0.018469721  0.017705181           13 
 2931000   0.76797156   -7.4584633    650.14849  0.018484831  0.017698848           10 
 2932000   0.78744888   -7.4866018    648.67312  0.018436594   0.01769253           22 
 2933000   0.78331803   -7.4569715    650.05388  0.018469539  0.017686202           30 
 2934000   0.78065954   -7.4642205    650.95534  0.018488847  0.017679856           19 
 2935000   0.78984279   -7.4712593    651.28912  0.018492025  0.017673507           12 
 2936000   0.79964162   -7.4851002    651.43472  0.018489859  0.017667151           19 
 2937000   0.77962999   -7.4819698    649.86863  0.018439128  0.017660793           12 
 2938000   0.78520912   -7.4605514    650.30567  0.018445248   0.01765445           14 
 2939000    0.7840847   -7.4889279    649.44915  0.018414686  0.017648104           11 
 2940000    0.7736354   -7.4785989    651.39621  0.018463611  0.017641749            7 
 2941000   0.77771484    -7.495024    649.99951  0.018417758  0.017635387           13 
 2942000   0.78912384   -7.5021043    649.69656  0.018402916   0.01762903            5 
 2943000   0.76450703   -7.4698754    650.45593  0.018418166  0.017622678            9 
 2944000   0.77177087   -7.4914901    651.16563  0.018431998  0.017616333            8 
 2945000   0.76708381   -7.4789715    650.42589  0.018404807  0.017609965           10 
 2946000   0.78600003   -7.4834885    649.81601  0.018381308  0.017603577           12 
 2947000    0.7829111   -7.4867153    649.01903  0.018352535  0.017597241           22 
 2948000   0.78209185   -7.5071122    649.61474  0.018363148  0.017590904           31 
 2949000   0.78640159   -7.5035445    649.64757  0.018357849  0.017584558           16 
 2950000    0.7894632   -7.5126927    649.91639   0.01835922  0.017578206            7 
 2951000   0.76568514   -7.5024608    650.06312  0.018357142  0.017571848           18 
 2952000   0.77860536   -7.4881847    651.10213  0.018380254   0.01756549           20 
 2953000    0.7694686   -7.5012908    650.44303   0.01835543  0.017559146            5 
 2954000   0.78038356   -7.5060114    649.69959  0.018328244   0.01755279           25 
 2955000    0.7922057    -7.519798    650.45883  0.018343453  0.017546426            9 
 2956000   0.78397202   -7.4963706    649.51745  0.018310709  0.017540055           16 
 2957000   0.77353344   -7.4745559    650.31631  0.018327029  0.017533727           15 
 2958000   0.78152535   -7.4908784     649.8349  0.018307271  0.017527416           16 
 2959000   0.78877253   -7.4756047    650.66355  0.018324421  0.017521052           14 
 2960000    0.7779295   -7.5055661    650.29047  0.018307727  0.017514707           10 
 2961000   0.76789886   -7.4899062    648.14883  0.018241271  0.017508353           12 
 2962000   0.75961977   -7.5018677    651.20431  0.018321076   0.01750202           15 
 2963000   0.76700648   -7.5117627    650.34415  0.018290701  0.017495658           19 
 2964000   0.78439275   -7.5182858    649.83985  0.018270351  0.017489297           30 
 2965000    0.7650033   -7.4868684    650.32817  0.018277914  0.017482945           40 
 2966000   0.76442539   -7.4982507    650.28865  0.018270641  0.017476577           35 
 2967000   0.78401268   -7.5147559    649.51615  0.018242786  0.017470217           43 
 2968000   0.77028125   -7.4651137     651.3605  0.018288424  0.017463865           56 
 2969000   0.80542557   -7.5008769    650.69358  0.018263545  0.017457541           26 
 2970000   0.77872213   -7.4905385    650.99686  0.018265905  0.017451202           22 
 2971000   0.78525766   -7.5177596    649.89331  0.018228804  0.017444858            9 
 2972000   0.76295737   -7.5083001    648.75863  0.018190854  0.017438505           24 
 2973000   0.75384497   -7.4777731    650.81254  0.018242307  0.017432176            8 
 2974000   0.78217525   -7.4848859    651.05946  0.018243092  0.017425877           13 
 2975000   0.77408546   -7.4950712    650.17488  0.018212182  0.017419556           20 
 2976000   0.77338952   -7.4804363    650.72516  0.018221471  0.017413257           10 
 2977000   0.78855585    -7.491674    651.84155    0.0182466  0.017406987           11 
 2978000   0.78574316   -7.4971772    651.72742   0.01823728  0.017400709           12 
 2979000   0.77850317   -7.4918202    650.25512  0.018189972   0.01739445            9 
 2980000   0.77613798   -7.4894676    652.50248  0.018246714  0.017388172           11 
 2981000     0.754728   -7.5180852    649.22279  0.018148909  0.017381859           17 
 2982000    0.7858516   -7.5299393    650.05368  0.018166043   0.01737555           10 
 2983000   0.78240987   -7.5239665     651.0311  0.018187258  0.017369238            9 
 2984000   0.76594889   -7.5327202    649.77271  0.018146021  0.017362962            8 
 2985000   0.77595747    -7.520058     649.9042  0.018143612  0.017356661           14 
 2986000   0.77120122   -7.5184983    651.14728  0.018172228  0.017350322           16 
 2987000   0.79020088    -7.506076    649.85237  0.018130018  0.017343995           23 
 2988000   0.78271075   -7.5473046    651.44655  0.018168411   0.01733764           16 
 2989000   0.76318488   -7.5302358    650.21641  0.018128036   0.01733128           41 
 2990000   0.77479626   -7.5476564    650.48941  0.018129582  0.017324947           18 
 2991000    0.7834855   -7.5098884    650.57001  0.018125766  0.017318625           23 
 2992000    0.7867921   -7.5077138    651.27443  0.018139328  0.017312327           18 
 2993000   0.76670792   -7.5060164     649.7703  0.018091388  0.017306043           28 
 2994000   0.76406627    -7.514147     650.6075  0.018108648   0.01729975           27 
 2995000    0.7869048   -7.4934333    652.31019  0.018149977  0.017293486           15 
 2996000   0.77560311   -7.5243139    649.76934  0.018073246  0.017287215           31 
 2997000   0.76636576   -7.5464547    649.64978  0.018063891  0.017280929           26 
 2998000   0.78815952   -7.5168597    651.21918  0.018101489  0.017274642           27 
 2999000   0.76832223   -7.5373202    651.44489  0.018101725  0.017268346           21 
 3000000   0.77050381   -7.5531595    650.89899  0.018080528  0.017262032           15 
 3001000   0.76253578   -7.5423633    650.79719  0.018071676  0.017255733           22 
 3002000   0.76924881   -7.5658214     650.1128  0.018046658  0.017249418           24 
 3003000   0.77744477   -7.5678375    651.41349  0.018076743  0.017243149           25 
 3004000   0.77947284   -7.5717748     650.1543  0.018035794  0.017236834            9 
 3005000   0.75711859   -7.5286585    651.30722  0.018061764  0.017230558           26 
 3006000   0.77740977   -7.5648772     650.6997  0.018038914  0.017224295           27 
 3007000   0.76323447    -7.504516    651.03063  0.018042086  0.017218029           10 
 3008000   0.76911566   -7.5312467    651.38759  0.018045977  0.017211775           22 
 3009000   0.78823721   -7.5062271    649.92984  0.017999608  0.017205546           14 
 3010000   0.77415769   -7.5404915    650.95721  0.018022071  0.017199285            8 
 3011000   0.78596291   -7.5385693    651.86594  0.018041236  0.017193036            9 
 3012000   0.77383659   -7.5172324    652.13712  0.018042749  0.017186807           13 
 3013000   0.78023699    -7.517011    651.56932  0.018021057  0.017180589            7 
 3014000   0.76990675   -7.5517484    650.56894  0.017987418   0.01717436           21 
 3015000   0.76325791    -7.546642    650.03951  0.017966819  0.017168107           23 
 3016000   0.75634673   -7.5326556    652.87011  0.018039072  0.017161851           25 
 3017000   0.76039664    -7.531658    652.39999  0.018020108  0.017155597           49 
 3018000   0.76854847   -7.5597402    652.51817    0.0180174  0.017149329           34 
 3019000   0.76478009    -7.544682    649.94477  0.017940399  0.017143087           34 
 3020000   0.78565889   -7.5838374    648.60494  0.017897487   0.01713683           37 
 3021000   0.76523599   -7.5326911    651.67305  0.017976196  0.017130561           27 
 3022000   0.77625089   -7.5494184    650.36855  0.017934275  0.017124326           30 
 3023000   0.76801197   -7.5525271    653.77562  0.018022263  0.017118138           13 
 3024000   0.76696049    -7.527922    652.13303  0.017971038  0.017111943           12 
 3025000   0.76782938   -7.5139184    651.71213  0.017953502   0.01710576           20 
 3026000   0.75666606   -7.5224252    652.84987  0.017978901  0.017099546           28 
 3027000   0.76400445    -7.523071    652.15313  0.017953781  0.017093355           12 
 3028000   0.77083654   -7.5168297    653.10209  0.017973968  0.017087194           10 
 3029000   0.79214194   -7.5473114    651.61088  0.017927008  0.017080997           17 
 3030000   0.76805522   -7.5470362    652.06904  0.017933692  0.017074823           16 
 3031000    0.7620831   -7.5323705    652.86964  0.017949787  0.017068626           29 
 3032000   0.76323298   -7.5485232    651.19395  0.017897811  0.017062441           16 
 3033000   0.75903191   -7.5556916    651.38336  0.017897114   0.01705623           12 
 3034000   0.76592897   -7.5355495     651.1859  0.017885792  0.017050027           37 
 3035000   0.76062522   -7.5303973    652.89979  0.017926957  0.017043863           23 
 3036000   0.77623378   -7.5213501    651.20833  0.017874625  0.017037664           26 
 3037000   0.75510082    -7.527536    653.05251  0.017919342  0.017031455           23 
 3038000   0.75009803   -7.5538126    652.41975  0.017896087  0.017025261           67 
 3039000   0.77553066   -7.5156037    651.91662  0.017876402  0.017019071           34 
 3040000     0.768641   -7.5548665    651.96305  0.017871794  0.017012872           49 
 3041000   0.76557021   -7.5748781    651.21723  0.017845479  0.017006688           26 
 3042000   0.76390147   -7.5763649    649.86502   0.01780257  0.017000487           22 
 3043000   0.75901618   -7.5599685    652.15949  0.017859554  0.016994295           28 
 3044000   0.75965306   -7.5256181    652.08495  0.017851647   0.01698812           18 
 3045000   0.78822155   -7.5589499    649.96962  0.017787893  0.016981956           16 
 3046000   0.76354105    -7.549655    652.91503  0.017862635  0.016975788           20 
 3047000   0.77172809   -7.5313241     652.5533  0.017846879   0.01696962           24 
 3048000   0.76762883   -7.5286232    651.98817  0.017825573  0.016963477           22 
 3049000   0.75014579   -7.5538328    651.65442  0.017810605  0.016957313           21 
 3050000   0.76349798   -7.5489468    650.98231  0.017786402  0.016951155           20 
 3051000   0.74877451   -7.5523457    651.21556  0.017786943  0.016945014           29 
 3052000   0.75427201    -7.566885    651.00867  0.017775466  0.016938854           24 
 3053000   0.77390302   -7.5359452    654.54145  0.017866073  0.016932719           31 
 3054000   0.76418863   -7.5655459    651.46289   0.01777622  0.016926574           40 
 3055000   0.74966958    -7.541641    652.80114  0.017806905  0.016920408           17 
 3056000   0.77978742   -7.5454096    651.76617  0.017772856  0.016914248           35 
 3057000   0.74789537   -7.5643521    651.83811  0.017769003  0.016908086           20 
 3058000   0.76339975   -7.5920892    650.67719  0.017731556  0.016901931           27 
 3059000   0.75772579   -7.5637037     652.4812  0.017774905  0.016895773           15 
 3060000   0.76271045   -7.5834652    651.19012  0.017733936  0.016889594           18 
 3061000   0.75480138   -7.5905754    651.41738  0.017734329  0.016883435           65 
 3062000    0.7619435    -7.568384    652.24602  0.017751089  0.016877269           61 
 3063000   0.75798536   -7.5546919    650.94342  0.017709855  0.016871098           26 
 3064000   0.75909217   -7.5853469    651.45664  0.017718033  0.016864918           23 
 3065000   0.77149832   -7.5715112    650.54524  0.017687473  0.016858737           23 
 3066000   0.76144473   -7.5579197    651.81564  0.017716233  0.016852591           27 
 3067000   0.76034072   -7.5302228    652.52307  0.017729678  0.016846434           13 
 3068000   0.76933613    -7.543645    652.58024  0.017725452  0.016840293           42 
 3069000   0.74940196   -7.5556151    651.93966  0.017702282  0.016834183           19 
 3070000   0.75801576   -7.5457717    651.91787  0.017695925  0.016828056           25 
 3071000   0.73939532   -7.5569968    652.83831  0.017715139  0.016821932           33 
 3072000   0.75432888   -7.5571906    651.98477  0.017686219    0.0168158           15 
 3073000   0.76282398   -7.5813062    651.05614  0.017655281  0.016809639           62 
 3074000   0.77511804   -7.5594016    651.14384  0.017651915  0.016803493           29 
 3075000   0.76103992   -7.5896486    650.74515   0.01763537  0.016797363           52 
 3076000   0.74795972   -7.5502813    651.89057  0.017660668   0.01679123           19 
 3077000   0.78631833   -7.5468293     651.7448   0.01765098  0.016785112           17 
 3078000   0.75271212   -7.5581029     652.2493  0.017658905  0.016778988           35 
 3079000   0.76829906   -7.5792564     651.5712  0.017634816  0.016772846           20 
 3080000   0.76058824   -7.5312682    653.89901  0.017692073  0.016766737           20 
 3081000   0.75379029   -7.5706112    651.26259  0.017615022  0.016760646           18 
 3082000   0.74426813   -7.5562676    650.22829   0.01758134   0.01675453           25 
 3083000   0.74892507   -7.5617381    650.72546  0.017589076  0.016748397           12 
 3084000   0.75756291   -7.5434561    651.95809   0.01761668  0.016742291           18 
 3085000   0.75469322   -7.5681835    652.55842  0.017627186  0.016736189           19 
 3086000   0.76606407   -7.5758247    652.76911  0.017627163  0.016730089           16 
 3087000   0.75722943   -7.5691541     652.6465  0.017618143  0.016723978           14 
 3088000   0.75879077   -7.5648425    653.35631  0.017631593  0.016717866           27 
 3089000   0.74635132   -7.5462693    653.42106  0.017627632  0.016711773           12 
 3090000   0.75640775   -7.5691239    652.10102  0.017586327  0.016705665           26 
 3091000   0.76580031   -7.5785475     652.0102  0.017578189  0.016699589           29 
 3092000   0.76802939   -7.5629597    652.00597   0.01757239  0.016693506           27 
 3093000   0.74933337   -7.5677454    651.76739  0.017560281  0.016687411           24 
 3094000    0.7469718   -7.5545797    653.14801  0.017591791  0.016681326           15 
 3095000   0.76964892   -7.5813119    652.50507  0.017568796   0.01667522           23 
 3096000   0.75121902    -7.595992    652.23487  0.017555848  0.016669137           14 
 3097000    0.7451778   -7.5956131    653.26354  0.017577859  0.016663069           13 
 3098000   0.76604587   -7.5589167    652.21383  0.017543949  0.016657012           21 
 3099000   0.74955354   -7.5635328    651.79239  0.017526955  0.016650961           27 
 3100000   0.75750505   -7.5836144    650.84823   0.01749592  0.016644909           21 
 3101000   0.76426805   -7.5765693    653.17806  0.017552888  0.016638867           10 
 3102000   0.74822372   -7.5766584    653.32346  0.017551135  0.016632807           11 
 3103000   0.74776195   -7.5740193    652.34362  0.017519165   0.01662676           14 
 3104000   0.75390701   -7.5635948    653.34006  0.017540272  0.016620711           13 
 3105000   0.73798966   -7.5413197    651.99755  0.017498592   0.01661467            7 
 3106000   0.74486745   -7.5623494    652.62912  0.017509903  0.016608618           20 
 3107000   0.75385921   -7.5798541    652.40552  0.017498271  0.016602541           14 
 3108000   0.76241379   -7.6040298    652.42863   0.01749326   0.01659647           16 
 3109000   0.74853717   -7.5807785    651.68888  0.017467805  0.016590403           16 
 3110000   0.74077677   -7.6038776    652.98138  0.017496822  0.016584363           33 
 3111000   0.75575671   -7.5851884    653.44092  0.017503507  0.016578313           13 
 3112000   0.75536494   -7.6015413     651.4545   0.01744469  0.016572253           13 
 3113000   0.76736046   -7.5732103    651.39724  0.017437553  0.016566193           28 
 3114000   0.76731367   -7.5854526    649.74378  0.017387706   0.01656014           26 
 3115000   0.76587446   -7.5752785    652.58514  0.017458136  0.016554084           30 
 3116000    0.7287313   -7.5565226    652.45079  0.017448941  0.016548035           16 
 3117000   0.75331087   -7.5763771    651.73634  0.017424242  0.016541961           45 
 3118000   0.73931758   -7.6377777    649.59362  0.017361386  0.016535874           23 
 3119000   0.76681937   -7.6011652    651.06962  0.017395255  0.016529792           26 
 3120000   0.75004213   -7.5990741      652.398   0.01742516  0.016523719           24 
 3121000   0.77182032   -7.6023695    651.34777  0.017391535  0.016517642           23 
 3122000   0.75355119   -7.6040599    652.42729  0.017414779  0.016511573           27 
 3123000   0.76172429   -7.5710559    651.77247   0.01739173  0.016505541           13 
 3124000     0.751671   -7.5474456    653.54053  0.017433326  0.016499525           16 
 3125000   0.75979396   -7.6038375    651.23434  0.017366249  0.016493499           24 
 3126000    0.7561827   -7.5687519    653.58541  0.017423369  0.016487473           16 
 3127000   0.73869265   -7.5802578    652.73675  0.017395181  0.016481443           19 
 3128000    0.7543928   -7.5656203    654.54472  0.017437786  0.016475436           46 
 3129000   0.75636926   -7.5603083    653.81925  0.017412891   0.01646943           25 
 3130000    0.7477104   -7.5889369    652.47424  0.017371519  0.016463405           21 
 3131000   0.74013601   -7.5541259    654.26345  0.017413591  0.016457395           39 
 3132000    0.7489442   -7.5700883    652.41688    0.0173589  0.016451413           29 
 3133000   0.75513516   -7.5956778    652.09845  0.017344889  0.016445417           24 
 3134000   0.75317692   -7.5976302    652.67756  0.017354753  0.016439421           25 
 3135000   0.74253805   -7.5813532    652.50502  0.017344631  0.016433424           53 
 3136000   0.76567296   -7.5987154    652.17909  0.017330439  0.016427433           49 
 3137000   0.74958037   -7.5834982    652.42995  0.017331579  0.016421446           59 
 3138000   0.76218109   -7.6102895       653.48  0.017353941  0.016415448           67 
 3139000   0.73759176   -7.6110231    652.61772  0.017325521   0.01640945           49 
 3140000   0.75318436   -7.5836734    654.05793  0.017358225  0.016403464           69 
 3141000   0.76233431   -7.5802608    654.16058  0.017355422  0.016397498           40 
 3142000   0.75311368   -7.5862953    652.12385   0.01729588  0.016391506           75 
 3143000    0.7467176   -7.5967097    652.28804   0.01729473  0.016385498           74 
 3144000   0.74853352   -7.6124954    652.15445  0.017285688  0.016379521           85 
 3145000   0.75214964   -7.6037114    652.95438  0.017301388  0.016373509           68 
 3146000   0.75367401   -7.6046263    651.69991  0.017262659  0.016367511          122 
 3147000   0.76103277   -7.6155251    652.51043  0.017278637  0.016361495           90 
 3148000   0.72889539      -7.6243    652.93389  0.017284357  0.016355484           52 
 3149000   0.72565096   -7.6246662    652.59094  0.017269793   0.01634948           55 
 3150000   0.73692872   -7.6104738    652.52918  0.017262677  0.016343484           67 
 3151000   0.75703795    -7.554065    654.02788  0.017296834  0.016337531           55 
 3152000    0.7319456   -7.6339769    651.91831  0.017235573  0.016331572           42 
 3153000   0.74894455   -7.5853541    653.72997  0.017277988  0.016325592           40 
 3154000   0.74111847   -7.6280347    651.99606  0.017226698  0.016319604           62 
 3155000   0.74814904   -7.6171282    653.66616   0.01726535  0.016313615           64 
 3156000   0.75467406   -7.5947825    652.57346  0.017231027  0.016307643           42 
 3157000   0.74850414   -7.6490018    652.28351  0.017217915   0.01630166           55 
 3158000   0.72964374   -7.6369079    650.04711  0.017153449  0.016295665           49 
 3159000   0.75241847   -7.6167882    651.92759  0.017197625  0.016289661           50 
 3160000   0.76081159   -7.6286279    652.12372  0.017197356  0.016283675           48 
 3161000   0.73910261   -7.6253603    653.03464   0.01721593  0.016277698           78 
 3162000   0.72150625   -7.6011841    654.12389  0.017239192  0.016271712           44 
 3163000   0.76440495   -7.6120089    652.91805  0.017201972  0.016265746           70 
 3164000   0.75149078   -7.6119129    653.24602  0.017205173  0.016259786           76 
 3165000   0.75279287   -7.6400798    652.29739   0.01717476  0.016253841           82 
 3166000   0.75382826   -7.6023352    653.56849  0.017202792  0.016247903           79 
 3167000   0.74999636   -7.6143985    651.82523   0.01715149  0.016241963           41 
 3168000    0.7322313   -7.6110093    653.42091   0.01718805  0.016236028           68 
 3169000   0.73397279   -7.6068875    653.10017  0.017174192  0.016230095           99 
 3170000   0.75166512   -7.6081985    654.68839  0.017210526  0.016224188           54 
 3171000   0.74786593   -7.5940697    653.25125   0.01716733  0.016218279           38 
 3172000   0.75612583   -7.5934276    653.01283  0.017155654  0.016212359           47 
 3173000   0.74799356   -7.6062339    653.33024  0.017158584  0.016206439           66 
 3174000   0.74395954   -7.6016715    653.25734  0.017151264  0.016200532           35 
 3175000   0.73103661   -7.6072396    653.66472  0.017156554  0.016194634           54 
 3176000   0.74407337    -7.622531    652.51238  0.017120917  0.016188736           33 
 3177000   0.73142717   -7.6024669    653.89274  0.017151735   0.01618283           32 
 3178000   0.74690558   -7.5814715    654.43939  0.017160672  0.016176952           24 
 3179000   0.73777417   -7.6013404    654.17319  0.017148296  0.016171098           37 
 3180000   0.74988838   -7.5932775    655.69548  0.017182796  0.016165231           32 
 3181000   0.74540481   -7.6072397    653.32757  0.017115361  0.016159337           45 
 3182000   0.77436235   -7.5814054    653.35745  0.017110765  0.016153437           40 
 3183000   0.73195507   -7.6072579    652.81665  0.017091231  0.016147555           23 
 3184000   0.74233681   -7.5817641    653.57824  0.017105796  0.016141657           22 
 3185000   0.73422021   -7.6097626    653.47942  0.017097839  0.016135767           30 
 3186000   0.74023499   -7.6275633    651.44284  0.017039204   0.01612987           30 
 3187000   0.74737444   -7.6053381    654.26646  0.017107689  0.016123986           33 
 3188000   0.73749119   -7.6055148    654.55553  0.017109879  0.016118102           21 
 3189000   0.75584239   -7.6220915    654.17968  0.017094692   0.01611221           20 
 3190000   0.73901382   -7.6012007    654.58913  0.017100029   0.01610632           19 
 3191000   0.73748915   -7.6093382    652.39625  0.017037403  0.016100442           29 
 3192000   0.75445051   -7.6389612    653.02346   0.01704844  0.016094548           14 
 3193000   0.73478182   -7.6171676    653.41407  0.017053295  0.016088686           10 
 3194000   0.74646285   -7.5992154    654.74711  0.017082736   0.01608283           24 
 3195000   0.74076564   -7.5844555    654.98802  0.017083673  0.016076977            9 
 3196000   0.72295082   -7.6291335    653.69314  0.017044565  0.016071108            8 
 3197000   0.74025852   -7.6360294    654.42062  0.017058196  0.016065229           17 
 3198000   0.73723144   -7.6289845    652.74399  0.017009172  0.016059333           23 
 3199000   0.73466107   -7.6108133    655.00984   0.01706288  0.016053451           22 
 3200000   0.72920762   -7.6601791    652.33251  0.016987826  0.016047562           11 
 3201000   0.73052955   -7.6184208    653.30535  0.017007845  0.016041666           40 
 3202000   0.73541654   -7.6300555    654.55453  0.017035044  0.016035771           13 
 3203000   0.75151089    -7.628752    653.33216  0.016997923  0.016029858           15 
 3204000   0.73467011   -7.6287499    652.83419  0.016979666   0.01602399           23 
 3205000   0.73250386   -7.6402201     653.9068  0.017002257  0.016018124           23 
 3206000   0.73747233   -7.6491908    652.16395  0.016951652  0.016012253           36 
 3207000   0.73779918   -7.6214344    654.09011  0.016996417  0.016006356           52 
 3208000   0.72267822   -7.6328867    653.41268  0.016973521  0.016000467           42 
 3209000   0.73638223   -7.5902722     653.3926  0.016967711  0.015994608           53 
 3210000   0.72894131   -7.6246772    653.06241  0.016953853  0.015988749           47 
 3211000   0.75237692   -7.6045367    654.64478  0.016989639  0.015982899           30 
 3212000   0.75815627   -7.6048357    653.69527  0.016959715  0.015977054           11 
 3213000   0.75786547   -7.6523438    654.33998  0.016971158  0.015971209           22 
 3214000   0.75808107   -7.6427082    653.26012  0.016937879  0.015965358           16 
 3215000   0.71990829   -7.6290073    653.33885  0.016934651   0.01595953           22 
 3216000   0.74461306   -7.6218557    651.77533  0.016888872  0.015953688           43 
 3217000    0.7307475   -7.6311533    654.50008  0.016954204  0.015947862           21 
 3218000   0.75168789   -7.6481644    652.75897  0.016903847  0.015942031           68 
 3219000   0.73780483   -7.6186484    654.90087  0.016954046  0.015936217           31 
 3220000   0.72495659   -7.6032176    654.66657  0.016942717  0.015930415           27 
 3221000    0.7293359   -7.6224574    652.21334  0.016873987  0.015924608           21 
 3222000   0.73754763   -7.6334365     654.0069  0.016915138  0.015918809           83 
 3223000   0.73861959   -7.6437946     654.1904  0.016914634  0.015912996           61 
 3224000   0.72744751   -7.6237557    653.30415   0.01688648  0.015907176           60 
 3225000   0.75126913   -7.6197188    652.98285  0.016872942   0.01590134          109 
 3226000   0.74014982   -7.5890367    654.09703  0.016896493  0.015895554           43 
 3227000   0.73104995   -7.6159299    654.39477  0.016898946  0.015889748           70 
 3228000   0.73814364   -7.6278371    653.81144  0.016878651  0.015883926           66 
 3229000   0.73483758   -7.6398423    653.69608  0.016870447  0.015878094           89 
 3230000   0.73963489   -7.6465466    654.63769  0.016889517  0.015872273           99 
 3231000   0.73494868   -7.6579564    653.69446  0.016859962  0.015866442          126 
 3232000   0.73050204    -7.666771    652.75669  0.016830566  0.015860607           72 
 3233000    0.7239125   -7.6816616    653.18404  0.016836376  0.015854749           98 
 3234000   0.73411712   -7.6466052    651.84734  0.016796726  0.015848886          122 
 3235000   0.73797675   -7.6745231    652.14083  0.016799094  0.015843054          101 
 3236000   0.72588867   -7.6562873    652.18158  0.016794952  0.015837218           99 
 3237000   0.73987669   -7.6834652    651.85321   0.01678131  0.015831376          151 
 3238000   0.74523776   -7.6742483    651.29659  0.016761802  0.015825509           71 
 3239000   0.74455935   -7.6521284    653.47533  0.016812682  0.015819665           65 
 3240000   0.72217195   -7.6500236    652.84064  0.016791169  0.015813819          112 
 3241000   0.75652568   -7.6758637    652.45533  0.016776081  0.015807977          127 
 3242000   0.75283202   -7.6554724    651.93622  0.016757563  0.015802142          108 
 3243000   0.73489709   -7.7017429    651.38668  0.016738274    0.0157963           78 
 3244000   0.74013882   -7.6963449    652.73354  0.016767713  0.015790425           82 
 3245000   0.73446256   -7.6635357    654.34149  0.016803839   0.01578457          122 
 3246000    0.7125155   -7.6726397    653.35313  0.016773289  0.015778725          136 
 3247000    0.7371053   -7.6859564    652.23469  0.016739418  0.015772887          108 
 3248000   0.75020286   -7.6461818     652.6597  0.016745169  0.015767052          125 
 3249000   0.72114346   -7.6621572    653.99124  0.016774167  0.015761223          106 
 3250000   0.73924195   -7.6402184    655.36281  0.016804175  0.015755432          150 
 3251000   0.73217661   -7.6638096    652.22369   0.01671854  0.015749628          160 
 3252000   0.71904787    -7.678989     652.9793  0.016732762  0.015743804          131 
 3253000   0.73324985   -7.6354991     654.4279  0.016764727   0.01573798          129 
 3254000   0.72980983   -7.6378051    651.86565  0.016693957  0.015732158          134 
 3255000   0.72782637   -7.6554463    652.72414  0.016710807  0.015726373          149 
 3256000   0.72404094   -7.6678291     652.6056  0.016702641  0.015720584          166 
 3257000   0.72326996   -7.6933861    652.44871  0.016693499   0.01571477          133 
 3258000    0.7482027   -7.6560593    652.79292  0.016697179  0.015708956          130 
 3259000   0.72228996   -7.6523946    652.43299  0.016682852  0.015703152          135 
 3260000   0.73360602   -7.6471489    653.79017  0.016712428   0.01569734           99 
 3261000   0.71867837   -7.6647268     652.6173  0.016677331  0.015691531          170 
 3262000   0.72346367   -7.6508563    652.64125   0.01667283  0.015685738          110 
 3263000   0.72675978   -7.6520767     652.7224  0.016669793  0.015679947          129 
 3264000   0.73382487   -7.6414499     652.6023  0.016661619  0.015674167           91 
 3265000   0.72776592   -7.6619937    652.30497  0.016648927  0.015668367          112 
 3266000   0.71891802   -7.6789195    651.86726  0.016632661  0.015662535          223 
 3267000   0.73886783   -7.6733049    652.76427  0.016650451  0.015656742          247 
 3268000   0.71790206   -7.6458509    654.03514  0.016677763  0.015650945          140 
 3269000   0.71722135   -7.6719207    652.25134  0.016627188  0.015645147          155 
 3270000   0.73647573   -7.6630521    653.18328  0.016645853  0.015639347          195 
 3271000   0.73580091   -7.7113603    652.53309    0.0166242  0.015633546          166 
 3272000   0.71321207   -7.6561084    652.08253  0.016607644  0.015627734          102 
 3273000   0.73205685   -7.6707945    652.34349  0.016609214  0.015621928          138 
 3274000   0.72491112   -7.6899416    651.19684  0.016574955  0.015616112           87 
 3275000   0.72188441   -7.6983545    651.83122  0.016586036  0.015610302          105 
 3276000   0.73367589   -7.6835571    653.32972  0.016619091  0.015604497           86 
 3277000   0.72721722   -7.6623367     651.3352    0.0165633  0.015598683          110 
 3278000   0.72658124    -7.687993    652.53617  0.016588778  0.015592893          103 
 3279000   0.70977849   -7.6805382    651.04071  0.016545713  0.015587066           74 
 3280000   0.71233467   -7.6788772    651.02853  0.016540359  0.015581253           71 
 3281000   0.72178279   -7.6622588    653.28947  0.016592743  0.015575468           46 
 3282000   0.72908486   -7.6707206    650.88052  0.016526521  0.015569678           65 
 3283000    0.7294417   -7.6718677    651.82566  0.016545478  0.015563903           96 
 3284000   0.71779618   -7.6704725    652.24473  0.016551074  0.015558126           52 
 3285000   0.72464849   -7.6442872    653.21501   0.01657065  0.015552378          115 
 3286000   0.72610057   -7.6770406     652.4542  0.016546313  0.015546629           72 
 3287000   0.71580283   -7.6490579    652.85208  0.016551366  0.015540857           56 
 3288000   0.73138656    -7.656463    654.13736  0.016578907  0.015535114           65 
 3289000   0.72991794   -7.6800211    652.21757  0.016525225  0.015529345           44 
 3290000   0.71777726   -7.6554271    653.98064  0.016564859  0.015523588           63 
 3291000   0.71437696    -7.673409    652.44079  0.016520834  0.015517837           80 
 3292000   0.71892171   -7.6904945    652.35259  0.016513583  0.015512089          109 
 3293000   0.73017918   -7.7018765    652.07978  0.016501665  0.015506333           98 
 3294000   0.73632715   -7.6772811    652.21306  0.016500027  0.015500582           72 
 3295000   0.73353395   -7.6734762    652.52736  0.016502968   0.01549482           77 
 3296000   0.70640179   -7.6771684    651.86042  0.016481099   0.01548906           75 
 3297000   0.71038242   -7.6800398     652.2198  0.016485183  0.015483329           72 
 3298000   0.70750304     -7.67671    652.76727  0.016494018  0.015477606           87 
 3299000   0.74378106   -7.6801659    654.31408  0.016528091  0.015471887           51 
 3300000   0.72880464   -7.6841358    653.21105  0.016495228  0.015466146           73 
 3301000    0.7329316   -7.6788177    654.31336  0.016518059  0.015460394           91 
 3302000   0.71096225   -7.6817475    652.41738  0.016465207  0.015454643           85 
 3303000   0.71012706   -7.6857081     650.8433  0.016420509  0.015448895           77 
 3304000     0.720442   -7.6889774    652.17171  0.016449044  0.015443173           66 
 3305000   0.71631854    -7.685567    652.74255  0.016458461  0.015437446           63 
 3306000   0.70223163   -7.6900116    652.11797  0.016437739  0.015431714          100 
 3307000   0.72495249   -7.7111925    652.73675  0.016448361  0.015425965          132 
 3308000   0.70991463   -7.7131125    652.28431  0.016431991  0.015420211          108 
 3309000   0.72498674   -7.6730433    653.20047  0.016450097  0.015414471          109 
 3310000   0.73000737   -7.7244416    652.04462  0.016416028  0.015408732           98 
 3311000   0.72406024   -7.6913108    651.23236  0.016390626  0.015402966          108 
 3312000   0.71925562   -7.7050935    650.96875  0.016379045  0.015397217           98 
 3313000   0.71514912   -7.6884885    653.65289  0.016441616   0.01539148          132 
 3314000    0.7394705   -7.6792147    652.88314  0.016417299  0.015385751           99 
 3315000   0.73209104   -7.6786602    652.79158  0.016410045  0.015380044          108 
 3316000   0.73112189   -7.6956101    652.61812  0.016400737   0.01537433          119 
 3317000   0.72317222   -7.7038844    652.22385  0.016385887  0.015368625          112 
 3318000   0.71707544   -7.7015766    653.66313  0.016417097  0.015362913           94 
 3319000   0.72150571   -7.6820646    652.22515  0.016376046  0.015357224          117 
 3320000   0.72365822   -7.6708592      652.779  0.016385015  0.015351546          133 
 3321000   0.72582737   -7.6793714    651.98987   0.01636028  0.015345866          154 
 3322000   0.73279613   -7.6790809    652.23149  0.016361416  0.015340196           96 
 3323000   0.72953915   -7.6798186    653.79834  0.016395786  0.015334521           82 
 3324000   0.72543794   -7.6966372    653.71874  0.016388857  0.015328841           55 
 3325000   0.72254764   -7.7022444    651.94837  0.016339558   0.01532314           93 
 3326000    0.7274741   -7.7109319    651.92989  0.016334182   0.01531745           74 
 3327000   0.71946853   -7.6947111    653.59333  0.016370938  0.015311762          100 
 3328000   0.71874402   -7.6905493    651.39651   0.01631101  0.015306081          146 
 3329000   0.72693361   -7.7228461      652.975  0.016345624  0.015300386          230 
 3330000   0.71474886   -7.7210807    651.57765  0.016305747   0.01529468          187 
 3331000   0.71737404   -7.7106247    650.98292  0.016285973  0.015288967          115 
 3332000   0.72991776   -7.7269003    650.77202  0.016275811  0.015283254          165 
 3333000   0.72192887   -7.7192332    651.12867  0.016279845  0.015277536          142 
 3334000   0.72265913   -7.7120622    651.17959  0.016276235  0.015271815          159 
 3335000   0.71058514   -7.7030369    653.71291  0.016334655  0.015266103          199 
 3336000   0.72254374   -7.7352429    651.18487  0.016266608  0.015260409          167 
 3337000   0.72052368   -7.7213624    651.48743   0.01626929  0.015254686          139 
 3338000   0.71883166   -7.7170425    651.68813  0.016269426  0.015248972          126 
 3339000    0.7200941   -7.7178826    651.48608  0.016259511  0.015243278          168 
 3340000   0.72394725   -7.7272353    650.97974  0.016242009  0.015237577          276 
 3341000   0.70806119   -7.7298339    651.51449  0.016250486  0.015231879          323 
 3342000   0.70230744   -7.7239691    650.97335   0.01623213  0.015226165          196 
 3343000   0.70978135   -7.7246676    652.26698  0.016259522  0.015220468          298 
 3344000   0.72305422   -7.7130299    650.66942  0.016214848  0.015214769          222 
 3345000   0.73452992    -7.721391     651.8046  0.016238281  0.015209066          226 
 3346000   0.70208922   -7.7221624    652.21123  0.016243555  0.015203362          171 
 3347000   0.71418261   -7.7241364    650.57311  0.016197916  0.015197644          212 
 3348000   0.71632425    -7.742915    650.69258  0.016196052  0.015191925          200 
 3349000   0.70779687   -7.7446927    650.13596  0.016177365  0.015186212          225 
 3350000   0.71136013   -7.7298435    651.92341     0.016217  0.015180503          312 
 3351000   0.70916251   -7.7396591    651.63168  0.016204906  0.015174795          189 
 3352000   0.71437802   -7.7413788    650.40278   0.01616952  0.015169101          249 
 3353000   0.72191533   -7.7168892    650.24408  0.016160753  0.015163412          143 
 3354000   0.72434063   -7.7305711    651.67759  0.016191552  0.015157725          263 
 3355000   0.72667765   -7.7176346    652.88699  0.016216766  0.015152048          304 
 3356000   0.71526574   -7.7224371    653.32931  0.016222917  0.015146373          251 
 3357000   0.72267868   -7.7213327    650.67929  0.016152301  0.015140694          187 
 3358000   0.72579108   -7.7647615    649.37682  0.016115168   0.01513502          323 
 3359000   0.70867371   -7.7357388    651.26951  0.016157326  0.015129313          406 
 3360000   0.71759403   -7.7427662     650.4597  0.016132433  0.015123604          307 
 3361000   0.71139315   -7.7664382    649.35948  0.016100354    0.0151179          303 
 3362000   0.71261848   -7.7760006    650.12596  0.016114564  0.015112194          391 
 3363000   0.72542514   -7.7379597    651.18453  0.016136003  0.015106486          289 
 3364000    0.7192841   -7.7448412    650.17184   0.01610612  0.015100783          240 
 3365000   0.71233561   -7.7348811    651.17057  0.016126067  0.015095106          286 
 3366000   0.71478296   -7.7648471    650.69134  0.016109411  0.015089424          232 
 3367000   0.70624746   -7.7641295    650.66498  0.016103974  0.015083747          260 
 3368000    0.7122992   -7.7127719    651.30602  0.016115054  0.015078069          255 
 3369000   0.72018438   -7.7463811     651.3532  0.016111438  0.015072399          210 
 3370000   0.72131201   -7.7324311    651.68312  0.016114815  0.015066729          266 
 3371000   0.70606483   -7.7502364    651.22544   0.01609872   0.01506105          372 
 3372000   0.70568493   -7.7550696    651.03517  0.016089244   0.01505536          291 
 3373000   0.72197375   -7.7835005    650.59534  0.016073608  0.015049668          349 
 3374000   0.70464759   -7.7552198    650.90893  0.016076589  0.015043983          330 
 3375000     0.711177   -7.7574931    649.87872  0.016046388  0.015038289          308 
 3376000   0.70476198   -7.7297616    651.47691  0.016081085  0.015032606          267 
 3377000   0.74093032   -7.7818456    650.39035   0.01604951  0.015026926          321 
 3378000   0.71611044   -7.7626586    649.23319  0.016016213  0.015021237          322 
 3379000   0.70281277   -7.7658124    651.06276  0.016056594  0.015015555          371 
 3380000    0.7229668   -7.7471679    651.42759  0.016060838  0.015009882          267 
 3381000   0.71904683   -7.7574238    649.57717  0.016010479  0.015004209          299 
 3382000   0.71746326   -7.7481067    648.72721  0.015984802  0.014998528          318 
 3383000   0.70673901   -7.7629336      649.724  0.016004631  0.014992854          379 
 3384000   0.70432511   -7.7568965    648.56276  0.015971305  0.014987185          249 
 3385000   0.70904839    -7.750893    650.56654  0.016015917  0.014981495          229 
 3386000   0.71717392   -7.7743084    650.20968  0.016002404   0.01497582          215 
 3387000   0.71528248   -7.7645643    649.28994   0.01597505   0.01497015          334 
 3388000   0.70075987   -7.7437572    651.62857  0.016027857  0.014964498          347 
 3389000    0.7124339   -7.7785243    649.60876  0.015973462  0.014958832          384 
 3390000    0.7203852   -7.7574214    648.89041  0.015951092  0.014953164          369 
 3391000   0.72367148   -7.7434368    651.97357  0.016022156   0.01494749          416 
 3392000   0.70870408   -7.7539107    650.59816  0.015983642  0.014941819          421 
 3393000   0.69623353   -7.7561018    650.74416  0.015982517   0.01493616          425 
 3394000   0.71478532   -7.7462547    650.41197  0.015969652  0.014930509          259 
 3395000   0.70309392   -7.7314499    651.17093  0.015983577  0.014924871          375 
 3396000   0.70470867   -7.7445277    649.81495  0.015945597  0.014919246          352 
 3397000   0.69997903   -7.7139775    651.48588  0.015981893  0.014913613          361 
 3398000   0.70301925   -7.7702071    651.13193  0.015968509  0.014907982          410 
 3399000   0.70677901    -7.779165    649.34929  0.015920106  0.014902335          305 
 3400000   0.67969075   -7.7581655    649.84922  0.015927677  0.014896691          376 
 3401000   0.70177276   -7.7565218    650.03781  0.015927615  0.014891057          260 
 3402000   0.72349453    -7.747572    650.43108  0.015932566  0.014885441          387 
 3403000   0.71215652   -7.7619474    649.97592  0.015916738  0.014879803          285 
 3404000   0.71293986   -7.7708374    649.89867  0.015910171  0.014874159          469 
 3405000   0.72484001   -7.7538508     650.9391  0.015930962  0.014868527          329 
 3406000   0.70108174   -7.7525656    650.80632  0.015923036  0.014862899          372 
 3407000   0.70540468   -7.7462222      650.422  0.015908962  0.014857288          381 
 3408000   0.70570948   -7.7458316    650.87133  0.015915281  0.014851676          467 
 3409000    0.7252071   -7.7524876    649.69613  0.015881885  0.014846073          452 
 3410000   0.71945808   -7.7627932    650.22945   0.01589026  0.014840458          435 
 3411000    0.6925591    -7.744733     649.6493  0.015871428  0.014834838          435 
 3412000   0.70234509   -7.7475381    650.32538  0.015883289  0.014829224          514 
 3413000   0.71051016   -7.7597112    651.15967  0.015899005    0.0148236          552 
 3414000   0.71299439   -7.7757289    650.22741  0.015871593  0.014817982          373 
 3415000   0.72033106   -7.7910874    649.71661   0.01585448  0.014812368          450 
 3416000   0.70434176   -7.7576149    650.57236  0.015870715  0.014806757          510 
 3417000   0.70839568   -7.7635154    650.00055  0.015852125  0.014801146          519 
 3418000   0.71853956   -7.7466722    650.41572   0.01585761  0.014795544          513 
 3419000   0.70515886   -7.7717895    651.09202  0.015869456  0.014789939          479 
 3420000   0.70095086    -7.739042    650.95317  0.015861432  0.014784319          506 
 3421000   0.70900409   -7.7745375    650.52418  0.015846346  0.014778711          514 
 3422000   0.69524199   -7.7769796    650.77004  0.015847702  0.014773099          517 
 3423000   0.69218127   -7.8003478    648.51254  0.015788113  0.014767497          437 
 3424000   0.70403784   -7.7744804    649.17656  0.015799663  0.014761894          502 
 3425000   0.70281676   -7.7773905    648.86384  0.015787441  0.014756289          574 
 3426000   0.70589262   -7.7942008    650.32442   0.01581836  0.014750688          542 
 3427000   0.69862293   -7.7707189     650.1411  0.015809286  0.014745091          516 
 3428000   0.69859075   -7.7652055    649.44004  0.015787632  0.014739503          441 
 3429000   0.69200895   -7.7853302    649.67921  0.015788841  0.014733921          502 
 3430000   0.69993047    -7.778415    650.53382  0.015805001  0.014728341          643 
 3431000   0.73502293   -7.7478589    650.90099  0.015809312  0.014722769          528 
 3432000   0.70805701   -7.7833277    649.09041  0.015760742  0.014717204          527 
 3433000   0.70419018   -7.7911873    649.63033  0.015769258  0.014711621          565 
 3434000   0.70589097   -7.8057815    649.35667  0.015758024   0.01470604          603 
 3435000   0.68651891   -7.7531382    649.54035  0.015757893  0.014700449          470 
 3436000   0.69521086   -7.7791776    650.83265  0.015784649   0.01469487          573 
 3437000   0.68627679   -7.7811568    650.83595  0.015780137  0.014689281          453 
 3438000   0.70937935   -7.8014977     648.0277  0.015707478  0.014683705          605 
 3439000   0.71136515   -7.7745105    651.38669  0.015784305   0.01467812          560 
 3440000   0.70299856    -7.767279    650.38241  0.015755388   0.01467254          546 
 3441000   0.70746257   -7.7855728    649.99728  0.015741482  0.014666973          504 
 3442000   0.70849848     -7.79154    648.99728  0.015712698  0.014661407          539 
 3443000   0.71190582   -7.8177654    650.18541  0.015736891  0.014655826          594 
 3444000    0.7124314    -7.801696    648.56982   0.01569323  0.014650249          588 
 3445000   0.70975357   -7.8231894    648.12666  0.015677955  0.014644657          541 
 3446000   0.69657095   -7.8217927    647.37649  0.015655264  0.014639067          587 
 3447000   0.69921842   -7.8210605    649.04399  0.015691035  0.014633479          577 
 3448000    0.7137335   -7.8032445    649.80931  0.015704981  0.014627896          643 
 3449000   0.70073158   -7.8152234    649.66775  0.015697007  0.014622318          618 
 3450000   0.69745056    -7.803544     650.9465  0.015723345  0.014616739          518 
 3451000    0.7158903   -7.8190301    648.26534  0.015654046  0.014611151          608 
 3452000   0.70963057   -7.7918459    649.68755  0.015683844  0.014605574          619 
 3453000   0.70411876   -7.8193528    648.65266  0.015654326  0.014600011          506 
 3454000   0.71002271   -7.7998775    648.86061  0.015654811  0.014594451          619 
 3455000   0.69830594   -7.7958511    648.47529  0.015640986  0.014588875          609 
 3456000   0.70437414   -7.7787915      650.477  0.015684727  0.014583321          648 
 3457000   0.68664391   -7.8317381    650.71725  0.015685981  0.014577766          579 
 3458000   0.69740391   -7.7775093    650.72459  0.015681622   0.01457224          599 
 3459000    0.7073933   -7.7947393    648.15369  0.015615151  0.014566708          631 
 3460000   0.68827189   -7.7748831    649.61946  0.015645941  0.014561175          577 
 3461000   0.71058451   -7.7901814    649.36593  0.015635316  0.014555637          632 
 3462000   0.70969613   -7.8171327    649.40393  0.015631714  0.014550091          599 
 3463000   0.69680227    -7.832573    649.34335  0.015625742  0.014544525          636 
 3464000   0.69259323   -7.8262959    648.37736  0.015597993  0.014538971          740 
 3465000   0.69180288   -7.8326131    649.16414  0.015612413  0.014533403          637 
 3466000   0.70247903   -7.8187946    648.89661  0.015601477  0.014527851          667 
 3467000   0.69881988   -7.8269717     649.1068  0.015602029  0.014522308          662 
 3468000   0.68364973   -7.8169648    648.90601  0.015592705  0.014516753          649 
 3469000   0.71113475   -7.8288181    648.59978  0.015580854  0.014511211          731 
 3470000   0.70228362   -7.8291013    649.34389  0.015594234  0.014505663          641 
 3471000   0.70377401   -7.8171769    650.07069   0.01560719  0.014500121          613 
 3472000      0.68534   -7.8277041    649.61048  0.015591649  0.014494591          592 
 3473000   0.70306398   -7.8491846    648.46018  0.015559559  0.014489075          682 
 3474000   0.69263571   -7.8096451    649.74949  0.015586008  0.014483536          688 
 3475000   0.69175645   -7.8192932    649.28521  0.015570389  0.014478006          658 
 3476000   0.70202227   -7.8166371    648.62285   0.01555003   0.01447248          664 
 3477000   0.68890525   -7.8340755    648.72254  0.015547947  0.014466951          656 
 3478000   0.70351659   -7.8384348    648.11427  0.015528902  0.014461431          725 
 3479000   0.71970892   -7.8248915    648.58345  0.015535677  0.014455904          795 
 3480000   0.67193517   -7.8445433    647.52904  0.015505964  0.014450369          776 
 3481000   0.68059888   -7.8224596    647.35426  0.015497325  0.014444838          618 
 3482000   0.70881623   -7.8232822    648.68488   0.01552472  0.014439307          744 
 3483000    0.6854422   -7.8397529    647.10906  0.015482559  0.014433778          780 
 3484000   0.68289822   -7.8426394     647.1504  0.015479104  0.014428246          731 
 3485000     0.696125   -7.8224287    648.18865   0.01549949  0.014422723          725 
 3486000   0.69632375   -7.8448858    649.35602  0.015522949  0.014417205          727 
 3487000    0.7010169   -7.8486933    648.08124  0.015488033  0.014411678          706 
 3488000   0.69411552   -7.8307985    648.49624  0.015493507  0.014406151          716 
 3489000   0.67697549   -7.8557733    647.23184  0.015458867   0.01440064          805 
 3490000    0.6683889   -7.8424842    648.12112  0.015475671  0.014395115          699 
 3491000   0.71221455   -7.8316886    647.52723  0.015457062  0.014389589          761 
 3492000   0.70223041   -7.8492389    647.52946  0.015452688   0.01438407          677 
 3493000   0.70213488   -7.8344988    649.59243  0.015497481  0.014378559          720 
 3494000   0.69849021   -7.8540399    648.07587  0.015456875  0.014373034          793 
 3495000   0.69867522   -7.8571217    646.75488  0.015420956  0.014367493          702 
 3496000   0.70340387   -7.8531291    647.95557  0.015445165  0.014361958          693 
 3497000   0.70082178   -7.8402728    648.04169  0.015442801  0.014356435          693 
 3498000    0.6890005   -7.8570978    648.52292   0.01544985  0.014350912          715 
 3499000   0.69167057   -7.8669329    648.13312  0.015436151  0.014345404          810 
 3500000      0.68978   -7.8527196    647.79413   0.01542367  0.014339892          808 
 3501000   0.68353949   -7.8554353    647.33788  0.015408404  0.014334396          821 
 3502000   0.67566097   -7.8414598    647.60106  0.015410267  0.014328874          769 
 3503000   0.69432874   -7.8479015    645.89151  0.015365199  0.014323359          786 
 3504000   0.68935565   -7.8545733    646.62528  0.015378265  0.014317849          817 
 3505000    0.6817414   -7.8603569    647.81731  0.015402219  0.014312348          782 
 3506000   0.69612576   -7.8623291     647.2273  0.015383802  0.014306848          772 
 3507000   0.68920685   -7.8494257    646.69674  0.015366808  0.014301339          764 
 3508000   0.67728769   -7.8610396     647.1726  0.015373732  0.014295839          744 
 3509000   0.68855405   -7.8773985    647.55862  0.015378518  0.014290362          712 
 3510000   0.68931822   -7.8648267     646.0939  0.015339361  0.014284859          732 
 3511000   0.67720672   -7.8372075    649.13509  0.015407175  0.014279368          779 
 3512000   0.67991442   -7.8584079    647.72742  0.015369386  0.014273871          785 
 3513000    0.6918519   -7.8697383     647.4147  0.015357593  0.014268379          804 
 3514000   0.68339165    -7.814981    648.40932   0.01537681  0.014262894          796 
 3515000   0.68150652   -7.8601785    648.18965  0.015367227  0.014257411          784 
 3516000   0.69900485   -7.8582457    646.38915  0.015320183  0.014251921          734 
 3517000   0.69117256   -7.8489334    646.85632  0.015326896  0.014246434          818 
 3518000   0.67906458   -7.8599583    646.74756  0.015319963  0.014240944          733 
 3519000   0.69003455   -7.8748943    645.86405  0.015294687  0.014235446          769 
 3520000   0.70203002   -7.8722241    646.11313  0.015296239  0.014229955          810 
 3521000    0.6745064   -7.8543777    647.21018  0.015317859  0.014224464          875 
 3522000   0.69384789   -7.8634795    647.57298  0.015322094  0.014218986          929 
 3523000   0.67869915   -7.8942906    645.68538  0.015273095  0.014213499          970 
 3524000    0.6811131    -7.887412    646.99604  0.015299755  0.014208014         1009 
 3525000   0.68266097   -7.8646446    646.11995  0.015274703  0.014202531         1001 
 3526000   0.69403054   -7.8712554     646.7814  0.015286004  0.014197047         1072 
 3527000   0.69408668   -7.8832807    647.03459  0.015287652  0.014191571         1151 
 3528000    0.6826079   -7.8609478    647.74492  0.015300097  0.014186097         1083 
 3529000   0.67704736   -7.8691552    647.18929  0.015282641   0.01418062          961 
 3530000   0.68772445     -7.86725    646.78769  0.015268831  0.014175137         1023 
 3531000   0.69520757   -7.8874737    644.25496  0.015204733  0.014169638         1067 
 3532000   0.69094458   -7.8768336    647.20053  0.015269926  0.014164154         1023 
 3533000   0.69880933   -7.8787645    648.34479  0.015292593  0.014158681         1044 
 3534000   0.70683193    -7.879018    646.23871  0.015238604  0.014153202         1097 
 3535000   0.68077256   -7.8961111    646.39755  0.015238038  0.014147716         1082 
 3536000   0.70180236   -7.8889318     646.5019  0.015236187  0.014142235         1009 
 3537000   0.68539682   -7.8838253    645.04822   0.01519763  0.014136763         1122 
 3538000   0.67148892   -7.8822226    647.68179  0.015255365  0.014131288         1116 
 3539000   0.69223806   -7.8853987    645.24342  0.015193638  0.014125817         1078 
 3540000   0.68197548   -7.8710234    647.08106  0.015232605  0.014120348         1010 
 3541000   0.69513833   -7.8821347    645.92257   0.01520104  0.014114884         1014 
 3542000   0.67563665   -7.8938869    646.24112  0.015204243   0.01410942         1075 
 3543000    0.6802094   -7.8746283     645.4647  0.015181689  0.014103953         1106 
 3544000   0.68278427   -7.8833791    645.24421  0.015172221  0.014098485         1186 
 3545000   0.67771473   -7.8919864    646.28616  0.015192434  0.014093024         1022 
 3546000   0.68214329   -7.8715391     646.3306  0.015189195   0.01408758         1118 
 3547000   0.69344412   -7.8781342    648.35446  0.015232461  0.014082133         1138 
 3548000   0.68249441   -7.8929309    646.34119  0.015180881  0.014076678         1201 
 3549000   0.69080786   -7.9116162    644.83775  0.015141302  0.014071221         1275 
 3550000   0.68145385   -7.8942257    646.46868  0.015175321  0.014065751         1202 
 3551000   0.67885254   -7.9183121    645.79131  0.015155151  0.014060296         1230 
 3552000   0.70017249   -7.9253738    645.02664  0.015132945  0.014054828         1275 
 3553000   0.67851189   -7.9025476    647.27333   0.01518138  0.014049359         1202 
 3554000    0.6703843   -7.9166309    645.35927  0.015132228  0.014043889         1290 
 3555000   0.70083399     -7.90571     645.4047  0.015129037  0.014038417         1220 
 3556000   0.69174428   -7.9089327     645.4385  0.015125574  0.014032948         1231 
 3557000    0.6820191   -7.9115174    645.79869   0.01512976  0.014027494         1358 
 3558000   0.67898878   -7.9067295    645.27671  0.015113282  0.014022043         1375 
 3559000   0.68469558   -7.8976857     646.5463  0.015138763  0.014016594         1280 
 3560000   0.68637881   -7.9271424    645.06451  0.015099825  0.014011132         1319 
 3561000   0.68188473   -7.9043612    646.87347  0.015137917  0.014005669         1346 
 3562000   0.67934985   -7.8986907     645.9434  0.015111908  0.014000214         1199 
 3563000   0.67240009   -7.9198331    645.96367  0.015108141   0.01399476         1424 
 3564000   0.68000774   -7.9244075    644.88063  0.015078578    0.0139893         1376 
 3565000   0.67989933    -7.926528    646.12961  0.015103544  0.013983844         1369 
 3566000   0.69623527   -7.9038288    645.12595  0.015075854  0.013978403         1313 
 3567000   0.69416058    -7.907298    644.83259  0.015064774  0.013972963         1379 
 3568000   0.68333637   -7.9271358    644.24039  0.015046721  0.013967522         1463 
 3569000   0.67678304   -7.9216214    645.05877  0.015061613  0.013962072         1376 
 3570000   0.67674229   -7.9199389    643.63449  0.015024148  0.013956609         1378 
 3571000   0.67654928    -7.914173    645.78655  0.015070161  0.013951154         1506 
 3572000   0.68412728   -7.9207272    645.23811  0.015053147  0.013945702         1511 
 3573000   0.68638972   -7.9265955    643.83623  0.015016238  0.013940265         1478 
 3574000   0.67567679   -7.9195923    645.36323  0.015047641  0.013934827         1567 
 3575000   0.69846766   -7.9186081    644.09128  0.015013783  0.013929401         1458 
 3576000    0.6726238   -7.9350261    643.90431  0.015005227  0.013923958         1528 
 3577000   0.69016384   -7.9589198    644.84069  0.015022847  0.013918518         1372 
 3578000   0.68603963   -7.9402281    644.51733  0.015011117  0.013913076         1477 
 3579000   0.66554633   -7.9342881    644.83577  0.015014337  0.013907629         1414 
 3580000   0.67724282    -7.942882    644.79172  0.015009118  0.013902196         1552 
 3581000   0.67018716   -7.9283071    643.83027  0.014982553  0.013896764         1470 
 3582000   0.65991086    -7.914004    644.55886  0.014995321  0.013891335         1479 
 3583000   0.68019449   -7.9283757    644.82865   0.01499741  0.013885909         1491 
 3584000   0.66567364   -7.9389629    645.53482  0.015009645  0.013880475         1437 
 3585000   0.67316416   -7.9576555    644.23377  0.014975215  0.013875044         1646 
 3586000   0.66889086   -7.9537107    643.64263  0.014957302  0.013869613         1550 
 3587000   0.68141908   -7.9383353    645.04609  0.014985738  0.013864188         1565 
 3588000    0.6848108   -7.9489185    644.63073  0.014971914  0.013858764         1472 
 3589000   0.67692133   -7.9411918    644.88231  0.014973584   0.01385334         1558 
 3590000   0.69121412   -7.9511481    644.37475  0.014957631  0.013847917         1644 
 3591000   0.67762087     -7.95042     644.3507  0.014952908  0.013842498         1687 
 3592000    0.6585544   -7.9573016    643.74457  0.014934683  0.013837083         1593 
 3593000   0.67806868   -7.9565711    643.07262  0.014914942  0.013831661         1590 
 3594000   0.68741407   -7.9493428    644.44883  0.014942702  0.013826249         1569 
 3595000   0.68760269   -7.9637705    644.71005    0.0149446  0.013820827         1675 
 3596000   0.68462066     -7.95231     643.8191  0.014919797  0.013815401         1628 
 3597000   0.66654148   -7.9341091    644.03815  0.014920724  0.013809985         1677 
 3598000   0.68385502   -7.9507918    644.18056  0.014919876  0.013804567         1688 
 3599000   0.68049296   -7.9741799    642.61177  0.014879406  0.013799144         1694 
 3600000   0.67364701   -7.9504584    645.31373  0.014937818  0.013793728         1701 
 3601000   0.67436091   -7.9575898     643.9548  0.014902222  0.013788315         1651 
 3602000   0.67207208   -7.9707379    643.24175  0.014881588  0.013782903         1743 
 3603000   0.66656339    -7.958319    643.61442  0.014886077  0.013777503         1651 
 3604000   0.67477927   -7.9661116    644.38544  0.014899774  0.013772104         1746 
 3605000   0.68737601   -7.9528694    643.88969  0.014884182  0.013766691         1655 
 3606000   0.66845533   -7.9494948    644.82444  0.014901656  0.013761288         1704 
 3607000   0.66966772   -7.9564882    643.27524  0.014861733  0.013755885         1735 
 3608000   0.68482943   -7.9709124    643.35279  0.014859405  0.013750488         1657 
 3609000   0.66390344   -7.9450414    642.85306  0.014843749  0.013745101         1804 
 3610000   0.67508957   -7.9477367    643.84329  0.014862495  0.013739717         1758 
 3611000   0.69449521   -7.9585914    643.58479  0.014852414  0.013734323         1751 
 3612000   0.67694529   -7.9666934    643.06359  0.014836277  0.013728922         1779 
 3613000   0.67371843   -7.9542481      643.058  0.014832042   0.01372353         1770 
 3614000   0.68662447   -7.9556975    643.19573  0.014831113  0.013718136         1771 
 3615000   0.68642287   -7.9669234    642.72979   0.01481627  0.013712741         1763 
 3616000   0.66477944    -7.959497     643.8168  0.014837224   0.01370734         1771 
 3617000   0.68289835   -7.9599637    643.31836  0.014821638  0.013701947         1801 
 3618000   0.67706109   -7.9471084    642.75873  0.014804651  0.013696567         1742 
 3619000   0.67190667   -7.9553233    642.71559  0.014799567  0.013691187         1924 
 3620000   0.67529347   -7.9626385     643.5485  0.014814652  0.013685802         1908 
 3621000   0.66803365   -7.9462384    644.57492  0.014834183   0.01368042         1876 
 3622000   0.68684988   -7.9337717    643.96714  0.014816104  0.013675039         1892 
 3623000   0.67631987   -7.9712601    641.38649  0.014752656  0.013669662         1871 
 3624000   0.66946256   -7.9988979    642.87476  0.014782808   0.01366428         1866 
 3625000   0.67389703   -7.9720325    642.78213  0.014776601  0.013658896         1895 
 3626000   0.65211935   -7.9821565    642.84294  0.014773923  0.013653507         1878 
 3627000   0.66351245   -7.9464924    643.51827  0.014785366  0.013648117         1867 
 3628000   0.66095511   -7.9836818    642.74902  0.014763621  0.013642741         1951 
 3629000    0.6601948   -7.9713777    642.09148  0.014744454  0.013637353         1985 
 3630000   0.66825295   -8.0008364     643.2951  0.014768023  0.013631963         1895 
 3631000   0.64406386   -7.9764904    642.87329  0.014754276  0.013626569         1924 
 3632000   0.67004447   -7.9959451     642.9182  0.014751244  0.013621175         2001 
 3633000   0.68101614    -7.991459    641.33802  0.014710937  0.013615793         2002 
 3634000   0.68118357   -7.9945739    642.09819  0.014724321  0.013610413         1928 
 3635000   0.65814132   -8.0125361    642.18445  0.014722248  0.013605022         1983 
 3636000    0.6659313   -8.0050801    642.23905   0.01471945  0.013599635         1951 
 3637000   0.68033192   -7.9694266    642.95513   0.01473181  0.013594262         1933 
 3638000   0.67362528    -7.994201     643.2708  0.014734992  0.013588888         1984 
 3639000   0.65989594   -7.9842124     642.3781    0.0147105  0.013583514         2024 
 3640000   0.66947802   -7.9980022    642.03772  0.014698666  0.013578139         2075 
 3641000   0.66862112   -7.9941355    643.56685  0.014729627  0.013572764         2063 
 3642000   0.66312346   -7.9924477    641.16854  0.014670706  0.013567389         2035 
 3643000   0.66520081   -7.9836081    642.25609  0.014691557  0.013562019         2114 
 3644000   0.64640519    -7.981976    643.42547  0.014714267   0.01355666         2063 
 3645000    0.6719627   -7.9826825    642.83514  0.014696734  0.013551298         2025 
 3646000   0.67187905   -7.9955567     642.0715  0.014675249  0.013545931         2002 
 3647000   0.66793401   -7.9886046    641.96127  0.014668706  0.013540567         2162 
 3648000    0.6522459   -7.9789817    642.24263  0.014671113  0.013535213         1988 
 3649000   0.68179717   -8.0159521    641.31614  0.014645934  0.013529856         2026 
 3650000   0.65991278   -8.0010233    642.28525  0.014664047  0.013524499         2118 
 3651000   0.67887496   -7.9873608    641.60686  0.014644546  0.013519153         2115 
 3652000   0.67558658   -7.9889455    642.29208  0.014656172  0.013513801         2105 
 3653000   0.66481706   -8.0042647    641.72672  0.014639263  0.013508447         2060 
 3654000   0.67430032   -8.0124802    640.45382  0.014606227  0.013503109         2161 
 3655000   0.66126777   -8.0135114    641.91152  0.014635466  0.013497762         2072 
 3656000   0.66917169   -8.0036838    642.21092  0.014638287  0.013492429         2155 
 3657000   0.68748303   -7.9883066     641.4974  0.014618025   0.01348709         2156 
 3658000   0.65961227   -7.9956787    642.08101  0.014627324  0.013481758         2119 
 3659000    0.6704818   -7.9972447    642.42472  0.014631154  0.013476427         2113 
 3660000    0.6557517   -8.0040859    641.56809  0.014607652  0.013471099         2143 
 3661000   0.65712354   -8.0109238    641.70622  0.014606806   0.01346577         2157 
 3662000   0.65834116   -8.0132322    640.81602   0.01458256  0.013460439         2184 
 3663000   0.67220777   -8.0004811    640.91829  0.014580906  0.013455098         2124 
 3664000   0.67281512   -8.0059757    642.66211  0.014616587  0.013449778         2209 
 3665000   0.66035448   -8.0093301    642.66818  0.014612737  0.013444456         2205 
 3666000   0.65251862    -8.005694    642.55741  0.014606233  0.013439145         2166 
 3667000   0.64834242   -7.9810171    641.85247   0.01458623  0.013433812         2289 
 3668000   0.65827912   -8.0176268    641.44147  0.014572916  0.013428487         2242 
 3669000   0.65863807   -8.0362709    642.41142  0.014590974  0.013423159         2263 
 3670000   0.67819704   -8.0040937    641.95009  0.014576523  0.013417838         2205 
 3671000   0.67058387   -8.0379512    641.05308   0.01455219  0.013412523         2304 
 3672000    0.6623272    -8.015977    642.35062  0.014577674  0.013407216         2120 
 3673000    0.6554169   -8.0134025    641.21403  0.014547918  0.013401906         2182 
 3674000   0.67786057   -8.0228114    641.55738  0.014551746  0.013396605         2166 
 3675000   0.66405905   -8.0160405    640.53394  0.014524579  0.013391302         2198 
 3676000   0.65434841   -8.0110687    643.08042  0.014578356  0.013386004         2281 
 3677000   0.65293357   -8.0112129    641.88379  0.014547271  0.013380703         2308 
 3678000   0.67470503   -8.0346971    640.16076  0.014504277  0.013375401         2294 
 3679000   0.65769771   -8.0230683    641.09832  0.014521571  0.013370113         2204 
 3680000   0.65753897   -8.0011507    642.49185  0.014549181  0.013364823         2253 
 3681000   0.67438223   -8.0200443    642.12762  0.014536983  0.013359538         2276 
 3682000   0.66372107   -8.0101798    641.56737  0.014520355  0.013354249         2230 
 3683000   0.66755085   -8.0074332    640.38868  0.014489743  0.013348967         2199 
 3684000   0.65875965   -8.0062573    641.23813  0.014505025  0.013343683         2231 
 3685000   0.66195688   -8.0433067    641.63533  0.014510071  0.013338397         2247 
 3686000   0.66269312   -8.0372314    641.84539  0.014510883  0.013333106         2228 
 3687000   0.65993572   -8.0317342    640.60568  0.014478928  0.013327826         2303 
 3688000   0.65534757   -8.0135686    641.98851  0.014506248  0.013322543         2294 
 3689000   0.66307113   -8.0337183    641.00031  0.014479992  0.013317255         2283 
 3690000   0.66677881   -8.0218835    639.66721  0.014445962  0.013311981         2390 
 3691000   0.65779344   -8.0310507    640.15829  0.014453136  0.013306708         2362 
 3692000   0.65631047   -8.0173644    641.59568  0.014481665  0.013301433         2405 
 3693000   0.66923304   -8.0241989    640.75169  0.014458699  0.013296148         2381 
 3694000   0.66470865   -8.0093287    640.45096     0.014448  0.013290871         2358 
 3695000   0.66787627   -8.0438911    641.01452    0.0144568  0.013285601         2331 
 3696000   0.66615262   -8.0485668    639.83689  0.014426337  0.013280335         2411 
 3697000   0.65149868   -8.0372215    639.79381  0.014421464  0.013275064         2543 
 3698000   0.67965267    -8.036305    639.76178  0.014416842   0.01326979         2437 
 3699000   0.65168839    -8.039144    640.41949  0.014427762  0.013264523         2433 
 3700000   0.66271342   -8.0155885    641.55404  0.014449415  0.013259257         2512 
 3701000   0.66193288   -8.0233137    641.18316   0.01443716  0.013253993         2438 
 3702000   0.67389037   -8.0292197    639.53418  0.014396141  0.013248727         2458 
 3703000    0.6530745   -8.0559772     639.7235  0.014396514  0.013243473         2468 
 3704000   0.65155675   -8.0389425    640.64569  0.014413375  0.013238222         2486 
 3705000   0.65836485   -8.0387875    638.82083   0.01436844  0.013232967         2514 
 3706000   0.66309423   -8.0312096      640.255  0.014396812  0.013227714         2567 
 3707000   0.65769789   -8.0422828    640.54751  0.014399503  0.013222455         2552 
 3708000   0.65912462    -8.048736    640.89657  0.014403465  0.013217196         2556 
 3709000   0.64098579   -8.0563713    641.50905  0.014413342  0.013211938         2640 
 3710000   0.66688754   -8.0316278    641.43566  0.014407809  0.013206676         2599 
 3711000   0.65357382   -8.0613907    640.11246  0.014374213  0.013201423         2590 
 3712000   0.66256233   -8.0309321    641.12802   0.01439314  0.013196171         2657 
 3713000   0.66765899   -8.0422542    641.00612  0.014386527  0.013190921         2613 
 3714000   0.64566218   -8.0385251    639.13166  0.014340596  0.013185673         2579 
 3715000   0.66507817    -8.057355    640.44496  0.014366195  0.013180423         2575 
 3716000    0.6679269   -8.0314572    641.43547  0.014384541  0.013175182         2615 
 3717000   0.66796347   -8.0364447    640.72804  0.014364811  0.013169938         2631 
 3718000   0.65312906   -8.0350927    641.03384  0.014367802    0.0131647         2579 
 3719000   0.66048896   -8.0818244    640.10101  0.014343036  0.013159467         2575 
 3720000    0.6572506   -8.0541101    639.85397  0.014333646  0.013154234         2625 
 3721000   0.66283512   -8.0507273    640.45273  0.014343204  0.013149009         2498 
 3722000   0.65620336   -8.0487065    640.74823  0.014345966  0.013143788         2725 
 3723000    0.6536824   -8.0446875    640.27729  0.014331572  0.013138562         2568 
 3724000   0.65616997    -8.046901    639.76187  0.014316189  0.013133337         2668 
 3725000    0.6530867   -8.0563617    640.39797  0.014326577  0.013128116         2595 
 3726000   0.65675398   -8.0638639    639.08048  0.014293265  0.013122892         2699 
 3727000   0.66273485   -8.0683744    639.22238  0.014292603  0.013117666         2702 
 3728000   0.65924669   -8.0379914    640.95825  0.014327572  0.013112451         2600 
 3729000   0.66400523   -8.0643792    640.40019  0.014311258  0.013107228         2622 
 3730000   0.65351895   -8.0865178    640.43083  0.014308106  0.013102016         2694 
 3731000   0.65978932   -8.0651279    639.73646  0.014288762  0.013096796         2666 
 3732000   0.64603482    -8.077731    640.54678  0.014303027   0.01309158         2612 
 3733000   0.64489041   -8.0459662     640.5681  0.014299672  0.013086358         2671 
 3734000   0.65716631   -8.0510684    639.77154  0.014278065  0.013081145         2673 
 3735000   0.65870675   -8.0850173     638.6898  0.014250107  0.013075934         2673 
 3736000   0.64965812   -8.0508124    641.01221  0.014298095  0.013070729         2642 
 3737000   0.66596766   -8.0834057    637.46542  0.014215177  0.013065521         2802 
 3738000   0.64436061   -8.0587375    640.25495  0.014273563   0.01306031         2818 
 3739000   0.63729246   -8.0615204    639.46017  0.014252032  0.013055101         2752 
 3740000   0.65542211   -8.0575889    639.36735  0.014246153  0.013049906         2740 
 3741000   0.66111868   -8.0780652    639.24656  0.014239654  0.013044709         2726 
 3742000   0.65273336   -8.0643068     639.3482  0.014238112  0.013039513         2747 
 3743000   0.65772294     -8.04951    640.73593  0.014265205  0.013034315         2701 
 3744000   0.65343948   -8.0669142    639.52016  0.014234334  0.013029125         2696 
 3745000   0.64762412   -8.0656809    640.05251  0.014242379  0.013023938         2648 
 3746000   0.65448512   -8.0508211    638.98803  0.014214897  0.013018757         2643 
 3747000   0.64942284   -8.0701187    640.53835  0.014245582  0.013013575         2705 
 3748000   0.66892711   -8.0575313    638.04363  0.014186313  0.013008388         2789 
 3749000   0.64085594   -8.0560086    639.81745  0.014221958  0.013003201         2683 
 3750000   0.65046137   -8.0757889    639.75557   0.01421679  0.012998014         2813 
 3751000   0.65079819   -8.0737844    638.95178  0.014195143  0.012992829         2870 
 3752000   0.65451338   -8.1012445    636.86117  0.014144927  0.012987639         2861 
 3753000    0.6623499   -8.0401368    639.38723  0.014197247  0.012982452         2786 
 3754000   0.66164441   -8.0891012    638.67305  0.014177612   0.01297727         2840 
 3755000   0.64369764   -8.0761966    638.07101  0.014160475   0.01297208         2752 
 3756000   0.65461075   -8.0816587    639.53499  0.014189186  0.012966894         2890 
 3757000   0.65223009   -8.0860699    639.04259  0.014174487  0.012961714         2794 
 3758000   0.64043951   -8.1114035    638.49996  0.014158683  0.012956531         2926 
 3759000    0.6452195   -8.0908755    639.00016  0.014166005  0.012951344         2926 
 3760000   0.65987621   -8.0912459    638.39027   0.01414872  0.012946171         2828 
 3761000   0.65722199   -8.0998611    638.08647  0.014138227  0.012940988         2877 
 3762000   0.65381642   -8.1022695    637.86675  0.014129602  0.012935808         2867 
 3763000   0.64469817   -8.1001194    638.25231  0.014134385   0.01293063         2907 
 3764000   0.64275852   -8.1092869    638.95557    0.0141462  0.012925451         2907 
 3765000   0.65197096   -8.1013177     637.4837  0.014109865   0.01292028         2914 
 3766000   0.65982701   -8.1054318    637.70886  0.014111101  0.012915114         2918 
 3767000    0.6620417   -8.0981557    639.13535  0.014138911  0.012909943         2954 
 3768000   0.66553474   -8.0910842    639.27696  0.014138291  0.012904776         2917 
 3769000   0.64589619   -8.1128014    638.08006  0.014108076  0.012899609         2947 
 3770000   0.64487015   -8.0880532    639.02133   0.01412514   0.01289445         2871 
 3771000    0.6537016   -8.0957686    639.07936  0.014122677  0.012889287         2849 
 3772000    0.6636448   -8.1005003    638.23294  0.014100233  0.012884141         2942 
 3773000   0.63796964   -8.0950575    638.72509  0.014107366  0.012878994         2969 
 3774000   0.65718346   -8.0895837    638.45661  0.014097699  0.012873852         2913 
 3775000   0.64601106    -8.088548    638.59076  0.014096926  0.012868703         2897 
 3776000   0.64479271   -8.1094164    637.86415  0.014077157  0.012863564         2852 
 3777000   0.65941501   -8.0929139    638.54861  0.014088532  0.012858419         2918 
 3778000   0.64780685   -8.1122359    638.10274  0.014074968  0.012853276         2902 
 3779000   0.64479167   -8.0894923    637.49562  0.014057855   0.01284813         2983 
 3780000   0.66240957   -8.0957134     638.9882  0.014087041   0.01284299         3036 
 3781000   0.63697521    -8.095112    638.75844  0.014078252  0.012837852         3021 
 3782000   0.64565136   -8.1042099    637.32784  0.014043007  0.012832706         2945 
 3783000   0.65894718    -8.113027    637.93836  0.014052744  0.012827571         3007 
 3784000   0.63493277   -8.0897057    638.87693    0.0140697  0.012822432         3085 
 3785000   0.65343819   -8.1199345    639.56502  0.014081132  0.012817302         2941 
 3786000   0.63861893   -8.1179624    638.50921  0.014054174  0.012812169         3010 
 3787000   0.65054843   -8.1131847    637.95317  0.014038227  0.012807043         3020 
 3788000   0.64199909   -8.1057206    637.54957  0.014025642  0.012801919         3040 
 3789000   0.64744308   -8.1005593    638.47744  0.014042347  0.012796799         3029 
 3790000   0.65169169   -8.1164622    637.24817  0.014011613  0.012791669         3049 
 3791000   0.64498922   -8.1167226    637.11879  0.014005073  0.012786545         3099 
 3792000   0.64385273   -8.1063164    638.40444  0.014029633  0.012781434         3045 
 3793000   0.63354834   -8.0979073     638.8502  0.014035728  0.012776316         3056 
 3794000   0.65056841   -8.1134241    637.57059  0.014003923  0.012771205         3122 
 3795000   0.63637763   -8.1098208    637.20907  0.013992294  0.012766098         3042 
 3796000   0.65447741   -8.0992719    638.92096  0.014026189  0.012760991         3071 
 3797000   0.63863588   -8.0904734    638.22213  0.014007158  0.012755884         3052 
 3798000   0.66652743   -8.0957132    637.26285  0.013982422  0.012750776         3075 
 3799000   0.64673576   -8.1282623    638.04997  0.013996007  0.012745671         3094 
 3800000   0.64535368   -8.0963451    637.83437  0.013987596  0.012740567         3097 
 3801000   0.63505774   -8.1225826    637.72124  0.013981435  0.012735467         3062 
 3802000    0.6510819   -8.1383207    635.75652  0.013934695  0.012730364         3103 
 3803000   0.62671988   -8.1041832    637.79521  0.013975704  0.012725263         3085 
 3804000   0.64790082    -8.127071     637.6366  0.013968555  0.012720157         3104 
 3805000   0.64397725   -8.1273508    636.53722  0.013940806  0.012715052         3141 
 3806000   0.62836688   -8.1147597    636.62386  0.013939041   0.01270995         3107 
 3807000   0.64810302   -8.1055954     636.7726  0.013938635  0.012704847         3082 
 3808000   0.65622688   -8.1278836    636.69694  0.013933319   0.01269976         3112 
 3809000   0.65201175   -8.1336784    637.88312  0.013955612  0.012694666         3196 
 3810000   0.64890152   -8.1327965    636.97368  0.013932058  0.012689578         3052 
 3811000   0.64951122   -8.1222836    637.73699  0.013945093  0.012684489         3219 
 3812000   0.63887722   -8.1516963     636.2771   0.01390952  0.012679397         3167 
 3813000   0.63624664   -8.1294118    636.24799  0.013905236  0.012674307         3145 
 3814000   0.64072532   -8.1337678    637.22531  0.013922944  0.012669224         3177 
 3815000   0.65034857   -8.1025526    636.51965   0.01390388  0.012664137         3157 
 3816000   0.64614029   -8.1444167    636.60946  0.013902198  0.012659054         3234 
 3817000   0.64444226   -8.1114761    637.20209  0.013911494  0.012653978         3209 
 3818000   0.63295984     -8.10282    636.98393  0.013903089  0.012648895         3226 
 3819000   0.64562342    -8.147893    637.26438  0.013905568  0.012643818         3203 
 3820000   0.65710118   -8.1159799    637.25318  0.013901684  0.012638748         3180 
 3821000   0.64999321   -8.1268063    637.36211  0.013900421  0.012633682         3113 
 3822000   0.63792294   -8.1601431    636.54225  0.013878908  0.012628612         3102 
 3823000   0.63392436   -8.1390456    636.55691  0.013875598  0.012623545         3172 
 3824000   0.62659742   -8.1466035    636.45819  0.013869818  0.012618478         3157 
 3825000    0.6294063   -8.1175917    636.78823  0.013873382  0.012613412         3198 
 3826000   0.63549664   -8.1508382    637.15538  0.013877753  0.012608351         3176 
 3827000   0.62942598   -8.1191875    638.47139  0.013902783  0.012603295         3176 
 3828000   0.64333675   -8.1558451    636.47291  0.013855645  0.012598242         3209 
 3829000   0.63902024   -8.1419308    636.45491  0.013851635  0.012593189         3239 
 3830000   0.63834633   -8.1265463    636.39577  0.013846731  0.012588141         3169 
 3831000   0.63302464   -8.1339494    636.33679  0.013841834  0.012583097         3212 
 3832000   0.64299065   -8.1408614    637.26172  0.013858336  0.012578047         3183 
 3833000   0.63812871   -8.1369548    637.61065  0.013862307  0.012573009         3252 
 3834000   0.62248719   -8.1367796    637.41393  0.013854415   0.01256797         3258 
 3835000   0.64933201   -8.1593429    637.23525   0.01384692  0.012562937         3221 
 3836000   0.63482284   -8.1450487    637.16002  0.013841676    0.0125579         3233 
 3837000   0.64631066   -8.1457311    636.09979  0.013815042  0.012552871         3310 
 3838000   0.64187642    -8.147593    637.09176  0.013832981  0.012547843         3230 
 3839000   0.63354889   -8.1494709    636.44006  0.013815231  0.012542818         3215 
 3840000   0.65581588   -8.1482193    636.81221  0.013819709  0.012537791         3184 
 3841000   0.63355578   -8.1438418    636.37113  0.013806542   0.01253277         3233 
 3842000   0.63408246   -8.1545023    636.33163  0.013802092  0.012527751         3277 
 3843000   0.63877642   -8.1337741    636.68958  0.013806262  0.012522729         3193 
 3844000   0.62467324   -8.1608594    636.81741  0.013805442  0.012517711         3240 
 3845000   0.63140558   -8.1732335    637.49852  0.013816613  0.012512689         3291 
 3846000   0.63355505    -8.169696    635.93472  0.013779137  0.012507671         3275 
 3847000   0.64350155   -8.1389726    636.10332  0.013779207  0.012502651         3260 
 3848000   0.64039381   -8.1615298    637.92457  0.013815068  0.012497638         3325 
 3849000   0.65436789   -8.1328908    636.27359  0.013775734  0.012492627         3221 
 3850000   0.62951367   -8.1600052    635.66975  0.013759086  0.012487622         3306 
 3851000   0.64235341   -8.1561602    636.44191  0.013772222  0.012482612         3325 
 3852000   0.62936332   -8.1334618     637.2135  0.013785339  0.012477608         3313 
 3853000   0.65270439   -8.1511689    636.42758  0.013764763  0.012472603         3252 
 3854000     0.619702   -8.1359053    637.83265  0.013791573  0.012467604         3270 
 3855000   0.63659987   -8.1605339    636.25731  0.013753941  0.012462606         3211 
 3856000   0.64732577   -8.1597504    635.18697  0.013727243  0.012457607         3292 
 3857000   0.61915678   -8.1701455    635.17611  0.013723449  0.012452609         3320 
 3858000   0.64348506   -8.1587428    636.32001    0.0137446  0.012447617         3283 
 3859000   0.62727632   -8.1683135    636.29565  0.013740512  0.012442627         3331 
 3860000   0.63505973   -8.1422136    636.67714  0.013745189  0.012437633         3270 
 3861000   0.64272354   -8.1575573    636.19528  0.013731229  0.012432649         3283 
 3862000   0.63261679    -8.166395    637.04242  0.013745953  0.012427665         3337 
 3863000    0.6275131   -8.1478508    636.16485  0.013723463  0.012422679         3337 
 3864000   0.63414784   -8.1379529    636.72748  0.013732045  0.012417697         3373 
 3865000   0.62818239   -8.1503661    636.52109  0.013724042   0.01241272         3327 
 3866000   0.62978168    -8.145822    637.03132  0.013731491  0.012407747         3306 
 3867000   0.62953922   -8.1601282    636.16043  0.013709172  0.012402775         3344 
 3868000   0.61516215   -8.1569039    636.45521  0.013711979  0.012397814         3307 
 3869000   0.64372181   -8.1691129    636.06744  0.013700083  0.012392848         3319 
 3870000    0.6300928   -8.1828508    636.65124  0.013709114  0.012387884         3284 
 3871000   0.62568872   -8.1829444    635.84988  0.013688321  0.012382921         3302 
 3872000   0.63185203   -8.1834453    634.40965  0.013653789  0.012377958         3337 
 3873000    0.6428886   -8.1423518     637.3385  0.013713282  0.012373005         3350 
 3874000   0.62804565   -8.1598137    636.94681  0.013701317  0.012368051         3335 
 3875000   0.62716155   -8.1762786    636.95537  0.013697965  0.012363102         3322 
 3876000   0.63729569   -8.1696525    636.27698  0.013679846  0.012358151         3330 
 3877000   0.63433516   -8.1779296    634.60148  0.013640304  0.012353196         3358 
 3878000   0.63233276   -8.1680609    635.43812  0.013654765  0.012348246         3392 
 3879000   0.61817741   -8.1693133    635.08292  0.013643613  0.012343298         3420 
 3880000   0.63968114   -8.1595917    636.84194  0.013677877  0.012338351         3395 
 3881000   0.62314483   -8.1748793    635.92003  0.013654557   0.01233341         3386 
 3882000   0.65127906   -8.1533493    636.42536  0.013661887  0.012328466         3326 
 3883000   0.63285779   -8.1861199    635.92834  0.013647702  0.012323531         3343 
 3884000   0.63719412   -8.1655257    634.31212  0.013609512  0.012318594         3313 
 3885000   0.63798992   -8.1750437    634.53145  0.013610713  0.012313659         3448 
 3886000   0.64042052   -8.1703831    635.60706  0.013630277   0.01230872         3426 
 3887000     0.636956    -8.177467    635.27256  0.013619599  0.012303791         3464 
 3888000   0.62122195   -8.1534094    636.33642  0.013638898  0.012298863         3430 
 3889000    0.6396667   -8.1838912    635.73597  0.013622524  0.012293933         3421 
 3890000   0.63126154   -8.1680102    635.09016  0.013605188   0.01228901         3371 
 3891000   0.62426566   -8.1878193    635.02062  0.013600202  0.012284086         3434 
 3892000   0.64083172   -8.1699441    636.22054  0.013622399  0.012279162         3416 
 3893000   0.63398458   -8.1708806    634.56886  0.013583544  0.012274242         3407 
 3894000   0.61562609   -8.1731324    635.57666  0.013601623  0.012269327         3436 
 3895000   0.64062573   -8.1968332    635.95357  0.013606195  0.012264415         3461 
 3896000   0.63286941   -8.1716964    635.16776  0.013585895  0.012259499         3400 
 3897000   0.62916325   -8.1927273    634.49804  0.013568087  0.012254588         3378 
 3898000   0.62166595    -8.175742    636.16858   0.01360032  0.012249687         3412 
 3899000   0.62551999   -8.1844879    635.18901  0.013575896  0.012244781         3466 
 3900000   0.62964654   -8.1758149    635.33118  0.013575453  0.012239883         3402 
 3901000   0.63792689   -8.1875299    635.63839  0.013578535  0.012234986         3409 
 3902000   0.62441479   -8.1721771    636.47099  0.013592837   0.01223009         3428 
 3903000   0.63167394    -8.210034    633.76254  0.013531526  0.012225185         3489 
 3904000   0.61626237   -8.1779811    635.72167  0.013569879  0.012220289         3376 
 3905000   0.61815968   -8.1623892    634.80181  0.013546774  0.012215397         3397 
 3906000   0.64384339   -8.1993741    634.55181  0.013537972  0.012210512         3395 
 3907000    0.6333011   -8.2099557     634.8593  0.013541065  0.012205625         3412 
 3908000   0.63308333   -8.1801757    634.73439  0.013534937  0.012200737         3412 
 3909000   0.63369802     -8.15972    636.87864  0.013577186  0.012195859         3417 
 3910000   0.64649756   -8.1713283    635.47807  0.013543863  0.012190982         3384 
 3911000   0.63499737     -8.16792    636.95741  0.013571921  0.012186111         3351 
 3912000    0.6051818   -8.1622607     636.1381  0.013550999  0.012181233         3393 
 3913000   0.63367346    -8.177797    634.68381  0.013516565  0.012176363         3436 
 3914000   0.62324666   -8.1794666    636.29017  0.013547312  0.012171493         3480 
 3915000   0.62935807   -8.1789504     636.0213  0.013538129  0.012166624         3351 
 3916000   0.63608838   -8.1774703    634.96733  0.013512243  0.012161762         3377 
 3917000   0.61759415   -8.1619168    635.78606  0.013526212  0.012156904         3380 
 3918000   0.61812134   -8.1855132    635.75267  0.013522049   0.01215205         3372 
 3919000   0.63143695   -8.1798353    633.84096  0.013477948  0.012147194         3377 
 3920000   0.62934196   -8.1945195    635.58013  0.013511482   0.01214234         3315 
 3921000   0.63386096    -8.173883    636.46771    0.0135269  0.012137495         3339 
 3922000   0.62505779   -8.1778682    635.26445  0.013497885  0.012132641         3397 
 3923000   0.61927554   -8.1869983    635.29222  0.013495034  0.012127796         3401 
 3924000   0.62533652   -8.1708868    636.34172  0.013513883  0.012122947         3374 
 3925000   0.63386879   -8.1970614    634.41849  0.013469607  0.012118099         3378 
 3926000   0.64250025    -8.179012    634.95043  0.013477467  0.012113251         3397 
 3927000   0.62323751   -8.1940037    635.79557  0.013491969  0.012108415         3271 
 3928000   0.63165168   -8.1911441    634.15659  0.013453763  0.012103582         3345 
 3929000   0.61561107    -8.200307    634.08774  0.013448879  0.012098747         3398 
 3930000   0.61952401   -8.1906039    636.02993   0.01348664  0.012093915         3372 
 3931000   0.62745687   -8.2098188    634.78856  0.013456893  0.012089082         3292 
 3932000   0.62372896   -8.1868495    634.24329  0.013441915  0.012084253         3309 
 3933000   0.61852284   -8.1715924    636.00085  0.013475736  0.012079429         3355 
 3934000   0.63212599   -8.1815202    636.11468  0.013474722  0.012074608         3375 
 3935000   0.62924116   -8.2084528    634.20128  0.013430777  0.012069783         3414 
 3936000   0.62087337   -8.1846344    635.79145  0.013461032  0.012064966         3405 
 3937000     0.616946   -8.1932494     635.0054  0.013440974  0.012060148         3387 
 3938000   0.62130271   -8.1740194    635.30346  0.013443869  0.012055333         3358 
 3939000   0.62775394   -8.1887599    634.36139  0.013420525  0.012050521         3429 
 3940000   0.62420961   -8.2080876    634.23262  0.013414395  0.012045711         3422 
 3941000   0.61600901   -8.1971866    633.99848  0.013406041    0.0120409         3312 
 3942000   0.63217884   -8.1884909    634.98607  0.013423517  0.012036098         3332 
 3943000   0.62135832     -8.18978    635.30898  0.013426938  0.012031297         3403 
 3944000   0.62769898   -8.2106683    635.31669  0.013423696   0.01202649         3373 
 3945000   0.62912817   -8.1934834    634.33373   0.01339953   0.01202169         3351 
 3946000   0.61376679   -8.2078836     634.8423  0.013406874  0.012016892         3441 
 3947000   0.62321168   -8.1768695    635.30413  0.013413228  0.012012096         3371 
 3948000   0.60700556   -8.2152279    633.27713  0.013367045  0.012007302         3350 
 3949000    0.6218715   -8.2006488    634.99436  0.013399898  0.012002511         3392 
 3950000   0.62417387   -8.2017123     635.1657   0.01340012   0.01199772         3399 
 3951000   0.60822538   -8.1767188      635.259  0.013398697  0.011992933         3353 
 3952000   0.62370229   -8.1919325    633.49048  0.013358014  0.011988146         3406 
 3953000   0.61640323   -8.1732341     634.3722  0.013373223  0.011983362         3319 
 3954000   0.60959626   -8.1969451    636.04638  0.013405125  0.011978578         3402 
 3955000   0.63072621    -8.196002    635.07065  0.013381177  0.011973805         3360 
 3956000   0.61645419   -8.1998116    634.29698  0.013361497  0.011969024         3388 
 3957000   0.62505406   -8.1950685    634.92492  0.013371345  0.011964251         3391 
 3958000   0.60908172   -8.1990412    634.09787  0.013350553  0.011959483         3348 
 3959000   0.63084691   -8.1944165    634.54784  0.013356652  0.011954718         3346 
 3960000   0.62593627   -8.1992429    635.02639   0.01336335  0.011949953         3355 
 3961000   0.61348951   -8.2242717    634.00766  0.013338544  0.011945184         3380 
 3962000   0.61288613   -8.1960948    635.26247   0.01336157  0.011940424         3344 
 3963000   0.61725299   -8.1957733    636.01689  0.013374062  0.011935666         3377 
 3964000   0.61571386   -8.1937622    634.87368  0.013346655  0.011930908         3252 
 3965000   0.62452237     -8.20106    634.57752  0.013337064  0.011926151         3425 
 3966000   0.62608085    -8.212749    633.44691  0.013309945  0.011921398         3397 
 3967000   0.61842213   -8.2110393    634.58771  0.013330554  0.011916649         3360 
 3968000   0.62502162   -8.1998545    634.63395  0.013328166  0.011911902         3402 
 3969000   0.61563441   -8.2151456    634.19854  0.013315666  0.011907155         3383 
 3970000   0.60902394   -8.2114804    633.68586   0.01330155  0.011902409         3427 
 3971000   0.61704383   -8.2036181    634.26874  0.013310433  0.011897671         3339 
 3972000   0.61657898    -8.190327    633.99092  0.013301253  0.011892933         3336 
 3973000   0.61821288   -8.2099137     633.3828   0.01328515  0.011888198         3335 
 3974000   0.61979252   -8.2203127    634.15221  0.013297941  0.011883462         3389 
 3975000   0.61516709    -8.215978    635.46279  0.013322071   0.01187873         3334 
 3976000   0.61575161   -8.2267629     633.2845  0.013273065  0.011873999         3371 
 3977000   0.60695916   -8.1948675    634.04449  0.013285653  0.011869273         3358 
 3978000   0.62296605    -8.208809    634.80113  0.013298163  0.011864546         3379 
 3979000   0.61168968   -8.2238393     634.4585  0.013287646  0.011859823         3367 
 3980000   0.60945254   -8.2124627    634.87519  0.013293032  0.011855098         3354 
 3981000   0.62369758   -8.1960831    635.55013  0.013303821  0.011850375         3405 
 3982000   0.61264936   -8.2127148    634.93266  0.013287558  0.011845655         3435 
 3983000   0.61096778   -8.2108534    633.36009   0.01325132  0.011840939         3405 
 3984000   0.60472981   -8.2101312    634.27916  0.013267218  0.011836221         3426 
 3985000   0.60642996    -8.228952    633.33834  0.013244214  0.011831506         3409 
 3986000   0.59650213   -8.2135853    634.58605  0.013266977  0.011826799         3411 
 3987000   0.60667335   -8.2108921    633.42542  0.013239391  0.011822089         3478 
 3988000     0.606923    -8.216676    633.65136  0.013240792   0.01181738         3407 
 3989000   0.61769737   -8.2007164    633.95596  0.013243836  0.011812672         3423 
 3990000   0.60116152   -8.1971597    634.56167  0.013253168   0.01180797         3407 
 3991000   0.61721806   -8.2134834    635.51397  0.013269731   0.01180327         3388 
 3992000   0.60893011   -8.2158691    634.29275  0.013240914  0.011798579         3394 
 3993000   0.60512016   -8.2200672    634.81423  0.013248481   0.01179388         3467 
 3994000   0.61752069   -8.2017982    634.04372  0.013229088  0.011789186         3407 
 3995000   0.60457614   -8.2043902    633.62344   0.01321701  0.011784495         3450 
 3996000    0.6119389   -8.1878894    635.38811  0.013250503  0.011779809         3400 
 3997000    0.6159199   -8.2205912    634.99789  0.013239052  0.011775131         3390 
 3998000   0.60881515   -8.1901538    632.24083  0.013178273  0.011770449         3475 
 3999000   0.60477461   -8.2105794    634.71956  0.013226631  0.011765769         3409 
 4000000   0.60961195   -8.2249757    634.12839  0.013211008  0.011761096         3415 
 4001000   0.60949091   -8.2069285    634.20279  0.013209256  0.011756425         3393 
 4002000   0.60556391   -8.2166322    633.71187  0.013195733  0.011751751         3378 
 4003000    0.6126193   -8.2026414    634.64876   0.01321194  0.011747083         3345 
 4004000   0.61286568   -8.2315919      634.707  0.013209853  0.011742417         3443 
 4005000   0.61240945   -8.2232425    633.63821  0.013184316  0.011737754         3456 
 4006000   0.62848348   -8.2228832    634.61756  0.013201397   0.01173309         3363 
 4007000   0.60671486     -8.21325    635.59397  0.013218409  0.011728435         3459 
 4008000   0.61656041   -8.2185595     634.2249  0.013186646  0.011723778         3413 
 4009000   0.60411319   -8.2045523    636.19871  0.013224385  0.011719123         3340 
 4010000   0.61394113   -8.2113448    633.79827  0.013171203  0.011714468         3411 
 4011000   0.60938487   -8.2296985    633.28847  0.013157327  0.011709818         3384 
 4012000   0.62313246   -8.2125663    634.55588  0.013180373  0.011705165         3321 
 4013000   0.62416483   -8.2227312    633.26046  0.013150188  0.011700515         3366 
 4014000   0.61081033   -8.2077134    634.13209  0.013165008  0.011695869         3406 
 4015000   0.62083068   -8.2257891    634.41086  0.013167515  0.011691221         3441 
 4016000   0.60299299   -8.1925387    633.96723  0.013155031  0.011686575         3329 
 4017000   0.61061953   -8.2430518    634.41536  0.013161052  0.011681936         3407 
 4018000   0.61216288   -8.2240922    634.54241  0.013160412  0.011677304         3386 
 4019000   0.60070711   -8.2227188    634.95834  0.013165761  0.011672674         3366 
 4020000   0.59783429   -8.2335357    633.55775  0.013133452  0.011668037         3427 
 4021000   0.61842133   -8.2208311    632.91345  0.013116833  0.011663402         3392 
 4022000   0.60546648   -8.2294951    634.22809  0.013140811  0.011658774         3391 
 4023000   0.59638434   -8.2123122    633.43708  0.013121159  0.011654148         3438 
 4024000   0.59442134     -8.20985      632.887  0.013106507  0.011649526         3453 
 4025000    0.6060205   -8.2139006    633.76758  0.013121482  0.011644904         3403 
 4026000     0.602245    -8.228116    633.11848  0.013104787  0.011640283         3406 
 4027000   0.59678945    -8.219414    633.48886  0.013109198  0.011635666         3301 
 4028000   0.59480675   -8.2121311    632.48598  0.013085195   0.01163105         3406 
 4029000   0.61415858    -8.236306    634.87446  0.013131349  0.011626433         3439 
 4030000    0.6096893   -8.2346135    634.67208  0.013123906  0.011621814         3394 
 4031000   0.61680658   -8.2262611    634.60597  0.013119283  0.011617206         3487 
 4032000   0.60174644   -8.1976643    634.84779  0.013121027  0.011612593         3502 
 4033000   0.60620721   -8.2386317    633.01011  0.013079802  0.011607986         3437 
 4034000   0.59798023   -8.2134346    634.48072  0.013106939  0.011603385         3364 
 4035000   0.60207616   -8.2216477    633.39569  0.013081282  0.011598778         3393 
 4036000    0.6045275   -8.2196493    633.68355  0.013083985   0.01159418         3416 
 4037000    0.5879473   -8.2457719     632.8528  0.013063595  0.011589579         3395 
 4038000   0.60918786   -8.2480196    634.65185  0.013097487  0.011584985         3416 
 4039000   0.60154001   -8.2293446    633.68901  0.013074379  0.011580394         3435 
 4040000   0.61419978   -8.2360934    634.87337  0.013095573  0.011575804         3436 
 4041000   0.60908535    -8.217678    633.04803   0.01305469  0.011571216         3424 
 4042000   0.60505377    -8.243609    633.85724  0.013068144   0.01156663         3411 
 4043000   0.60211192   -8.2511677    633.32797  0.013054002  0.011562044         3381 
 4044000   0.60766281   -8.2225499    633.99691  0.013064559   0.01155746         3425 
 4045000   0.59563823    -8.238474     632.9196  0.013039135  0.011552879         3391 
 4046000   0.60589529   -8.2385986    633.26259  0.013042976  0.011548298         3489 
 4047000   0.60057582   -8.2414197    634.11787  0.013057365  0.011543722         3432 
 4048000   0.58730466   -8.2369633    633.10872  0.013033365  0.011539152         3450 
 4049000   0.59504643   -8.2270143    631.60839  0.012999267  0.011534577         3407 
 4050000   0.60487052   -8.2269531     632.2573  0.013009409  0.011530007         3411 
 4051000   0.60503631   -8.2430207    633.40345  0.013029776  0.011525444         3420 
 4052000   0.60303778   -8.2284932     634.7169  0.013053572  0.011520879         3369 
 4053000   0.59871543   -8.2373481    633.57677  0.013026909  0.011516318         3400 
 4054000   0.60164461   -8.2299107    633.82901  0.013028881  0.011511757         3379 
 4055000   0.59904803   -8.2234049    633.36098   0.01301605  0.011507198         3405 
 4056000   0.60568276   -8.2226244    633.01804  0.013005795  0.011502643         3452 
 4057000   0.60962285   -8.2343416    633.06647  0.013003584  0.011498091         3401 
 4058000   0.61098109   -8.2337518    633.96088  0.013018747   0.01149354         3450 
 4059000    0.6005808   -8.2378678    633.69518  0.013010084  0.011488992         3407 
 4060000   0.59756451   -8.2405094    635.25251  0.013038845  0.011484441         3384 
 4061000   0.60899373   -8.2249411    634.03272  0.013010603  0.011479905         3382 
 4062000   0.60197211    -8.236255    634.35503  0.013014013  0.011475369         3472 
 4063000   0.59325199   -8.2251788       632.91  0.012981172  0.011470837         3418 
 4064000    0.5913101   -8.2258154    634.50931  0.013010772  0.011466304         3421 
 4065000   0.60933886   -8.2390606    632.60796  0.012968593  0.011461773         3394 
 4066000   0.59472803   -8.2235715    633.09685  0.012975423  0.011457249         3396 
 4067000   0.60396208   -8.2336808    634.54774  0.013001962  0.011452725         3424 
 4068000   0.61365895   -8.2395977    633.36158  0.012974467  0.011448205         3461 
 4069000   0.60885441   -8.2424075    633.28159   0.01296964  0.011443682         3440 
 4070000   0.59583406    -8.230309    632.54067  0.012951283  0.011439161         3473 
 4071000   0.60955398   -8.2338327    633.05372  0.012958604  0.011434637         3444 
 4072000   0.59062627   -8.2422364    633.59565  0.012966512  0.011430122         3450 
 4073000   0.59011485    -8.231937    633.91692  0.012969902  0.011425607         3424 
 4074000   0.60165163    -8.251159     633.6455  0.012961166  0.011421089         3420 
 4075000   0.59535897   -8.2367743    632.77684  0.012940222  0.011416577         3455 
 4076000   0.60878099   -8.2457583     633.3918   0.01294962  0.011412067         3446 
 4077000   0.59998676   -8.2515349    633.11619   0.01294081  0.011407556         3492 
 4078000   0.59212574   -8.2593106    633.44644  0.012944385  0.011403048         3436 
 4079000    0.6014797   -8.2601485    634.15411  0.012955669  0.011398544         3468 
 4080000   0.60100694   -8.2559596    633.56439  0.012940449  0.011394041         3458 
 4081000   0.60448925   -8.2297149    634.48935  0.012956166  0.011389542         3423 
 4082000   0.59299918   -8.2426819    633.81999  0.012939327  0.011385044         3480 
 4083000   0.59452813   -8.2433381    632.95042   0.01291841  0.011380551         3455 
 4084000     0.593678   -8.2473873    633.08829   0.01291806  0.011376058         3449 
 4085000   0.59920268   -8.2581083    633.43547   0.01292198  0.011371567         3444 
 4086000    0.6012045   -8.2341763    633.86726  0.012927624  0.011367083         3436 
 4087000   0.58548165   -8.2197311    633.69901   0.01292103  0.011362601         3415 
 4088000   0.60186979   -8.2519912    634.59682  0.012936171  0.011358113         3438 
 4089000   0.59794011   -8.2325779    634.12386  0.012923369  0.011353635         3455 
 4090000   0.59978527   -8.2750495    632.14119  0.012879812  0.011349156         3445 
 4091000   0.60417579   -8.2318272    633.41048  0.012902519  0.011344682         3383 
 4092000   0.60239838   -8.2443011    634.14808  0.012914388  0.011340203         3436 
 4093000   0.59557598   -8.2441098    634.07746  0.012909794  0.011335734         3417 
 4094000   0.60391577   -8.2530756    633.91704  0.012903376  0.011331266         3431 
 4095000   0.59843787   -8.2411592    633.42008  0.012890112    0.0113268         3451 
 4096000   0.58646186   -8.2467052    633.93374  0.012897415  0.011322335         3426 
 4097000   0.59268497   -8.2252895    633.48197  0.012885078  0.011317875         3422 
 4098000     0.603627   -8.2541125    633.00917  0.012872319  0.011313417         3434 
 4099000   0.60711489   -8.2492267    633.62186  0.012881635  0.011308964         3449 
 4100000   0.58897705   -8.2439352    632.83051  0.012862409   0.01130451         3445 
 4101000   0.58300633   -8.2712541    631.93389  0.012841053  0.011300054         3467 
 4102000   0.60368365   -8.2304402    634.33467  0.012886695  0.011295601         3464 
 4103000   0.59753651   -8.2445932    634.07862  0.012878354  0.011291149         3476 
 4104000   0.59769756   -8.2335223    633.32517  0.012859916  0.011286698         3440 
 4105000   0.59373788    -8.254066    633.27442  0.012855753  0.011282253         3465 
 4106000   0.59819953   -8.2491664    632.76407  0.012842265  0.011277808         3524 
 4107000   0.59075814   -8.2486162    632.87412  0.012841371  0.011273365         3472 
 4108000   0.58565962   -8.2586891    632.33703   0.01282735  0.011268924         3506 
 4109000   0.58002842   -8.2436001    632.85913  0.012834816  0.011264486         3460 
 4110000    0.6036568   -8.2461623    633.44234  0.012843519  0.011260047         3466 
 4111000   0.61106874    -8.244647    632.97529  0.012830927  0.011255617         3456 
 4112000   0.59364699   -8.2381218    633.05752  0.012829473  0.011251184         3483 
 4113000   0.60267784   -8.2289624    633.44193  0.012834142  0.011246758         3474 
 4114000   0.59029184   -8.2521852    632.77334   0.01281748  0.011242331         3456 
 4115000   0.58905726   -8.2447702    633.12382  0.012821462  0.011237908         3449 
 4116000   0.58347988    -8.255233    633.11896  0.012818249  0.011233489         3547 
 4117000   0.58327651   -8.2603973    633.60416  0.012824957  0.011229067         3409 
 4118000   0.60709687    -8.239902    632.80747   0.01280572  0.011224653         3432 
 4119000   0.59075045   -8.2415879     632.8567  0.012803607  0.011220241         3509 
 4120000   0.59370492   -8.2498568    633.95716  0.012822758  0.011215829         3493 
 4121000   0.58547894   -8.2548429    633.27176  0.012805787   0.01121142         3482 
 4122000   0.58541431   -8.2357709    633.92757  0.012815938  0.011207017         3422 
 4123000    0.5844554   -8.2630621    632.32388  0.012780416  0.011202619         3508 
 4124000   0.59451297    -8.230853    633.80664  0.012807279  0.011198214         3460 
 4125000   0.59427081   -8.2537036    633.24532  0.012792835  0.011193819         3440 
 4126000   0.59945561   -8.2412572    632.44024  0.012773474  0.011189417         3520 
 4127000   0.58409356   -8.2595291     632.0231  0.012761956  0.011185019         3464 
 4128000   0.59573712   -8.2551373    633.58088  0.012790312   0.01118062         3484 
 4129000   0.58275786   -8.2346173    633.36475  0.012782852  0.011176227         3428 
 4130000   0.59649644   -8.2557445    632.18634   0.01275598  0.011171835         3448 
 4131000   0.58580643   -8.2599503    632.08749  0.012750897  0.011167449         3454 
 4132000   0.60211112   -8.2467142    633.15342  0.012769309  0.011163067         3509 
 4133000   0.59323042    -8.250257    632.97547  0.012762631  0.011158687         3488 
 4134000   0.58931699   -8.2450725     633.3637   0.01276737    0.0111543         3451 
 4135000   0.58152269   -8.2563559    632.64503  0.012749799  0.011149923         3441 
 4136000   0.58535367     -8.25962     632.2864  0.012739491  0.011145545         3463 
 4137000   0.58370202   -8.2519292    633.38106  0.012758461  0.011141171         3449 
 4138000   0.58374302   -8.2543101    632.35454  0.012734706  0.011136803         3498 
 4139000   0.59264974   -8.2585757    631.68779  0.012718205  0.011132433         3516 
 4140000   0.59428776   -8.2669621    632.81099  0.012737741  0.011128065         3469 
 4141000    0.5954156   -8.2396531    632.60321  0.012730484  0.011123694         3467 
 4142000   0.57910327   -8.2549945     631.8602  0.012712462  0.011119325         3523 
 4143000   0.59858605   -8.2579027    633.26294  0.012737608  0.011114962         3488 
 4144000   0.59067984   -8.2539673    632.43289  0.012717843    0.0111106         3470 
 4145000   0.57837838   -8.2636743    632.88858  0.012723936  0.011106241         3538 
 4146000   0.59046767   -8.2587906    632.17931  0.012706611  0.011101884         3552 
 4147000   0.60502362   -8.2482107    633.37064  0.012727487  0.011097528         3463 
 4148000   0.58049644   -8.2674265    632.77872  0.012712527  0.011093173         3532 
 4149000   0.60678813     -8.23244    633.71362   0.01272824  0.011088823         3550 
 4150000   0.59091683   -8.2721987    632.47355  0.012700272  0.011084471         3519 
 4151000   0.58587718   -8.2706517     632.8405  0.012704579  0.011080122         3492 
 4152000   0.58472652   -8.2606879    633.05806  0.012705886  0.011075775         3506 
 4153000   0.58459005   -8.2560889    633.17681  0.012705209  0.011071429         3496 
 4154000   0.58569642   -8.2337219    633.49522  0.012708538  0.011067086         3456 
 4155000   0.57880894   -8.2467889    633.56701   0.01270692  0.011062745         3455 
 4156000   0.59836214   -8.2604834     633.2036  0.012696575  0.011058406         3490 
 4157000   0.57340603   -8.2566804    632.29985  0.012675404  0.011054071         3489 
 4158000   0.59295016   -8.2688528     631.6706  0.012659744   0.01104974         3451 
 4159000   0.60385654   -8.2539788    632.88161  0.012680965  0.011045407         3495 
 4160000   0.59344113   -8.2646857    633.21381  0.012684571  0.011041075         3485 
 4161000   0.59392566   -8.2647163    632.06145  0.012658445  0.011036747         3502 
 4162000   0.57895566   -8.2694565    632.31045  0.012660389  0.011032423         3480 
 4163000   0.56864571   -8.2696868    633.10279  0.012673208  0.011028101         3519 
 4164000   0.58139379   -8.2608733    633.37792  0.012675671  0.011023782         3471 
 4165000   0.58061859   -8.2657004    632.24127  0.012649885  0.011019465         3514 
 4166000   0.58265073   -8.2551673    632.04143  0.012642852  0.011015143         3495 
 4167000   0.58429943   -8.2598239    632.42466  0.012647481  0.011010831         3458 
 4168000   0.59329509   -8.2606832    632.58051  0.012647563  0.011006518         3471 
 4169000   0.58468774   -8.2611202    632.25728  0.012638068  0.011002207         3533 
 4170000    0.5822106   -8.2794769    633.36201  0.012657115  0.010997896         3555 
 4171000   0.58439879    -8.254589     632.2209  0.012631282  0.010993592         3504 
 4172000   0.59266035   -8.2595634    632.68993  0.012637622  0.010989291         3437 
 4173000   0.57971589   -8.2617975     631.7616  0.012616056  0.010984994         3491 
 4174000    0.5802607   -8.2868727     633.8418  0.012654564  0.010980696         3479 
 4175000   0.58597335   -8.2723446    633.05767  0.012635882  0.010976401         3507 
 4176000    0.5790344   -8.2593145    632.11617  0.012614068  0.010972103         3459 
 4177000   0.58444528   -8.2628304    632.38282  0.012616368  0.010967808         3462 
 4178000   0.58965172   -8.2592356    632.39437  0.012613579  0.010963516         3468 
 4179000   0.57396476   -8.2746666    633.40392  0.012630692   0.01095923         3448 
 4180000   0.57557504   -8.2739445    632.07374  0.012601151  0.010954939         3455 
 4181000    0.5714854   -8.2660534    631.72454  0.012591177  0.010950654         3475 
 4182000   0.58310335   -8.2590222    632.43795  0.012602382  0.010946372         3541 
 4183000    0.5741548   -8.2792502    632.45855   0.01259978  0.010942087         3500 
 4184000   0.58349622   -8.2368626    632.54622  0.012598515  0.010937807         3485 
 4185000   0.59050572    -8.266071    631.88679  0.012582373  0.010933528         3476 
 4186000   0.58455883    -8.287542    631.81902  0.012578018   0.01092925         3458 
 4187000   0.59464309   -8.2781253    631.05944  0.012559896  0.010924972         3492 
 4188000   0.57670168   -8.2481418    632.20856  0.012579763  0.010920704         3457 
 4189000   0.57316375   -8.2671107    632.39094  0.012580388  0.010916439         3454 
 4190000   0.57511129   -8.2761543    633.27964   0.01259506  0.010912173         3412 
 4191000   0.59426305   -8.2797922    631.39584  0.012554598   0.01090791         3442 
 4192000   0.56956793   -8.2787408    632.18048  0.012567201  0.010903649         3514 
 4193000    0.5674287   -8.2782465    631.86826  0.012557999  0.010899388         3556 
 4194000   0.58024322   -8.2680778    632.15516  0.012560705  0.010895127         3492 
 4195000   0.57916358   -8.2781383    632.81665  0.012570851  0.010890872         3447 
 4196000   0.58348369   -8.2695045    632.13593  0.012554336  0.010886612         3474 
 4197000   0.57581569   -8.2805582    632.46251  0.012557829  0.010882362         3532 
 4198000   0.57765561   -8.2870711    631.74465  0.012540588  0.010878115         3470 
 4199000    0.5750331   -8.2704493    633.30082  0.012568485   0.01087387         3516 
 4200000   0.58493112   -8.2866665    632.31691   0.01254597  0.010869627         3489 
 4201000   0.57719594   -8.2717973    632.59678  0.012548536  0.010865386         3456 
 4202000   0.58323249   -8.2802913    631.85589  0.012530856  0.010861142         3515 
 4203000   0.58063157   -8.2883787      631.754  0.012525854  0.010856903         3500 
 4204000   0.58974265   -8.2783054    632.59249  0.012539496  0.010852664         3403 
 4205000   0.57556132   -8.2772113    631.73513  0.012519523  0.010848427         3475 
 4206000   0.58102765   -8.2592951    632.11789   0.01252413  0.010844197         3458 
 4207000   0.58736254    -8.270346    633.22414  0.012543066  0.010839972         3485 
 4208000    0.5772357   -8.2682154    632.47544  0.012525258  0.010835745         3469 
 4209000   0.58022109   -8.2710911    631.79919  0.012508893   0.01083152         3459 
 4210000   0.59260239   -8.2661331    631.39774  0.012497976  0.010827299         3538 
 4211000   0.57478183   -8.2665079    632.61373  0.012519072  0.010823077         3481 
 4212000   0.57012157   -8.2706015    632.36363  0.012511151  0.010818857         3481 
 4213000   0.58676937   -8.2813373       631.86   0.01249822  0.010814638         3475 
 4214000   0.57528647   -8.2904333    632.48755  0.012507664  0.010810419         3523 
 4215000   0.57557383   -8.2555751    633.23107  0.012519396  0.010806208         3507 
 4216000   0.57289672   -8.2794544    631.80882  0.012488315  0.010801992         3511 
 4217000   0.57382367   -8.2494729     631.9865  0.012488864  0.010797779         3533 
 4218000   0.57569428   -8.2845001    632.75118  0.012501011  0.010793569         3493 
 4219000   0.57376554   -8.2729299    631.04035  0.012464256  0.010789362         3426 
 4220000   0.57575158   -8.2778215    632.77165  0.012495491  0.010785157         3522 
 4221000   0.57610587   -8.2759449    632.24963  0.012482224  0.010780953         3509 
 4222000   0.56686896   -8.3014455    632.37048  0.012481653  0.010776755         3496 
 4223000   0.57808806   -8.2852749    631.25826   0.01245675  0.010772554         3537 
 4224000   0.57806518   -8.2796087    632.57061  0.012479692  0.010768359         3442 
 4225000   0.58506963   -8.2737541     632.0836  0.012467132  0.010764163         3494 
 4226000   0.56940598   -8.2659564     631.6822  0.012456267  0.010759975         3423 
 4227000   0.57795592   -8.2850793    632.40741  0.012467617  0.010755786         3511 
 4228000   0.57597198   -8.2631182    631.64601  0.012449661  0.010751597         3443 
 4229000   0.57674084    -8.271708    632.06769  0.012455027   0.01074741         3444 
 4230000   0.57305383   -8.2777904    632.42333  0.012459089  0.010743233         3493 
 4231000   0.58487015   -8.2766314    632.13335  0.012450432  0.010739052         3548 
 4232000   0.56927764   -8.2748813    632.35082  0.012451773   0.01073487         3500 
 4233000   0.58588323   -8.2784568    632.68795  0.012455468   0.01073069         3520 
 4234000    0.5847436   -8.2706956    632.44037  0.012447653  0.010726519         3513 
 4235000   0.58542591   -8.2834724    631.40832  0.012424406  0.010722342         3417 
 4236000   0.57016654   -8.2760922     631.7428  0.012428053  0.010718172         3479 
 4237000   0.56590281   -8.2897129    631.99939  0.012430167  0.010713997         3542 
 4238000   0.57090282   -8.2809703    632.00591  0.012427362  0.010709825         3533 
 4239000   0.56005858   -8.3006809    631.51706   0.01241482  0.010705659         3470 
 4240000   0.58392321   -8.2910643    631.17039  0.012405079  0.010701491         3561 
 4241000   0.56958969   -8.2590656    631.59802  0.012410556  0.010697325         3529 
 4242000   0.57388251   -8.2898054    632.26906  0.012420813  0.010693161         3544 
 4243000   0.56568971   -8.2795468    630.76219   0.01238829  0.010689002         3553 
 4244000   0.56623748   -8.2965538    632.91121  0.012427568  0.010684845         3539 
 4245000    0.5862019   -8.2913951    631.37359  0.012394456  0.010680695         3501 
 4246000   0.56937233   -8.2994879    630.79676  0.012380216  0.010676542         3508 
 4247000   0.57083833   -8.2939597    631.44908    0.0123901  0.010672392         3501 
 4248000   0.57578309   -8.2760824    631.31381   0.01238453  0.010668247         3546 
 4249000   0.57257667   -8.2921148    631.80235  0.012391197  0.010664103         3492 
 4250000   0.57614673   -8.2808137    631.48763   0.01238211  0.010659957         3529 
 4251000   0.56635668   -8.2819666    631.94871  0.012388236   0.01065582         3547 
 4252000   0.56022976   -8.2841931    631.56995    0.0123779  0.010651675         3545 
 4253000    0.5772227   -8.2856975    630.52405  0.012354496  0.010647537         3566 
 4254000     0.574516   -8.2878197      631.118  0.012363227  0.010643403         3496 
 4255000   0.56730119   -8.2820851    631.86659  0.012374982  0.010639268         3507 
 4256000   0.56880398   -8.2959889    631.30571  0.012361092  0.010635136         3510 
 4257000   0.57854092   -8.2757436    631.68318  0.012365578  0.010631004         3543 
 4258000   0.57196388   -8.3074605    631.86855  0.012366302   0.01062688         3528 
 4259000   0.56189617   -8.2750283    631.80038  0.012362064  0.010622757         3501 
 4260000   0.57463054   -8.2975088    630.91098  0.012341764  0.010618636         3598 
 4261000   0.57356934   -8.2953325    630.63606  0.012333491  0.010614521         3559 
 4262000   0.57521601   -8.2752148    632.91439  0.012375144  0.010610404         3553 
 4263000   0.58138963   -8.2829511    632.36896   0.01236158  0.010606289         3495 
 4264000   0.57092509   -8.2909639    632.74078  0.012365947  0.010602177         3518 
 4265000   0.57360824   -8.3105698    632.45831  0.012357529  0.010598066         3573 
 4266000   0.56253167    -8.304295    631.39628  0.012333886  0.010593958         3555 
 4267000    0.5559883   -8.2960041    630.76944  0.012318753  0.010589849         3506 
 4268000   0.57904738   -8.3102483    631.25131  0.012325275   0.01058574         3499 
 4269000   0.57134744   -8.2812012    632.80962  0.012352807  0.010581635         3491 
 4270000   0.57229621   -8.2971914    631.79642  0.012330141  0.010577533         3579 
 4271000   0.56806167   -8.2910025    631.00809  0.012311873  0.010573433         3475 
 4272000   0.56130055   -8.2881304    630.66634  0.012302324  0.010569336         3447 
 4273000   0.56525225    -8.307152    630.53395  0.012296863  0.010565236         3516 
 4274000   0.57600078   -8.3185727    630.73446  0.012297896  0.010561143         3513 
 4275000   0.56519714   -8.3283493    631.09535  0.012302054   0.01055705         3433 
 4276000   0.56953608    -8.288215    630.89457  0.012295264  0.010552956         3538 
 4277000   0.57197104   -8.3015813     632.4891  0.012323457  0.010548862         3492 
 4278000   0.57970998   -8.3029107    630.61358  0.012284042  0.010544776         3498 
 4279000   0.56855984   -8.3136082    632.26064  0.012313248  0.010540691         3526 
 4280000   0.57890519   -8.2973339    631.52321  0.012296013  0.010536609         3477 
 4281000   0.58065191   -8.2808557    630.92929  0.012281579  0.010532525         3471 
 4282000   0.56830312    -8.272701    631.27506   0.01228544  0.010528446         3477 
 4283000   0.56651389   -8.3014383    632.47996  0.012306015  0.010524369         3510 
 4284000   0.56418083   -8.2924736    631.57701  0.012285578  0.010520293         3504 
 4285000   0.56550129   -8.2834435    631.09908  0.012273417  0.010516216         3523 
 4286000   0.57532124   -8.3055385    631.35297  0.012275489  0.010512148         3569 
 4287000   0.57456041   -8.2978245    630.88133  0.012263458  0.010508078         3545 
 4288000   0.56553753   -8.3149576    630.89618  0.012260887  0.010504012         3534 
 4289000   0.55782386   -8.2981322    630.42068  0.012248789  0.010499941         3544 
 4290000   0.57805805   -8.2964024    631.18279  0.012260738  0.010495879         3494 
 4291000   0.56168382   -8.3001556    631.33255  0.012260789  0.010491818         3550 
 4292000   0.56405263   -8.3000436    630.81677  0.012247918  0.010487757         3494 
 4293000   0.56025707    -8.289031    631.16301  0.012251786  0.010483699         3541 
 4294000   0.57092579   -8.3119762    631.53579  0.012256167   0.01047964         3480 
 4295000   0.56488757   -8.2894933    631.13832  0.012245602  0.010475587         3526 
 4296000   0.56797885   -8.2883665    631.34507  0.012246762  0.010471535         3488 
 4297000   0.55695363    -8.313463     629.9256  0.012216384  0.010467486         3537 
 4298000   0.57981822   -8.3009186    631.67066  0.012247376  0.010463436         3549 
 4299000   0.56576414   -8.3007204    631.14274  0.012234294  0.010459389         3498 
 4300000   0.56582334   -8.3226621    630.84311  0.012225642  0.010455344         3522 
 4301000   0.56734556   -8.3071532    630.95962  0.012225057  0.010451301         3518 
 4302000   0.57158115    -8.321115    631.10419  0.012225015  0.010447263         3499 
 4303000   0.55766556   -8.3119751    630.20569  0.012204774  0.010443226         3506 
 4304000   0.57431661   -8.3202497    630.53246  0.012208265  0.010439186         3541 
 4305000   0.56197584   -8.3237665    629.18391  0.012179325  0.010435156         3534 
 4306000   0.56714963   -8.2816332    631.81725  0.012227459  0.010431124         3537 
 4307000   0.55986885   -8.2986043    631.96242  0.012227429  0.010427099         3520 
 4308000   0.56147484   -8.3095996      630.983  0.012205644  0.010423075         3512 
 4309000   0.57449473   -8.3098801    630.40971  0.012191725  0.010419048         3576 
 4310000   0.56159898   -8.3049657    631.07268  0.012201715  0.010415023         3488 
 4311000   0.55134465   -8.3127729    630.75543  0.012192752     0.010411         3568 
 4312000   0.56188244   -8.2838047     631.3997  0.012202375  0.010406983         3539 
 4313000   0.56721981   -8.3072281     632.3783  0.012218454   0.01040297         3540 
 4314000   0.55994492   -8.2957715    631.51524   0.01219895  0.010398956         3547 
 4315000   0.55407251   -8.3004407    630.91074  0.012184448  0.010394945         3529 
 4316000    0.5656154   -8.3116666    631.01389  0.012183617  0.010390935         3498 
 4317000   0.56887108    -8.311447    630.13147  0.012163761  0.010386925         3488 
 4318000   0.55543104   -8.3210835    631.05387  0.012178745  0.010382914         3516 
 4319000   0.56599138   -8.3123663    631.20744  0.012178889  0.010378906         3515 
 4320000   0.55792282   -8.3138865    631.12477  0.012174475  0.010374905         3490 
 4321000   0.56225785   -8.3074513    631.28886  0.012174822    0.0103709         3549 
 4322000   0.56410701    -8.315655    630.79056  0.012162397  0.010366902         3507 
 4323000   0.56120465   -8.3057709    631.89951  0.012180961  0.010362902         3515 
 4324000   0.56091361   -8.3025238    631.14594  0.012163621  0.010358905         3499 
 4325000   0.55917132   -8.3012135    631.40732  0.012165844  0.010354909         3501 
 4326000   0.55458813   -8.3187849    630.68137  0.012149048  0.010350916         3529 
 4327000   0.57058541   -8.2993803    631.24719  0.012157137  0.010346923         3518 
 4328000   0.56748993   -8.3139845    632.09546  0.012170661  0.010342938         3539 
 4329000   0.55768014   -8.3030783    630.37257  0.012134684  0.010338949         3553 
 4330000   0.56053167   -8.3099212    630.62973  0.012136831  0.010334966         3562 
 4331000    0.5617749   -8.3148414    630.58334  0.012133136  0.010330986         3520 
 4332000   0.56996446   -8.3046558    629.11345  0.012102059  0.010327006         3545 
 4333000   0.56047167   -8.3077376    630.12681  0.012118755  0.010323031         3576 
 4334000   0.56047482   -8.3156264    630.59022   0.01212487  0.010319058         3554 
 4335000   0.55889601   -8.2998708    629.99435  0.012110618  0.010315081         3465 
 4336000   0.55918044   -8.3161239    630.30912  0.012113874  0.010311109         3536 
 4337000   0.56263785   -8.3255351    630.88241  0.012122097  0.010307143         3558 
 4338000   0.54988907   -8.3081588    631.05523  0.012122622  0.010303178         3576 
 4339000   0.55949536   -8.3010993     631.2405  0.012123387  0.010299212         3509 
 4340000   0.54502241   -8.3104823    630.19578  0.012100533  0.010295245         3574 
 4341000   0.54652267   -8.3017769    631.13101  0.012115699  0.010291283         3555 
 4342000   0.56621545   -8.3048556    630.57751  0.012102286  0.010287321         3557 
 4343000   0.56046908   -8.3218281    630.66679  0.012101212  0.010283365         3577 
 4344000   0.55025561   -8.3203431    630.45401  0.012094345  0.010279412         3540 
 4345000   0.55135914   -8.3091646    632.34102  0.012127753  0.010275457         3548 
 4346000   0.55335605   -8.3133764    629.81567  0.012076539  0.010271505         3504 
 4347000   0.56060891   -8.3052172    631.29625  0.012102144  0.010267554         3477 
 4348000   0.55803796   -8.3040921     630.9095  0.012091948  0.010263608         3530 
 4349000   0.55342785   -8.3127528     631.8004  0.012106239  0.010259662         3565 
 4350000   0.56342878   -8.3067059    631.20662  0.012092081  0.010255717         3583 
 4351000   0.56520639   -8.3349022    630.96186  0.012084614  0.010251775         3599 
 4352000   0.56781307    -8.332036    630.46147  0.012072255  0.010247836         3564 
 4353000   0.54661744   -8.3173613    631.54421   0.01209021  0.010243898         3511 
 4354000   0.57050161   -8.3078197    630.59922  0.012069347  0.010239965         3523 
 4355000   0.55273949   -8.3071394    630.03674  0.012055812  0.010236031         3535 
 4356000   0.56839305   -8.3309748    630.99937   0.01207146  0.010232101         3574 
 4357000   0.55338018   -8.3159805    631.41452   0.01207663  0.010228169         3509 
 4358000   0.54673787   -8.3105621    630.03509  0.012047481  0.010224239         3538 
 4359000   0.55264042   -8.3142316    631.12974  0.012065645  0.010220315         3519 
 4360000   0.55380671   -8.3097376    631.58345  0.012071549   0.01021639         3513 
 4361000   0.56217358     -8.31439    630.72241  0.012052328   0.01021247         3598 
 4362000    0.5561172   -8.3277287    630.21172  0.012039808  0.010208547         3494 
 4363000   0.55904882   -8.3261774    629.84783  0.012030098  0.010204632         3550 
 4364000   0.54757091   -8.3036872    631.25245  0.012054164  0.010200715         3551 
 4365000   0.56543193   -8.3277943    629.86263  0.012024869  0.010196798         3566 
 4366000   0.54315091   -8.3115739    632.23523    0.0120674  0.010192886         3534 
 4367000   0.55962667   -8.3098169    630.50677  0.012031654  0.010188977         3500 
 4368000   0.55309669   -8.3162394    630.55179  0.012029758  0.010185069         3562 
 4369000   0.54993027   -8.3243588    631.28243  0.012040941  0.010181162         3513 
 4370000   0.55166112   -8.3035304    630.27003  0.012018879  0.010177258         3521 
 4371000    0.5609621   -8.3167099    630.61355  0.012022679  0.010173357         3502 
 4372000    0.5442655   -8.3160906    630.05081  0.012009203  0.010169457         3512 
 4373000   0.56037125    -8.328448    629.61083  0.011998072  0.010165558         3531 
 4374000   0.53936076   -8.3249714    629.42324  0.011991755  0.010161657         3473 
 4375000   0.55952008   -8.3146075    629.46394  0.011989789  0.010157762         3541 
 4376000    0.5593292   -8.3174386    630.14629  0.012000044  0.010153868         3504 
 4377000   0.56219375   -8.3174362    631.12448  0.012015926  0.010149975         3582 
 4378000   0.54466634   -8.3316501    630.48831  0.012001072  0.010146085         3547 
 4379000   0.54465304   -8.3248893    630.52218  0.011998976  0.010142195         3576 
 4380000   0.56673895   -8.3297293    630.69264  0.011999479  0.010138306         3537 
 4381000   0.54410418   -8.3391299    629.95567  0.011982722  0.010134417         3581 
 4382000   0.56264604   -8.3280119    630.66903  0.011993554  0.010130533         3538 
 4383000   0.55321466   -8.3287651    630.75258  0.011992406  0.010126651         3537 
 4384000   0.55334643   -8.3229214    630.39869  0.011982944  0.010122772         3536 
 4385000   0.54059344   -8.3172893    630.24889  0.011977364   0.01011889         3600 
 4386000   0.56241782   -8.3313534    629.42732  0.011959023  0.010115013         3572 
 4387000   0.55009792   -8.3182667    629.65157  0.011960557  0.010111136         3569 
 4388000   0.54689942   -8.3355892    630.96493  0.011982774  0.010107268         3549 
 4389000   0.55533515   -8.3021536    631.48247   0.01198987  0.010103397         3555 
 4390000   0.55060017   -8.3236998    629.94179  0.011957893  0.010099527         3570 
 4391000   0.55517287   -8.3377292    630.30914  0.011962141  0.010095657         3546 
 4392000   0.55765894   -8.3014414    630.66191  0.011966111  0.010091792         3555 
 4393000   0.56373404   -8.3258357    630.57966  0.011961827  0.010087926         3573 
 4394000   0.55044897   -8.3271695    630.45092  0.011956663  0.010084063         3511 
 4395000   0.54497978   -8.3320328    630.23284  0.011949807  0.010080203         3524 
 4396000   0.54939869   -8.3478837     630.1513  0.011945543  0.010076344         3516 
 4397000   0.55238543   -8.3331458    630.23429  0.011944399   0.01007249         3576 
 4398000   0.54605798   -8.3319896      631.054  0.011957215  0.010068632         3537 
 4399000   0.55517798   -8.3302411    629.64478  0.011927801  0.010064777         3537 
 4400000   0.55270238   -8.3150159    631.21365  0.011954804  0.010060924         3588 
 4401000   0.54976066   -8.3588207    630.60262  0.011940518  0.010057075         3570 
 4402000   0.55474597   -8.3326021    629.69502  0.011920624  0.010053226         3573 
 4403000   0.54789014   -8.3305331    630.16897  0.011926886  0.010049379         3548 
 4404000   0.54279504   -8.3381616    628.71311   0.01189663  0.010045537         3545 
 4405000   0.53950135   -8.3309129    629.92605  0.011916876  0.010041692         3542 
 4406000   0.55184861   -8.3439016    630.47028  0.011924464  0.010037851         3544 
 4407000   0.53762401    -8.326159    630.08897  0.011914548  0.010034012         3565 
 4408000   0.54186672   -8.3299723    630.08509  0.011911772  0.010030175         3591 
 4409000   0.55156035   -8.3241552    630.57206  0.011918274  0.010026339         3546 
 4410000   0.55646027   -8.3302024    630.19743  0.011908493  0.010022509         3479 
 4411000   0.54244842   -8.3422685    629.90287  0.011900228  0.010018677         3546 
 4412000   0.55527543    -8.318787    630.66005  0.011911832  0.010014853         3502 
 4413000      0.55493   -8.3391455     629.8913  0.011894616  0.010011027         3529 
 4414000   0.53466692   -8.3296542    630.15966  0.011896988  0.010007199         3581 
 4415000   0.55047249   -8.3440436    629.97459    0.0118908  0.010003378         3608 
 4416000   0.55306364   -8.3328447    630.02446  0.011889049 0.0099995565         3504 
 4417000    0.5526842   -8.3480579    629.97141  0.011885356 0.0099957371         3571 
 4418000   0.54478673   -8.3334001    630.79482  0.011898197 0.0099919186         3554 
 4419000   0.53558382   -8.3404575    629.62282  0.011873403 0.0099881017         3538 
 4420000   0.53931358    -8.311812     631.1882   0.01190023 0.0099842881         3581 
 4421000   0.54632218   -8.3266164    630.35408  0.011881816 0.0099804763         3523 
 4422000    0.5342236   -8.3380878    629.78894  0.011868478 0.0099766665         3571 
 4423000   0.54466823   -8.3461516    630.43697  0.011878004 0.0099728612         3533 
 4424000   0.54259196   -8.3373814    630.09854  0.011868945 0.0099690548         3545 
 4425000   0.53996914   -8.3269947    630.71628  0.011877896 0.0099652497         3569 
 4426000   0.53854199   -8.3550782    630.12192  0.011864022 0.0099614498         3580 
 4427000   0.54622093   -8.3471513    629.45885   0.01184886 0.0099576466         3539 
 4428000   0.55276836   -8.3357298    629.68018   0.01185035 0.0099538479         3583 
 4429000   0.54620218   -8.3370909    629.96233  0.011852983 0.0099500501         3544 
 4430000   0.54380766   -8.3375003    628.95191    0.0118313  0.009946256         3578 
 4431000   0.54688404   -8.3278985    629.09014   0.01183123 0.0099424609         3555 
 4432000   0.54094725   -8.3489907    630.85404  0.011861726 0.0099386687         3526 
 4433000   0.54668652   -8.3314352    629.09991  0.011826075 0.0099348785         3540 
 4434000   0.54693734   -8.3106447    630.07218  0.011841681 0.0099310942         3529 
 4435000   0.54725592   -8.3686505    629.74858  0.011832931 0.0099273107         3553 
 4436000   0.55047072   -8.3342171    629.26639  0.011821205 0.0099235299         3518 
 4437000   0.54840729   -8.3398362    631.02765   0.01185162 0.0099197527         3554 
 4438000   0.54593888   -8.3024513    629.78505  0.011825617 0.0099159748         3539 
 4439000   0.55094689   -8.3394783    629.86913  0.011824531 0.0099122013         3566 
 4440000   0.54935756   -8.3426287    629.55719  0.011816013 0.0099084289         3565 
 4441000   0.54415692   -8.3500709    629.85535  0.011818948 0.0099046562         3561 
 4442000   0.53033279   -8.3255254    630.39976    0.0118265 0.0099008863         3514 
 4443000   0.53276086   -8.3407686    629.89674  0.011814403  0.009897117         3551 
 4444000   0.53962453   -8.3337189    630.92851  0.011831093 0.0098933493         3567 
 4445000   0.53503364   -8.3343427    629.98237  0.011810693 0.0098895871         3569 
 4446000   0.53972921   -8.3553255    630.46349  0.011817055 0.0098858247         3572 
 4447000   0.53163274   -8.3422406    630.23494  0.011810114 0.0098820579         3596 
 4448000   0.53396044   -8.3421198    629.47515  0.011793225 0.0098782951         3579 
 4449000   0.52721677   -8.3339192    630.22488  0.011804617 0.0098745381         3583 
 4450000    0.5306665   -8.3424008    630.15203    0.0118006 0.0098707802         3606 
 4451000   0.53253262   -8.3362076    630.68216  0.011807874 0.0098670242         3528 
 4452000   0.54279571   -8.3539633    630.02997  0.011793014 0.0098632689         3614 
 4453000   0.53639503   -8.3424134    629.85293  0.011787052 0.0098595206         3546 
 4454000   0.53946163    -8.347684    629.95872  0.011786385 0.0098557728         3544 
 4455000   0.53681372   -8.3464396    630.04071  0.011785273 0.0098520236         3590 
 4456000   0.54169856   -8.3398119     629.0383  0.011763882 0.0098482793         3618 
 4457000   0.53693535   -8.3662119    629.96026  0.011778481 0.0098445365         3589 
 4458000   0.54185269   -8.3512482    629.68209  0.011770639 0.0098407946         3565 
 4459000   0.54528887   -8.3461103    629.10346  0.011757185 0.0098370544         3532 
 4460000   0.54316249    -8.347368    630.73631  0.011785058 0.0098333174         3537 
 4461000   0.52963892    -8.357546    628.77603  0.011745797 0.0098295781         3593 
 4462000   0.53774995   -8.3357249    630.01002  0.011766211 0.0098258429         3606 
 4463000   0.52560706   -8.3545701    629.24509  0.011749292 0.0098221063         3594 
 4464000   0.54886089   -8.3478813    629.22149   0.01174622 0.0098183764         3540 
 4465000   0.54723294   -8.3591174    630.40421  0.011765663  0.009814647         3593 
 4466000   0.54484298   -8.3587218    629.25398  0.011741565 0.0098109214         3599 
 4467000   0.53256792    -8.328028    629.77792  0.011748711 0.0098071987         3570 
 4468000   0.54491478   -8.3437491    630.09284  0.011751955 0.0098034757         3553 
 4469000   0.54284335   -8.3476396    629.64959   0.01174106 0.0097997557         3627 
 4470000   0.53684387   -8.3477195    630.55525  0.011755318 0.0097960349         3595 
 4471000   0.54389792   -8.3540038    630.84006  0.011757997 0.0097923172         3543 
 4472000   0.54069011   -8.3294645    630.57581  0.011750444 0.0097886016         3560 
 4473000   0.52343428   -8.3450853    628.99469   0.01171836  0.009784886         3613 
 4474000   0.53200627   -8.3435192     629.5452  0.011725995 0.0097811748         3574 
 4475000   0.54061973   -8.3471261    628.94421  0.011712183 0.0097774626         3552 
 4476000   0.53974109    -8.333742    629.50867  0.011720075 0.0097737564         3612 
 4477000   0.53965874   -8.3427113    630.85787  0.011742571 0.0097700514         3535 
 4478000   0.54916074      -8.3686    630.61238   0.01173538 0.0097663497         3646 
 4479000   0.53085309   -8.3546275    629.26386   0.01170767 0.0097626447         3615 
 4480000   0.53739687   -8.3486857    629.72894  0.011713708  0.009758945         3567 
 4481000   0.53885153   -8.3560859    630.58019  0.011726925 0.0097552431         3626 
 4482000   0.53254362   -8.3473133    628.97204  0.011694408 0.0097515461         3611 
 4483000   0.53621672   -8.3474232    629.08491  0.011693897 0.0097478491         3609 
 4484000    0.5349063   -8.3607203    628.98155  0.011689369 0.0097441548         3608 
 4485000   0.53249453   -8.3509288    629.90604   0.01170394 0.0097404604         3593 
 4486000   0.52781943   -8.3304572    630.25558  0.011707824 0.0097367727         3569 
 4487000   0.53191452   -8.3768961    628.59186  0.011674316  0.009733085         3634 
 4488000   0.53510116   -8.3743807    628.97281  0.011678788 0.0097293965         3569 
 4489000   0.52922425   -8.3410758    628.86899  0.011674259 0.0097257114         3572 
 4490000     0.527978   -8.3462586    629.20258   0.01167785 0.0097220297         3593 
 4491000   0.54774813   -8.3658471    629.54715  0.011681644 0.0097183479         3707 
 4492000   0.53470704   -8.3403465    630.12883  0.011689834 0.0097146709         3605 
 4493000   0.52935304   -8.3487327    629.91112  0.011683195 0.0097109935         3597 
 4494000   0.53583223   -8.3521753    629.38438  0.011670827 0.0097073165         3589 
 4495000   0.53519998   -8.3497775    628.90109  0.011659271 0.0097036424         3571 
 4496000   0.53329138   -8.3460655    629.91788  0.011675524 0.0096999694         3571 
 4497000   0.53798955   -8.3624586    629.26448   0.01166082  0.009696299         3567 
 4498000   0.52798665   -8.3693155    629.87413  0.011669522 0.0096926308         3558 
 4499000   0.53727143    -8.358259    629.94169   0.01166818 0.0096889633         3550 
 4500000   0.52208757   -8.3787759    628.49596  0.011638814 0.0096852956         3595 
 4501000    0.5372646   -8.3497266    629.41062  0.011653163 0.0096816302         3613 
 4502000   0.52370098    -8.363822    629.68945  0.011655735  0.009677966         3620 
 4503000   0.52398029   -8.3679044    629.56231  0.011650794 0.0096743042         3587 
 4504000    0.5352271   -8.3679474    628.31654  0.011625158 0.0096706445         3601 
 4505000   0.53101385   -8.3564076    628.29452   0.01162217 0.0096669899         3596 
 4506000   0.52505897   -8.3462146    629.82728  0.011647938 0.0096633334         3569 
 4507000   0.52767878   -8.3699471    628.19782  0.011615225 0.0096596809         3629 
 4508000   0.53402058   -8.3657765    629.82887  0.011642799 0.0096560303         3637 
 4509000   0.53164146   -8.3702462    628.64507  0.011618339 0.0096523819         3525 
 4510000    0.5328421   -8.3707226     629.7362  0.011635924 0.0096487381         3626 
 4511000   0.52966309    -8.352347    630.12889  0.011640599 0.0096450925         3594 
 4512000   0.53248816   -8.3628269    627.65229  0.011592278 0.0096414511         3632 
 4513000   0.52528383   -8.3610195    629.63234  0.011626271 0.0096378104         3604 
 4514000   0.52993392   -8.3503501    629.48299  0.011620938 0.0096341726         3588 
 4515000   0.51815362   -8.3531178    629.58282  0.011620207 0.0096305334         3593 
 4516000   0.52763317   -8.3359247     629.4392  0.011614984 0.0096268984         3560 
 4517000   0.52796473   -8.3565365    629.56791  0.011614787 0.0096232661         3610 
 4518000   0.52075886   -8.3563505    628.74553  0.011597047 0.0096196334         3613 
 4519000   0.52485191   -8.3466347    628.64286  0.011592588 0.0096160017         3583 
 4520000   0.52570557   -8.3537774    629.17757  0.011599881 0.0096123705         3643 
 4521000    0.5338084   -8.3549295    630.09097  0.011614152 0.0096087426         3591 
 4522000   0.51132788   -8.3361778    629.54597   0.01160154 0.0096051192         3600 
 4523000   0.54946727   -8.3493332    629.99448  0.011607239 0.0096014965         3528 
 4524000     0.541776   -8.3699994    629.34639  0.011592735 0.0095978768         3613 
 4525000   0.52758386   -8.3483215    629.74437  0.011597502 0.0095942551         3562 
 4526000   0.52719977   -8.3657905    628.33291  0.011568952 0.0095906384         3573 
 4527000   0.54718048   -8.3602957    630.73979  0.011610702 0.0095870268         3595 
 4528000   0.51576403    -8.348654    630.07549  0.011595912 0.0095834156         3622 
 4529000   0.53159894   -8.3709607    628.46651  0.011563747 0.0095798028         3572 
 4530000   0.53163545   -8.3778102    629.02839   0.01157153 0.0095761942         3619 
 4531000   0.52596756   -8.3565939    629.55928  0.011578741 0.0095725865         3600 
 4532000    0.5163969   -8.3587364    627.99681  0.011547455 0.0095689796         3628 
 4533000   0.53002808   -8.3636143    629.60239  0.011574424 0.0095653743         3584 
 4534000   0.52123666   -8.3701445    629.78169  0.011575167 0.0095617701         3575 
 4535000    0.5273318   -8.3717331    629.28264  0.011563444 0.0095581662         3606 
 4536000   0.52584628   -8.3614267    629.81499  0.011570675 0.0095545671         3650 
 4537000   0.52648068   -8.3736962    628.92828  0.011551838 0.0095509659         3559 
 4538000   0.52941829   -8.3669924    627.84833  0.011529461 0.0095473693         3598 
 4539000   0.52372252    -8.390426    628.42835   0.01153757 0.0095437734         3641 
 4540000   0.51799595   -8.3693112    629.00768  0.011545662 0.0095401777         3559 
 4541000   0.52880188   -8.3582152    629.17376  0.011546168 0.0095365864         3609 
 4542000   0.52182427   -8.3651076     629.2799  0.011545573 0.0095329969         3508 
 4543000   0.52529731   -8.3537399    629.07144  0.011539208 0.0095294087         3597 
 4544000   0.51631021    -8.383326    629.00916  0.011535526 0.0095258232         3635 
 4545000    0.5133924   -8.3706106    628.69987  0.011527317 0.0095222388         3572 
 4546000    0.5344451   -8.3564392    629.92809  0.011547296 0.0095186557         3622 
 4547000   0.52013132   -8.3614228    629.25301  0.011532384 0.0095150755         3610 
 4548000   0.52023673   -8.3698782    630.04581  0.011544375 0.0095114967         3643 
 4549000   0.51534091   -8.3681999    629.05062  0.011523606 0.0095079181         3613 
 4550000   0.52707667   -8.3647552     628.4313  0.011509731 0.0095043444         3590 
 4551000   0.51837457   -8.3588123    629.33661  0.011523779 0.0095007728         3594 
 4552000   0.51438044   -8.3713337    628.81918  0.011511775 0.0094971988         3617 
 4553000   0.51602497   -8.3592749    628.60741   0.01150537 0.0094936314         3627 
 4554000   0.52699571    -8.364704     628.3806  0.011498693 0.0094900649         3591 
 4555000   0.52151583   -8.3705469    628.91132  0.011505879 0.0094864959         3600 
 4556000   0.52582203   -8.3754583    628.44629  0.011494847 0.0094829316         3598 
 4557000   0.52651512   -8.3737538    628.98925  0.011502254 0.0094793699         3609 
 4558000   0.51866991   -8.3715358    629.87492  0.011515923 0.0094758091         3610 
 4559000   0.53271976   -8.3685332    629.29816  0.011502854 0.0094722524         3603 
 4560000   0.52110325    -8.383291    629.17379  0.011498059 0.0094686978         3605 
 4561000   0.51967276   -8.3812554    629.42765  0.011500176 0.0094651414         3591 
 4562000   0.51696058   -8.3648105    630.16091   0.01151105 0.0094615905         3557 
 4563000   0.52035123   -8.3550803    628.66436  0.011481196 0.0094580384         3617 
 4564000   0.52363067   -8.3531901    629.67354  0.011497107  0.009454491         3658 
 4565000   0.52845471   -8.3865831    628.94132  0.011481222 0.0094509409         3633 
 4566000   0.51894683   -8.3665383    629.63224  0.011491317 0.0094473952         3560 
 4567000   0.53772839   -8.3888125    629.60008  0.011488214 0.0094438504         3593 
 4568000   0.52590304   -8.3820199     628.6306  0.011468013 0.0094403053         3577 
 4569000   0.51384674   -8.3777326    629.32832  0.011478229 0.0094367634         3618 
 4570000    0.5284507   -8.3732213    628.77922  0.011465704 0.0094332234         3618 
 4571000   0.52545189   -8.3826581     628.5113  0.011458311 0.0094296878         3588 
 4572000   0.53225247   -8.3706786    628.77305  0.011460576 0.0094261562         3648 
 4573000   0.51860026   -8.3876303    628.74412  0.011457543 0.0094226208         3580 
 4574000   0.52584066   -8.3706541    629.12933  0.011462056  0.009419086         3600 
 4575000   0.52195513   -8.3934851    628.43549  0.011446912 0.0094155541         3574 
 4576000   0.51798121   -8.3733072    630.24491  0.011477362 0.0094120255         3601 
 4577000   0.52048145   -8.3724373    629.66349  0.011464269 0.0094084957         3617 
 4578000   0.50843658   -8.3770993    628.84151  0.011446802 0.0094049698         3606 
 4579000    0.5126661   -8.3743682    628.57418  0.011439437 0.0094014451         3669 
 4580000   0.52309405   -8.3693795    629.16951  0.011447771 0.0093979203         3590 
 4581000   0.52795517   -8.3727921     627.9748  0.011423539 0.0093943974         3636 
 4582000   0.51580276   -8.3819829    629.32461  0.011445595 0.0093908771         3655 
 4583000   0.51876835   -8.3687737     628.7323  0.011432328 0.0093873565         3564 
 4584000   0.51265609   -8.3708343    627.89396  0.011414594 0.0093838398         3593 
 4585000   0.51070244    -8.363102    628.65821  0.011425994 0.0093803224         3575 
 4586000   0.51979093   -8.3787813    628.79231   0.01142594 0.0093768097         3564 
 4587000   0.50933411   -8.3684074    628.60166  0.011419985 0.0093733009         3608 
 4588000    0.5160906    -8.387478    628.80864  0.011421255 0.0093697903         3591 
 4589000   0.51315592   -8.3808704    628.81338  0.011418853 0.0093662832         3631 
 4590000    0.5207824   -8.3682582    628.49269  0.011410543 0.0093627766         3604 
 4591000    0.5238255   -8.3488705    629.11815   0.01141941 0.0093592746         3586 
 4592000   0.51224984   -8.3805204    627.52003  0.011387922 0.0093557725         3621 
 4593000   0.50395146   -8.3861114    628.15014  0.011396875 0.0093522703         3636 
 4594000   0.51177791   -8.3799437    629.24384  0.011414233 0.0093487688         3631 
 4595000   0.51567687   -8.3738804    627.86205  0.011386689 0.0093452686         3631 
 4596000   0.51930495   -8.3669709    628.82231  0.011401623 0.0093417725         3591 
 4597000   0.50462959   -8.3906428    628.24887  0.011388748 0.0093382766         3593 
 4598000   0.51687249   -8.3846346    628.54219  0.011391587 0.0093347813         3579 
 4599000   0.52620487   -8.3672789    628.38789  0.011386314 0.0093312878         3620 
 4600000   0.51210723   -8.3816421    627.95951  0.011376078 0.0093277969         3632 
 4601000    0.5137336   -8.3767022    628.36394  0.011380931  0.009324305         3639 
 4602000    0.5232338   -8.3912769    628.08808  0.011373462 0.0093208158         3629 
 4603000   0.51260981   -8.3885381    627.84445  0.011366581 0.0093173283         3619 
 4604000   0.50822406   -8.3821078    627.88739  0.011364889 0.0093138417         3646 
 4605000   0.51533911     -8.39229    628.50954   0.01137368 0.0093103568         3629 
 4606000   0.51855986   -8.3916726    627.21883  0.011347858 0.0093068725         3669 
 4607000   0.51921889   -8.3997116    627.70826  0.011354248 0.0093033925         3663 
 4608000   0.50825255   -8.3690153    629.24494  0.011379574 0.0092999151         3584 
 4609000   0.52403468   -8.3795717    628.75954  0.011368329 0.0092964392         3650 
 4610000    0.5161295    -8.382256    628.72183  0.011365181 0.0092929635         3639 
 4611000   0.51437027   -8.3795464    628.00028  0.011349676 0.0092894874         3578 
 4612000   0.51676497   -8.3826962    628.65764  0.011359093 0.0092860153         3595 
 4613000   0.51351355   -8.3836517    628.21803  0.011348689 0.0092825438         3675 
 4614000   0.51385534   -8.3751932    627.93936  0.011341196 0.0092790738         3597 
 4615000   0.51130619   -8.3781092    628.73174  0.011353047 0.0092756075         3659 
 4616000   0.51401736   -8.3928981    627.97048  0.011336844  0.009272143         3633 
 4617000   0.51550939   -8.3961066    628.39273   0.01134201 0.0092686794         3581 
 4618000   0.50913735    -8.382444    627.72764  0.011327552 0.0092652168         3628 
 4619000   0.51768568   -8.3806902    627.98972  0.011329828 0.0092617559         3643 
 4620000   0.49862767    -8.389926    627.17034  0.011312596 0.0092582961         3629 
 4621000   0.51864234   -8.3844823    627.19187  0.011310537 0.0092548392         3606 
 4622000   0.52160652   -8.3826015    628.27937  0.011327697  0.009251382         3613 
 4623000    0.5094446   -8.3921323    628.33957  0.011326332 0.0092479309         3619 
 4624000   0.52382383   -8.3916304    627.59504  0.011310464 0.0092444795         3623 
 4625000   0.50576113   -8.3859336    629.39406  0.011340434 0.0092410294         3619 
 4626000    0.5067313   -8.3831272    629.10543  0.011332783 0.0092375833         3646 
 4627000   0.51088098   -8.3754502    627.84214  0.011307581 0.0092341365         3619 
 4628000   0.51505113   -8.3921674    628.76624  0.011321778 0.0092306872         3683 
 4629000   0.51668743   -8.3812265    628.34488  0.011311746 0.0092272455         3634 
 4630000   0.51360984   -8.3912448    628.63748   0.01131457 0.0092238038         3626 
 4631000   0.51650855   -8.3792942    628.06401  0.011301807 0.0092203631         3647 
 4632000     0.514493   -8.4077363    628.34183  0.011304365 0.0092169245         3648 
 4633000   0.51183145   -8.3985526    627.17577  0.011280951 0.0092134899         3580 
 4634000   0.51422323   -8.3851342    628.07591  0.011294704 0.0092100547         3612 
 4635000   0.51540051     -8.39382    629.06769  0.011310099 0.0092066193         3559 
 4636000   0.50829861     -8.38687    627.40815  0.011277828 0.0092031859         3608 
 4637000   0.51634336   -8.3980111    627.74392   0.01128143  0.009199758         3623 
 4638000   0.51670767   -8.3986357    627.87363  0.011281329  0.009196325         3654 
 4639000   0.50419506    -8.406106     627.0224  0.011263606 0.0091928942         3660 
 4640000   0.51418489   -8.4000939    628.15285  0.011281481 0.0091894683         3648 
 4641000   0.50109189   -8.3974482    628.07291  0.011277615 0.0091860422         3656 
 4642000   0.52156977    -8.408101    627.91773  0.011272399 0.0091826199         3668 
 4643000   0.51854829   -8.4118614    627.39643  0.011260615 0.0091791963         3665 
 4644000   0.49916075   -8.4036771    627.80034  0.011265438 0.0091757757         3673 
 4645000   0.52002899   -8.4043043     627.4534  0.011256789 0.0091723578         3636 
 4646000   0.51639175   -8.3984499    627.87814  0.011261984 0.0091689429         3629 
 4647000   0.50522925   -8.3850101    628.03406  0.011262357 0.0091655282         3702 
 4648000   0.50476313   -8.4093113    627.92782  0.011258029 0.0091621141         3628 
 4649000   0.51313802   -8.4050034    628.24377  0.011261271 0.0091587025         3646 
 4650000    0.5174805   -8.3949332    627.92621  0.011253158 0.0091552925         3601 
 4651000   0.50499743   -8.4043453    627.92664  0.011250746 0.0091518848         3650 
 4652000   0.49891753   -8.4060305    628.84108  0.011264708 0.0091484767         3659 
 4653000   0.51044328   -8.4042582    628.46883  0.011255621 0.0091450715         3645 
 4654000   0.50832034   -8.4107186    627.66068  0.011238732  0.009141667         3649 
 4655000   0.51149581   -8.4066466    627.44461  0.011232449 0.0091382666         3649 
 4656000    0.4941299   -8.3943217    627.88687  0.011237952 0.0091348691         3619 
 4657000     0.513281   -8.3798533    627.75143  0.011233115 0.0091314734         3601 
 4658000     0.506974   -8.4026477    628.23642  0.011239381 0.0091280775         3615 
 4659000   0.50752322   -8.3956666     628.1062  0.011234639 0.0091246847         3615 
 4660000   0.52010607   -8.4043873    627.02174  0.011212835 0.0091212903         3660 
 4661000   0.51032002   -8.4054005    627.89455  0.011226034 0.0091178982         3648 
 4662000   0.50726929   -8.3976317    627.77935  0.011221567 0.0091145106         3648 
 4663000   0.51085497   -8.3977896    627.89858  0.011221291 0.0091111212         3643 
 4664000   0.50185766   -8.4166368    626.44545  0.011192922 0.0091077331         3653 
 4665000   0.51194437   -8.3857755    628.30025  0.011223656 0.0091043482         3625 
 4666000   0.51343897   -8.3940506    628.52188  0.011225209 0.0091009665         3648 
 4667000   0.50807615   -8.4005271    628.41634  0.011220919 0.0090975856         3603 
 4668000   0.49338319   -8.3966277     628.3342  0.011217049  0.009094205         3636 
 4669000   0.49788227   -8.4069001    628.27863  0.011213654 0.0090908273         3631 
 4670000   0.51002001   -8.4109245    627.64031  0.011199863 0.0090874526         3658 
 4671000   0.50722159   -8.4082824    628.31749  0.011209546 0.0090840803         3596 
 4672000   0.51170368   -8.3813555    628.29303  0.011206711 0.0090807077         3595 
 4673000   0.50107688    -8.403993    628.27753  0.011204036 0.0090773369         3644 
 4674000   0.51295704    -8.413462    628.12448   0.01119891 0.0090739684         3649 
 4675000    0.5089599   -8.4046502    627.00589  0.011176576 0.0090705999         3618 
 4676000   0.50420364    -8.393376    627.92068  0.011190488 0.0090672337         3647 
 4677000   0.50223518   -8.3986655    627.83877  0.011186636 0.0090638714         3670 
 4678000   0.50047841   -8.3989677    627.31202  0.011174861  0.009060508         3668 
 4679000   0.50579896   -8.4017479    627.90071  0.011182958 0.0090571464         3603 
 4680000   0.50198229   -8.4136306    627.58048  0.011174866 0.0090537838         3612 
 4681000   0.50246096   -8.3972354    627.82864  0.011176897 0.0090504281         3631 
 4682000   0.49929013   -8.4009671    627.57824  0.011170053 0.0090470694         3622 
 4683000   0.50734051   -8.4062934     627.6206  0.011168421 0.0090437165         3647 
 4684000   0.50108682   -8.3942952    626.99513  0.011154909 0.0090403646         3665 
 4685000   0.50237642   -8.3857692    627.96212  0.011169728 0.0090370125         3681 
 4686000   0.50360244   -8.4180408    627.92161  0.011166624 0.0090336645         3653 
 4687000   0.49523272   -8.3996643    628.08266  0.011167105 0.0090303169         3658 
 4688000   0.50333723   -8.4051068    627.72218  0.011158315 0.0090269683         3639 
 4689000   0.50903175   -8.3966169    627.34948  0.011149312 0.0090236207         3648 
 4690000   0.50449915    -8.408662    627.60522  0.011151479 0.0090202773         3634 
 4691000   0.50088702   -8.4194579    627.17782  0.011141509 0.0090169353         3594 
 4692000   0.50540004   -8.4008069    626.44625  0.011126141 0.0090135935         3648 
 4693000   0.49369308     -8.41044    627.00306  0.011133658  0.009010253         3675 
 4694000   0.48875006    -8.404904    627.49127  0.011139953 0.0090069175         3607 
 4695000   0.50814642   -8.4095096    627.29645  0.011134122 0.0090035844         3608 
 4696000   0.49539151   -8.4127121    628.20688  0.011147908 0.0090002523         3675 
 4697000   0.50094047   -8.4039726    627.85196  0.011139237 0.0089969218         3629 
 4698000   0.49494256   -8.4080674    628.17834  0.011142655 0.0089935944         3662 
 4699000     0.491501   -8.4046947    628.50926  0.011146153 0.0089902674         3694 
 4700000   0.49392221   -8.4019439     627.0622  0.011118124 0.0089869389         3663 
 4701000   0.49063554   -8.4047479    627.71083  0.011127257 0.0089836146         3646 
 4702000    0.4982319   -8.4226676    627.30806  0.011117752 0.0089802883         3636 
 4703000   0.50006473   -8.4258608    627.12406  0.011112128  0.008976965         3619 
 4704000   0.50601376   -8.3855077    627.05415  0.011108527 0.0089736439         3648 
 4705000   0.49443461   -8.4088911       627.26  0.011109812 0.0089703266         3642 
 4706000   0.49548522   -8.4050278    628.52489   0.01112985 0.0089670079         3612 
 4707000   0.49174131    -8.382559     628.4587  0.011126314 0.0089636906         3640 
 4708000   0.49519042   -8.4119193    627.74263  0.011111276 0.0089603757         3630 
 4709000   0.50334155   -8.4113882    627.21331  0.011099549 0.0089570632         3684 
 4710000   0.51309729   -8.3970112    627.56906  0.011103487 0.0089537518         3661 
 4711000   0.49259108   -8.4175186    627.26079  0.011095677 0.0089504425         3666 
 4712000   0.50622419   -8.4022942    627.52697  0.011098029 0.0089471327         3646 
 4713000   0.50372151    -8.394027     628.8089  0.011118341 0.0089438282         3657 
 4714000   0.49736956   -8.4047824    626.64046  0.011077649  0.008940525         3661 
 4715000   0.49900948   -8.4180046    628.08398  0.011100813 0.0089372225         3589 
 4716000   0.49263271   -8.4107866     626.8708  0.011077021 0.0089339217         3652 
 4717000   0.49322065   -8.4172239    626.63995  0.011070595 0.0089306197         3626 
 4718000   0.49362917    -8.420276    627.71809  0.011087291 0.0089273207         3670 
 4719000   0.50706338   -8.4122969     626.9741  0.011071804 0.0089240224         3654 
 4720000   0.49210301   -8.4183253    626.76117  0.011065699 0.0089207287         3618 
 4721000   0.49920049   -8.3939369    626.63172   0.01106107 0.0089174349         3633 
 4722000   0.50559742   -8.4211683    626.35023   0.01105376 0.0089141436         3642 
 4723000   0.50754689   -8.4059868    628.42785  0.011088077 0.0089108562         3675 
 4724000   0.48175956   -8.4300646     627.1422   0.01106305  0.008907567         3650 
 4725000   0.49162799   -8.4222236    627.48356  0.011066729 0.0089042788         3698 
 4726000   0.48953521   -8.4147139    627.94566  0.011072536 0.0089009897         3645 
 4727000   0.48864621   -8.3989018    627.70944  0.011066029 0.0088977061         3656 
 4728000   0.49575129   -8.4214444     627.0723  0.011052459 0.0088944241         3603 
 4729000   0.49888705   -8.4007498    627.62808  0.011059915 0.0088911413         3600 
 4730000   0.49489489   -8.4167634    627.33121  0.011052347 0.0088878621         3645 
 4731000   0.49446266   -8.3998206    628.33465  0.011067686 0.0088845829         3633 
 4732000   0.50100897   -8.4127473    626.35986   0.01103057 0.0088813049         3669 
 4733000   0.50086722    -8.417867    627.46601  0.011047715  0.008878031         3626 
 4734000   0.49213274   -8.4191715    627.43675  0.011044866 0.0088747561         3624 
 4735000   0.49790137   -8.4198692    627.39353  0.011041773 0.0088714862         3640 
 4736000   0.48434795   -8.4315133    626.76418  0.011028367 0.0088682158         3649 
 4737000   0.49696545   -8.4296677     626.5743  0.011022699 0.0088649474         3623 
 4738000   0.49602175   -8.4085906     627.0666  0.011029031 0.0088616804         3655 
 4739000    0.4827637   -8.4194746    627.32243  0.011031203 0.0088584145         3680 
 4740000   0.49007851   -8.4242433    626.83508  0.011020307 0.0088551499         3667 
 4741000   0.49990169   -8.4090734     627.6161  0.011031711 0.0088518887         3614 
 4742000   0.49963579   -8.4166132     627.2493  0.011022939 0.0088486285         3650 
 4743000   0.49371456   -8.4196987    626.94954  0.011015348 0.0088453673         3653 
 4744000   0.49318725   -8.4202585    627.48088  0.011022359 0.0088421077         3633 
 4745000   0.47744228   -8.4087829     627.7776  0.011025248 0.0088388515         3663 
 4746000   0.48574896    -8.415603    627.79943  0.011023308 0.0088355993         3600 
 4747000   0.48560018   -8.4288736    626.98994  0.011006775 0.0088323479         3663 
 4748000   0.49179421   -8.4000313    627.34558  0.011010699 0.0088290989         3619 
 4749000   0.49865906   -8.4194994    626.28595  0.010989786 0.0088258491         3623 
 4750000   0.49049316    -8.404127    626.87609  0.010997826 0.0088226015         3652 
 4751000   0.49541389   -8.4095229    627.11589  0.010999717 0.0088193533         3631 
 4752000   0.49772855   -8.4338841    625.75879  0.010973604 0.0088161097         3647 
 4753000   0.48569531   -8.4073682    627.06591  0.010994213 0.0088128663         3637 
 4754000   0.48775497   -8.4262409    627.70385  0.011003083 0.0088096263         3651 
 4755000   0.47775603    -8.433057    626.89984  0.010986678 0.0088063859         3689 
 4756000   0.48678135    -8.437919    627.63256  0.010997206 0.0088031498         3622 
 4757000   0.49213771   -8.4197374    627.69481  0.010995985 0.0087999146         3612 
 4758000   0.48241962   -8.4340712    626.81469  0.010978259 0.0087966817         3619 
 4759000   0.48667362   -8.4079075    627.62261    0.0109901 0.0087934497         3653 
 4760000   0.49330174   -8.4156496    627.07432  0.010978192 0.0087902202         3666 
 4761000    0.4750337   -8.4144151    627.57669  0.010984679 0.0087869903         3636 
 4762000     0.484903   -8.4162802    627.58965  0.010982599 0.0087837627         3604 
 4763000   0.48804193   -8.4198631     626.4934  0.010961113  0.008780536         3634 
 4764000   0.49579818   -8.4206233    626.94074  0.010966638 0.0087773119         3657 
 4765000   0.49163009   -8.4216146    627.15659  0.010968111 0.0087740902         3623 
 4766000   0.48924883   -8.4323285     627.7259  0.010975764 0.0087708704         3647 
 4767000   0.49529456   -8.4317554    626.91594  0.010959302 0.0087676505         3624 
 4768000   0.49794475   -8.4149022    627.46658  0.010966628 0.0087644318         3583 
 4769000    0.4941299   -8.4300254    626.79178  0.010952537 0.0087612153         3667 
 4770000   0.48885489   -8.4179782    625.88738  0.010934441     0.008758         3599 
 4771000   0.49067738   -8.4040045     627.2276  0.010955558 0.0087547867         3667 
 4772000   0.48335525   -8.4213161    626.90024  0.010947545 0.0087515754         3637 
 4773000    0.4927233   -8.4283146    626.81531  0.010943769  0.008748366         3643 
 4774000   0.48490684   -8.4239093    627.64238  0.010955914 0.0087451595         3651 
 4775000   0.48522195     -8.41254    627.40172  0.010949419 0.0087419545         3652 
 4776000   0.48539429   -8.4240507     627.2974  0.010945306 0.0087387502         3665 
 4777000   0.50003141   -8.4301186    626.42374  0.010927774  0.008735546         3603 
 4778000   0.48505514    -8.415587    626.82112  0.010932418  0.008732344         3652 
 4779000   0.47784024   -8.4276473    627.83016  0.010947725 0.0087291419         3635 
 4780000   0.48354534   -8.4219885    626.14578   0.01091607 0.0087259438         3620 
 4781000   0.48822279   -8.4309007    625.91865  0.010909828 0.0087227439         3630 
 4782000   0.49977479   -8.4265218    627.50378   0.01093517 0.0087195483         3642 
 4783000   0.48856575   -8.4198934    626.27733  0.010911515  0.008716356         3663 
 4784000   0.49508973   -8.4204979    626.71469  0.010916853  0.008713162         3660 
 4785000   0.48705696   -8.4316004      627.571  0.010929484 0.0087099733         3617 
 4786000   0.48373386   -8.4122655    627.76721  0.010930617 0.0087067836         3643 
 4787000   0.47671069   -8.4227784    626.94439   0.01091401 0.0087035948         3679 
 4788000   0.48771492   -8.4470692    625.38922  0.010884663 0.0087004081         3687 
 4789000   0.49440585   -8.4327236    627.42356   0.01091779 0.0086972218         3644 
 4790000   0.48040282   -8.4290748    627.50351  0.010916902 0.0086940379         3636 
 4791000   0.48451642   -8.4291156    626.97066  0.010905355 0.0086908534         3658 
 4792000   0.48402816   -8.4289734    627.43641  0.010911178 0.0086876721         3623 
 4793000   0.48911385   -8.4232405    626.83265  0.010898405 0.0086844911         3653 
 4794000   0.48433822   -8.4281666    626.79832  0.010895535 0.0086813133         3674 
 4795000   0.47157661   -8.4327508    626.54273   0.01088882 0.0086781361         3659 
 4796000   0.47307548   -8.4331349    626.85185  0.010891921 0.0086749593         3670 
 4797000   0.47772495   -8.4260525    625.81213  0.010871589 0.0086717845         3620 
 4798000   0.48616167   -8.4311684    626.43255  0.010880098 0.0086686137         3631 
 4799000   0.48755901   -8.4356923     626.1683  0.010873243 0.0086654448         3653 
 4800000   0.47971304   -8.4405847    626.07436  0.010869346 0.0086622736         3688 
 4801000   0.48968084   -8.4345205    626.46083  0.010873791 0.0086591049         3686 
 4802000   0.47768865   -8.4312208    627.34972  0.010886952 0.0086559397         3625 
 4803000   0.48603192   -8.4287236    627.37411  0.010885108 0.0086527734         3636 
 4804000   0.48243371   -8.4388548    627.54804   0.01088586 0.0086496122         3674 
 4805000   0.48229719   -8.4278161    627.11406  0.010876068 0.0086464517         3629 
 4806000   0.48010254   -8.4274157    626.33649  0.010860322 0.0086432898         3665 
 4807000   0.48432645   -8.4154486    626.44986  0.010860028 0.0086401308         3660 
 4808000   0.48890828   -8.4249697     626.2464  0.010854243 0.0086369744         3658 
 4809000   0.47842385   -8.4311017    626.09252  0.010849319 0.0086338174         3677 
 4810000   0.47834061   -8.4194957    627.01556  0.010863055 0.0086306631         3625 
 4811000   0.47406641   -8.4287472    627.12934  0.010862768 0.0086275122         3703 
 4812000   0.47711316   -8.4436726    627.57778  0.010868277 0.0086243647         3646 
 4813000   0.47978138   -8.4250438    626.97266  0.010855542 0.0086212149         3610 
 4814000   0.48318907    -8.436647    626.48979  0.010844928  0.008618066         3702 
 4815000   0.48094013   -8.4468177    626.54506  0.010843632  0.008614922         3647 
 4816000   0.48453949   -8.4475074    626.28756  0.010836925 0.0086117778         3688 
 4817000   0.47596145   -8.4413997     626.0267  0.010830162  0.008608633         3650 
 4818000   0.47525287   -8.4255574    626.56249  0.010837182 0.0086054876         3684 
 4819000   0.47968649   -8.4370193    627.18359  0.010845673 0.0086023461         3621 
 4820000   0.47341272   -8.4427474    627.43452  0.010847761  0.008599206         3667 
 4821000   0.48429907   -8.4286008     626.4563  0.010828602 0.0085960698         3686 
 4822000   0.47344601   -8.4240709    626.66133    0.0108299 0.0085929343         3643 
 4823000   0.47889627   -8.4305987    626.87292   0.01083131 0.0085898003         3623 
 4824000   0.47544312   -8.4308964     627.3048  0.010836526 0.0085866676         3656 
 4825000   0.47303268   -8.4349626    626.51154  0.010820579 0.0085835384         3633 
 4826000   0.49169829   -8.4430478    627.19157   0.01083008 0.0085804103         3654 
 4827000    0.4768118   -8.4470942    626.61002  0.010817796 0.0085772845         3668 
 4828000   0.47939895   -8.4442771    626.48794  0.010813448 0.0085741583         3647 
 4829000   0.48381461   -8.4520008     625.5521  0.010795059 0.0085710315         3633 
 4830000   0.48128224   -8.4496132    626.64938  0.010811756 0.0085679081         3697 
 4831000   0.47689504   -8.4397272    625.15601  0.010783758 0.0085647845         3679 
 4832000   0.47938512   -8.4343759     626.1611   0.01079886 0.0085616629         3686 
 4833000   0.48014641    -8.449898    626.84588  0.010808433 0.0085585458         3668 
 4834000   0.47476583   -8.4448029    627.56739  0.010818635 0.0085554262         3638 
 4835000   0.48276279   -8.4319283    627.62098  0.010817321 0.0085523111         3631 
 4836000   0.48236274   -8.4450382    626.21475  0.010790852 0.0085491964         3661 
 4837000   0.48312998   -8.4144172    627.06508  0.010803271 0.0085460835         3647 
 4838000   0.48037271   -8.4420242    626.21615  0.010786416 0.0085429724         3682 
 4839000    0.4729183   -8.4305556    626.05356  0.010781387 0.0085398615         3651 
 4840000   0.47295866    -8.447443    626.88519  0.010793478 0.0085367556         3656 
 4841000   0.47325275   -8.4514629    626.08792  0.010777524 0.0085336481         3635 
 4842000   0.48126738   -8.4470872    625.96061  0.010773107 0.0085305412         3641 
 4843000   0.47587539   -8.4417107    625.88071  0.010769508  0.008527436         3669 
 4844000   0.48972929   -8.4367867    626.10612  0.010771162 0.0085243359         3695 
 4845000   0.48358332   -8.4425856    625.86515  0.010764794 0.0085212344         3642 
 4846000   0.49400871   -8.4212814    626.59577  0.010775137 0.0085181341         3658 
 4847000   0.48150133   -8.4383479    626.08665  0.010764161 0.0085150356         3672 
 4848000    0.4715222   -8.4431443    626.42203  0.010767705 0.0085119398         3664 
 4849000    0.4767878    -8.454886    625.98419   0.01075796 0.0085088454         3647 
 4850000   0.46802787   -8.4399935    626.42547  0.010763324 0.0085057497         3677 
 4851000   0.47891984   -8.4386494    626.54251  0.010763116 0.0085026554         3652 
 4852000   0.48127529   -8.4461236    626.07985  0.010752951 0.0084995645         3681 
 4853000   0.46495537   -8.4376528    626.25636  0.010753767 0.0084964731         3637 
 4854000   0.46952961   -8.4506813    626.11256  0.010749083 0.0084933844         3665 
 4855000    0.4703616   -8.4499446    625.88148  0.010742902 0.0084902965         3685 
 4856000   0.46462193   -8.4513977    625.61964  0.010736196 0.0084872107         3663 
 4857000   0.47391439   -8.4495097     626.8536  0.010755157 0.0084841257         3655 
 4858000   0.47503684   -8.4494523    626.35429  0.010744378  0.008481043         3680 
 4859000   0.47534378   -8.4506952    627.11479   0.01075521 0.0084779635         3656 
 4860000    0.4782418   -8.4740786    626.21814  0.010737622 0.0084748837         3624 
 4861000     0.470503   -8.4531068    626.63585  0.010742574 0.0084718066         3620 
 4862000   0.48073483   -8.4492043    626.50802  0.010738174 0.0084687284         3656 
 4863000   0.47308564   -8.4482282    625.68331  0.010721833 0.0084656534         3619 
 4864000   0.47519882   -8.4379063    626.56954  0.010734812 0.0084625785         3643 
 4865000   0.48327521   -8.4449118    626.84967  0.010737404 0.0084595044         3665 
 4866000   0.47058148   -8.4479866    626.21479  0.010724325 0.0084564328         3632 
 4867000   0.48296172   -8.4471518     625.7582  0.010714304 0.0084533649         3647 
 4868000   0.46764182   -8.4324435    626.23186  0.010720211 0.0084502978         3639 
 4869000   0.46323602   -8.4379684    626.84475  0.010728499 0.0084472288         3642 
 4870000   0.46961484   -8.4435904    626.74166  0.010724532 0.0084441656         3655 
 4871000   0.45922903    -8.429674    626.42405  0.010716897 0.0084410993         3632 
 4872000   0.46954219   -8.4470105    625.72049  0.010702663 0.0084380352         3638 
 4873000   0.46276955    -8.447867    625.75802  0.010701109 0.0084349743         3634 
 4874000   0.46956017   -8.4636546    626.78975  0.010716553 0.0084319143         3632 
 4875000   0.46291182   -8.4510356    626.19488  0.010704186 0.0084288587         3665 
 4876000   0.47701692   -8.4379822    626.79082  0.010712176 0.0084258026         3669 
 4877000   0.47644044   -8.4387522    626.07141  0.010697687 0.0084227464         3619 
 4878000   0.48291357   -8.4455655    625.70019  0.010689152 0.0084196946         3662 
 4879000   0.47988287   -8.4454712    625.80817  0.010688805 0.0084166447         3624 
 4880000   0.47301456   -8.4497416    625.43638  0.010680266 0.0084135939         3648 
 4881000   0.46857154   -8.4450848    625.90736  0.010686119 0.0084105441         3645 
 4882000   0.46908966   -8.4407085    625.65346  0.010679596 0.0084074951         3682 
 4883000   0.47000931   -8.4556516    626.11512  0.010685288 0.0084044481         3662 
 4884000   0.47493236   -8.4453258    625.70996  0.010676187 0.0084014043         3620 
 4885000   0.48235389   -8.4551003    626.61722  0.010689478 0.0083983607         3578 
 4886000   0.47846624   -8.4498121    625.51247  0.010668448 0.0083953194         3661 
 4887000   0.46787029   -8.4603757    625.09566  0.010659158 0.0083922784         3659 
 4888000    0.4705518   -8.4584836    626.29139  0.010677363 0.0083892395         3653 
 4889000   0.45818817   -8.4663239    626.77711  0.010683458 0.0083862009         3641 
 4890000   0.47146744   -8.4398639    625.54629  0.010660298 0.0083831665         3628 
 4891000   0.47919538   -8.4613792    625.86742   0.01066359 0.0083801323         3646 
 4892000   0.48446901   -8.4647587    626.57286  0.010673427 0.0083770976         3644 
 4893000   0.46395308   -8.4523926    625.94017   0.01066047 0.0083740658         3645 
 4894000   0.46581009    -8.465272      626.395  0.010666037 0.0083710362         3654 
 4895000   0.45794034   -8.4510868    625.71963   0.01065236 0.0083680072         3643 
 4896000   0.46812129   -8.4551562    626.06393  0.010656045 0.0083649786         3633 
 4897000   0.46531239   -8.4477647    626.38585  0.010659347 0.0083619534         3653 
 4898000   0.46938456   -8.4614554     625.7554  0.010646444 0.0083589285         3666 
 4899000    0.4751482   -8.4652335    625.75546  0.010644272  0.008355905         3600 
 4900000   0.46392934   -8.4613857    625.84445  0.010643613 0.0083528842         3652 
 4901000   0.46874302   -8.4611238    626.14859  0.010646613 0.0083498651         3653 
 4902000   0.46361401   -8.4428549    627.24349  0.010663054 0.0083468479         3618 
 4903000   0.46583388   -8.4510335    626.06099  0.010640781 0.0083438315         3655 
 4904000   0.46838955   -8.4609811    624.90624  0.010618989 0.0083408146         3670 
 4905000   0.47373736   -8.4578203    625.70474   0.01063039 0.0083377993         3656 
 4906000   0.46000129   -8.4434907    626.58151  0.010643116 0.0083347854         3597 
 4907000   0.46316864   -8.4569737    626.31754  0.010636464 0.0083317727         3656 
 4908000   0.46206644   -8.4615488    626.13826  0.010631253 0.0083287631         3686 
 4909000   0.45224764   -8.4533639    625.67507  0.010621224 0.0083257531         3633 
 4910000   0.45832072   -8.4488513    625.33019  0.010613208 0.0083227452         3623 
 4911000   0.45376596   -8.4611669    625.64628   0.01061641 0.0083197384         3645 
 4912000   0.47510953   -8.4531681     625.5621  0.010612821 0.0083167344         3670 
 4913000   0.46698961   -8.4450522    626.03306  0.010618649 0.0083137328         3666 
 4914000   0.46075442   -8.4622492     626.0489  0.010616757 0.0083107316         3665 
 4915000   0.45629234   -8.4342464    625.62318  0.010607378 0.0083077312         3626 
 4916000   0.46014399   -8.4446761    626.65888  0.010622777 0.0083047335         3640 
 4917000   0.47014563   -8.4541578    626.11633  0.010611422 0.0083017361         3647 
 4918000   0.45841463   -8.4553384    625.06905  0.010591518 0.0082987424         3663 
 4919000   0.46522473   -8.4650706    624.88453  0.010586239 0.0082957482         3641 
 4920000   0.46081962     -8.47539    625.34041  0.010591809 0.0082927567         3669 
 4921000   0.46961073   -8.4544732    626.27844  0.010605541 0.0082897667         3636 
 4922000   0.46187974   -8.4555904    624.90874  0.010580197 0.0082867786         3625 
 4923000   0.46424745   -8.4566754    626.37856  0.010602928 0.0082837902         3667 
 4924000   0.47584847   -8.4539234    624.50656  0.010569093 0.0082808058         3668 
 4925000   0.45131985    -8.453505    625.34703  0.010581168 0.0082778211         3657 
 4926000    0.4634635   -8.4501198    625.91584  0.010588643 0.0082748361         3644 
 4927000   0.47122243   -8.4615453    626.25148   0.01059217 0.0082718547         3703 
 4928000   0.45817269   -8.4714857    625.98892  0.010585581 0.0082688751         3659 
 4929000   0.46379591   -8.4652289    626.28849  0.010588498 0.0082658945         3652 
 4930000   0.44989163   -8.4645396    624.76516  0.010560601 0.0082629148         3608 
 4931000   0.46092945   -8.4621955    626.16322  0.010582086 0.0082599366         3632 
 4932000   0.45737215   -8.4873408    625.54578  0.010569508 0.0082569606         3653 
 4933000   0.45496422   -8.4561326    626.16782  0.010577874 0.0082539888         3632 
 4934000   0.46555585   -8.4847739    625.03521  0.010556601  0.008251014         3678 
 4935000   0.45626445   -8.4719934     625.7086  0.010565832 0.0082480414         3669 
 4936000   0.46399964   -8.4583671    626.37773  0.010574989 0.0082450728         3695 
 4937000   0.45912682   -8.4647693    625.94902   0.01056561 0.0082421042         3685 
 4938000    0.4627986   -8.4604904    627.12284   0.01058328 0.0082391386         3597 
 4939000   0.45441631   -8.4588561    624.91403  0.010543869 0.0082361738         3640 
 4940000   0.46082429   -8.4507646    626.40978  0.010566967 0.0082332109         3696 
 4941000     0.459955   -8.4808409    624.96928  0.010540533 0.0082302453         3657 
 4942000   0.47006424   -8.4599417    625.07078  0.010540112 0.0082272829         3655 
 4943000   0.46706709   -8.4608227    625.20563  0.010540253 0.0082243214         3685 
 4944000   0.46185166   -8.4631184    625.04242   0.01053537 0.0082213641         3680 
 4945000   0.45512427   -8.4703757    624.89684  0.010530786 0.0082184062         3607 
 4946000   0.46659845   -8.4706581    624.98713  0.010530178 0.0082154503         3683 
 4947000   0.46923941   -8.4710275    625.63782   0.01053901 0.0082124948         3651 
 4948000   0.45820964   -8.4575221     626.1234  0.010545059 0.0082095427         3669 
 4949000    0.4533497   -8.4650776    625.60611  0.010534217 0.0082065902         3673 
 4950000   0.45706554    -8.465762    626.57454  0.010548393 0.0082036404         3640 
 4951000   0.44264062   -8.4609566    624.72838  0.010515189 0.0082006912         3654 
 4952000   0.46312591   -8.4726792    625.31376  0.010522916 0.0081977425         3660 
 4953000   0.46318458   -8.4598527    625.55928  0.010524922  0.008194797         3637 
 4954000   0.46400981   -8.4643715     624.9068  0.010511822 0.0081918555         3630 
 4955000   0.46154636   -8.4596061    625.57459  0.010520932 0.0081889111         3674 
 4956000   0.45266214   -8.4653968    625.46944  0.010517041 0.0081859687         3671 
 4957000    0.4524277   -8.4742381    624.94894  0.010506169 0.0081830295         3627 
 4958000   0.45377191   -8.4947509    625.58277  0.010514703 0.0081800904         3663 
 4959000   0.46308561   -8.4687668    625.57206  0.010512403   0.00817715         3655 
 4960000   0.46496386   -8.4702198    625.76028  0.010513446 0.0081742163         3682 
 4961000   0.44817208   -8.4542054    625.93847   0.01051432 0.0081712812         3659 
 4962000   0.45801821   -8.4744478    625.60712  0.010506636 0.0081683486         3674 
 4963000   0.45283681   -8.4604257      625.052  0.010495198 0.0081654159         3675 
 4964000   0.47316467   -8.4749602    624.92073   0.01049088 0.0081624866         3669 
 4965000   0.45245586   -8.4658817    625.04771  0.010490898 0.0081595588         3626 
 4966000   0.45880791   -8.4800134    624.82271   0.01048501 0.0081566316         3672 
 4967000    0.4525659   -8.4541394    625.75646  0.010498565 0.0081537056         3608 
 4968000   0.46066266   -8.4573961    625.17239  0.010486654 0.0081507793         3663 
 4969000   0.45632028   -8.4648405    626.39825  0.010505102 0.0081478569         3683 
 4970000   0.46764078   -8.4819222    625.80398  0.010493024 0.0081449339         3661 
 4971000   0.47391217   -8.4695065    624.99864  0.010477413 0.0081420133         3647 
 4972000   0.46680768   -8.4752834    625.13082  0.010477521 0.0081390955         3651 
 4973000   0.46205442   -8.4717121    626.12356   0.01049205 0.0081361787         3657 
 4974000   0.45845098   -8.4725646    625.22071  0.010474814 0.0081332626         3694 
 4975000   0.44867752   -8.4667876    624.06419  0.010453337  0.008130346         3675 
 4976000   0.44862519   -8.4597719    624.85666  0.010464507 0.0081274314         3667 
 4977000   0.44763209   -8.4674083    625.45651  0.010472448 0.0081245191         3711 
 4978000   0.45774459   -8.4833186    625.97292  0.010478989 0.0081216073         3659 
 4979000    0.4430395   -8.4736222    626.00206  0.010477373 0.0081186966         3651 
 4980000   0.45883902   -8.4824439    625.39963  0.010465188 0.0081157885         3696 
 4981000   0.45347801   -8.4749509    625.70258  0.010468155 0.0081128799         3633 
 4982000   0.46538762   -8.4755167    625.08633  0.010455746 0.0081099747         3639 
 4983000   0.46419192   -8.4766681    625.49517  0.010460485 0.0081070689         3635 
 4984000    0.4528558   -8.4691002    625.48882   0.01045828 0.0081041673         3644 
 4985000   0.45630143    -8.469167    624.93594   0.01044694  0.008101267         3623 
 4986000   0.45295096   -8.4626712    625.15908  0.010448574 0.0080983663         3619 
 4987000   0.45853312   -8.4499685    625.40973  0.010450667 0.0080954703         3697 
 4988000   0.44804943   -8.4683279    624.93532  0.010440646 0.0080925712         3655 
 4989000   0.44856119   -8.4914962    625.08147  0.010440995 0.0080896736         3625 
 4990000   0.45866914   -8.4777735    625.99808   0.01045421 0.0080867792         3680 
 4991000   0.44811441   -8.4814792    625.63053  0.010445978 0.0080838858         3697 
 4992000    0.4466924   -8.4723768    625.60555  0.010443469 0.0080809952         3632 
 4993000   0.45176123   -8.4801457    626.55556  0.010457233 0.0080781065         3646 
 4994000   0.46395111   -8.4676053    625.02814  0.010429651 0.0080752168         3649 
 4995000   0.45480289   -8.4675558    625.43276  0.010434314 0.0080723316         3658 
 4996000    0.4505319   -8.4621065    624.85276  0.010422551 0.0080694446         3690 
 4997000   0.44980444   -8.4852428    625.50617  0.010431362 0.0080665609         3677 
 4998000    0.4558303   -8.4838179    625.45278  0.010428384 0.0080636796         3665 
 4999000   0.44867409   -8.4782173    625.40715  0.010425538 0.0080607978         3664 
 5000000    0.4489726   -8.4753186    625.58608  0.010426435 0.0080579166         3665 
 5001000   0.45628141   -8.4759185    625.66489  0.010425663 0.0080550366         3662 
 5002000   0.45048439   -8.4936607     625.2188  0.010416147 0.0080521591         3684 
 5003000   0.45161616   -8.4703156    624.83126   0.01040761  0.008049281         3706 
 5004000   0.44595374   -8.4784249    625.19501  0.010411588 0.0080464084         3630 
 5005000   0.44956762   -8.4784063    624.90969  0.010404757 0.0080435345         3684 
 5006000   0.45545713    -8.474435    624.86267  0.010401896 0.0080406628         3678 
 5007000   0.44659407   -8.4781289    625.36471  0.010408174 0.0080377913         3662 
 5008000   0.45191462   -8.4862595     625.6052  0.010410097 0.0080349217         3694 
 5009000    0.4490377   -8.4656051    625.65217    0.0104088 0.0080320522         3681 
 5010000   0.44486495   -8.4784142     624.8785  0.010393854 0.0080291867         3681 
 5011000   0.45024212   -8.4790749    625.04551  0.010394557 0.0080263208         3661 
 5012000   0.45378913   -8.4761793    624.17758  0.010378052 0.0080234557         3625 
Loop time of 13240.2 on 48 procs for 5000000 steps with 4000 atoms

Performance: 65255.637 tau/day, 377.637 timesteps/s
99.4% CPU use with 48 MPI tasks x no OpenMP threads

MPI task timing breakdown:
Section |  min time  |  avg time  |  max time  |%varavg| %total
---------------------------------------------------------------
Pair    | 1011       | 1100.6     | 1202.3     | 147.8 |  8.31
Neigh   | 93.317     | 96.758     | 99.91      |  18.0 |  0.73
Comm    | 830.81     | 939.14     | 1029.5     | 161.4 |  7.09
Output  | 16.823     | 16.827     | 16.926     |   0.4 |  0.13
Modify  | 10917      | 10963      | 11007      |  21.0 | 82.80
Other   |            | 124.3      |            |       |  0.94

Nlocal:        83.3333 ave          89 max          79 min
Histogram: 1 2 7 8 8 9 6 3 3 1
Nghost:        2469.75 ave        2486 max        2450 min
Histogram: 1 2 3 8 4 9 9 7 2 3
Neighs:        17162.4 ave       19520 max       15097 min
Histogram: 5 5 6 7 2 7 4 5 3 4
FullNghs:      34323.0 ave       37104 max       32333 min
Histogram: 2 6 5 14 6 8 2 3 1 1

Total # of neighbors = 1647504
Ave neighs/atom = 411.87600
Neighbor list builds = 266549
Dangerous builds = 0

#clear
#
#next RN
#
#jump SELF
Total wall time: 3:40:43
