
units lj                  # Use reduced LJ style units
atom_style atomic         # Uncharged point particles
atom_modify map hash      # Needed for indexing of clusters etc
                          # Used to be able to find where atoms are in relation to each other.

lattice fcc 1.0 spacing 1 1 1
Lattice spacing in x,y,z = 1.5874011 1.5874011 1.5874011
region box block 0 10 0 10 0 10 units lattice
create_box 2 box
Created orthogonal box = (0.0000000 0.0000000 0.0000000) to (15.874011 15.874011 15.874011)
  3 by 4 by 4 MPI processor grid
create_atoms 1 box
Created 4000 atoms
  using lattice units in orthogonal box = (0.0000000 0.0000000 0.0000000) to (15.874011 15.874011 15.874011)
  create_atoms CPU = 0.002 seconds
set type 1 type/fraction 2 0.49 78393
Setting atom values ...
  1962 settings made for type/fraction
mass 1 1.0
mass 2 1.0
pair_style lj/cut  3.5
pair_modify tail  yes
pair_coeff 1  1  1.0  1.0   # Intearaction between 1 and 1 set with epsilon = 1 and sigma = 1
pair_coeff 1  2  1.5  0.8
pair_coeff 2  2  0.5  0.88

write_data data.0
System init for write_data ...
Neighbor list info ...
  update every 1 steps, delay 10 steps, check yes
  max neighbors/atom: 2000, page size: 100000
  master list distance cutoff = 3.8
  ghost atom cutoff = 3.8
  binsize = 1.9, bins = 9 9 9
  1 neighbor lists, perpetual/occasional/extra = 1 0 0
  (1) pair lj/cut, perpetual
      attributes: half, newton on
      pair build: half/bin/atomonly/newton
      stencil: half/bin/3d
      bin: standard
WARNING: Not all mixed pair coeffs generated from mixing. Use write_data with 'pair ij' option to store all pair coeffs. (../write_data.cpp:312)


#############################
#   M E L T   S Y S T E M   #
#############################

velocity all create 2.4 2750902 mom yes dist gaussian # Assign velocities
                                                    # Temperature 2.4, random number seed, zero linear momentum
                                                                                # Gaussian distribution

timestep 0.002   # simulation timestep
thermo 1000       # output thermodynamic data every 1000 steps bf 100

# Define a fix  in this case with index 1 applied to all
# particles in the simulation. This fix is for simulations
# in the anisotropic NPT ensemble. Note that we use the MTK
# correction.
fix 1 all npt temp 2.4 2.4 0.1 iso 5.68 5.68 0.5 mtk yes tchain 5 pchain 5 # Use NPT ensemble
                                                                         # Set temperature and pressure and damping
                                                                         # Numbers of thermostats in chain and in barostat
run 10000          # run for 10000 steps
Per MPI rank memory allocation (min/avg/max) = 3.642 | 3.644 | 3.648 Mbytes
Step Temp E_pair E_mol TotEng Press Volume 
       0          2.4   -5.3537253            0   -1.7546253   -4.2069924         4000 
    1000    2.4185511   -4.8869078            0   -1.2599881    5.6016051    3744.4843 
    2000    2.3696645   -4.8948344            0   -1.3412264    5.5984798    3725.9782 
    3000    2.3730731   -4.9411644            0   -1.3824446     5.669406    3699.5275 
    4000    2.3999486   -4.9417767            0   -1.3427538    5.8411694    3682.7465 
    5000    2.4455655   -4.8611895            0   -1.1937583    5.5880109    3742.7642 
    6000    2.4219551   -4.9456108            0   -1.3135864    5.5672477    3715.6509 
    7000    2.4463215   -4.8528856            0   -1.1843206    5.5431002     3764.993 
    8000    2.3803568   -4.8879419            0   -1.3182993     5.902375    3713.9917 
    9000    2.4209244    -4.903349            0   -1.2728703    5.9558919    3704.7755 
   10000     2.428738   -4.8999532            0    -1.257757    5.8537269    3717.2952 
Loop time of 2.65148 on 48 procs for 10000 steps with 4000 atoms

Performance: 651710.893 tau/day, 3771.475 timesteps/s
99.6% CPU use with 48 MPI tasks x no OpenMP threads

MPI task timing breakdown:
Section |  min time  |  avg time  |  max time  |%varavg| %total
---------------------------------------------------------------
Pair    | 1.1838     | 1.2566     | 1.3763     |   3.5 | 47.39
Neigh   | 0.21563    | 0.22465    | 0.24882    |   1.2 |  8.47
Comm    | 0.77082    | 0.90224    | 1.0011     |   5.1 | 34.03
Output  | 0.00026587 | 0.00026998 | 0.00034793 |   0.0 |  0.01
Modify  | 0.22604    | 0.25216    | 0.30783    |   4.1 |  9.51
Other   |            | 0.01551    |            |       |  0.58

Nlocal:        83.3333 ave          91 max          73 min
Histogram: 1 2 3 8 2 7 9 10 2 4
Nghost:        1719.56 ave        1744 max        1692 min
Histogram: 1 3 4 6 9 9 4 4 4 4
Neighs:        10274.0 ave       11369 max        8429 min
Histogram: 1 0 4 2 5 8 11 6 6 5

Total # of neighbors = 493152
Ave neighs/atom = 123.28800
Neighbor list builds = 909
Dangerous builds = 222

# Equilibrate just above the melting temperature to avoid step fn in T

fix 1 all npt temp 1.25 1.25 0.1 iso 5.68 5.68 0.5 mtk yes tchain 5 pchain 5
run 2000
Per MPI rank memory allocation (min/avg/max) = 3.644 | 3.646 | 3.649 Mbytes
Step Temp E_pair E_mol TotEng Press Volume 
   10000     2.428738   -4.8999532            0    -1.257757    5.8537269    3717.2952 
   11000    1.2483267   -7.0518096            0   -5.1797876    5.4883583    2896.4601 
   12000    1.2546236   -7.0819627            0   -5.2004978    5.6273582    2885.1412 
Loop time of 0.643711 on 48 procs for 2000 steps with 4000 atoms

Performance: 536886.634 tau/day, 3106.983 timesteps/s
99.6% CPU use with 48 MPI tasks x no OpenMP threads

MPI task timing breakdown:
Section |  min time  |  avg time  |  max time  |%varavg| %total
---------------------------------------------------------------
Pair    | 0.28794    | 0.31723    | 0.34002    |   2.2 | 49.28
Neigh   | 0.041115   | 0.043567   | 0.048524   |   0.7 |  6.77
Comm    | 0.20823    | 0.23214    | 0.26223    |   2.7 | 36.06
Output  | 5.3573e-05 | 5.5644e-05 | 7.1805e-05 |   0.0 |  0.01
Modify  | 0.03988    | 0.045713   | 0.050747   |   1.5 |  7.10
Other   |            | 0.005007   |            |       |  0.78

Nlocal:        83.3333 ave          90 max          74 min
Histogram: 1 1 1 4 5 14 12 1 6 3
Nghost:        2044.02 ave        2067 max        2025 min
Histogram: 4 4 6 6 5 12 3 4 1 3
Neighs:        13234.8 ave       14889 max       11544 min
Histogram: 2 1 5 7 10 7 7 5 3 1

Total # of neighbors = 635271
Ave neighs/atom = 158.81775
Neighbor list builds = 143
Dangerous builds = 11

#############################
# L I N E A R  Q U E N C H  #
#############################

# Define solid atoms. This closely follows ten Wolde  Ruiz-Montero and Frenkel  Faraday Discuss  1996  104  93-110
# Compute components of the per-atom q6 vector
compute q6 all orientorder/atom degrees 1 6 components 6 nnn NULL cutoff 1.3 # compute the Q6 parameter.
                                                                             # Use all neighbours within 1.3 unit cell.

# get number of connections
compute coord_number all coord/atom orientorder q6 0.5

# An atom is solid if it has 8 or more connections (of a possible 14)
variable is_solid atom c_coord_number>=8
group solid dynamic all var is_solid    # Must be dynamic to update
dynamic group solid defined

# do clustering
compute cluster solid cluster/atom 1.3 # Create a cluster where all atoms within are solid and max 1.3 units from another member

# define chunks one chunk per cluster
compute clus_chunks solid chunk/atom c_cluster nchunk every compress yes  # Says which atoms are in which chunk

# count the size of each chunk
compute size_chunks solid property/chunk clus_chunks count


# Find the maximum entry in the vector of chunk sizes
variable max_n equal max(c_size_chunks)


# Thermo style which includes this variable
# thermo_style custom step temp pe vol v_max_n

thermo ${N}  # Print the thermo information every 100 steps
thermo 1000  

# Reset the npt fix at a lower temperature (below freezing)
fix 1  all npt temp  ${temp} ${temp}  0.1  iso  5.68  5.68  0.5  mtk yes tchain  5  pchain  5
fix 1  all npt temp  0.45 ${temp}  0.1  iso  5.68  5.68  0.5  mtk yes tchain  5  pchain  5
fix 1  all npt temp  0.45 0.45  0.1  iso  5.68  5.68  0.5  mtk yes tchain  5  pchain  5

dump dmp2 all dcd ${N} traj.dcd
dump dmp2 all dcd 1000 traj.dcd


compute msd all msd com yes
variable twopoint equal c_msd[4]/6/(step*dt+1.0e-6)
fix 9 all vector 10 c_msd[4]
variable fit equal slope(f_9)/6/(10*dt)
thermo_style custom step temp pe c_msd[4] v_twopoint v_fit v_max_n

fix 1 all npt temp 1.25 ${temp} 0.1 iso 5.68 5.68 0.5 mtk yes tchain 5 pchain 5
fix 1 all npt temp 1.25 0.45 0.1 iso 5.68 5.68 0.5 mtk yes tchain 5 pchain 5
run 2000000 # 5000000  # Run for this many steps
Neighbor list info ...
  update every 1 steps, delay 10 steps, check yes
  max neighbors/atom: 2000, page size: 100000
  master list distance cutoff = 3.8
  ghost atom cutoff = 3.8
  binsize = 1.9, bins = 8 8 8
  4 neighbor lists, perpetual/occasional/extra = 1 3 0
  (1) pair lj/cut, perpetual
      attributes: half, newton on
      pair build: half/bin/atomonly/newton
      stencil: half/bin/3d
      bin: standard
  (2) compute orientorder/atom, occasional
      attributes: full, newton on
      pair build: full/bin/atomonly
      stencil: full/bin/3d
      bin: standard
  (3) compute coord/atom, occasional
      attributes: full, newton on
      pair build: full/bin/atomonly
      stencil: full/bin/3d
      bin: standard
  (4) compute cluster/atom, occasional
      attributes: full, newton on
      pair build: full/bin/atomonly
      stencil: full/bin/3d
      bin: standard
Per MPI rank memory allocation (min/avg/max) = 9.836 | 9.842 | 9.847 Mbytes
Step Temp PotEng c_msd[4] v_twopoint v_fit v_max_n 
   12000    1.2546236   -7.0819627 9.5964929e-31 6.6642309e-33 8.3333333e+20            2 
   13000     1.236132   -7.1421463    0.4603314 0.0029508422  0.037579954            1 
   14000    1.2529798   -7.1315042    0.8725238 0.0051935939  0.035595637            5 
   15000    1.2360615   -7.0868318    1.2947865 0.0071932582  0.035200637            2 
   16000    1.2823321   -7.0817992    1.6903838 0.0088040819  0.034806755            2 
   17000    1.2451536   -7.1557008    2.0752615   0.01017285  0.034246081            4 
   18000    1.2369785   -7.1297274    2.4658822  0.011416121  0.033767274            2 
   19000    1.2139009    -7.121131    2.8214112   0.01237461  0.033275368            2 
   20000    1.2332227   -7.0825175    3.2450037  0.013520848  0.033021331            1 
   21000    1.2608919   -7.1278478    3.6337095  0.014419482  0.033003365            1 
   22000    1.2557553   -7.1368911      4.12859  0.015638598   0.03317206            2 
   23000    1.2382183    -7.128756    4.5653188   0.01654101  0.033554638            3 
   24000    1.2309222   -7.1714235     4.961342  0.017226882  0.033810036            3 
   25000     1.252237   -7.2198749    5.3928971  0.017976323  0.033987615            2 
   26000    1.2514596   -7.0847083    5.7694768  0.018491913  0.034065578            2 
   27000    1.2461585   -7.1195406    6.2206344  0.019199488  0.034094552            2 
   28000    1.2391134   -7.1291664    6.5853221  0.019599173   0.03419436            3 
   29000     1.250811   -7.1143284    6.9506447  0.019973117  0.034107322            3 
   30000     1.241686   -7.1368774    7.3482129  0.020411702   0.03402255            2 
   31000    1.2748513   -7.1755949    7.7166627  0.020743716  0.033944208            3 
   32000    1.2451186   -7.0855542    8.2511196   0.02148729  0.033972401            3 
   33000    1.2243368     -7.13904    8.6649221  0.021881116  0.034057016            1 
   34000    1.2478245   -7.1228027    9.1772148  0.022493173  0.034140545            4 
   35000    1.2542138   -7.1592128    9.5493005  0.022736429  0.034266716            1 
   36000    1.2543674   -7.1561593    9.8655084  0.022836825  0.034303751            1 
   37000    1.2676531    -7.142033    10.300368  0.023199028  0.034319051            2 
   38000    1.2433294   -7.1113854    10.663684  0.023385272   0.03433006            5 
   39000     1.219552   -7.1523065    11.086769  0.023689677  0.034309994            1 
   40000    1.2372035   -7.1834972    11.507235  0.023973406  0.034291278            2 
   41000    1.2551277    -7.109979     11.86498  0.024115813  0.034260644            2 
   42000    1.2093826   -7.1262679    12.270571  0.024346371  0.034192022            3 
   43000    1.2693354   -7.1059662    12.803254  0.024812508  0.034178554            2 
   44000    1.2457043   -7.1192437    13.092107  0.024795658  0.034171074            1 
   45000    1.2149153   -7.1289507    13.523763  0.025044004  0.034138463            2 
   46000    1.2435887   -7.1470674    13.706319  0.024830287   0.03408381            3 
   47000    1.2175702   -7.1182294     14.16029  0.025106897  0.033994621            1 
   48000    1.2201996   -7.1753687    14.552546  0.025264836  0.033922389            3 
   49000    1.2246978   -7.1623014    14.831196  0.025223123  0.033847473            2 
   50000    1.2155093   -7.1144442    15.256016  0.025426693  0.033751361            2 
   51000     1.238142   -7.1629885    15.675423  0.025613436  0.033685017            2 
   52000    1.2295959   -7.1538405    16.071047  0.025754883  0.033637624            3 
   53000    1.2418539   -7.1419178    16.320563  0.025661263  0.033559083            2 
   54000     1.207098   -7.1751122    16.646092  0.025688413  0.033473744            5 
   55000    1.2393406    -7.169144    17.120386  0.025939978  0.033390516            2 
   56000    1.2562989   -7.1621609    17.532992  0.026090761  0.033332524            1 
   57000     1.205798   -7.1536313    17.876231   0.02613484  0.033272986            1 
   58000    1.2314244   -7.1702554     18.20434   0.02615566  0.033218913            2 
   59000    1.2403406   -7.1365471    18.580566  0.026243737  0.033161393            2 
   60000    1.2351687   -7.1441281    18.943738  0.026310746  0.033088443            2 
   61000    1.2199255   -7.1413885    19.467612  0.026595098  0.033028748            2 
   62000    1.2318273   -7.1530278    19.784035  0.026591445  0.032987932            2 
   63000    1.2396538   -7.1985694    20.300837  0.026852959  0.032964961            2 
   64000    1.2261144   -7.1463038    20.861293  0.027163141  0.032978572            4 
   65000    1.2079315   -7.1677835    21.228685  0.027216262   0.03298987            1 
   66000    1.2396619   -7.1390565    21.609398  0.027284593  0.032995422            2 
   67000    1.2319914   -7.1821853     22.03127  0.027402077   0.03300161            2 
   68000    1.2186465   -7.1681798    22.283652  0.027308397   0.03299437            1 
   69000     1.252525   -7.1410857    22.679512  0.027390715  0.032981148            2 
   70000    1.2402292   -7.1869846    23.068285  0.027462244  0.032969434            2 
   71000    1.2180255   -7.1702834    23.553719   0.02764521  0.032962711            1 
   72000    1.2416554   -7.2004996     23.81573  0.027564502  0.032948606            2 
   73000    1.1962722   -7.1326918    24.353279  0.027800546  0.032941678            3 
   74000     1.248986   -7.1121774    24.820102  0.027950565  0.032937664            3 
   75000    1.2380286    -7.168253     25.13666  0.027929622  0.032938416            1 
   76000    1.2417366   -7.1329334    25.385867   0.02783538  0.032932787            2 
   77000    1.2142615   -7.1857384    25.773357  0.027893243  0.032914076            2 
   78000    1.2172843   -7.1908377    26.220894  0.028013775  0.032901108            3 
   79000    1.2278649   -7.2467066    26.558472  0.028015266  0.032894988            1 
   80000    1.2243303   -7.2088857    26.981727  0.028105966  0.032888299            2 
   81000    1.2225364   -7.1537381      27.3118   0.02809856  0.032870016            2 
   82000    1.2307584   -7.1775088    27.497867  0.027944987  0.032835328            2 
   83000    1.2074509   -7.1616109    27.789584  0.027901188  0.032800246            2 
   84000    1.2442585   -7.2115277     28.06345  0.027840724  0.032749698            2 
   85000    1.2366949   -7.1852574    28.330768  0.027775263  0.032689835            2 
   86000    1.1980156   -7.1961921     28.45948  0.027577015  0.032618381            2 
   87000    1.1854398   -7.2224766    28.630133  0.027423499  0.032534602            1 
   88000    1.1914841   -7.1605584    28.852571   0.02732251  0.032440633            1 
   89000    1.2157139   -7.1895882    29.326606  0.027459368  0.032355439            4 
   90000    1.2112196   -7.2289671    29.717929  0.027516601  0.032276761            2 
   91000    1.1939251   -7.1822568    30.152992   0.02761263  0.032206259            2 
   92000    1.2267532   -7.1806661    30.492422  0.027619948  0.032136021            2 
   93000    1.2065817   -7.2011232    30.698066  0.027507227  0.032063145            2 
   94000    1.2103514   -7.2017041    31.237921  0.027693192  0.031997813            2 
   95000     1.181137   -7.1977546    31.489539  0.027622403   0.03194035            4 
   96000    1.2127802    -7.209994     31.81021  0.027613029  0.031879893            4 
   97000    1.2221968   -7.2028085    32.337713   0.02778154  0.031829294            2 
   98000    1.1942998   -7.2263949    32.718518  0.027821869  0.031781771            6 
   99000    1.2217829   -7.2273651    33.081869  0.027846691  0.031733777            6 
  100000    1.1924362   -7.1824854    33.490748  0.027908956  0.031694585            2 
  101000    1.2053835   -7.1846705     34.01146   0.02806226  0.031661989            1 
  102000    1.1939111   -7.2544314    34.040037  0.027810488  0.031622061            2 
  103000    1.2067732   -7.1866191    34.520186  0.027928953   0.03158268            2 
  104000    1.2141877   -7.2411577    35.027717  0.028067081  0.031545912            4 
  105000    1.2299695   -7.2407133    35.365017  0.028067474  0.031519069            5 
  106000    1.2197302   -7.2206519    35.863157  0.028194306  0.031493776            2 
  107000    1.1915379   -7.2285212    36.005782  0.028041886  0.031467985            2 
  108000    1.2347846   -7.2175509    36.413505   0.02809684  0.031442642            2 
  109000    1.2351187    -7.186423    36.866641  0.028185506  0.031418795            2 
  110000    1.1785512   -7.1862082    37.162519  0.028153423  0.031398392            2 
  111000    1.2199745   -7.1781297    37.559116  0.028197534  0.031373379            1 
  112000    1.2186467   -7.2023614    37.887093  0.028189801  0.031346935            3 
  113000    1.2120322   -7.1926684    38.296951  0.028242589  0.031322206            3 
  114000    1.1949377    -7.236464    38.309982  0.028004373  0.031295017            1 
  115000    1.2248469   -7.2331689    38.566579  0.027946796  0.031261378            2 
  116000    1.2183613   -7.2451777    38.937463  0.027972315  0.031224562            4 
  117000    1.2337633   -7.2151093    39.176836  0.027903729  0.031185133            2 
  118000    1.2089844   -7.2073154    39.632656  0.027989164  0.031146454            2 
  119000    1.2045617   -7.2417088    39.796021  0.027868362  0.031102725            2 
  120000    1.2186242   -7.2337903    40.270301  0.027965487  0.031063715            2 
  121000    1.1982757   -7.2272922    40.603066  0.027963544  0.031031798            2 
  122000    1.2029675    -7.211201    40.941706  0.027965646  0.031000403            3 
  123000    1.2251498    -7.225888    41.319647   0.02799434  0.030967678            2 
  124000       1.1812   -7.2288834    41.695921  0.028021452  0.030931813            3 
  125000    1.2149934   -7.1959738    41.963277  0.027975518  0.030896724            3 
  126000    1.2090355   -7.2516062    42.319277   0.02798894  0.030859551            1 
  127000    1.1925013   -7.2366467    42.456505  0.027858599  0.030821597            2 
  128000    1.2039631   -7.2342898     42.76524  0.027841953  0.030784678            2 
  129000    1.1868497   -7.2832866    42.974257  0.027761148  0.030746264            3 
  130000    1.2208359   -7.2441623    43.710096  0.028019292  0.030707924            2 
  131000    1.2164432   -7.2381403    43.993975  0.027985989  0.030678891            2 
  132000    1.1828449   -7.2819435    44.303836  0.027969593  0.030653037            2 
  133000    1.2050651   -7.2592289    44.726673  0.028024231  0.030625288            3 
  134000    1.1843759   -7.2315837    45.179205  0.028096521  0.030600983            2 
  135000     1.222371   -7.2398771    45.495545   0.02808367   0.03057795            1 
  136000    1.2032923   -7.2305786     45.90837  0.028130128  0.030557285            2 
  137000    1.2178938   -7.2520534    46.229874  0.028120361  0.030537527            2 
  138000    1.1799062   -7.2862884    46.460707  0.028055983  0.030517325            2 
  139000    1.1857694   -7.2519485    46.742247   0.02802293  0.030493575            4 
  140000    1.1912035   -7.2264666    47.364211  0.028192983  0.030470995            2 
  141000    1.2034874   -7.2477403     47.39796  0.028012979  0.030448015            4 
  142000    1.1812041   -7.2368941     47.79342  0.028047782  0.030424775            3 
  143000    1.1948713   -7.2475735    48.016033  0.027981371  0.030399092            3 
  144000    1.1968741   -7.2515443    48.557943  0.028100662  0.030372595            2 
  145000    1.2127487   -7.2856881    48.768231  0.028027719  0.030346106            2 
  146000     1.197621    -7.268411    49.056367   0.02800021  0.030320754            2 
  147000    1.1919736   -7.2943274    49.165116  0.027871381   0.03029637            3 
  148000    1.1961565   -7.2578433    49.591252  0.027923002  0.030268739            2 
  149000    1.1905406   -7.2657823    49.760096  0.027830031  0.030240457            1 
  150000    1.2032126   -7.2642657    50.092785  0.027829325  0.030212181            2 
  151000    1.2227438   -7.2336402    50.405446  0.027817575  0.030180749            1 
  152000    1.2017858   -7.2584045    50.830158  0.027867411  0.030152253            1 
  153000    1.2185656   -7.2598713    51.360856  0.027974322  0.030123076            2 
  154000    1.1797515   -7.2570237    51.512321  0.027874633  0.030095562            2 
  155000    1.1587053    -7.265412    52.021948  0.027968789  0.030069896            3 
  156000     1.207622   -7.2222459    52.246904  0.027909671   0.03004329            2 
  157000    1.1957835   -7.2458813    52.621178  0.027930561  0.030018051            3 
  158000    1.1713327   -7.2942206    52.912344  0.027907354  0.029995643            4 
  159000     1.203637   -7.3082234    53.173638  0.027868783  0.029973535            2 
  160000    1.1917872   -7.2672031    53.548456  0.027889821  0.029951168            1 
  161000     1.175175   -7.2749429    53.667948  0.027778441  0.029928426            3 
  162000    1.1806054   -7.2471003     54.06602  0.027811738  0.029901255            2 
  163000     1.179085   -7.2751229    54.313525  0.027767651  0.029873531            2 
  164000    1.1957042   -7.2748117    54.534075  0.027710404  0.029843534            4 
  165000    1.1797824   -7.2631811    54.853223  0.027703648  0.029813029            3 
  166000    1.1604595   -7.3093968    54.895126  0.027557794   0.02978278            3 
  167000    1.1959035   -7.2604152    55.420229  0.027654805  0.029748715            1 
  168000    1.1884004   -7.2991908    55.650394  0.027604362  0.029715966            2 
  169000    1.1905283   -7.2584165    55.961182  0.027594271  0.029683352            3 
  170000    1.1733558   -7.3167894    55.886667  0.027395425  0.029648575            3 
  171000     1.199355   -7.2874148    56.467927  0.027518483  0.029615319            2 
  172000    1.1791603   -7.2536353    56.781829  0.027510576  0.029584798            2 
  173000    1.1891424   -7.3033702    57.161101  0.027534249  0.029552104            3 
  174000    1.1767363   -7.2778729    57.311501  0.027448037  0.029518124            2 
  175000    1.2002135    -7.253009    57.725035  0.027488112  0.029485458            2 
  176000    1.1839438   -7.2654282    58.025513  0.027474201  0.029452315            2 
  177000    1.1505312   -7.2679686    58.211649  0.027406614  0.029418564            2 
  178000    1.1713421   -7.2889785    58.534067  0.027403589   0.02938347            2 
  179000    1.1862251   -7.2989704     58.72902  0.027341257   0.02935133            2 
  180000    1.1588517   -7.2932315    59.275357  0.027442295  0.029320855            2 
  181000    1.1943783   -7.2639445    59.842174  0.027551646   0.02929242            2 
  182000    1.1869353     -7.31415    60.175412  0.027552844  0.029266256            4 
  183000    1.1912256   -7.3439507    60.075397  0.027356738  0.029239239            2 
  184000    1.1860625    -7.290418    60.602377  0.027446729  0.029210011            1 
  185000    1.2006998   -7.2682157    60.689136  0.027337449   0.02917928            1 
  186000    1.1690817   -7.3216324    61.007454  0.027333089   0.02914907            1 
  187000    1.2265877   -7.2606827    61.469023  0.027392613  0.029120599            1 
  188000    1.1993843   -7.2855401    61.436856  0.027232649  0.029090596            3 
  189000    1.1979143   -7.3035671    61.765797  0.027233597  0.029058122            2 
  190000    1.1708351    -7.345831    61.984064  0.027185993  0.029026116            2 
  191000    1.1998052    -7.277732    62.532102  0.027282767  0.028996037            3 
  192000    1.1728698    -7.326613    62.626287  0.027181548  0.028967511            1 
  193000    1.1797024    -7.352995    62.965332  0.027187104   0.02893724            4 
  194000    1.1790947   -7.3223972    63.264366  0.027175415  0.028907214            2 
  195000      1.17343   -7.3322328    63.601051  0.027179936  0.028877407            2 
  196000    1.2010412   -7.2766186    63.933868  0.027182767  0.028846949            2 
  197000    1.1721382   -7.3232834    64.143812  0.027133592  0.028817454            2 
  198000    1.1523668   -7.2831461    64.851955  0.027294594  0.028788322            4 
  199000     1.160944   -7.3060787    64.915295  0.027183959  0.028762501            4 
  200000    1.1689029   -7.2964165    65.262025   0.02719251  0.028738135            4 
  201000    1.1740426   -7.2852332    65.764553  0.027265569  0.028713517            2 
  202000    1.1713072     -7.29027    66.072384  0.027257584  0.028689809            2 
  203000     1.167075   -7.3364918      66.3544   0.02723908  0.028666717            3 
  204000    1.1716581   -7.2739171    66.839856  0.027303863  0.028645211            3 
  205000    1.1834846   -7.2869542    67.174201  0.027306586  0.028626344            2 
  206000    1.1680885    -7.297545    67.531937  0.027318745  0.028606097            2 
  207000    1.1870437   -7.2595923    68.070478  0.027403574  0.028588962            4 
  208000    1.1651549   -7.2600506    68.317485  0.027370787  0.028573732            2 
  209000    1.1455689   -7.3240551    68.525672  0.027322836  0.028556473            3 
  210000    1.1816913   -7.3023401    69.142184  0.027437375  0.028540821            3 
  211000    1.1645811   -7.3451823    69.201789   0.02733088  0.028525807            2 
  212000    1.1675474   -7.3517732    69.449485  0.027299326  0.028509945            1 
  213000    1.1902469    -7.364735    69.878059  0.027338833  0.028493065            2 
  214000    1.1703718   -7.2652195    70.261173   0.02736027  0.028477479            3 
  215000    1.1697195   -7.2880275    70.280025   0.02724032  0.028461242            3 
  216000    1.1932918   -7.3472024     70.39622  0.027159035  0.028442661            5 
  217000    1.1695504   -7.3138368    70.690302  0.027146813  0.028422454            2 
  218000    1.1754162   -7.2984793    71.219649  0.027224636  0.028401015            2 
  219000    1.1819427   -7.3247404    71.566568  0.027232332  0.028382121            4 
  220000    1.1632682   -7.3171997    71.858034  0.027218952  0.028363571            6 
  221000    1.1392971   -7.3023186    72.404153  0.027301717  0.028346276            1 
  222000    1.1585137   -7.3147488    72.516603  0.027220947  0.028330071            2 
  223000    1.1828664   -7.3462561    72.582019  0.027123326  0.028312917            2 
  224000    1.1683373   -7.3474532    72.975126  0.027148484  0.028294566            4 
  225000     1.189114   -7.2864312    73.468902  0.027210704  0.028277296            2 
  226000    1.1648288   -7.3149095    73.525149  0.027111043  0.028259795            1 
  227000     1.169993   -7.3671097    73.840049  0.027107213  0.028240552            4 
  228000    1.1639576   -7.3259851    73.749892   0.02695537   0.02822158            2 
  229000    1.1734821   -7.3126302    74.259937  0.027023267  0.028202622            1 
  230000    1.1645083   -7.3463451    74.427275  0.026966404  0.028181645            2 
  231000    1.1812928   -7.3542636    74.459624  0.026861336  0.028160643            2 
  232000    1.1710947   -7.3988159     75.04293  0.026955075  0.028141184            2 
  233000    1.1515569   -7.3837221    75.099237  0.026859527  0.028120881            1 
  234000    1.1459381   -7.3526139    75.459915  0.026873189  0.028099753            1 
  235000    1.1564652   -7.3126914    76.090508  0.026982449  0.028079333            6 
  236000    1.1259769   -7.3694332    76.034437  0.026848318  0.028058188            1 
  237000    1.1793415    -7.345846    76.445151  0.026879448  0.028036164            2 
  238000    1.1605125    -7.342304    76.721713  0.026863345  0.028013888            3 
  239000    1.1896886   -7.3363673     77.01373  0.026852765  0.027991858            1 
  240000    1.1861728   -7.3580427    77.143426  0.026785912  0.027970497            1 
  241000     1.155487   -7.3603491    77.155083  0.026678798  0.027948431            2 
  242000    1.1665981   -7.3187086    77.693592  0.026753992  0.027925307            1 
  243000    1.1716847   -7.3633931    77.971307  0.026739131   0.02790266            1 
  244000    1.1812533   -7.3779693    78.193915  0.026705572  0.027880432            2 
  245000    1.1689076   -7.3295883    78.486822  0.026696198  0.027857861            1 
  246000    1.1669905   -7.3847633    78.512722   0.02659645  0.027833496            3 
  247000    1.1572897   -7.3852597    78.699015  0.026551625  0.027810132            2 
  248000    1.1720553   -7.3410111    79.295695  0.026645059  0.027787656            3 
  249000     1.161153   -7.3118502    79.673267  0.026664413  0.027764786            3 
  250000    1.1582885   -7.3211834    79.900415  0.026633471   0.02774192            4 
  251000    1.1465728    -7.335334    80.247637  0.026642642  0.027720452            2 
  252000    1.1235291   -7.3870426    80.407395  0.026589747  0.027699304            1 
  253000    1.1284703   -7.3206291    80.892218   0.02664434  0.027678144            1 
  254000     1.158517   -7.3568369     80.93505  0.026553494  0.027656499            3 
  255000    1.1362338   -7.3975887    81.022772   0.02647803   0.02763466            2 
  256000    1.1652759   -7.3574626    81.782815   0.02662201   0.02761477            2 
  257000    1.1692506   -7.3545987    81.887994  0.026552527  0.027594399            2 
  258000    1.1762298   -7.3663708     82.03162  0.026496001  0.027573674            3 
  259000    1.1512416   -7.3383735    82.461824  0.026532118  0.027553426            3 
  260000    1.1701952   -7.3794783    82.717062  0.026511879  0.027532451            3 
  261000    1.1426274   -7.3805819    82.964671  0.026489358  0.027512685           10 
  262000    1.1517026   -7.3366442    83.342585  0.026508456  0.027491914            1 
  263000    1.1600986   -7.4021241    83.511271  0.026461113  0.027471531            3 
  264000    1.1681762   -7.3938096    83.968102  0.026505083  0.027451193            2 
  265000     1.142928   -7.3429162    83.913726  0.026387964  0.027430253            2 
  266000    1.1462051   -7.3912523    84.302564  0.026410578  0.027409209            2 
  267000    1.1600583   -7.4009617    84.390109  0.026338985  0.027386856            4 
  268000     1.177182   -7.3714318    85.028123  0.026439093   0.02736689            2 
  269000    1.1579632    -7.389487    85.057239  0.026349826  0.027347023            4 
  270000    1.1591719   -7.3855113    85.580684  0.026413791  0.027326646            1 
  271000    1.1323467   -7.3693292    85.789514  0.026380539  0.027306859            1 
  272000    1.1573492   -7.3836414    86.004493  0.026349416  0.027286819            2 
  273000    1.1306863   -7.3690145    86.587315  0.026430804  0.027268309            2 
  274000    1.1616609   -7.3707149    86.816622  0.026404082  0.027250676            2 
  275000    1.1603052   -7.3611323    87.365225  0.026474311  0.027233951            1 
  276000    1.1615193   -7.3726319    87.323823  0.026365889  0.027216251            3 
  277000    1.1482341   -7.3736979     87.90594   0.02644583  0.027199431            4 
  278000    1.1180059   -7.4004439    88.146595   0.02642284  0.027183749            2 
  279000    1.1648239   -7.3546056    88.869708  0.026544118    0.0271687            4 
  280000    1.1285598     -7.38316     88.71267   0.02640258   0.02715386            2 
  281000    1.1588929   -7.4189634    89.130999  0.026432681  0.027139622            1 
  282000    1.1379137     -7.37023    89.929522  0.026574918  0.027126005            3 
  283000      1.14058   -7.4178295    90.043307  0.026514519  0.027113023            2 
  284000    1.1318246   -7.4244613    90.293108  0.026494457  0.027100762            2 
  285000    1.1433235   -7.3605641    90.764344  0.026539282  0.027088997            2 
  286000    1.1575371   -7.4041814    90.860577  0.026474527  0.027076306            2 
  287000     1.145228   -7.3651447    90.996705  0.026421808  0.027062457            3 
  288000    1.1412268   -7.3876425    91.250047   0.02640337  0.027048703            3 
  289000    1.1326334   -7.3755803    91.685979   0.02643771  0.027035384            3 
  290000    1.1517693   -7.4056961    91.804468  0.026380594  0.027021619            2 
  291000    1.1438739   -7.4062069    92.310244  0.026434778  0.027008207            3 
  292000    1.1360368   -7.3832509    92.682479  0.026450479   0.02699591            2 
  293000    1.1451071   -7.3754374    92.725372  0.026372404  0.026982997            3 
  294000     1.141901   -7.3676156    93.234922  0.026427132   0.02696937            2 
  295000    1.1434087   -7.3849725    93.493696  0.026410648  0.026957425            1 
  296000    1.1344464   -7.4586965     93.47011  0.026314783  0.026944407            5 
  297000    1.1386287   -7.4221473    93.574436  0.026255453  0.026929686            3 
  298000    1.1277942   -7.4419641    94.082718  0.026309485  0.026914191            2 
  299000    1.1083515   -7.4092894    94.101514  0.026226732  0.026900054            2 
  300000    1.1510092   -7.3888819    94.660047  0.026294457  0.026885428            1 
  301000    1.1340605    -7.406569    94.597454  0.026189771  0.026870584            4 
  302000    1.1384465   -7.4138173    95.228016  0.026277046  0.026856277            1 
  303000    1.1250163   -7.3899091    95.557226  0.026280865  0.026841675            2 
  304000     1.132802   -7.4213988    95.781684  0.026255944  0.026827727            4 
  305000    1.1238463   -7.4029184    95.961746  0.026219056  0.026813693            4 
  306000    1.1418832   -7.4558546    96.169131   0.02618985  0.026800004            2 
  307000    1.1440929   -7.4288038    96.419726  0.026172564  0.026785334            2 
  308000    1.1280745   -7.4040694    96.887823  0.026214238  0.026771349            3 
  309000    1.1219174   -7.4420662    96.565719  0.026042535  0.026756438            3 
  310000     1.132125   -7.4343084    97.067267  0.026093351  0.026740375            2 
  311000    1.1418278   -7.4299091    96.998631  0.025991059  0.026723696            4 
  312000    1.1412128   -7.4357664    97.352472  0.026002263  0.026706666            2 
  313000    1.0997584   -7.4363482    97.531101  0.025966747  0.026690839            2 
  314000    1.1226003   -7.4105972    98.188074  0.026058406  0.026674632            4 
  315000    1.1210971   -7.4430478    98.013476  0.025929491  0.026659881            1 
  316000     1.142183   -7.4353875    98.464495  0.025966375  0.026643666            3 
  317000    1.1095838   -7.4440105    98.452653  0.025881349  0.026627903            3 
  318000    1.1543484   -7.4298699    98.886552  0.025913667   0.02661152            3 
  319000    1.1217201   -7.4403936    99.413495  0.025970088  0.026595848            3 
  320000    1.1093514   -7.4084368    99.747753  0.025975977  0.026579561            5 
  321000    1.1205743   -7.4333754    99.411043  0.025807643  0.026563599            5 
  322000    1.1112048   -7.4505571    100.17279  0.025924634  0.026547826            2 
  323000     1.106889   -7.4510464    100.08742  0.025822349  0.026532539            1 
  324000    1.1032809   -7.4263969    100.36498  0.025814038  0.026516476            2 
  325000    1.1111913    -7.439143    101.13333  0.025931622  0.026500528            3 
  326000    1.1230194   -7.4440559     101.0981  0.025843073  0.026485093            3 
  327000    1.1269991    -7.483013    101.15944  0.025779674  0.026468862            3 
  328000    1.1201696     -7.41066    101.80335  0.025864671  0.026452709            1 
  329000      1.13206   -7.4633437    101.95055   0.02582334  0.026437361            2 
  330000    1.1513112   -7.4570278    101.95047  0.025745067  0.026421642            3 
  331000    1.1287829   -7.4696281    102.29662  0.025754435  0.026406056            1 
  332000    1.1326466   -7.4288462    102.42015   0.02570787  0.026389681            1 
  333000    1.1181259   -7.4170036     102.6267  0.025682356  0.026372534            3 
  334000    1.1015719   -7.4373231    102.83356  0.025657077  0.026355432            4 
  335000     1.121538   -7.4598144    103.08366  0.025642701   0.02633685            2 
  336000    1.1282718   -7.4399421      103.352  0.025632938  0.026319157            5 
  337000    1.1329516   -7.4111373    103.76082  0.025657967  0.026302781            2 
  338000     1.089697   -7.4418391    104.20515  0.025691605  0.026287516            2 
  339000    1.0977727   -7.4665216    104.85027  0.025774402  0.026272315            3 
  340000    1.1100141   -7.4731007    104.56026  0.025627515  0.026257093            1 
  341000    1.1436224   -7.4908753    105.02474  0.025665869  0.026241214            3 
  342000    1.0966053    -7.451587    105.12615  0.025615533  0.026224678            2 
  343000    1.1031395   -7.4452207    105.58298  0.025651842  0.026208784            3 
  344000    1.0991272    -7.489879    105.73632  0.025614419  0.026192899            5 
  345000    1.1312544   -7.4449224    106.09254  0.025626218   0.02617662            6 
  346000    1.1358065   -7.4274294    106.25648  0.025591637  0.026161031            1 
  347000    1.1201923   -7.4151483    106.80674  0.025650034  0.026145454            2 
  348000    1.1214345   -7.4449193    106.73927   0.02556017  0.026130266            1 
  349000    1.1114599   -7.4589234     107.1684  0.025589397  0.026115405            4 
  350000    1.0881561   -7.4992987    107.09871  0.025499693  0.026099883            4 
  351000    1.0979518   -7.4320784    107.77276  0.025587074  0.026084423            2 
  352000    1.1219547   -7.5004598    107.52059  0.025454684  0.026068828            1 
  353000    1.1333423    -7.449231     108.0831  0.025515367  0.026053574            7 
  354000    1.1113056   -7.4451458    108.40372  0.025518766  0.026038554            1 
  355000    1.1132503   -7.4501699    108.62314   0.02549839  0.026024038            2 
  356000    1.1026073   -7.4658066    108.84387  0.025478435   0.02600942            4 
  357000    1.1257791   -7.4727912    109.32573  0.025519544  0.025994109            7 
  358000    1.0979445   -7.5100382    108.66823  0.025295212  0.025979256            1 
  359000    1.1372187   -7.4743839    109.22958  0.025355057  0.025963221            2 
  360000    1.1063626   -7.4945873    109.40803  0.025325934  0.025946693            2 
  361000    1.1075837   -7.5007082    109.83838   0.02535512   0.02593112            4 
  362000    1.1046056   -7.4606527    110.87872  0.025524567  0.025917161            4 
  363000      1.10357   -7.4844002    111.16503  0.025519979  0.025904165            1 
  364000    1.0803775   -7.4641363    111.22755  0.025464184  0.025890743            2 
  365000     1.096337   -7.4533588    111.61756  0.025483461  0.025876768            3 
  366000    1.1249209   -7.4772236    111.97613  0.025495476   0.02586329            4 
  367000    1.1065127   -7.4761609    111.98447    0.0254279  0.025850092            2 
  368000    1.1145072   -7.4527514    112.83935  0.025552389   0.02583679            3 
  369000    1.1021048   -7.4593895    112.95371  0.025508968  0.025825141            3 
  370000    1.1004011   -7.4961001    112.72335  0.025388142  0.025812662            2 
  371000    1.1006431   -7.4800305    113.03409  0.025389508  0.025799352            2 
  372000    1.1081195   -7.5105629    113.33012  0.025387572  0.025786118           10 
  373000    1.1331901   -7.4713764      113.421  0.025339812   0.02577337            5 
  374000     1.103213   -7.4768298    113.85709  0.025369227  0.025759885            4 
  375000    1.1059384   -7.4825301    114.22798  0.025383995  0.025746629            2 
  376000    1.1205868   -7.4822042    114.59545  0.025397929  0.025733719            2 
  377000    1.1147485    -7.515746    114.60361  0.025332364  0.025720686            3 
  378000    1.1206994   -7.4890045    114.87007  0.025324091  0.025707834            4 
  379000    1.0767114   -7.5099949    115.06451  0.025300023   0.02569466            2 
  380000    1.1000226   -7.4627724    115.61599  0.025354384  0.025681535            2 
  381000    1.1093495   -7.4612209     115.7867  0.025325176  0.025668987            1 
  382000    1.1007903   -7.5138154      116.129  0.025333552  0.025656735            4 
  383000    1.1306084   -7.4625893    116.88655  0.025432234  0.025645543            1 
  384000    1.1020327   -7.4626031    116.66764  0.025318499  0.025634128            2 
  385000    1.0952847   -7.4904353    116.95173  0.025314227  0.025621861            6 
  386000    1.0539337   -7.5059735    117.33251  0.025330854   0.02560964            1 
  387000    1.1112562   -7.4637348    117.47088  0.025295194  0.025597326            3 
  388000    1.0944288   -7.5135972    117.34361  0.025202665  0.025585063            3 
  389000    1.1020388   -7.5001972    117.89087  0.025255113  0.025571795            2 
  390000    1.1141317   -7.4895499    118.24496  0.025266018   0.02555853            3 
  391000    1.1023919   -7.4912851    118.11758  0.025174249  0.025545502            3 
  392000    1.1070718   -7.5053723     118.3742  0.025164582   0.02553225            2 
  393000    1.1116629   -7.4951473    118.48071  0.025123135  0.025519517            1 
  394000    1.0981561   -7.5141429    118.85431   0.02513839  0.025506384            5 
  395000    1.1021071   -7.5099519    119.15129  0.025137402  0.025492773            7 
  396000    1.1026316   -7.5490699    118.84125  0.025008681    0.0254779            3 
  397000    1.0721688   -7.5604961    119.16046  0.025012691  0.025462916            2 
  398000    1.0979382    -7.482158    119.24562  0.024967675  0.025448069            3 
  399000    1.1235156   -7.5147282    119.26338   0.02490881  0.025432986            7 
  400000    1.0933445   -7.4993818    119.94556  0.024988658  0.025417747            6 
  401000     1.126726   -7.4978854    119.82044   0.02490034  0.025402191            3 
  402000    1.0903351   -7.5576771      120.135  0.024903607   0.02538646            2 
  403000    1.1008317   -7.5045486    120.32886  0.024881898  0.025370671            4 
  404000    1.0933469   -7.5194895    120.54794  0.024865499  0.025354537            2 
  405000     1.097809   -7.5361476    120.69727  0.024834829  0.025337905            1 
  406000     1.106294   -7.5554592     120.9527  0.024826089  0.025322395            3 
  407000    1.0949194   -7.5130136    121.35125  0.024846693  0.025307438            1 
  408000     1.089796   -7.5275565    121.96395  0.024910938  0.025292686            3 
  409000    1.0992232   -7.5450702    121.74468  0.024805354  0.025277616            1 
  410000    1.0896409    -7.564411    121.66891  0.024729453  0.025262061            3 
  411000    1.1025884   -7.5338157    122.02875  0.024742245  0.025245943            2 
  412000    1.0766117    -7.552419    122.36185  0.024749565  0.025229896            2 
  413000    1.0926086   -7.5337901    122.67468  0.024752761  0.025214495            1 
  414000    1.0786112   -7.5134314    123.25185  0.024809149  0.025199796            7 
  415000    1.0940707   -7.4946834    123.50874  0.024800951  0.025184903            4 
  416000    1.0563225   -7.5562786    123.11127  0.024661713  0.025168899            3 
  417000     1.072628   -7.5679972    123.27708  0.024635708  0.025152853            3 
  418000    1.0750045   -7.5334192    123.40131  0.024601537  0.025136375            5 
  419000    1.0857203   -7.5324595    123.69443  0.024601121   0.02511975            4 
  420000    1.1065549   -7.5147087    123.69292  0.024542247   0.02510319            1 
  421000    1.0627716   -7.5364643    123.71969   0.02448925  0.025085782            2 
  422000    1.0885459   -7.5323401    123.80807  0.024448671  0.025068098            1 
  423000    1.0740265   -7.5161151    124.31743   0.02449122  0.025049835            2 
  424000    1.0850831    -7.537569    124.06171  0.024383198  0.025031802            1 
  425000    1.1097187   -7.5557191      124.524  0.024416471  0.025013597            2 
  426000    1.0902199   -7.5728234    124.52198   0.02435876  0.024994864            1 
  427000     1.082815   -7.5959028    124.69087  0.024334673   0.02497621            5 
  428000    1.0886197   -7.5499411    124.81617  0.024302215  0.024957547            2 
  429000    1.0937007    -7.505123    125.81327  0.024439252  0.024939338            2 
  430000     1.100635   -7.5544124     125.1126  0.024246628  0.024920965            7 
  431000    1.0830165   -7.5441027    125.63514  0.024291403  0.024902915            2 
  432000    1.0850321   -7.5196929    126.03431  0.024312175  0.024884691            6 
  433000    1.0827168   -7.5058805    126.46631  0.024339166   0.02486714            1 
  434000    1.0767226    -7.517042     127.1601  0.024416301  0.024849955            4 
  435000    1.0747678   -7.5922863     126.6077  0.024254348  0.024832614            3 
  436000    1.0710376   -7.5512922    127.32556  0.024335924   0.02481563            5 
  437000    1.0884122    -7.565538    127.22851   0.02426173  0.024798956            2 
  438000    1.0806221   -7.5776207    127.44551  0.024247624  0.024782129            3 
  439000    1.0935496   -7.5265522    127.97396  0.024292703   0.02476518            4 
  440000     1.075561   -7.5891451    127.58443  0.024163717  0.024747767            5 
  441000     1.063918   -7.5899135    127.80777  0.024151128  0.024729978            4 
  442000     1.073564   -7.5142623    128.18132  0.024166916  0.024712324            2 
  443000    1.0857509   -7.5658363    128.65989  0.024202387  0.024695218            2 
  444000    1.0997036   -7.5417225    128.91916  0.024196539  0.024678614            2 
  445000    1.0934079   -7.5995944    128.77231  0.024114665  0.024661761            3 
  446000    1.0625958   -7.5833475    129.16414  0.024133809  0.024644497            1 
  447000    1.0906393   -7.5515966      129.859  0.024209359  0.024628021            2 
  448000    1.0897642    -7.555484    129.73834  0.024132875  0.024611828            4 
  449000    1.0670447    -7.517901    130.35036  0.024192717  0.024595786            2 
  450000     1.077007   -7.5398118    130.50031  0.024166725  0.024580166            3 
  451000    1.0636144   -7.5862259    130.52902  0.024118444  0.024564588            2 
  452000    1.0825369   -7.5312711    130.82978  0.024120534  0.024548874            4 
  453000    1.1098344   -7.5726109    130.94655  0.024088769  0.024533505            1 
  454000    1.0835542   -7.5365478    131.65177  0.024165157  0.024518513            3 
  455000    1.0640111   -7.6208974    131.40194  0.024066289   0.02450282            2 
  456000    1.0657736   -7.5369202    132.16669   0.02415327  0.024487481            3 
  457000    1.0600957   -7.5487625    132.08583  0.024085673  0.024471871            4 
  458000    1.0707148   -7.5974497    132.24032  0.024061193    0.0244564            2 
  459000    1.0836022   -7.6012058    132.63982  0.024081304  0.024440831            2 
  460000    1.0797403   -7.5408009    132.75634  0.024050061   0.02442533            3 
  461000    1.0900607   -7.5485341    133.61337  0.024152814  0.024409874            2 
  462000    1.0715363   -7.6194633     133.2028  0.024026479  0.024394222            3 
  463000    1.0651046   -7.5663851     133.0293  0.023943359  0.024378123            4 
  464000    1.0699179   -7.6453877    133.47575  0.023971938  0.024361862            5 
  465000    1.0839395   -7.6021947    133.62054  0.023946334  0.024345859            2 
  466000    1.0526234   -7.5214758    134.11222  0.023982871  0.024330244            4 
  467000    1.0950464   -7.5761877    134.03635  0.023917978  0.024314583            2 
  468000    1.0821015   -7.5764918    134.41142  0.023933657  0.024298921            7 
  469000    1.0792544   -7.5695976    134.40232  0.023881009  0.024282974            2 
  470000    1.0766196   -7.5968056    134.49763  0.023847097  0.024267027            5 
  471000    1.0923961   -7.5917615    135.19091  0.023919127   0.02425121            2 
  472000    1.0739724   -7.6316153    134.60835  0.023765598  0.024235543            3 
  473000    1.0472926   -7.6151583    134.99877  0.023784138  0.024219881            2 
  474000    1.0665249    -7.617955    135.39497  0.023803617  0.024204306            1 
  475000    1.0544452   -7.5762712    135.83925  0.023831448  0.024188343            3 
  476000    1.0560131   -7.6145454    135.81137    0.0237765  0.024173134            1 
  477000    1.0859996   -7.5948791    135.86889  0.023736703  0.024157153            4 
  478000    1.0583307   -7.5731034    136.50569  0.023798064  0.024141686            3 
  479000    1.0825773   -7.5885244     136.6952  0.023781349   0.02412595            5 
  480000    1.0691412    -7.590487    136.75322  0.023741879  0.024110762            3 
  481000    1.0746623   -7.5937682    137.05639  0.023745043   0.02409584            3 
  482000    1.0555427   -7.6384105    137.13441  0.023709269  0.024080529            2 
  483000    1.0675867   -7.5701224    137.56606  0.023734655  0.024065615            3 
  484000     1.055056   -7.5538546     137.8945  0.023742165  0.024050369            5 
  485000    1.0620307    -7.600507    137.86885  0.023688805  0.024035143            4 
  486000    1.0729976   -7.6212212    138.31888  0.023717229  0.024019779            1 
  487000    1.0736379   -7.6139547    138.18343   0.02364535  0.024004503            2 
  488000    1.0481284   -7.5930845     138.8119  0.023704218  0.023989313            5 
  489000    1.0710603   -7.6206141    138.19419  0.023550476  0.023973696            3 
  490000    1.0656166   -7.6078157     138.9427  0.023629711  0.023958242            2 
  491000    1.0901195   -7.6055804     139.0914  0.023606822  0.023942757            2 
  492000    1.0654763   -7.5895204    139.17041  0.023572224  0.023927287            4 
  493000    1.0791453   -7.6283828    139.27059  0.023541344  0.023911795            7 
  494000    1.0080043   -7.6234514    139.09851  0.023464661  0.023896326            3 
  495000    1.0340844   -7.6246527     139.9512  0.023560808  0.023880611            5 
  496000    1.0821952   -7.5866773    139.99496  0.023520659   0.02386525            3 
  497000    1.0529302    -7.599493    139.83967  0.023447296  0.023849585            4 
  498000    1.0539757    -7.642119    140.27663  0.023473331  0.023833425            4 
  499000    1.0527767    -7.633193    139.70716  0.023331188  0.023817276            4 
  500000    1.0450044   -7.6313913    140.50633  0.023417722   0.02380034            1 
  501000    1.0449843   -7.6454627    140.56538  0.023380801  0.023783659            4 
  502000    1.0404365   -7.6592148    140.47421  0.023319092  0.023767519            3 
  503000    1.0480961   -7.6645007    140.87674  0.023339421  0.023751441            2 
  504000    1.0589968   -7.6214274    141.26193    0.0233568  0.023735278            5 
  505000     1.050887   -7.6432152     141.3181  0.023319818  0.023718594            2 
  506000     1.042084   -7.6293248    141.50337  0.023304243  0.023702146            2 
  507000    1.0689512   -7.6314388    141.58909  0.023272369    0.0236856            3 
  508000    1.0644814   -7.6650928    142.01554  0.023296513   0.02366896            2 
  509000    1.0418095   -7.6360632    142.42542  0.023317848  0.023652477            3 
  510000    1.0675101   -7.6608784    141.76961  0.023164969  0.023635951            2 
  511000    1.0427924   -7.6533082     142.6305  0.023260029  0.023619518            7 
  512000    1.0636499   -7.6484201    142.32329  0.023164598  0.023602816            2 
  513000    1.0323751   -7.6498239    142.85325  0.023205531  0.023586326            2 
  514000    1.0499923    -7.618537    143.17457  0.023212478   0.02356962            6 
  515000    1.0577785   -7.6284061     143.1454  0.023162686  0.023552985            3 
  516000    1.0626652   -7.6430751    143.24399   0.02313372  0.023536523            3 
  517000     1.045896   -7.6717303    143.51893   0.02313329  0.023519825            2 
  518000    1.0351539   -7.6770852    143.46101  0.023079313  0.023502645            6 
  519000    1.0033504   -7.6927477    143.59975  0.023057121  0.023485975            2 
  520000    1.0487442   -7.6540474     144.3892  0.023139295  0.023469374            4 
  521000    1.0461295   -7.6107735    144.46268  0.023106635  0.023453413            1 
  522000     1.041476   -7.6672007    144.57329  0.023080028  0.023436978            2 
  523000    1.0520295   -7.6579348    145.09623  0.023119221  0.023420763            4 
  524000    1.0577783   -7.6848687    144.41388  0.022966583  0.023404339            2 
  525000    1.0384869   -7.6454718    145.78168  0.023139948  0.023388204            3 
  526000    1.0286414   -7.6619085    145.12602  0.022992082  0.023372465            2 
  527000    1.0721404   -7.6468759      145.457  0.023000791  0.023356358            3 
  528000    1.0488134   -7.6453619    145.69077  0.022994124  0.023340115            4 
  529000    1.0451821   -7.7105483    145.14629  0.022864885  0.023323445            5 
  530000    1.0088855   -7.6459928    145.85699  0.022933489   0.02330678            2 
  531000    1.0433058   -7.6524861    145.69252  0.022864488  0.023289664            1 
  532000    1.0276743   -7.6821457    146.25142  0.022909058  0.023273161            3 
  533000    1.0044013   -7.6783908    146.16643  0.022852788   0.02325697            2 
  534000    1.0148611   -7.6212631    146.68231  0.022890498  0.023240593            4 
  535000    1.0469999   -7.6675833    146.17588  0.022768828  0.023223912            5 
  536000    1.0441349   -7.6912764    146.37732  0.022757668  0.023206812            8 
  537000    1.0289657   -7.6748562    146.92399  0.022800122  0.023189578            4 
  538000    1.0393586   -7.6893652    146.54935  0.022699714  0.023172387            2 
  539000    1.0530891   -7.6844108    147.13413   0.02274801  0.023155408            1 
  540000    1.0446059   -7.6891459    147.32678  0.022735614  0.023138582            2 
  541000    1.0311831   -7.6331796    147.72356  0.022754708  0.023121555            5 
  542000    1.0333328   -7.6198576    147.68255  0.022706419   0.02310462            3 
  543000    1.0467355   -7.6804311     147.7478  0.022674616  0.023088022            3 
  544000    1.0232158   -7.6510184    148.26886  0.022712755  0.023071162            2 
  545000    1.0330023   -7.6562924    148.53488  0.022711756  0.023054257            4 
  546000    1.0158547    -7.631475    148.83026  0.022715241  0.023037562            2 
  547000    1.0266642   -7.6648403    148.78688  0.022667106  0.023021143            2 
  548000    1.0309729   -7.6757728     148.7338   0.02261767  0.023004426            3 
  549000    1.0432672   -7.6723612    149.16684  0.022642204  0.022987545            4 
  550000    1.0306081   -7.7085912    148.85153  0.022553263  0.022970864            4 
  551000    1.0186556   -7.6639705    149.36924   0.02259063   0.02295393            1 
  552000       1.0289   -7.6943976    149.57386  0.022580596  0.022936993            2 
  553000    1.0289545   -7.6743731    149.55764  0.022537318  0.022920105            2 
  554000    1.0126508   -7.6632333    149.79153  0.022531819  0.022903371            5 
  555000    1.0407761   -7.6812222    149.87083  0.022503128  0.022886488            2 
  556000    1.0286409   -7.6666679    150.03152  0.022486739  0.022869582            4 
  557000    1.0354678    -7.708747    149.66166  0.022391032  0.022852271            3 
  558000    1.0330417   -7.6725564    150.12026  0.022419394  0.022835071            2 
  559000    1.0245786   -7.6833481    150.19545  0.022390496  0.022817925            2 
  560000     1.040311   -7.6656253    150.46812   0.02239109  0.022801035            4 
  561000    1.0207733   -7.6698933    150.50016  0.022355936    0.0227842            2 
  562000    1.0358633   -7.6955828    150.76595  0.022355567  0.022767432            2 
  563000    1.0288992   -7.7175812    150.74023  0.022312053  0.022750212            3 
  564000    1.0460019   -7.7181172    151.01207  0.022312658  0.022733168            2 
  565000    1.0227252   -7.6621046    151.45308  0.022338212  0.022716252            3 
  566000    1.0495278   -7.6960784    151.77162  0.022345645  0.022698957            7 
  567000    1.0385015   -7.6819969    151.83414  0.022315423  0.022681934            3 
  568000    1.0531404   -7.6930523    151.79519  0.022270421  0.022665224            2 
  569000    1.0270307   -7.7065355     151.8305  0.022236453  0.022648332            5 
  570000    1.0210262   -7.6741661    152.48714  0.022293441  0.022630978            4 
  571000    1.0315698   -7.6866754    152.09221  0.022196762  0.022613546            4 
  572000     1.015428   -7.6890949    152.38046  0.022199951   0.02259623            2 
  573000    1.0267922   -7.7382924    152.47559  0.022175043  0.022578741            4 
  574000    1.0018402   -7.6778863    152.81041  0.022185018  0.022561125            3 
  575000    1.0043503   -7.7192592    153.07684  0.022185049  0.022543924            2 
  576000    1.0368457   -7.6844465    153.02588  0.022139161  0.022526908            6 
  577000    1.0067901   -7.7296428    153.36751  0.022150132  0.022509685            5 
  578000    1.0244739   -7.7164052    153.32745  0.022106033    0.0224926            4 
  579000    1.0034895   -7.6800442    153.92794   0.02215428  0.022475955            2 
  580000    1.0429346   -7.6895583    154.30226  0.022169865  0.022459756            2 
  581000    1.0541683   -7.6990148     154.2568  0.022125186  0.022443305            3 
  582000    1.0288409   -7.6980135    154.39628  0.022107142  0.022426854            8 
  583000    1.0058668   -7.7304964    154.29787  0.022055156   0.02240996            2 
  584000    1.0081349   -7.7063474    154.83042  0.022093381  0.022393727            1 
  585000    1.0280622   -7.7474959    154.97704  0.022076501  0.022377469            3 
  586000    1.0287626   -7.7181113    154.90322   0.02202833  0.022361045            2 
  587000    1.0256142   -7.6709912    155.49576  0.022074924  0.022344762            1 
  588000    1.0256133   -7.7604592    154.96683   0.02196242  0.022328176            1 
  589000    1.0367433   -7.7091853    155.24726  0.021964808  0.022311468            2 
  590000    1.0104758      -7.7228     155.7224   0.02199469  0.022295218            3 
  591000    1.0011014   -7.7021544    155.84397  0.021974615   0.02227854            3 
  592000    1.0077011    -7.770879    155.57431  0.021899537  0.022262029            3 
  593000    1.0281935   -7.7614469    156.22659  0.021954271  0.022245824            4 
  594000    1.0110477   -7.7518469    156.36858  0.021937231  0.022229622            1 
  595000    1.0173797   -7.7220473    156.32419  0.021894144  0.022212992            1 
  596000    1.0122433   -7.7205503     156.6521  0.021903258  0.022196809            3 
  597000   0.99699551   -7.7188311     157.2418  0.021948883  0.022180948            3 
  598000     1.032952   -7.7204715    156.85177  0.021857828  0.022164932            2 
  599000    1.0229915   -7.7086144    157.28969   0.02188226  0.022148621            4 
  600000    1.0239557   -7.7002669    157.56609   0.02188418   0.02213263            7 
  601000   0.99062214   -7.7393494    157.33473  0.021815687  0.022116268            3 
  602000    1.0272524   -7.7347137    157.67286  0.021826254  0.022100049            1 
  603000    1.0292937   -7.7547206    157.78944   0.02180617  0.022083697            7 
  604000    1.0072705   -7.7394196    158.19488  0.021826005  0.022067506            2 
  605000   0.99280257   -7.7264542    158.46308   0.02182687  0.022051372            3 
  606000    1.0199647   -7.7139821    158.96918  0.021860448  0.022035541            4 
  607000    1.0320479   -7.7546551     158.4958  0.021759445  0.022019585            2 
  608000    1.0315338   -7.7619463    158.35595  0.021704489  0.022003176            2 
  609000   0.98939548   -7.7316054    158.61472  0.021704259  0.021986961            2 
  610000    1.0238032   -7.7459138    158.79484  0.021693284  0.021970763            5 
  611000     1.014399   -7.7500387    158.76302   0.02165344  0.021954386            2 
  612000    1.0123614   -7.7109555    158.64525  0.021602022  0.021937932            2 
  613000    1.0083581   -7.7426348    158.74474  0.021580307  0.021921119            2 
  614000    0.9999857   -7.7370934      159.109  0.021594598  0.021904389            4 
  615000    1.0209593   -7.7672646    159.12398  0.021561515  0.021887686            2 
  616000    1.0181962   -7.7471155    159.00659  0.021510632  0.021871086            3 
  617000    1.0116986   -7.7556346    159.84771  0.021589372  0.021854604            2 
  618000    1.0282007   -7.7549349      159.295  0.021479909  0.021838027            2 
  619000   0.99504098    -7.762326     159.3268  0.021449489  0.021821289            3 
  620000   0.98838551   -7.7669833    159.80316  0.021478919  0.021804555            1 
  621000    1.0024068   -7.8208665    159.38204  0.021387821  0.021787747            4 
  622000   0.99875091   -7.7649824    160.23746  0.021468041   0.02177091            1 
  623000    1.0074266    -7.770934    160.07272  0.021411547  0.021754376            4 
  624000    1.0078189    -7.787356    160.53971  0.021439597  0.021738208            4 
  625000    1.0007289   -7.7398337    160.96691  0.021462255  0.021722025            3 
  626000   0.99374398   -7.7243872    161.15888  0.021453524  0.021705745            2 
  627000    1.0048206   -7.7499917     160.9875  0.021396531  0.021689311            3 
  628000    1.0171316   -7.7661008    161.45235  0.021424144  0.021672723            2 
  629000    1.0073665   -7.7840257    161.47175  0.021392654  0.021656106            4 
  630000   0.99943835   -7.7681353    161.26796  0.021331741  0.021639592            3 
  631000    0.9924966   -7.7679212    161.77003  0.021364241  0.021623117            2 
  632000    1.0189216   -7.7739793    161.63259  0.021312314  0.021606629            3 
  633000    1.0131973   -7.7861426    162.01081  0.021328438  0.021590165            2 
  634000   0.99212095   -7.7494087    162.52162  0.021361937  0.021573801            1 
  635000    1.0210586   -7.7661381    161.86164  0.021241685  0.021557383            3 
  636000   0.99888368   -7.7707426    162.12396  0.021242657  0.021540947            4 
  637000   0.98455673   -7.7411228    162.28401  0.021230248   0.02152422            2 
  638000    1.0074822   -7.7575603    162.25906  0.021193712  0.021507284            3 
  639000   0.99908906   -7.7773988    162.04718  0.021132913  0.021490021            2 
  640000   0.98609173   -7.7671775    162.28418  0.021130752  0.021472985            4 
  641000   0.98462684   -7.7534854     162.4912  0.021124701  0.021456047            3 
  642000    1.0074252   -7.7774248    162.89663  0.021144422  0.021439168            4 
  643000   0.99883397   -7.7648566     163.2728   0.02116029  0.021422444            2 
  644000   0.99128562   -7.8041267    162.88881  0.021077745  0.021405587            3 
  645000   0.99384381   -7.7284981    163.47091  0.021120272  0.021388905            4 
  646000   0.98919745   -7.8007809    163.48308  0.021089149  0.021372316            8 
  647000    1.0022519   -7.7936221    163.57351    0.0210682  0.021355447            5 
  648000   0.97480008   -7.8122833    163.41407  0.021015183  0.021338582            4 
  649000   0.99665028   -7.7831068    164.04941  0.021064382   0.02132191            2 
  650000   0.99458531   -7.8054525    164.10098  0.021038587   0.02130532            4 
  651000   0.99350245   -7.7965393     164.1133  0.021007847  0.021288685            2 
  652000    1.0281197   -7.7915833    164.13877  0.020978881  0.021271843            6 
  653000   0.99178276     -7.80664    163.88965  0.020914963   0.02125487            4 
  654000   0.99271051   -7.7584377    164.45003  0.020954387  0.021237842            3 
  655000   0.99445196   -7.8331207    163.92052  0.020855028   0.02122089            7 
  656000   0.99857841   -7.8110414    164.42484  0.020887301  0.021203678            3 
  657000   0.98330425   -7.7511625    165.01522  0.020930393  0.021186646            4 
  658000    1.0019672   -7.8016668    164.60758  0.020846958  0.021169793            3 
  659000    0.9937302   -7.8163925    164.62306  0.020817281  0.021152983            2 
  660000   0.99606129   -7.8280628    164.81246  0.020809654   0.02113573            2 
  661000    0.9611385   -7.8125444    164.71424   0.02076579   0.02111856            3 
  662000   0.97141059   -7.8133699    164.84155  0.020750447  0.021101298            3 
  663000   0.99485031   -7.7507265     165.4974  0.020801583  0.021084373            1 
  664000   0.99799762   -7.8002911    165.79065  0.020807059  0.021067471            3 
  665000   0.99485051   -7.8058692    165.83798  0.020781702   0.02105086            3 
  666000   0.98227825   -7.7978056     166.0712   0.02077968  0.021034271            1 
  667000   0.97242911   -7.7557675    166.04644  0.020745432  0.021017898            2 
  668000   0.95893084   -7.7636152    166.95857  0.020828165  0.021001802            2 
  669000   0.98268172   -7.8243721    166.05192  0.020684096  0.020985303            3 
  670000    0.9891264   -7.8052704    166.58435  0.020719446  0.020968364            4 
  671000   0.97509692   -7.7880407    166.73803  0.020707654  0.020951521            1 
  672000   0.97750717   -7.8124844    166.22024  0.020612629  0.020934909            4 
  673000    0.9864303   -7.7964189    166.76704  0.020649708  0.020918224            4 
  674000   0.97244425   -7.7642004    167.00215  0.020648139  0.020901487            3 
  675000     1.003106   -7.8315854     166.9084  0.020605976  0.020884703            3 
  676000   0.99430014    -7.858742    166.65823  0.020544653   0.02086774            3 
  677000   0.98937847   -7.8529721     166.8495  0.020537851  0.020850809            2 
  678000    0.9931292   -7.8121854     167.4451  0.020580765  0.020834129            2 
  679000   0.99271755    -7.824829     167.3281  0.020536095  0.020817237            3 
  680000   0.98435816   -7.7742303    168.16657  0.020608649  0.020800707            5 
  681000   0.98258075   -7.8276101    167.38217    0.0204824   0.02078404            2 
  682000   0.98662059   -7.7887122    168.67317  0.020610114   0.02076734            2 
  683000   0.99771517   -7.8324057    168.26215  0.020529789  0.020750976            3 
  684000   0.98224638   -7.8012026    168.70637  0.020553895   0.02073451            1 
  685000   0.97763521   -7.8210654    168.31385  0.020476138  0.020718057            9 
  686000   0.99016807   -7.8189338    168.74275   0.02049839  0.020701505            3 
  687000   0.99125062   -7.8390458    168.44796  0.020432795  0.020685184            7 
  688000   0.97688905   -7.8385807     169.3082  0.020507292  0.020668749            3 
  689000    0.9782968   -7.8215314    169.08751  0.020450835  0.020652189            3 
  690000   0.99389974   -7.8449988    168.61995  0.020364728  0.020635917           10 
  691000   0.97662871   -7.8504625    169.04222  0.020386181   0.02061945            3 
  692000     0.984869   -7.8569385    169.36624  0.020395742  0.020602895            3 
  693000   0.97769916   -7.8321753    169.18842  0.020344927  0.020586457            4 
  694000   0.95676242   -7.8409182    169.51996  0.020355423  0.020570009            4 
  695000   0.98767946   -7.8631347    169.95864  0.020378734  0.020553847            3 
  696000   0.96836591   -7.8666519    169.80151  0.020330641   0.02053763            2 
  697000   0.97119118   -7.8654403    169.88242  0.020311145  0.020521466            3 
  698000   0.98060726   -7.8518767    170.34994  0.020337863  0.020505064            3 
  699000      1.00361   -7.8332737    169.72439   0.02023419  0.020488714            3 
  700000   0.98996915   -7.8609689    170.42574  0.020288779  0.020472535            3 
  701000     1.018257   -7.8490999    170.28268   0.02024283  0.020456273            6 
  702000   0.98707466   -7.7994639    171.20541   0.02032353  0.020439981            5 
  703000   0.97840699   -7.8553701    170.33743  0.020191729   0.02042379            5 
  704000   0.96763382   -7.8561921    170.90809  0.020230598  0.020407221            3 
  705000   0.95069561   -7.8815838    170.46794  0.020149875  0.020390782            7 
  706000   0.98890031   -7.8447683    170.87117  0.020168929  0.020374003            7 
  707000   0.96320304   -7.8892638    170.75748  0.020127001  0.020357405            4 
  708000   0.95948349    -7.920872    170.28248  0.020042665  0.020340788            3 
  709000   0.98973639   -7.8724486    170.93024  0.020090531   0.02032424            7 
  710000   0.95910544   -7.8596162    171.53452  0.020133159  0.020307882            5 
  711000   0.98181768   -7.8686064    171.00066  0.020042271  0.020291306            8 
  712000   0.97627848   -7.8711811     171.3122  0.020050585  0.020274921            2 
  713000   0.98307174   -7.8743109    170.82238  0.019965215  0.020258394            4 
  714000   0.97460504   -7.8263403    171.80787  0.020052272  0.020242047            4 
  715000   0.98060892    -7.849943     171.7195  0.020013928  0.020225871            4 
  716000   0.94826621   -7.8539005    172.13929  0.020034833  0.020209765            3 
  717000   0.97784493   -7.8598298     172.1169  0.020004288  0.020193619            6 
  718000   0.96266566   -7.8310888    172.73171  0.020047784  0.020177626            8 
  719000   0.95951896   -7.8777453    172.15762  0.019953363  0.020161637            2 
  720000   0.97666561   -7.8585938    172.55993  0.019972214  0.020145422            3 
  721000   0.96494175   -7.8649976    172.51014  0.019938758   0.02012933            4 
  722000   0.97517418   -7.8594253    172.33415   0.01989083  0.020113238            2 
  723000   0.98003298   -7.8579041    172.56388  0.019889797  0.020097111            4 
  724000   0.94619284   -7.8658407    173.14076  0.019928725  0.020080918            2 
  725000   0.97718797   -7.8704922    173.41331  0.019932564  0.020064755            3 
  726000    0.9587857   -7.8946482    173.00146  0.019857835  0.020048885            4 
  727000   0.96508822   -7.8578384    173.94669  0.019938869  0.020033097            2 
  728000   0.97388722   -7.8776369    173.74302  0.019888166  0.020017457            5 
  729000   0.94769533   -7.8726697    173.80019   0.01986742  0.020001658            5 
  730000   0.98785562   -7.9201562    174.09678  0.019874061  0.019985888            3 
  731000   0.95316736   -7.8511764    174.50345  0.019893234  0.019970192            4 
  732000   0.95051021   -7.8816518    174.55393  0.019871804   0.01995482            4 
  733000    0.9510044   -7.9317434    174.61337  0.019851452  0.019939317            4 
  734000   0.96291039   -7.8812722    174.38107  0.019798033  0.019923901            5 
  735000   0.95446197   -7.8760311    175.10923  0.019853654  0.019908497            1 
  736000   0.96655933   -7.9113044    174.63919  0.019773459  0.019893303            8 
  737000   0.95389854    -7.879338    175.10709  0.019799535  0.019878014            2 
  738000   0.95178263   -7.8672185    175.84775  0.019856341  0.019862752            3 
  739000   0.96380476   -7.9019405    175.50087  0.019790355  0.019847663            3 
  740000   0.98002439   -7.8840136     175.3901  0.019751137  0.019832645            2 
  741000   0.95671983   -7.8980265    175.72162  0.019761766  0.019817505            5 
  742000   0.95147007   -7.8647834    176.04845  0.019771839  0.019802317            2 
  743000   0.96482056   -7.8828807    175.58627   0.01969339  0.019787108            3 
  744000   0.95699853   -7.9051364    175.78998  0.019689738  0.019771858            3 
  745000   0.94264645   -7.8761353    175.68921  0.019652037  0.019756628            5 
  746000    0.9493101   -7.8669592    176.40375  0.019705512   0.01974128            2 
  747000   0.96392207   -7.8813949    175.78533  0.019610144  0.019725844            5 
  748000   0.95440506    -7.872887    175.85834  0.019592061  0.019710356            1 
  749000    0.9742568   -7.8809349      176.531  0.019640743  0.019694978            5 
  750000   0.93488967   -7.8825702    176.68238  0.019631375  0.019679728            3 
  751000   0.94779788   -7.9083605    176.41791  0.019575889  0.019664528            5 
  752000   0.96611853   -7.9054665    176.86222  0.019599093  0.019649072            2 
  753000   0.95804937   -7.9183234    176.63062  0.019547435   0.01963357            2 
  754000   0.94842856   -7.8771345    177.22337  0.019587021   0.01961815            7 
  755000   0.96843346   -7.9050801    176.70519  0.019503884  0.019602711            4 
  756000   0.95974202   -7.9209243     176.6057  0.019467118  0.019587013            2 
  757000   0.95577741   -7.9196739    176.41778  0.019420716  0.019571387            4 
  758000    0.9392218   -7.9097581    177.04681  0.019464249  0.019555786            8 
  759000   0.93367933   -7.8988101    176.56134  0.019385303   0.01954028            4 
  760000   0.94771029    -7.896881    177.52274  0.019465212  0.019524737            5 
  761000   0.94772765     -7.90518     177.3409  0.019419721  0.019509262            3 
  762000   0.96160805   -7.8940675    177.64438  0.019427425  0.019493817            4 
  763000   0.95247047   -7.9657559    177.86644  0.019426217  0.019478434            2 
  764000    0.9402602   -7.9272735    177.33189  0.019342484  0.019462962            3 
  765000   0.94684842   -7.9086291    178.47736  0.019441979  0.019447766            6 
  766000   0.94511847   -7.9051757    177.68936   0.01933087   0.01943244            4 
  767000   0.95784492    -7.894802    178.21616  0.019362903  0.019416831            3 
  768000    0.9410987   -7.9200001    177.84093  0.019296976  0.019401148           13 
  769000   0.95943264     -7.91018    177.81751  0.019269344  0.019385395            5 
  770000   0.95332997   -7.9044975    178.00341  0.019264438   0.01936966            5 
  771000   0.94311157   -7.8966831     177.8396  0.019221747  0.019354046            2 
  772000    0.9544221    -7.942014    177.73101  0.019185126  0.019338169            4 
  773000   0.94423742   -7.9217491    177.53935  0.019139646  0.019322181            5 
  774000    0.9414805   -7.9219628    178.21349  0.019187499  0.019306449            2 
  775000   0.94983066   -7.9300843    178.23154  0.019164682  0.019290691           16 
  776000   0.92906411   -7.9027842    178.75765  0.019196483  0.019274966            7 
  777000   0.95960164   -7.9166939    178.64027  0.019159188  0.019259317            1 
  778000   0.96558991   -7.9339822    178.54006  0.019123828  0.019243691            3 
  779000    0.9289503   -7.9208323    178.73759  0.019120409  0.019227966            5 
  780000   0.94302716   -7.9448068    178.72789   0.01909486  0.019212283            3 
  781000   0.94942647   -7.9236202    178.45308  0.019041088  0.019196471            3 
  782000   0.94880096   -7.9137259    178.90588  0.019064992  0.019180641            6 
  783000   0.96213068   -7.9434077    179.04342  0.019055281  0.019164802            3 
  784000   0.95785404   -7.9655635    178.72102  0.018996707  0.019149072            6 
  785000   0.95870086   -7.9708368    179.08459  0.019011102  0.019133316            4 
  786000   0.92836756   -7.9083328    178.82951  0.018959872  0.019117401            5 
  787000   0.93967983   -7.9379795    178.80731  0.018933429  0.019101287            2 
  788000   0.93168673   -7.9652711    179.03205  0.018933169  0.019085209            4 
  789000   0.94025803   -7.9280386    179.61694  0.018970948   0.01906924            5 
  790000   0.93884458   -7.9188827    179.73009   0.01895887  0.019053293            5 
  791000   0.95225004   -7.9585484    178.75414  0.018832084  0.019037225           10 
  792000   0.93501944   -7.9379658    179.36966  0.018873071  0.019021201            7 
  793000   0.94293611   -7.9165753    179.57208  0.018870542  0.019005322            2 
  794000   0.94665822   -7.8951158    180.03879  0.018895759  0.018989425            6 
  795000    0.9114446   -7.9830951    179.45781  0.018811091  0.018973475            4 
  796000   0.94145729   -7.9441018     180.2784  0.018873367   0.01895751            6 
  797000   0.93196954   -7.9498544    180.23946  0.018845615  0.018941707            7 
  798000   0.94200315   -7.9852315    179.71021  0.018766731  0.018925725           11 
  799000   0.95560604   -7.9386763    180.25433  0.018799992  0.018909738            5 
  800000   0.94822918   -7.9846956    179.88464  0.018737983  0.018893855            4 
  801000   0.92652573   -7.9987498    180.27581  0.018755286  0.018877802           11 
  802000   0.93653086    -7.936724    180.43352  0.018748287   0.01886205            4 
  803000   0.92490506   -7.9547867    180.33703  0.018714926  0.018846403            5 
  804000   0.94030246   -7.9484727    181.35582  0.018797245   0.01883079            3 
  805000   0.93172296   -7.9753136     180.9546   0.01873236  0.018815171            7 
  806000   0.95196009   -7.9668047    180.48806  0.018660883  0.018799423            7 
  807000    0.9038041   -7.9496357    180.74263  0.018664047  0.018783512            2 
  808000    0.9290742   -7.9610389    181.05455  0.018673117  0.018767571            3 
  809000   0.91827879    -7.983506       180.79  0.018622786  0.018751619            7 
  810000   0.91914011    -7.967887    180.37618   0.01855722  0.018735675            8 
  811000   0.90435139   -7.9956806    180.83879  0.018581873  0.018719651            4 
  812000   0.92090513   -7.9708767     181.5761  0.018634657  0.018703914            3 
  813000   0.92340241   -7.9852124    181.33285  0.018586803   0.01868826            4 
  814000   0.93883591   -7.9588658    181.71244  0.018602829  0.018672465            5 
  815000   0.92054203   -7.9588525    181.50121  0.018558406  0.018656723            3 
  816000   0.92429868   -8.0075402    180.94874  0.018479242  0.018640933            7 
  817000   0.89975751   -7.9998083    181.18048  0.018480261  0.018624987            5 
  818000   0.93554319   -7.9688031    181.94589  0.018535645  0.018609009            4 
  819000   0.93196458   -7.9701632    181.88051   0.01850636  0.018593366            3 
  820000   0.91418396   -7.9747628    182.39805  0.018536387  0.018577871            3 
  821000   0.95338243   -7.9632842    182.20823  0.018494542  0.018562332            6 
  822000   0.90674338   -8.0246551    181.93025  0.018443861  0.018546686           12 
  823000    0.9301717   -7.9804078    182.73869   0.01850331  0.018531167            5 
  824000   0.92405318   -7.9890768    182.74141   0.01848113  0.018515765            7 
  825000   0.92843179   -7.9896729     182.6185  0.018446313  0.018500265            3 
  826000   0.92218766   -7.9955023    182.42412   0.01840437   0.01848482            3 
  827000   0.92164631   -7.9499846     183.0847   0.01844868  0.018469524            3 
  828000   0.93841702   -7.9747135    183.08691  0.018426621  0.018454242            3 
  829000    0.9084277   -7.9735294    183.67874  0.018463886  0.018439012            2 
  830000   0.91412988   -7.9882298    183.20272  0.018393847  0.018423708            3 
  831000   0.92381844   -8.0031736    183.17444  0.018368877  0.018408504           12 
  832000   0.94648088   -7.9792148    183.62546  0.018391973  0.018393262            4 
  833000   0.90696344    -7.994239    183.25186  0.018332519  0.018378166            4 
  834000   0.92848181   -7.9920131    183.46957  0.018332292  0.018362932            4 
  835000   0.91182901   -7.9695099    184.16853  0.018380093  0.018347977            5 
  836000   0.92183551   -7.9862032    184.08222  0.018349503  0.018333077            5 
  837000   0.92573604   -7.9799503    184.38307  0.018357534  0.018318021            2 
  838000   0.91213999   -7.9771199    183.89646  0.018287238  0.018303072            5 
  839000   0.93475925   -7.9936181    184.66821  0.018342095  0.018288003            7 
  840000   0.92591684   -7.9909488    184.29819   0.01828355  0.018272998            4 
  841000   0.91166301   -7.9809984    184.86835  0.018318306  0.018258204            3 
  842000   0.92471399   -8.0047046    184.42406  0.018252579  0.018243329            4 
  843000   0.92573009   -8.0030039    184.39153  0.018227711  0.018228202           11 
  844000   0.91106363   -8.0440223    184.10646  0.018177968  0.018213115            4 
  845000   0.91113059   -8.0130288    184.66412  0.018211452  0.018197905            2 
  846000   0.91599043   -8.0152557    184.34115  0.018158112  0.018182613            5 
  847000   0.92879148   -8.0327722    184.43936  0.018146336  0.018167318            5 
  848000   0.89692923   -8.0033944    184.74449  0.018154922  0.018152045            3 
  849000   0.90996119   -8.0147014    184.56515  0.018115936  0.018136652            7 
  850000   0.90825607   -8.0125727    184.78117  0.018115801  0.018121397            4 
  851000   0.88963261   -8.0064384    184.96315  0.018112334  0.018106161            2 
  852000   0.89779632   -8.0022805    184.95077  0.018089864  0.018090841            2 
  853000   0.91878474   -7.9750325     184.8713  0.018060893  0.018075538            6 
  854000   0.91323788   -8.0342347    184.39476  0.017993243   0.01806021            5 
  855000   0.90748438   -8.0412071    185.27182  0.018057682  0.018044981            5 
  856000   0.92138324   -8.0671638    183.99364  0.017912153  0.018029618            5 
  857000    0.9069824   -8.0196903    185.02441  0.017991483  0.018014356            5 
  858000   0.89973748    -8.045278    184.49382   0.01791898  0.017999232           11 
  859000    0.9090704   -8.0437557    185.60288  0.018005712  0.017983901            5 
  860000   0.90897053   -8.0020287    185.64429  0.017988788  0.017968658            4 
  861000   0.90394366   -8.0328845    185.45466  0.017949541  0.017953558           10 
  862000   0.92078485   -8.0570762    185.56815  0.017939689  0.017938407            4 
  863000   0.90867069   -7.9988227    185.68009  0.017929711  0.017923294            6 
  864000   0.88532326    -7.994144    185.87661  0.017927913  0.017908266            3 
  865000   0.91216092   -7.9987898     185.9482  0.017914085  0.017893194            6 
  866000   0.90713166   -8.0553188    185.69266  0.017868809   0.01787804            4 
  867000   0.91107467   -7.9998734     186.0668   0.01788416  0.017862975           10 
  868000    0.9025618   -8.0428881    186.27114  0.017883174  0.017847973            3 
  869000   0.90703389   -8.0174887    186.13661  0.017849694  0.017832924            7 
  870000   0.89881822   -8.0142016    186.12725  0.017828281  0.017817852           10 
  871000   0.91559498   -8.0184636     185.9211  0.017788088  0.017802908            7 
  872000   0.89449428   -8.0756644    186.08283  0.017783145  0.017787881            4 
  873000   0.89549174   -8.0774663     186.5428  0.017806682  0.017772909            4 
  874000   0.88399944    -8.052726     186.5902  0.017790827  0.017758016           11 
  875000   0.90447445   -8.0453148    186.93314  0.017803156  0.017743178            4 
  876000   0.90135301   -8.0610678    186.53211  0.017744683  0.017728253            3 
  877000   0.91921378   -8.0679118    186.41387  0.017713215   0.01771328            4 
  878000   0.91479494   -8.0740122    186.61436  0.017712069  0.017698209            7 
  879000   0.91261719   -8.0676543    186.13047  0.017646044  0.017683063            7 
  880000   0.91048805   -8.0703336    186.83763  0.017692957  0.017668093            3 
  881000   0.91467418   -8.0246503    186.96808  0.017685214  0.017653067            3 
  882000   0.91517736    -8.045136    186.82418  0.017651566  0.017638242            3 
  883000   0.91056331   -8.0209592    187.06712  0.017654504  0.017623464            3 
  884000   0.91228312   -8.0618472    187.36744  0.017662843  0.017608749            2 
  885000   0.87975297   -8.0527857    187.28542  0.017635162  0.017594066            4 
  886000   0.91414992   -8.0157931    187.70997  0.017655189  0.017579312            3 
  887000    0.8755968   -8.0334573    187.75124  0.017639162   0.01756467            3 
  888000   0.88626761   -8.0439625    188.49127  0.017688745  0.017549941            4 
  889000   0.90418186   -8.0551791    187.83815  0.017607626  0.017535271            3 
  890000   0.90724169     -8.05997    187.51738  0.017557808  0.017520679            3 
  891000   0.90361263   -8.0807347    187.94649  0.017578235  0.017506097            2 
  892000   0.90418502   -8.0176337    188.23302  0.017585297  0.017491497            2 
  893000   0.88245763   -8.0214139    188.32553  0.017574238  0.017476986            9 
  894000   0.88488969   -8.0611307    187.99779   0.01752403  0.017462288            7 
  895000   0.88984673   -8.0633948    188.06823  0.017511008  0.017447628            3 
  896000   0.88478469   -8.0268669    188.34855  0.017517537  0.017433021            4 
  897000    0.9136695    -8.079204    187.94732  0.017460732  0.017418418            4 
  898000    0.8856771   -8.0258727    188.51611  0.017494071  0.017403677            4 
  899000   0.87769643   -8.0913124    188.47097  0.017470427  0.017388871            8 
  900000   0.89624346   -8.0748665    188.37127  0.017441784  0.017374027            3 
  901000    0.8923565   -8.0655036    188.57143  0.017440939  0.017359225            2 
  902000   0.90145818   -8.0601068    188.60624  0.017424819  0.017344538            4 
  903000   0.88756546    -8.023075    188.35483  0.017382321  0.017329868            2 
  904000   0.90436103   -8.1043343    188.33577  0.017361336  0.017315099            4 
  905000   0.90668913   -8.0890094    188.56257  0.017363036  0.017300313            7 
  906000   0.88993528    -8.081985     188.6654  0.017353329   0.01728557            5 
  907000   0.89392188   -8.0549747    188.79965  0.017346532  0.017270892            3 
  908000   0.90003437   -8.0690754    188.82599  0.017329845  0.017256244           13 
  909000    0.8962711   -8.0837108    188.66214  0.017295759  0.017241499            7 
  910000   0.90037976   -8.0925012    188.67842  0.017278243  0.017226643           10 
  911000    0.8960267   -8.1214504    188.09491  0.017205901  0.017211818            9 
  912000   0.90873319   -8.0524308    188.36741  0.017211934  0.017197043            6 
  913000   0.88202302   -8.0755353    189.18749  0.017267934  0.017182331           10 
  914000   0.87528207   -8.0861044    189.04632  0.017236171  0.017167719            7 
  915000   0.89131356   -8.0938396    188.95449   0.01720897  0.017152915            4 
  916000   0.88527039   -8.0969667    189.33096  0.017224432  0.017138149            4 
  917000   0.87793062   -8.0800686    189.05174  0.017180274   0.01712334            5 
  918000   0.90147273   -8.1153167    189.04891  0.017161303  0.017108549            5 
  919000   0.89239942   -8.0978086    189.27962  0.017163549  0.017093809            3 
  920000   0.88966912   -8.1300724    189.22248  0.017139718  0.017079144            4 
  921000   0.88744163   -8.1149771    189.20439  0.017119471   0.01706435            7 
  922000    0.9063166    -8.137391    188.90267  0.017073632  0.017049631            3 
  923000   0.89899881   -8.1063468    189.16537  0.017078852  0.017034842            2 
  924000   0.89624818   -8.0882796    189.61072  0.017100534  0.017020156            2 
  925000   0.87954683   -8.1020733    189.52853  0.017074642  0.017005545            4 
  926000   0.86959014   -8.1029855    189.58406    0.0170612  0.016990982            2 
  927000   0.86715589   -8.1268476    189.90649  0.017071781   0.01697657            4 
  928000   0.87936924   -8.1116533    190.12018  0.017072574  0.016962044            6 
  929000   0.89174254   -8.1000317    190.23045  0.017064088  0.016947595            6 
  930000   0.88788152   -8.1145416    189.97197  0.017022578  0.016933163            6 
  931000   0.88561558   -8.1280307    190.12751  0.017018216  0.016918503            4 
  932000   0.86954567   -8.1099276    190.09097  0.016996689  0.016903917           17 
  933000   0.86944145   -8.0993742    190.07005  0.016976603  0.016889386            4 
  934000    0.8816561   -8.1119244    190.29258  0.016978282  0.016874934            4 
  935000   0.87633296   -8.1159053    190.28882  0.016959788  0.016860404            5 
  936000   0.88337634   -8.1149296    190.35772  0.016947803   0.01684585            3 
  937000    0.8687143   -8.1310587    190.42447  0.016935652  0.016831249            6 
  938000   0.89011101   -8.1197733     190.7524  0.016946731    0.0168167            6 
  939000   0.88349437   -8.1313894    190.46093  0.016902816   0.01680221           11 
  940000   0.88284155   -8.1449656    190.28806  0.016869509  0.016787673            4 
  941000   0.84761603   -8.1514822    190.93146   0.01690856  0.016773178            2 
  942000   0.88550136   -8.1064073    190.93026  0.016890504  0.016758763            5 
  943000   0.85976624   -8.1258758    190.75905  0.016857463  0.016744355            4 
  944000   0.89235487   -8.1277608     190.2562  0.016795215  0.016729941            6 
  945000   0.88842379   -8.1789271    191.26159  0.016866101  0.016715594            5 
  946000   0.87210193    -8.157416    190.89006  0.016815545  0.016701258            2 
  947000   0.88483128   -8.1237765    191.04129  0.016811096  0.016687046            3 
  948000   0.86111974   -8.1016561    191.56964  0.016839807  0.016672819            5 
  949000   0.88438627   -8.0988801    191.54814  0.016820174  0.016658679            3 
  950000   0.85913179   -8.1585735    191.10614  0.016763697  0.016644438            6 
  951000   0.88395133    -8.130783    191.20672  0.016754882  0.016630175            7 
  952000   0.87143907   -8.1679419    190.90116  0.016710536  0.016615866           13 
  953000   0.86727509   -8.1536077    191.03277  0.016704509  0.016601446            4 
  954000   0.87568957   -8.1146983    191.38576  0.016717834  0.016587115           10 
  955000   0.85747669   -8.1563279     191.7329   0.01673062  0.016572791           12 
  956000   0.90102305   -8.1481911     191.3386  0.016678749  0.016558492            5 
  957000   0.86773202   -8.1722946    191.60918  0.016684882  0.016544187           14 
  958000   0.88904563   -8.1700549    191.44624  0.016653291  0.016529943            8 
  959000   0.84851047    -8.129235    191.76439  0.016663572  0.016515745           12 
  960000   0.88454212    -8.146259    191.41161  0.016615591  0.016501518            5 
  961000   0.84396668   -8.1729725    191.18614  0.016578749  0.016487286            9 
  962000   0.87072353    -8.140813    192.01307  0.016633149  0.016473018           11 
  963000   0.86190037   -8.1738944    191.88353  0.016604667  0.016458913            6 
  964000   0.86600809    -8.163253    192.27188  0.016621013  0.016444804            9 
  965000   0.85527549   -8.1774229    191.07122  0.016500106  0.016430732           11 
  966000   0.85958928   -8.1662784    192.08398  0.016570392  0.016416768            3 
  967000   0.85130156   -8.1132029    192.85214  0.016619454  0.016402826            6 
  968000   0.85966502   -8.1705355     192.2207  0.016547925  0.016388822           10 
  969000    0.8474499   -8.1240683     193.0844  0.016605126  0.016374803            5 
  970000   0.86217177   -8.1599942    192.45374  0.016533826  0.016360793           12 
  971000   0.87381978   -8.1484731    192.61223  0.016530401  0.016346814            5 
  972000   0.86470707   -8.1572043     192.8897  0.016537183  0.016332875            5 
  973000   0.85844843   -8.1550491    192.85453  0.016517174  0.016318962            3 
  974000   0.87082998   -8.1419128    192.74896  0.016491184  0.016305152            5 
  975000   0.87605463   -8.1567517    193.09739  0.016504051  0.016291294            6 
  976000    0.8693787   -8.1437302    192.78771  0.016460699  0.016277444            8 
  977000   0.86968843   -8.1548719     192.7335  0.016439227  0.016263524            6 
  978000   0.86635377   -8.1702165    192.91109   0.01643755  0.016249625           11 
  979000   0.86867407   -8.1603462      192.644  0.016398025  0.016235642            3 
  980000   0.87103401   -8.1672535    192.94512  0.016406898  0.016221716            7 
  981000   0.86846579   -8.1985427    192.69149  0.016368628  0.016207692           12 
  982000   0.84498825   -8.1788525    192.75112   0.01635702  0.016193656            6 
  983000   0.88167905   -8.1850465    192.73358  0.016338892  0.016179741            5 
  984000   0.86134581   -8.1541967    193.48378  0.016385821  0.016165863            6 
  985000   0.84218489   -8.1911741    192.98344  0.016326856   0.01615199            7 
  986000   0.84868348   -8.2090457    192.79992  0.016294787  0.016137992           13 
  987000   0.85553395    -8.211973    193.30692  0.016321084  0.016123985           13 
  988000   0.85305331   -8.1575511    193.35671  0.016308764  0.016110073            8 
  989000   0.86114701    -8.239883    192.53548  0.016223077   0.01609612            5 
  990000   0.85958795   -8.1892017    193.17869  0.016260832  0.016082249            4 
  991000   0.84185506   -8.2063189    192.83342   0.01621539  0.016068189            6 
  992000   0.85289543   -8.1564078    193.16474  0.016226877  0.016054201            5 
  993000   0.86429808   -8.2121707    192.98121  0.016195134  0.016040186           11 
  994000   0.86369068   -8.2004924    193.62552  0.016232857  0.016026229            7 
  995000   0.88390751   -8.1783378    193.64122  0.016217858  0.016012371            9 
  996000   0.86245101   -8.2110749     193.3317  0.016175678  0.015998513           12 
  997000   0.85038952   -8.2032671    193.18032    0.0161468  0.015984646            4 
  998000   0.86051745   -8.2144414    193.41357  0.016150098   0.01597073            6 
  999000   0.85803612   -8.1479072    194.49814  0.016224403  0.015956918            8 
 1000000   0.87953129   -8.1800518    194.49065  0.016207554  0.015943297            3 
 1001000   0.85366924   -8.1966328    193.62975  0.016119693  0.015929641            4 
 1002000   0.84590906   -8.1790114    193.82581  0.016119911  0.015915992            5 
 1003000   0.84054181   -8.2042618     193.5592  0.016081688  0.015902287            7 
 1004000   0.85039106   -8.1788993    194.44712  0.016139369  0.015888552           12 
 1005000   0.85937991   -8.1457501    194.61922  0.016137581  0.015875042            8 
 1006000    0.8640983   -8.2002034      193.889  0.016061051  0.015861423           12 
 1007000   0.85135503   -8.1813858    194.77878  0.016118734  0.015847767            8 
 1008000   0.86363609   -8.2131227    194.29828  0.016063019   0.01583422            9 
 1009000   0.84277593   -8.2210843    194.43502  0.016058393  0.015820489            3 
 1010000    0.8519237   -8.1965743    194.42438  0.016041615  0.015806758            7 
 1011000   0.84864161   -8.2026409    194.40462   0.01602412  0.015793037            9 
 1012000   0.82514136   -8.2291176    194.14722   0.01598709  0.015779412            3 
 1013000   0.85092648   -8.2197495    194.64498  0.016012256  0.015765691           12 
 1014000   0.84210077   -8.2309138    194.21709  0.015961299  0.015751994            5 
 1015000   0.84909267   -8.1877624    194.33016  0.015954857  0.015738204            5 
 1016000   0.87097061   -8.2613191    194.14286  0.015923791  0.015724391            8 
 1017000   0.85209737   -8.1752561    194.60604  0.015946087  0.015710642           11 
 1018000   0.86815173   -8.1853912    194.50014  0.015921753  0.015696979            8 
 1019000   0.85565862   -8.2517082    194.12562    0.0158755  0.015683291            6 
 1020000   0.85336121   -8.1987568    194.68981   0.01590603  0.015669681            5 
 1021000   0.86384282   -8.2048185    194.31381  0.015859762  0.015655928            9 
 1022000   0.84998737   -8.2072465    194.36879  0.015848727  0.015642102            6 
 1023000   0.84026344   -8.1888426     194.6101  0.015852891   0.01562829           10 
 1024000   0.85969899   -8.2292776     194.5977  0.015836402   0.01561455           13 
 1025000   0.87030594   -8.2004022    194.81672  0.015838757  0.015600845           17 
 1026000   0.84099053   -8.1895144     194.8089  0.015822686  0.015587239           13 
 1027000   0.84170775   -8.1874381    194.86577  0.015811893  0.015573639            5 
 1028000   0.86777378   -8.2071636    195.16781  0.015820996  0.015560024            2 
 1029000    0.8533462   -8.2281549    195.03695  0.015795024  0.015546384            4 
 1030000   0.83816961   -8.2086327    194.56914   0.01574184  0.015532762            5 
 1031000   0.83754399   -8.2251503    194.61809  0.015730528  0.015519017            4 
 1032000   0.83258608   -8.2222457    194.75259  0.015726146  0.015505318            3 
 1033000   0.84503349   -8.2205809    194.69948  0.015706638  0.015491561            3 
 1034000   0.83878582   -8.2315519    194.48758  0.015674369  0.015477823            7 
 1035000   0.82430486   -8.2192802    194.91737   0.01569383  0.015464165            7 
 1036000   0.83871252   -8.2412305    194.95366    0.0156816  0.015450492            6 
 1037000   0.84838573   -8.2095928    194.94979  0.015666168  0.015436827            6 
 1038000   0.85435857   -8.2050555    195.19642  0.015670875  0.015423341            5 
 1039000   0.85755046   -8.2478047      195.234  0.015658807  0.015409822           11 
 1040000   0.83149871   -8.2224793    195.50599  0.015665544  0.015396361            6 
 1041000   0.82796176   -8.2343973    194.94389  0.015605499  0.015382775            7 
 1042000   0.83561442   -8.2437086    194.95143  0.015591125  0.015369174            7 
 1043000   0.84456779   -8.2387475    195.39949  0.015611976  0.015355664           11 
 1044000   0.85079542    -8.230749    195.51157  0.015605968  0.015342234            7 
 1045000    0.8310317   -8.2480972    194.86015  0.015539087  0.015328715            7 
 1046000   0.83772237   -8.2362059      195.083  0.015541985  0.015315143            9 
 1047000   0.82994586   -8.2898943    195.55543  0.015564743  0.015301607            8 
 1048000   0.83179656   -8.2874808    195.33763  0.015532572  0.015288042           27 
 1049000   0.83575063   -8.2787974    194.90043  0.015483033  0.015274431           18 
 1050000   0.83098273   -8.2544501    194.86439  0.015465428  0.015260752           34 
 1051000   0.82422073   -8.2117889     195.2226  0.015479115  0.015247237           21 
 1052000   0.83192134    -8.233055    195.30514   0.01547094  0.015233781           11 
 1053000    0.8166229   -8.2449017    195.37791  0.015462006   0.01522025            6 
 1054000   0.85033311   -8.2758565     195.8361  0.015483563  0.015206827            8 
 1055000   0.84063541   -8.3086644    194.75407  0.015383418  0.015193282            8 
 1056000   0.81275055   -8.2582056    196.05611    0.0154716  0.015179778            7 
 1057000   0.82246232    -8.267296    195.49602  0.015412805  0.015166328            7 
 1058000   0.85039919   -8.2386817    196.04584  0.015441544   0.01515296           18 
 1059000   0.82986632   -8.2522521    196.05207  0.015427453  0.015139624           11 
 1060000   0.84629679    -8.266597    196.05808  0.015413371    0.0151262           15 
 1061000   0.83257076   -8.2880032     195.5221  0.015356747  0.015112715            9 
 1062000   0.84085511   -8.2887802    196.06092  0.015384567  0.015099222           35 
 1063000   0.83603388   -8.2750767    195.72481  0.015343745   0.01508577           25 
 1064000   0.81945174   -8.2979923    195.28869  0.015295167  0.015072246            4 
 1065000    0.8256802   -8.2623232    195.39154  0.015288853  0.015058714           11 
 1066000   0.82675161   -8.2786474    195.32924  0.015269641   0.01504514           25 
 1067000   0.83343003   -8.2747647    195.79462  0.015291676  0.015031552           20 
 1068000   0.85223305   -8.3023344    195.21915  0.015232456  0.015017894           29 
 1069000   0.84095847   -8.3458993    195.08499  0.015207748  0.015004201           26 
 1070000   0.81465582   -8.2890357    196.22362  0.015282213  0.014990598           10 
 1071000   0.83602379    -8.301305    195.68264  0.015225851  0.014977098           19 
 1072000   0.80557394    -8.245477     195.5041  0.015197769  0.014963649           15 
 1073000   0.82726066   -8.2891637    195.77899  0.015204954  0.014950153            8 
 1074000   0.81697614   -8.3368742    196.02325  0.015209749    0.0149366           16 
 1075000   0.82487549   -8.3084746    195.77234   0.01517615  0.014923045            9 
 1076000   0.81622544   -8.3157139    195.50306  0.015141191  0.014909515            7 
 1077000   0.81617692   -8.2977646    196.08227  0.015171949  0.014896004            9 
 1078000   0.81497626   -8.3053337    195.59227  0.015119996  0.014882514           23 
 1079000   0.82409669   -8.3038233    195.85913  0.015126593  0.014868958            9 
 1080000   0.82919202   -8.2891679    195.53344  0.015087457  0.014855429            7 
 1081000   0.81649122   -8.2943902    196.01877  0.015110913  0.014842005           23 
 1082000    0.7999614   -8.2956223    196.37224  0.015124171  0.014828539            5 
 1083000   0.82318747   -8.3083066     196.3291  0.015106887   0.01481507           14 
 1084000   0.82576252   -8.2715787    196.00347  0.015067918  0.014801598            5 
 1085000   0.81327091   -8.2583305    196.12521   0.01506338  0.014788141            8 
 1086000   0.82020846   -8.2796878    195.86804  0.015029776  0.014774724            8 
 1087000   0.83137375   -8.2856553    195.92933  0.015020648  0.014761354           10 
 1088000   0.80567776   -8.2523332     196.8626  0.015078324  0.014748115            5 
 1089000   0.80057167   -8.3013059    196.19942  0.015013729  0.014734855           11 
 1090000   0.82218252   -8.2859398    196.43566  0.015018017   0.01472151            4 
 1091000   0.80026998   -8.3127669    196.30404  0.014994198  0.014708179           15 
 1092000   0.81070233   -8.3179064    195.83813  0.014944912  0.014694851            3 
 1093000   0.82453533   -8.3017502    196.57398  0.014987342  0.014681541            5 
 1094000   0.78805712   -8.3041454    196.66703   0.01498073  0.014668222            4 
 1095000   0.82498252   -8.3022581    195.96702  0.014913777  0.014654865            7 
 1096000   0.80783304   -8.3267257     195.9629  0.014899855  0.014641521            3 
 1097000    0.8100953   -8.3224679    196.19804  0.014904136  0.014628167            5 
 1098000   0.82115901   -8.3054075    196.20787  0.014891307  0.014614781            3 
 1099000   0.80846519   -8.3064057    196.17024  0.014874904   0.01460137            7 
 1100000   0.83952429   -8.3256231    196.13147  0.014858445  0.014588016            6 
 1101000   0.80739999   -8.3206413    196.32802  0.014859826  0.014574707            6 
 1102000   0.81745973   -8.2930229    196.46074  0.014856378  0.014561449            6 
 1103000   0.81570238   -8.3040757    196.52165  0.014847511  0.014548169            2 
 1104000   0.82298343   -8.3288987    196.13823   0.01480512  0.014534932           12 
 1105000   0.80762377   -8.3019393      196.611  0.014827376   0.01452174            2 
 1106000   0.81550237   -8.2976132    197.32026   0.01486741  0.014508638            7 
 1107000   0.81382174   -8.3117363    196.35531  0.014781339  0.014495537            7 
 1108000   0.81750477   -8.2887413    197.05087  0.014820312  0.014482466            5 
 1109000   0.80639013   -8.2961022    197.31215  0.014826582  0.014469397           16 
 1110000   0.80632474   -8.2919975    196.83114  0.014777113  0.014456361            3 
 1111000   0.79309211   -8.3009764    197.56694  0.014819002  0.014443311            7 
 1112000   0.80661314   -8.3289214    197.12535  0.014772583  0.014430346            5 
 1113000   0.81259027   -8.3484132    197.07025  0.014755185  0.014417352           10 
 1114000   0.82538882   -8.3184412    196.93827  0.014732067  0.014404358           10 
 1115000   0.81124014   -8.3291097    196.52408  0.014687898  0.014391347            8 
 1116000   0.80296887   -8.3056568    197.32269  0.014734371  0.014378291           16 
 1117000   0.79877948   -8.3365282    196.95479  0.014693733  0.014365231           14 
 1118000   0.81426461   -8.3249352    196.93778  0.014679322  0.014352201           21 
 1119000   0.80773688   -8.3367464    196.76974  0.014653689  0.014339135           14 
 1120000    0.8087479   -8.3297366    196.86738  0.014647871  0.014326067           12 
 1121000   0.81653951   -8.3209804    196.92968  0.014639435   0.01431297           12 
 1122000   0.79515175   -8.3417023    197.20233  0.014646637  0.014299911           17 
 1123000   0.80937787    -8.335838    196.91604  0.014612351  0.014286857           29 
 1124000   0.81208564   -8.3366691    196.70118  0.014583421  0.014273901           13 
 1125000   0.82117057   -8.3593594    196.99248  0.014592036  0.014260897           27 
 1126000   0.79523283   -8.3422979    196.56533  0.014547463  0.014247852           18 
 1127000   0.80640951   -8.3379631    197.22743  0.014583513  0.014234755           17 
 1128000   0.78822681    -8.365457    196.86243   0.01454362  0.014221684           24 
 1129000   0.80700808   -8.3608722     196.8435   0.01452934  0.014208546           21 
 1130000   0.80675653   -8.3580725    196.22865   0.01447114  0.014195423           20 
 1131000   0.80286927   -8.3629046    196.82041  0.014501946  0.014182286           18 
 1132000   0.81615347   -8.3549874      196.798  0.014487485  0.014169197           27 
 1133000   0.79822272   -8.3668728    196.78425  0.014473687  0.014156095           24 
 1134000   0.80080446   -8.3716688    196.76608  0.014459588  0.014143008           26 
 1135000   0.79760037   -8.3752725    196.67506  0.014440166  0.014129933           30 
 1136000   0.80159373   -8.3590154    196.74363  0.014432485  0.014116836           24 
 1137000   0.81440995   -8.3922898    196.20633  0.014380411  0.014103768           17 
 1138000   0.79872424   -8.3508018    196.72281  0.014405595  0.014090687           26 
 1139000   0.79432058    -8.379374    197.09122  0.014419902  0.014077536           26 
 1140000   0.78601792   -8.3927121    196.58285  0.014370091  0.014064376           14 
 1141000    0.8175752   -8.3824805    196.47624  0.014349711  0.014051224            8 
 1142000   0.80083672   -8.3621899    196.53724  0.014341597  0.014038105           14 
 1143000   0.79432922   -8.3563993    197.05204  0.014366582  0.014025086           12 
 1144000   0.79867881   -8.3683075    196.91737  0.014344214  0.014012069           12 
 1145000   0.78608887   -8.3646229    196.71588  0.014317022  0.013999055           19 
 1146000   0.78390274   -8.3908283    196.97689  0.014323508  0.013986114           11 
 1147000   0.78297853   -8.3597341    197.18429  0.014326089  0.013973202           16 
 1148000   0.78792411   -8.3797211    197.25573  0.014318795  0.013960364           12 
 1149000   0.80360289   -8.3837641     197.3891  0.014316006  0.013947482           19 
 1150000   0.80304859    -8.387582    196.83888  0.014263687  0.013934642           17 
 1151000    0.7865853   -8.3845521    197.40602  0.014292356  0.013921783           14 
 1152000   0.80535854   -8.3763095     197.5157  0.014287883  0.013908962           18 
 1153000   0.80477436   -8.3871724    197.65632  0.014285655  0.013896176           12 
 1154000   0.79157916   -8.3773757     197.3291  0.014249646  0.013883423           15 
 1155000   0.78585364   -8.3852364     197.5743     0.014255  0.013870714           18 
 1156000   0.79376454   -8.3794196     197.7534   0.01425558  0.013857956            8 
 1157000   0.78755522   -8.3881865    197.03684  0.014191648   0.01384522           10 
 1158000   0.78825386   -8.3983059    197.76522  0.014231809  0.013832428            5 
 1159000   0.79138611   -8.3939724    197.60356  0.014207906  0.013819669            5 
 1160000   0.78632349   -8.3564854    197.48779  0.014187341  0.013806946            6 
 1161000    0.7931312   -8.3528822    197.63153  0.014185439  0.013794256            7 
 1162000   0.80200774   -8.4197145    197.27959  0.014147991  0.013781527            7 
 1163000   0.79071034   -8.3847497     197.3912  0.014143824  0.013768765           11 
 1164000    0.7922647    -8.441096    197.08607  0.014109827  0.013756007           10 
 1165000   0.78186378   -8.4223197    197.39392  0.014119737  0.013743199            5 
 1166000   0.79976007   -8.3808922    197.78902  0.014135864  0.013730438            9 
 1167000   0.79205362   -8.4195476    197.31151  0.014089654  0.013717662            5 
 1168000   0.79005442   -8.3670057    197.76814   0.01411017  0.013704961           21 
 1169000   0.80428514   -8.3807265    197.30963  0.014065414  0.013692265           14 
 1170000   0.78525267   -8.3997165    197.47216  0.014064968  0.013679534           16 
 1171000   0.77266451   -8.3952205     197.1681   0.01403132  0.013666811           14 
 1172000   0.79052783   -8.3620304    197.89039  0.014070705  0.013654126           16 
 1173000   0.79711102   -8.3898075    197.76926  0.014050104  0.013641497            8 
 1174000   0.79529949   -8.3896599    197.78359  0.014039153  0.013628889           11 
 1175000   0.76507007    -8.414127    197.28785  0.013992046  0.013616302            9 
 1176000   0.79839441   -8.4083935    197.93662  0.014026121   0.01360364            8 
 1177000   0.79406987   -8.4037044    197.60782  0.013990925  0.013591078            9 
 1178000   0.77460253   -8.3776019    197.99584  0.014006497  0.013578518           10 
 1179000   0.78921846   -8.4083769    197.54083  0.013962456  0.013565921           10 
 1180000   0.78889693   -8.4455903     197.1913  0.013925939  0.013553343           11 
 1181000   0.78107076   -8.4137314    197.40536  0.013929252  0.013540759            4 
 1182000   0.78811714   -8.4195259    197.54015  0.013926971  0.013528133           10 
 1183000   0.79047994   -8.3938119    197.73195  0.013928709  0.013515565            7 
 1184000   0.77265631   -8.4018542    197.36364  0.013891022  0.013503011            5 
 1185000   0.78416759   -8.4085074    198.05555  0.013927957  0.013490495           14 
 1186000   0.76801504   -8.4253652    198.02397  0.013913994  0.013477953           12 
 1187000   0.77732261   -8.4145527     197.4807  0.013864132  0.013465443           13 
 1188000   0.77609969   -8.3872791    198.06476  0.013893432  0.013452973           11 
 1189000   0.78465747   -8.4052464    198.15783  0.013888269  0.013440508            6 
 1190000   0.78039064   -8.4121459    198.02356  0.013867196  0.013428022           11 
 1191000     0.796083   -8.4058643    198.09384   0.01386047  0.013415506           11 
 1192000   0.78569496   -8.4256915     197.7255  0.013823091  0.013402992            5 
 1193000   0.77158037     -8.39738    197.88789  0.013822848  0.013390503            8 
 1194000   0.77525532   -8.4645822    197.37759  0.013775655  0.013377976            7 
 1195000   0.77384057   -8.4343658    197.46037    0.0137699  0.013365462            3 
 1196000   0.80419635   -8.4314635    197.54575  0.013764336  0.013352984           10 
 1197000   0.76748897    -8.403135    197.86858  0.013775312  0.013340531            6 
 1198000   0.76705239   -8.4480798    197.18594  0.013716328  0.013328115            5 
 1199000   0.75274331   -8.4607548    197.67321  0.013738755  0.013315699            7 
 1200000    0.7807862    -8.440302    197.91903  0.013744377  0.013303315            6 
 1201000   0.77150718   -8.4304201    198.00837  0.013739132   0.01329097            9 
 1202000   0.77850821   -8.4161083    197.98982  0.013726416  0.013278573            8 
 1203000   0.76707764   -8.4283789    198.12208  0.013724167  0.013266231            6 
 1204000   0.77664861   -8.4413208    198.23775  0.013720775  0.013253863           14 
 1205000    0.7712386    -8.438931    197.64908  0.013668678  0.013241464            8 
 1206000    0.7647136   -8.4129568    197.90686  0.013675156  0.013229145           12 
 1207000   0.78678742   -8.4286072    197.82002  0.013657831  0.013216833            4 
 1208000   0.76183763   -8.4294829    197.80739  0.013645653  0.013204523           26 
 1209000   0.79282088   -8.4394773    198.05692  0.013651566  0.013192196           11 
 1210000   0.75715139   -8.4195967    197.57612  0.013607171   0.01317989           24 
 1211000   0.76903356   -8.4425684    197.96243  0.013622518  0.013167598            4 
 1212000   0.77505801   -8.4265386    197.71644  0.013594365  0.013155304            8 
 1213000    0.7660217   -8.4306514    197.90377  0.013596027  0.013143024           21 
 1214000   0.78589441   -8.4497229    197.77636  0.013576082  0.013130761           11 
 1215000   0.78041841    -8.459603    197.78937    0.0135658   0.01311846            9 
 1216000   0.75841147   -8.4391333     197.7197   0.01354987  0.013106187           21 
 1217000   0.74910156   -8.4301946    197.85487  0.013547991   0.01309391            9 
 1218000   0.77307016   -8.4459288    198.24749  0.013563731  0.013081698           21 
 1219000   0.76431838   -8.4303527    198.04735  0.013538922  0.013069503           26 
 1220000   0.77416443   -8.4532672    197.95546  0.013521548  0.013057309           22 
 1221000   0.76354535   -8.4519505    198.18673  0.013526258  0.013045096           24 
 1222000   0.77694749   -8.4412851    198.16341  0.013513598   0.01303295           31 
 1223000   0.75726993   -8.4484945    198.23998  0.013507767  0.013020799           33 
 1224000   0.77446006   -8.4638535    198.35598  0.013504628  0.013008672           30 
 1225000   0.76351659   -8.4493563    198.23113  0.013485111   0.01299658           28 
 1226000   0.77393963   -8.4542121    198.08327  0.013464062  0.012984487           28 
 1227000   0.77155042   -8.4673145     198.2968   0.01346759  0.012972384           26 
 1228000   0.74915977   -8.4284133    197.86345  0.013427216  0.012960289           20 
 1229000   0.76078061   -8.4425535    198.44937  0.013456019  0.012948245           22 
 1230000   0.76126939   -8.4504173    198.59659  0.013455054  0.012936208           29 
 1231000   0.76255286   -8.4498115    198.04468  0.013406762  0.012924205           21 
 1232000    0.7617448   -8.4921934    197.63714  0.013368313  0.012912132           24 
 1233000   0.75989632    -8.471482    198.56731  0.013420337  0.012900048           18 
 1234000   0.76158186   -8.4852208    198.20577  0.013385047  0.012887934           28 
 1235000   0.76112392   -8.4893749    198.37465  0.013385604   0.01287585           18 
 1236000   0.75419286    -8.476182    197.96077   0.01334687  0.012863755           10 
 1237000   0.76250488   -8.4689371    198.45288  0.013369232  0.012851693           18 
 1238000   0.78188201   -8.4981495    198.08697  0.013333802  0.012839631           14 
 1239000   0.75324612   -8.4746206    198.33372  0.013339637  0.012827609           19 
 1240000   0.75207866   -8.5027403    198.27844  0.013325164  0.012815591           23 
 1241000   0.75504221   -8.4990206      198.064  0.013300027  0.012803584           18 
 1242000   0.75197308   -8.4744566    198.47212  0.013316702   0.01279157           21 
 1243000   0.74290566   -8.5010585    197.96135  0.013271745  0.012779573           22 
 1244000   0.76756788   -8.4734739     198.1254  0.013272066  0.012767623           23 
 1245000   0.73979599   -8.5057638    198.31146  0.013273859  0.012755677           11 
 1246000   0.74433211   -8.5013397    198.19368  0.013255329  0.012743721           22 
 1247000   0.75806706   -8.4888954    198.55568   0.01326889  0.012731812           29 
 1248000   0.73661901   -8.4871148    198.05474  0.013224809  0.012719858           23 
 1249000   0.74088434   -8.4928203    197.87154  0.013201998  0.012707925           15 
 1250000   0.77569212   -8.4977608    198.01365   0.01320091  0.012696018           15 
 1251000   0.75848337   -8.4851403    198.48423  0.013221705  0.012684173           15 
 1252000   0.75182359   -8.5135838    198.14435  0.013188522  0.012672315           16 
 1253000   0.75453044   -8.4966242    198.39579  0.013194719  0.012660434           12 
 1254000   0.74701005   -8.5009748    198.19782   0.01317104  0.012648567           17 
 1255000   0.75423885   -8.4759203    198.42516  0.013175641  0.012636701           16 
 1256000    0.7590216   -8.5111726    198.09871  0.013143492   0.01262486           20 
 1257000   0.74546868   -8.5054585    198.05238  0.013129964  0.012612988           17 
 1258000   0.76089278   -8.4960354    197.81546  0.013103833  0.012601149           15 
 1259000   0.76041023   -8.5315836    198.24086  0.013121582  0.012589319           21 
 1260000   0.75395371   -8.5222497    198.35449  0.013118683  0.012577542           16 
 1261000   0.74416387   -8.5265063     197.9721   0.01308301  0.012565738           10 
 1262000   0.76499609   -8.5309634    198.06629  0.013078862  0.012553956           16 
 1263000   0.73855228   -8.5154623    198.35837  0.013087778  0.012542207           13 
 1264000   0.73141944   -8.5163971    198.60058  0.013093393  0.012530455           17 
 1265000   0.74202577   -8.5293534    198.28306  0.013062125  0.012518737           12 
 1266000   0.75254134   -8.4887436    198.43612  0.013061882  0.012507034           26 
 1267000   0.74178872   -8.5114411    198.50426  0.013056055   0.01249536           19 
 1268000   0.75644615   -8.4949775    198.86575  0.013069515  0.012483681           15 
 1269000    0.7490487   -8.5123845    198.46614  0.013032975  0.012472005            6 
 1270000   0.73799883   -8.5437419    198.21894  0.013006492  0.012460296           30 
 1271000   0.73163441   -8.5318874    198.40581  0.013008511  0.012448608           14 
 1272000   0.74322861   -8.5214378    198.35668  0.012995065  0.012436958           27 
 1273000   0.75266744   -8.5316766    198.92766  0.013022235  0.012425324            8 
 1274000   0.74324803   -8.5186274    198.46753  0.012981916  0.012413704           28 
 1275000   0.75504656   -8.5256073    198.76202  0.012990982  0.012402088           18 
 1276000   0.76250836   -8.5069726    198.16276  0.012941664  0.012390492           23 
 1277000   0.76807674   -8.5199667    198.47442  0.012951868  0.012378912           13 
 1278000    0.7225957   -8.4757974    198.43583  0.012939217  0.012367334           16 
 1279000   0.74984948   -8.5108898     198.4114  0.012927508   0.01235573            6 
 1280000   0.74018691   -8.5270635    198.35684  0.012913857  0.012344152           21 
 1281000   0.74276023    -8.552874     198.4187    0.0129078  0.012332548           17 
 1282000   0.73781434   -8.5398214    198.88364  0.012927954  0.012320941           18 
 1283000     0.734734   -8.5593164    198.19113  0.012872897   0.01230938           18 
 1284000    0.7321827   -8.5530373    198.38667  0.012875563  0.012297784           16 
 1285000   0.74190534   -8.5222116    198.24936  0.012856638  0.012286195            9 
 1286000   0.74694103   -8.5477821    198.21698  0.012844542  0.012274605           11 
 1287000   0.75321974   -8.5384556    198.36015  0.012843833  0.012263039           23 
 1288000   0.73479312    -8.525081    198.93202  0.012870861  0.012251501           23 
 1289000   0.71556153   -8.5452565    198.00625  0.012801025  0.012239963           17 
 1290000   0.73747847   -8.5346693    198.16578  0.012801407  0.012228392           23 
 1291000   0.75559491   -8.5615498     198.3099  0.012800794   0.01221685           25 
 1292000   0.74407815   -8.5637483    198.08309  0.012776257  0.012205322           19 
 1293000   0.73280518   -8.5358346    198.74364  0.012808948  0.012193804           16 
 1294000   0.73823623   -8.5577021    198.13809  0.012760052  0.012182293           25 
 1295000   0.74121246   -8.5258386     198.2759  0.012759067  0.012170817           33 
 1296000   0.73702172   -8.5532102    198.46864  0.012761615   0.01215936           16 
 1297000   0.73091686   -8.5657708    198.18829  0.012733763  0.012147883           30 
 1298000   0.74221742    -8.599099    197.86459  0.012703171  0.012136383           29 
 1299000   0.73236189   -8.5750708    198.14177  0.012711174   0.01212487           22 
 1300000   0.74373376    -8.555027    198.66272  0.012734789   0.01211338           14 
 1301000   0.74690925   -8.6000689     198.0154  0.012683538  0.012101879           19 
 1302000   0.73902655   -8.5629209    198.42641  0.012700103  0.012090378           45 
 1303000   0.73353956   -8.5740332    197.95048  0.012659918  0.012078912           28 
 1304000   0.73068593   -8.5533286      198.051  0.012656633  0.012067451           15 
 1305000   0.73310182   -8.5701301    198.26717  0.012660739  0.012056014           13 
 1306000   0.73302726   -8.5557089    198.41245  0.012660315  0.012044605           29 
 1307000   0.71868596   -8.5573133    198.43479  0.012652053  0.012033217           19 
 1308000   0.73607075    -8.568967     198.4678  0.012644483  0.012021831           66 
 1309000   0.71522479   -8.5768253    198.56943  0.012641293  0.012010437           29 
 1310000   0.73869802   -8.5722324    198.31014  0.012615149  0.011999105           46 
 1311000   0.72154838   -8.5811327     197.8075  0.012573576  0.011987745           26 
 1312000   0.71846936   -8.5815428     197.9481  0.012572923  0.011976396           51 
 1313000   0.72951157   -8.5917368     198.1676  0.012577279  0.011965062           59 
 1314000   0.72894565   -8.5894673    198.19512  0.012569452  0.011953776           26 
 1315000      0.72446    -8.596119     198.1523   0.01255718  0.011942477           40 
 1316000   0.71461696   -8.5883786     197.9743  0.012536366  0.011931164           35 
 1317000   0.73577159   -8.5721586    198.31519  0.012548417  0.011919893           53 
 1318000   0.73172853   -8.5544647    198.38419  0.012543259  0.011908626           31 
 1319000   0.71287108    -8.566712    198.87647  0.012564851   0.01189739           51 
 1320000   0.71969909   -8.5743658    198.53898  0.012534026  0.011886143           31 
 1321000   0.73555031   -8.5650383    198.42817  0.012517548  0.011874882           68 
 1322000   0.72992672   -8.5906966    198.02433  0.012482623  0.011863622           88 
 1323000   0.71696275   -8.5763599    198.46893  0.012501193  0.011852354           63 
 1324000   0.72959137   -8.5811771    198.07407  0.012466898   0.01184113           50 
 1325000   0.71213315   -8.5677903    198.64808   0.01249359  0.011829914           50 
 1326000   0.71089806    -8.576701    198.08077  0.012448515  0.011818723           65 
 1327000   0.72795445   -8.5966778    198.02216  0.012435453  0.011807511           32 
 1328000   0.71069099   -8.5825934    198.29459  0.012443184   0.01179634           66 
 1329000   0.71971795   -8.5861654    198.76078  0.012463054  0.011785167           60 
 1330000   0.71919701    -8.578402    198.14507  0.012415105   0.01177402           72 
 1331000   0.71654925   -8.5553606     198.4952  0.012427698  0.011762876           54 
 1332000   0.72431058   -8.5533321    198.63696  0.012427238  0.011751757           56 
 1333000   0.72404578   -8.5892218    198.39561  0.012402826  0.011740633           52 
 1334000   0.72152489   -8.5884396    198.34331  0.012390262  0.011729491           80 
 1335000   0.71615453   -8.5879933    198.27363  0.012376631  0.011718369           28 
 1336000   0.72172202   -8.5786012    198.30467  0.012369303  0.011707224           20 
 1337000   0.71955777    -8.580292    198.08572  0.012346405  0.011696099           28 
 1338000   0.72282187   -8.5826572    197.98075   0.01233064  0.011685002           32 
 1339000   0.71804802    -8.599604    198.05444  0.012326017  0.011673907           25 
 1340000   0.71408323    -8.597503    198.32182  0.012333447  0.011662799           26 
 1341000   0.73747818   -8.5743813    198.36217  0.012326757  0.011651689           36 
 1342000   0.70825739   -8.5767283    197.92241  0.012290264  0.011640571           43 
 1343000   0.72166615   -8.6131187    197.78381  0.012272512   0.01162945           29 
 1344000   0.71172681   -8.5960025    197.92877  0.012272369  0.011618342           39 
 1345000   0.71179477   -8.5739613    198.17444  0.012278466  0.011607248           38 
 1346000   0.70616303   -8.6128748    197.88207  0.012251243  0.011596172           47 
 1347000   0.71798823   -8.6334854    198.07178  0.012253884  0.011585103           19 
 1348000   0.72992638   -8.6012405    198.14957  0.012249603  0.011574045           24 
 1349000    0.7222886   -8.6113954    197.90268  0.012225271  0.011562971           44 
 1350000    0.7197915   -8.6365974    197.69069  0.012203129  0.011551938           25 
 1351000   0.72656049   -8.6048528    198.05519   0.01221658  0.011540904           48 
 1352000     0.726224   -8.6216208      198.212  0.012217209  0.011529871           54 
 1353000   0.71676376    -8.620274    197.75842  0.012180243  0.011518864           56 
 1354000   0.70690227   -8.6321678    197.81235  0.012174566  0.011507846           70 
 1355000   0.71765765   -8.5996651    198.03902  0.012179522  0.011496858           51 
 1356000   0.70510135   -8.6377054    197.63632  0.012145792  0.011485888           54 
 1357000   0.71159178   -8.6072499    197.73969  0.012143189  0.011474925           62 
 1358000   0.70492369   -8.6058133    198.10862  0.012156887  0.011463951           46 
 1359000   0.71545298   -8.6164006    197.50699  0.012111049   0.01145301           57 
 1360000   0.71765378   -8.6240444    197.79644   0.01211988  0.011442061           57 
 1361000   0.70064823   -8.6051525    198.21987  0.012136901  0.011431144           46 
 1362000   0.69762636    -8.625043    197.80232  0.012102442  0.011420207           56 
 1363000   0.71593681   -8.6251912     198.0526  0.012108866  0.011409269           51 
 1364000   0.71232467   -8.6121047    198.07985  0.012101652  0.011398331           66 
 1365000   0.70823039    -8.640764    197.89203  0.012081321  0.011387396           55 
 1366000   0.69123421   -8.6427762     197.6899  0.012060145  0.011376476           56 
 1367000   0.71229877   -8.6471463    197.98887  0.012069548  0.011365589           56 
 1368000   0.70077775    -8.631608    198.33567  0.012081851  0.011354727           52 
 1369000   0.71448652   -8.6336698    197.71239  0.012035086  0.011343901           66 
 1370000   0.70931286   -8.6431728    197.62889  0.012021222  0.011333077           64 
 1371000    0.7125295   -8.6256724    197.80636  0.012023241  0.011322239           65 
 1372000   0.69477306   -8.6311166    197.78953  0.012013456  0.011311434           81 
 1373000   0.70835739   -8.6425921    197.84236  0.012007912  0.011300603           72 
 1374000   0.70473556   -8.6424672    197.78638  0.011995777  0.011289787           59 
 1375000   0.70792521   -8.6546612     197.9254  0.011995479  0.011278974           57 
 1376000    0.6929133   -8.6633707     197.8734  0.011983612  0.011268176           57 
 1377000   0.70667633    -8.642083     197.6599  0.011961989  0.011257394           71 
 1378000   0.69131532   -8.6396062    197.64403  0.011952348  0.011246637           58 
 1379000   0.70476423   -8.6275752     197.7752  0.011951607  0.011235894           56 
 1380000   0.69946508   -8.6702742    197.43356  0.011922317  0.011225136           62 
 1381000   0.70088104   -8.6411749    198.09956  0.011953872  0.011214383           64 
 1382000   0.69097456   -8.6523258    197.66726  0.011919155  0.011203648           71 
 1383000   0.70921704   -8.6583701    197.46528  0.011898366  0.011192903           62 
 1384000   0.69520627   -8.6602581    197.82158  0.011911222  0.011182151           69 
 1385000   0.69133882   -8.6739103    197.59565  0.011889028    0.0111714           82 
 1386000   0.68927485   -8.6614828    197.56585  0.011878659  0.011160685           72 
 1387000   0.70604671   -8.6871208    197.45308  0.011863319  0.011149973           54 
 1388000   0.71122986   -8.6694889     197.6557  0.011866937  0.011139281           55 
 1389000    0.7098444   -8.6721903    197.54024  0.011851466  0.011128567           56 
 1390000    0.7107997   -8.6584426    198.40424  0.011894738    0.0111179           66 
 1391000   0.69720415   -8.6529091    198.13985  0.011870348  0.011107265           70 
 1392000   0.71355953   -8.6534445    197.47234   0.01182186  0.011096635          106 
 1393000     0.705898   -8.6773229    198.03547  0.011847061  0.011086029          106 
 1394000    0.6987127   -8.6474161    197.94748  0.011833302   0.01107545           96 
 1395000   0.69490972   -8.6484871     198.1182  0.011835018   0.01106485          129 
 1396000   0.70209074   -8.6530594    198.08394  0.011824495  0.011054257          118 
 1397000   0.70922044   -8.6735444    197.78834  0.011798398   0.01104368           97 
 1398000   0.68952573   -8.6576844    197.58288  0.011777711  0.011033091          120 
 1399000   0.70302296   -8.6917055    197.46653  0.011762362  0.011022525          130 
 1400000   0.67737415   -8.6748036    198.05019  0.011788702  0.011011979          106 
 1401000   0.69932482   -8.6685305    198.06701  0.011781288  0.011001461          123 
 1402000   0.68784672     -8.68123    197.74333  0.011753645  0.010990953          102 
 1403000   0.70116967   -8.6967565    198.04392  0.011763122   0.01098044          111 
 1404000   0.69947182   -8.6691552    198.04167   0.01175461  0.010969928          111 
 1405000   0.70095042    -8.661191    197.86391  0.011735701  0.010959449          111 
 1406000   0.68505393   -8.6740038    198.03288  0.011737368  0.010948982           92 
 1407000   0.69586348   -8.6529058    197.78658  0.011714439  0.010938548           94 
 1408000   0.69562858   -8.6612659    197.62042  0.011696284  0.010928104           83 
 1409000   0.69391196   -8.6431087    198.15212   0.01171943  0.010917685          119 
 1410000   0.69750994   -8.6838607    197.73691  0.011686579  0.010907278          128 
 1411000   0.67972393   -8.6598184    197.97622   0.01169243  0.010896875          122 
 1412000   0.68186397   -8.6857033    198.07165  0.011689781  0.010886485          123 
 1413000   0.68533539   -8.6781257    197.70209  0.011659713  0.010876097          137 
 1414000   0.68686716   -8.6668113    198.04766  0.011671833   0.01086573          125 
 1415000   0.67691665    -8.667779    198.26629   0.01167646   0.01085537           89 
 1416000    0.6835143    -8.681589    198.25883  0.011667775  0.010845033          118 
 1417000   0.69231745   -8.6724988    197.87816  0.011637154  0.010834709          167 
 1418000    0.6920571   -8.6719817    197.81902  0.011625472  0.010824372          127 
 1419000   0.69308817   -8.6744148    197.91629  0.011622991  0.010814055          110 
 1420000   0.69140751   -8.7034528    197.73566  0.011604205  0.010803745          153 
 1421000    0.6890099   -8.6740778    197.85538   0.01160306  0.010793441          153 
 1422000   0.67922724    -8.674087    197.92209   0.01159881  0.010783152          163 
 1423000   0.68626083   -8.6822255    197.69877  0.011577581  0.010772866          125 
 1424000   0.67725215   -8.6751247    197.85379  0.011578522  0.010762586          134 
 1425000   0.68911972   -8.6790829    197.78993  0.011566663  0.010752316          130 
 1426000   0.66927409   -8.6861167    197.89551  0.011564722  0.010742039          131 
 1427000   0.68806824   -8.7014251    197.92524  0.011558353  0.010731796          132 
 1428000   0.69202959   -8.6858697     197.7366   0.01153925  0.010721584          125 
 1429000   0.67635851   -8.6835189    198.01125  0.011547192  0.010711347          177 
 1430000    0.6812308   -8.7129644    197.67069  0.011519271  0.010701115          144 
 1431000   0.67925377   -8.6944476    197.89624  0.011524356  0.010690884          123 
 1432000   0.67676671   -8.6875277    197.68166  0.011503821  0.010680658          131 
 1433000   0.70066152     -8.71091     197.4471  0.011482153  0.010670462          259 
 1434000   0.67811688   -8.7105705    197.38692  0.011470649  0.010660265          151 
 1435000   0.68365014   -8.6693621    197.77684  0.011485299  0.010650096          109 
 1436000   0.68008055   -8.7046661    197.93799  0.011486652  0.010639938          138 
 1437000   0.67447181    -8.711992    197.79249  0.011470221  0.010629769          163 
 1438000   0.69314926   -8.7009275    197.78906  0.011462046   0.01061962          149 
 1439000    0.6892436   -8.7087332    197.56078  0.011440861  0.010609483          134 
 1440000   0.68912332   -8.7042648    197.58554  0.011434348  0.010599362          319 
 1441000   0.68211763   -8.7151554    197.74314  0.011435527   0.01058926          147 
 1442000   0.67854898   -8.7000592    197.72578  0.011426594   0.01057917          117 
 1443000   0.66790743   -8.7167745     197.6603  0.011414894  0.010569087          127 
 1444000   0.69038339    -8.714568    197.63306  0.011405417  0.010559006          131 
 1445000   0.67987352   -8.7107498    197.60812  0.011396085  0.010548908          169 
 1446000   0.68762492   -8.7044217    197.42874  0.011377866   0.01053883          163 
 1447000   0.67277785   -8.7545872    197.45782  0.011371678  0.010528756          160 
 1448000   0.69556365    -8.702491    197.85234   0.01138653  0.010518688          159 
 1449000   0.65327936    -8.711538    197.76825  0.011373835  0.010508613          150 
 1450000   0.67531603   -8.7092745    197.54722  0.011353288  0.010498572          200 
 1451000   0.66664368   -8.7178153    197.47298    0.0113412  0.010488548          173 
 1452000   0.67856795   -8.6978848    197.43118   0.01133099  0.010478527          153 
 1453000   0.68784281   -8.7364593     196.9688  0.011296673  0.010468516          145 
 1454000   0.66672267   -8.7345509    197.56371     0.011323  0.010458511          143 
 1455000   0.67350036   -8.7102644    197.74342  0.011325511   0.01044851          142 
 1456000   0.66905098   -8.7456024    197.52713  0.011305353  0.010438546          131 
 1457000   0.67037193   -8.7343207    197.52721  0.011297599  0.010428573          127 
 1458000   0.66352632   -8.7214387    197.56121  0.011291793  0.010418601          236 
 1459000   0.65529352   -8.7255142    197.62519  0.011287708  0.010408642          151 
 1460000   0.68158792   -8.7096726    197.72879   0.01128589   0.01039869          164 
 1461000   0.65730063   -8.7314266    197.01405  0.011237397  0.010388761          144 
 1462000    0.6769915   -8.7170878     197.8268  0.011276037  0.010378829          159 
 1463000   0.66710316      -8.7355    197.89977  0.011272486  0.010368925          206 
 1464000   0.66572354   -8.7414437    197.27206  0.011229056  0.010358999          167 
 1465000   0.67249735   -8.7773223    197.30109  0.011223043  0.010349088          190 
 1466000   0.67526946   -8.7499766    197.28677  0.011214573  0.010339184          206 
 1467000   0.65898225   -8.7523388    197.30294  0.011207847  0.010329296          187 
 1468000   0.65953736   -8.7512238     197.1602  0.011192109  0.010319421          208 
 1469000   0.67897988   -8.7679387    197.56418  0.011207408  0.010309531          200 
 1470000   0.67321131   -8.7542463    197.01152  0.011168454  0.010299646          201 
 1471000   0.65325757   -8.7456411    197.71768  0.011200865  0.010289773          185 
 1472000   0.65610392   -8.7471472    197.35552  0.011172754  0.010279892          197 
 1473000   0.65307646   -8.7600357     197.4021  0.011167804  0.010270026          213 
 1474000   0.65517904   -8.7451323    197.48746  0.011165053  0.010260166          197 
 1475000   0.68774104   -8.7491773    197.12936  0.011137252  0.010250342          196 
 1476000   0.68643318   -8.7668643    197.44138  0.011147323  0.010240529          195 
 1477000   0.65202496   -8.7584721    197.11549  0.011121388  0.010230736          183 
 1478000   0.66145684   -8.7677505    197.27302  0.011122746  0.010220933          229 
 1479000   0.67038717   -8.7631371    197.14219  0.011107854  0.010211144          219 
 1480000   0.67840916   -8.7636327    196.88702  0.011085981  0.010201359          216 
 1481000   0.66928304   -8.7489258    197.27935  0.011100571  0.010191601          350 
 1482000   0.65906641   -8.7799541    196.77952  0.011064975  0.010181842          218 
 1483000   0.66275966   -8.7851044    197.17988  0.011080011  0.010172092          220 
 1484000   0.66727536   -8.7859225    197.03867  0.011064616  0.010162358          347 
 1485000   0.67711447    -8.787559    196.96168  0.011052844  0.010152633          238 
 1486000   0.64893606   -8.7774044    196.89769  0.011041817  0.010142898          207 
 1487000   0.65771457    -8.768549    196.96252  0.011038025  0.010133174          218 
 1488000   0.66573609    -8.795971    196.88269  0.011026136  0.010123478          335 
 1489000   0.65653751   -8.7887476    197.26172  0.011039944  0.010113767          188 
 1490000   0.66045677   -8.7971606    197.27232  0.011033128  0.010104076          240 
 1491000   0.66616441   -8.7908265    197.09702   0.01101593  0.010094369          283 
 1492000   0.67130101   -8.7926456    197.22483  0.011015685  0.010084674          194 
 1493000   0.65333901   -8.8013633    197.23747  0.011009013  0.010075009          345 
 1494000   0.66043489   -8.7892092    197.29504  0.011004855  0.010065365          219 
 1495000   0.67533258   -8.7849861    197.28915  0.010997165  0.010055716          219 
 1496000   0.65186439   -8.7779932     196.8161  0.010963464  0.010046099          239 
 1497000   0.66890918   -8.7892547    197.27952  0.010981937  0.010036471          227 
 1498000   0.64736817    -8.769764     196.8338  0.010949811  0.010026866          238 
 1499000   0.63984079   -8.7874525    197.03455  0.010953666  0.010017272          198 
 1500000   0.64826245   -8.7859798    197.27063   0.01095948  0.010007689          230 
 1501000   0.64734686   -8.7825142    197.24299  0.010950644  0.009998117          334 
 1502000   0.65062856     -8.79876    196.91615  0.010925219 0.0099885664          231 
 1503000   0.65722233   -8.8186865    196.91173  0.010917705 0.0099790138          212 
 1504000   0.65927361   -8.7914839    197.25376  0.010929397 0.0099694559          218 
 1505000    0.6549903   -8.8321757    197.00045  0.010908109 0.0099599114          227 
 1506000   0.63764632   -8.8025555    197.07798  0.010905156 0.0099503725          232 
 1507000   0.63934865   -8.7866427     197.1593  0.010902416 0.0099408679          245 
 1508000   0.64423562   -8.8050076    196.86293  0.010878809 0.0099313668          257 
 1509000   0.65661064   -8.8033203    196.82518  0.010869515 0.0099218854          258 
 1510000   0.65995501    -8.813511    196.93432   0.01086834 0.0099123977          244 
 1511000   0.64316627   -8.8052813     197.2168  0.010876726 0.0099029278          231 
 1512000   0.66097386   -8.8170816    196.87838  0.010850881  0.009893435          240 
 1513000   0.66023472   -8.8159575    197.03379  0.010852268 0.0098839636          333 
 1514000   0.64751927   -8.7957088     196.6792  0.010825583 0.0098745026          246 
 1515000   0.64671069   -8.8167176    196.67302  0.010818098 0.0098650456          265 
 1516000   0.64718012   -8.7974924    196.73422  0.010814326 0.0098556103          251 
 1517000   0.65754779   -8.8119155     196.5722  0.010798297 0.0098461722          447 
 1518000   0.62798467   -8.8380861    196.93688  0.010811203 0.0098367344          600 
 1519000   0.64242527    -8.814295    196.67849  0.010789911 0.0098273127          623 
 1520000   0.65051293   -8.8182942    196.96697  0.010798628 0.0098179044          439 
 1521000   0.62114063   -8.8053742    196.74637  0.010779442 0.0098085167          294 
 1522000   0.66184401   -8.8074354    196.84354   0.01077768 0.0097991339          271 
 1523000   0.65040062   -8.8188822    196.78653  0.010767484 0.0097897571          307 
 1524000   0.65017922   -8.8002265    196.74946  0.010758391 0.0097803865          279 
 1525000   0.65357736   -8.8156913    196.71388  0.010749392 0.0097710228          291 
 1526000   0.65744937   -8.8280033    196.54356  0.010733047 0.0097616666          286 
 1527000   0.65192245   -8.8025167    197.07735  0.010755149 0.0097523482          266 
 1528000   0.64407839   -8.8125706    196.81774  0.010733952 0.0097430069          327 
 1529000   0.63923793   -8.8078209    196.58483  0.010714238 0.0097336752          482 
 1530000   0.64566933    -8.820144    196.63079  0.010709738 0.0097243823          277 
 1531000   0.64050621   -8.8221651    196.64756  0.010703656 0.0097150877          279 
 1532000   0.64800294   -8.8321332    196.25937  0.010675553 0.0097057962          354 
 1533000   0.66058632   -8.8153971    196.61965  0.010688174 0.0096965274          360 
 1534000   0.64581407   -8.8218486    196.37319  0.010667818 0.0096872684          279 
 1535000   0.63661022   -8.8273279    196.73507  0.010680514 0.0096780095          496 
 1536000   0.63943866    -8.828523     196.6501  0.010668951 0.0096687666          269 
 1537000   0.64519813    -8.835496    196.55062  0.010656615 0.0096595397          449 
 1538000    0.6387904   -8.8382183    196.96926   0.01067237 0.0096503114          280 
 1539000    0.6458582   -8.8390079     196.2745  0.010627816 0.0096410995          281 
 1540000   0.65070144   -8.8171833    196.91299  0.010655465 0.0096318918          437 
 1541000     0.651067    -8.858638    196.43997  0.010622971 0.0096226963          285 
 1542000   0.63989413   -8.8463879    196.41486  0.010614724 0.0096134968          306 
 1543000   0.64257061   -8.8420862     196.4753  0.010611109 0.0096042968          385 
 1544000   0.62776402   -8.8438732    196.24812  0.010591975 0.0095951132          514 
 1545000   0.64172776   -8.8644999    196.37876  0.010592166 0.0095859356          311 
 1546000   0.63829318   -8.8408202    196.52441  0.010593166 0.0095767613          304 
 1547000   0.64131069   -8.8445363     196.5687  0.010588704 0.0095676049          307 
 1548000   0.63068144   -8.8518943    196.11365  0.010557367 0.0095584539          307 
 1549000   0.62120433   -8.8538823    196.48912  0.010570751 0.0095493104          537 
 1550000   0.62629309   -8.8667039    196.28986  0.010553218 0.0095401738          722 
 1551000   0.62854534   -8.8351005    196.48251  0.010556765 0.0095310469          478 
 1552000    0.6257432   -8.8487238    196.52761  0.010552384 0.0095219358          398 
 1553000    0.6522576   -8.8532387    196.83795  0.010562242 0.0095128462          312 
 1554000   0.62035528   -8.8586121    196.52892  0.010538874 0.0095037798          505 
 1555000   0.63400462   -8.8610769    196.62157  0.010537062  0.009494714          301 
 1556000   0.62325258   -8.8641634     196.2996  0.010513047 0.0094856467          334 
 1557000   0.63754887   -8.8563642    196.38383  0.010510802  0.009476581          492 
 1558000   0.62034007    -8.855228    196.74497  0.010523372 0.0094675267          437 
 1559000   0.61917655   -8.8670994    196.53016   0.01050514 0.0094584863          472 
 1560000   0.62976859   -8.8660212    196.21622  0.010481636 0.0094494478          511 
 1561000   0.62566816   -8.8799274    196.28133  0.010478397 0.0094404296          699 
 1562000    0.6308257   -8.8742709     196.1768  0.010466112 0.0094314224          695 
 1563000   0.64701639   -8.8691597    196.41188  0.010471949 0.0094224304          688 
 1564000    0.6303171    -8.878691    196.49583  0.010469727 0.0094134379          486 
 1565000   0.62937804   -8.8590007    196.65264  0.010471387 0.0094044547          498 
 1566000   0.62156276   -8.8797122    196.15902  0.010438432 0.0093954744          720 
 1567000   0.63585713   -8.8903479    196.03363  0.010425103 0.0093865189          458 
 1568000   0.63306359   -8.8633945    196.40476  0.010438178 0.0093775719          288 
 1569000   0.63797437   -8.8641943    196.42741  0.010432728 0.0093686365          497 
 1570000   0.63000245   -8.8674663    196.35002  0.010421975 0.0093597042          445 
 1571000   0.63455298   -8.8800683    196.10383  0.010402282 0.0093507912          513 
 1572000   0.62780213   -8.8797601    195.96882  0.010388508 0.0093418595          743 
 1573000   0.63438534   -8.8766596    196.50781  0.010410458 0.0093329497          680 
 1574000   0.62216357   -8.8593314    196.30251  0.010392975  0.009324051          464 
 1575000   0.61109088   -8.8843891     196.0631  0.010373709 0.0093151701          501 
 1576000   0.62212458   -8.8667829    196.26399  0.010377749 0.0093062807          717 
 1577000    0.6216578   -8.8797407     196.4529  0.010381151 0.0092974073          460 
 1578000    0.6235911   -8.8972492    196.18687  0.010360523 0.0092885398          487 
 1579000   0.60951816   -8.8780147    196.17572  0.010353373 0.0092796736          725 
 1580000   0.61473248   -8.8603554    196.26095  0.010351316 0.0092708335          712 
 1581000   0.61867061   -8.8603938    196.21958  0.010342588 0.0092619996          337 
 1582000   0.62876443   -8.8778979     196.3416  0.010342478 0.0092531781          491 
 1583000   0.61555538   -8.8843816    196.46652   0.01034252 0.0092443685          478 
 1584000   0.61458803     -8.88222    196.10188  0.010316807 0.0092355645          508 
 1585000   0.62226488    -8.862771    196.44026  0.010328089 0.0092267547          488 
 1586000   0.61949343   -8.8860504    195.84274  0.010290182 0.0092179749          483 
 1587000   0.62577007   -8.8812412    195.95407  0.010289544 0.0092091906          494 
 1588000    0.6271709   -8.8832871    196.28904  0.010300642 0.0092004217          730 
 1589000   0.62417371   -8.8697831    196.56571   0.01030867 0.0091916675          342 
 1590000   0.62434261   -8.8903201     196.2595  0.010286137 0.0091829155          523 
 1591000   0.61544888   -8.8976992    196.01046  0.010266628 0.0091741646          493 
 1592000   0.60559135   -8.9083472    195.44933  0.010230807 0.0091654027          329 
 1593000   0.62974124    -8.890384    195.95634  0.010250907 0.0091566567          512 
 1594000   0.61190006   -8.8543826    196.06526   0.01025017 0.0091479333          314 
 1595000   0.61804883    -8.891191    196.11416  0.010246299 0.0091392261          522 
 1596000   0.62248172   -8.8871699    196.34985  0.010252185 0.0091305114          340 
 1597000   0.62899699   -8.9086193    196.27566  0.010241894 0.0091218082          394 
 1598000   0.62042944   -8.9020845    195.76981  0.010209106 0.0091131298          481 
 1599000   0.61381119   -8.8971305    195.83223  0.010205974 0.0091044341          352 
 1600000   0.61866686   -8.8912095    196.19695  0.010218591  0.009095774          466 
 1601000    0.6089857   -8.9064621    195.88858  0.010196157 0.0090871245          536 
 1602000   0.61591168   -8.9113304    195.87149  0.010188904 0.0090784689          514 
 1603000   0.61844286   -8.8757972    196.28926  0.010204266 0.0090698328          541 
 1604000   0.61718623   -8.9133342    195.77571  0.010171224 0.0090611977          436 
 1605000   0.62505898   -8.9129697    195.83853  0.010168148 0.0090525692          500 
 1606000   0.60770755   -8.9237446    195.85974  0.010162917 0.0090439551          518 
 1607000   0.61015751   -8.9127105    195.67679  0.010147106 0.0090353558          750 
 1608000   0.61324151   -8.9008692    195.96796  0.010155885 0.0090267618          540 
 1609000   0.60845546   -8.9277951    196.00255  0.010151365 0.0090181765          351 
 1610000   0.59934065   -8.9225508    196.08531  0.010149343 0.0090095949          442 
 1611000   0.61864765    -8.905106    195.87676  0.010132255 0.0090010252          403 
 1612000   0.59594095   -8.8870487    195.82304  0.010123193 0.0089924713          353 
 1613000   0.62053415   -8.9326342    196.11022  0.010131753 0.0089839417          347 
 1614000    0.6211594   -8.9162925    196.12898  0.010126444 0.0089754041          334 
 1615000   0.60394921    -8.935998    195.96577  0.010111753  0.008966867          494 
 1616000   0.60349713   -8.9232556    195.93777  0.010104052 0.0089583536          342 
 1617000    0.6075901   -8.8941251    195.57595  0.010079156  0.008949846          762 
 1618000    0.6127412   -8.9150308    196.01181  0.010095375 0.0089413586          550 
 1619000   0.60671634   -8.8979013     195.7922  0.010077836 0.0089328805          747 
 1620000    0.6169596   -8.9294677    196.27869  0.010096641  0.008924409          786 
 1621000   0.61608155   -8.9155932    196.09849  0.010081148 0.0089159328          340 
 1622000   0.59273979   -8.9051868    195.76008  0.010057546 0.0089074644          403 
 1623000   0.61637616   -8.9148983    195.51259  0.010038642  0.008898997          455 
 1624000   0.60465842   -8.9487654     195.5945  0.010036664 0.0088905396          472 
 1625000   0.60262767   -8.9369081    195.88498  0.010045383 0.0088820949          731 
 1626000   0.60880851     -8.94712    195.76213   0.01003291 0.0088736723          524 
 1627000   0.58249892   -8.9228356    195.67728  0.010022397  0.008865259          513 
 1628000   0.60896416   -8.9316499    195.89726  0.010027501 0.0088568508          714 
 1629000   0.60249131   -8.9335738    195.81176  0.010016971 0.0088484573          478 
 1630000    0.6022379   -8.9307197    195.97593  0.010019219  0.008840077          499 
 1631000   0.60710055   -8.9444883     195.6941 0.0099986767 0.0088317045          775 
 1632000   0.60617924    -8.930144    195.43248 0.0099791912 0.0088233281          487 
 1633000   0.60047887   -8.9137741     195.8439 0.0099940751 0.0088149815          786 
 1634000    0.5879874   -8.9188761    195.70774 0.0099810148 0.0088066334          752 
 1635000    0.5985503   -8.9179287        196.2 0.0099999998 0.0087982932          485 
 1636000   0.59337472     -8.94034    195.85491 0.0099763095  0.008789964          523 
 1637000    0.6046294   -8.9291669    195.87637 0.0099713079 0.0087816492          513 
 1638000   0.59143205   -8.9364773    195.94434 0.0099686784 0.0087733408          772 
 1639000   0.59033681   -8.9490533     195.3699 0.0099333892 0.0087650362          782 
 1640000   0.60745064   -8.9441038    195.75198 0.0099467469 0.0087567547          542 
 1641000   0.59204513   -8.9318142    196.24118 0.0099655281 0.0087484787          807 
 1642000   0.60431812   -8.9514476     195.9935  0.009946889 0.0087402191          493 
 1643000   0.59503332   -8.9283552    195.78899  0.009930462 0.0087319565          748 
 1644000   0.58623078   -8.9321702    195.68736   0.00991927 0.0087237124          544 
 1645000   0.59814428   -8.9486448    195.75326 0.0099165787  0.008715471          530 
 1646000   0.59495394   -8.9533672    195.65264 0.0099054598 0.0087072484          539 
 1647000   0.60497453   -8.9375182    195.83565 0.0099087052 0.0086990447          801 
 1648000   0.58987351   -8.9476191    195.65396 0.0098935054 0.0086908399          838 
 1649000    0.5950366   -8.9278645    195.41525 0.0098754423 0.0086826498          587 
 1650000   0.60299219   -8.9293551    195.90091 0.0098939853  0.008674455          789 
 1651000   0.59731222   -8.9597824    195.85142 0.0098854946 0.0086662801          775 
 1652000    0.6047172   -8.9295507    195.79409 0.0098766188 0.0086581103          805 
 1653000   0.59153534   -8.9464619    195.63007  0.009862375 0.0086499572          507 
 1654000   0.59464902   -8.9479884     195.9206 0.0098710501 0.0086418206          560 
 1655000   0.59238587   -8.9522379    195.43428 0.0098405981 0.0086336773          555 
 1656000   0.59520911   -8.9531732    195.09789 0.0098177282 0.0086255576          545 
 1657000   0.58073932   -8.9588271    195.62887 0.0098385071 0.0086174279          773 
 1658000   0.59465048   -8.9530879    195.45888 0.0098240289 0.0086093138          575 
 1659000   0.58757538   -8.9571019    195.79714 0.0098350986 0.0086012192          803 
 1660000   0.58740827   -8.9465795    195.84053 0.0098313521 0.0085931341          799 
 1661000   0.57968914   -8.9562218    195.81349 0.0098240762 0.0085850461          849 
 1662000   0.58686134   -8.9493407    195.90045 0.0098225255 0.0085769739          824 
 1663000   0.57589232    -8.953719    195.48791 0.0097959467 0.0085689066          826 
 1664000    0.5866505   -8.9374177    195.80902  0.009806141 0.0085608592          848 
 1665000   0.59418175   -8.9691653    195.72029 0.0097958104 0.0085528261          801 
 1666000   0.59342886   -8.9760146    195.59711 0.0097837691 0.0085447995          833 
 1667000   0.59030497   -8.9810911    195.59486 0.0097777874 0.0085367743          797 
 1668000   0.58483769   -8.9466047    195.44053 0.0097642149 0.0085287658          791 
 1669000   0.58539556   -8.9627782    195.56585 0.0097646221 0.0085207668          832 
 1670000   0.57860711   -8.9474317    195.85283 0.0097730955 0.0085127821          796 
 1671000   0.56039109   -8.9603079    195.86239 0.0097677236 0.0085048022          806 
 1672000   0.59573255   -8.9809043    195.76085 0.0097568209 0.0084968258          763 
 1673000   0.58797637   -8.9698706    195.73468 0.0097496851 0.0084888544          789 
 1674000   0.56499522    -8.972935    195.31651 0.0097230443 0.0084808948          524 
 1675000    0.5712627   -8.9533775    195.34056 0.0097184356 0.0084729443          785 
 1676000   0.57274424   -8.9338502    195.69271 0.0097301467 0.0084649951          560 
 1677000   0.58238521   -8.9455207    195.49147 0.0097143444 0.0084570608          800 
 1678000    0.5850871   -8.9639315    195.87566 0.0097276352 0.0084491283          811 
 1679000   0.57843379   -8.9624408    195.22918 0.0096897546 0.0084412098          823 
 1680000   0.58247138   -8.9496973    195.50382 0.0096976103 0.0084332985          786 
 1681000   0.58158214   -8.9702423    195.57287 0.0096952642 0.0084253977          781 
 1682000   0.58035166   -8.9544624    195.53338 0.0096875435 0.0084175025          795 
 1683000   0.57469325   -8.9982388    195.20985 0.0096657682 0.0084096049          806 
 1684000   0.57897917   -8.9697569     195.5729 0.0096779939 0.0084017188          521 
 1685000   0.58011555   -8.9769507    195.50242 0.0096687643 0.0083938327          750 
 1686000   0.58090884   -8.9683441    195.28801 0.0096524323 0.0083859675          818 
 1687000   0.59004625   -8.9544548    196.03388 0.0096835546 0.0083781144          814 
 1688000   0.57972637   -8.9567153    195.36717 0.0096449039 0.0083702749          839 
 1689000   0.58908449   -8.9707366    195.28542 0.0096351597 0.0083624467          798 
 1690000   0.58824616   -8.9986818    195.14295 0.0096224332 0.0083546303          556 
 1691000   0.59290686     -8.98728    194.94734 0.0096071031 0.0083468106          839 
 1692000   0.57131097   -8.9733077    195.55514 0.0096313602 0.0083390105          813 
 1693000   0.58356942   -8.9906549    195.44049 0.0096200279  0.008331206          461 
 1694000   0.55944343   -8.9556228    195.66737 0.0096255103 0.0083234229          739 
 1695000   0.58459691   -8.9798138    195.35553 0.0096044999  0.008315639          526 
 1696000   0.57638282   -8.9955153     195.5873 0.0096102248 0.0083078593          764 
 1697000   0.58083816    -8.980786    195.26058  0.009588518 0.0083000992          809 
 1698000   0.57845293   -8.9752999    195.27156 0.0095834101 0.0082923482          762 
 1699000   0.56617634   -8.9892196     195.5138 0.0095896509 0.0082845998          791 
 1700000   0.56565994   -8.9861058    195.27351 0.0095722307 0.0082768546          790 
 1701000   0.57233266    -8.981867    195.36877 0.0095712702 0.0082691284          808 
 1702000   0.57462038   -8.9663144    195.24879 0.0095597721 0.0082614194          809 
 1703000   0.58915177   -8.9879862    195.13467 0.0095485745 0.0082537055          795 
 1704000   0.56501259   -8.9859475    195.22706 0.0095474894 0.0082459983          817 
 1705000   0.55794602   -8.9936735    195.55426 0.0095578818 0.0082382994          464 
 1706000   0.57062123   -8.9823378    195.16711 0.0095333679 0.0082306111          788 
 1707000   0.55956681    -9.008038    195.55551 0.0095467442 0.0082229246          820 
 1708000   0.56089966   -8.9862678    195.11319 0.0095195739 0.0082152511          806 
 1709000   0.57367496   -9.0050506    195.38759 0.0095273841  0.008207599          794 
 1710000   0.58502088   -9.0092993     195.1825 0.0095118176 0.0081999505          805 
 1711000   0.56881894   -8.9767199    195.32895 0.0095133914 0.0081923054          783 
 1712000   0.57822804   -8.9941695    195.41088 0.0095118226 0.0081846709          798 
 1713000   0.56935056   -8.9916305    194.93082 0.0094829162 0.0081770413          806 
 1714000   0.56708956   -8.9971124    195.26154 0.0094934624   0.00816943          830 
 1715000   0.55664314   -8.9905741    194.84802 0.0094678336 0.0081618193          561 
 1716000    0.5637965   -9.0005756    195.14868 0.0094769175 0.0081542253          815 
 1717000   0.56271761   -8.9956909    195.26758 0.0094771684 0.0081466421          822 
 1718000   0.57202053   -8.9911962    195.11362 0.0094641839 0.0081390642          814 
 1719000   0.56223104   -8.9797947    195.48297 0.0094765839  0.008131487          806 
 1720000   0.57237139   -9.0005893    195.22573 0.0094586109  0.008123925          850 
 1721000   0.57030917   -8.9983063    195.47235 0.0094650565 0.0081163651          763 
 1722000    0.5650423   -9.0043185    195.05825 0.0094395206 0.0081088179          793 
 1723000   0.56090618   -8.9958432    195.39339  0.009450251 0.0081012857          776 
 1724000   0.57050947   -8.9958542    195.19984 0.0094354139 0.0080937668          796 
 1725000   0.56849269   -8.9980966    195.02364 0.0094214318 0.0080862513          782 
 1726000   0.57185784   -8.9928691    194.91597 0.0094107747 0.0080787343          838 
 1727000   0.57129009   -8.9860229    195.37033 0.0094272498 0.0080712219          781 
 1728000   0.56329876   -9.0023655    195.23726  0.009415377 0.0080637082          842 
 1729000    0.5612143   -8.9983615    195.17776  0.009407064 0.0080562047          825 
 1730000   0.57204041   -9.0207658    194.93354 0.0093898622 0.0080487122          849 
 1731000   0.55300856    -9.009588     195.1646 0.0093955613 0.0080412326          776 
 1732000   0.56849352    -9.009463    194.74886 0.0093701336  0.008033759          817 
 1733000   0.56441268   -8.9960877    194.81488 0.0093679016 0.0080262995          834 
 1734000   0.57246406   -9.0214704    194.90279 0.0093667237 0.0080188466          848 
 1735000   0.56710396   -9.0167654    194.92562 0.0093624215  0.008011399          779 
 1736000    0.5581849   -9.0144915    194.86254 0.0093540007 0.0080039628          808 
 1737000   0.56533993   -9.0122509    195.01175  0.009355774 0.0079965321          793 
 1738000   0.56028019   -9.0203993    194.95108 0.0093474819 0.0079891175          829 
 1739000   0.57154109   -9.0275762     194.7526 0.0093325956 0.0079817046          797 
 1740000   0.55177948   -8.9990573    195.08892 0.0093433392 0.0079743063          855 
 1741000   0.54545035   -9.0316913    194.99507 0.0093334803 0.0079669216          828 
 1742000   0.55901318   -9.0242557    195.04291  0.009330411 0.0079595439          829 
 1743000   0.55589996   -9.0193268    194.81628 0.0093142225 0.0079521691          804 
 1744000   0.56909337   -9.0114592    194.71654  0.009304116    0.0079448          793 
 1745000   0.56172451    -8.999481    195.09432 0.0093168251  0.007937449          806 
 1746000   0.55263434   -9.0013704    195.06826 0.0093102455 0.0079301041          851 
 1747000   0.55134207   -9.0075381     194.9982  0.009301574 0.0079227811          828 
 1748000   0.55867725   -9.0071195    195.49608 0.0093199887 0.0079154441          837 
 1749000   0.56398417   -9.0019032    195.02031 0.0092919912 0.0079081312          799 
 1750000    0.5632167   -9.0178855    195.02212 0.0092867675 0.0079008211          802 
 1751000   0.56563257   -9.0313395    194.92859 0.0092770125 0.0078935164          818 
 1752000   0.55754266   -9.0184229    195.12475 0.0092810477 0.0078862208          824 
 1753000   0.56609208   -9.0356139    195.11814 0.0092754391  0.007878931          844 
 1754000   0.55010782   -9.0275782    194.82264  0.009256112 0.0078716457          848 
 1755000   0.54522193   -9.0060737    195.21087 0.0092692719 0.0078643699          851 
 1756000   0.56850306   -9.0324411    195.06138 0.0092568991 0.0078571083          805 
 1757000   0.55377167   -9.0208382    194.76583 0.0092376129  0.007849863          853 
 1758000   0.55279545   -9.0519475    194.79863  0.009233913 0.0078426102          840 
 1759000   0.54297087   -9.0217531     194.8818 0.0092326037 0.0078353683          866 
 1760000   0.55914538   -9.0471683    195.10097 0.0092377354 0.0078281329          831 
 1761000   0.54867997   -9.0173067    194.86703 0.0092214192 0.0078209048          869 
 1762000   0.55127541   -9.0499868    194.56912 0.0092020959 0.0078136885          841 
 1763000   0.54077298   -9.0273222    194.53289 0.0091951641 0.0078064757          461 
 1764000   0.55146684   -9.0436911    194.58047 0.0091921991 0.0077992697          823 
 1765000    0.5527832   -9.0220796    194.72216 0.0091936807 0.0077920797          839 
 1766000   0.54834826   -9.0386256    194.86022 0.0091949898 0.0077849022          806 
 1767000   0.54874088   -9.0474086    194.53996 0.0091746821 0.0077777297          778 
 1768000   0.53049645   -9.0529474     194.9951 0.0091909454 0.0077705528          840 
 1769000   0.55486617   -9.0370998    194.66668 0.0091702786  0.007763389          854 
 1770000   0.55879841   -9.0304606    194.62992 0.0091633675 0.0077562405          866 
 1771000   0.55546181   -9.0428304     194.5792 0.0091558067 0.0077490945          870 
 1772000   0.55285285   -9.0400783    194.66255 0.0091545592 0.0077419548          878 
 1773000   0.54712065   -9.0444876    194.36137 0.0091352402 0.0077348333          827 
 1774000   0.56088924   -9.0201237    194.81908 0.0091515916 0.0077277199          812 
 1775000   0.56162055    -9.030684    194.64931 0.0091384651 0.0077206149          880 
 1776000   0.54008453   -9.0407489      194.633 0.0091325546  0.007713511          880 
 1777000   0.53946272   -9.0459572    194.45729 0.0091191753 0.0077064158          878 
 1778000   0.54432165   -9.0455009    194.73046 0.0091268492 0.0076993313          881 
 1779000   0.55503953   -9.0543913    194.64354 0.0091176477 0.0076922597          883 
 1780000   0.53990976   -9.0514249    194.81607 0.0091206025 0.0076851932          891 
 1781000   0.53242868   -9.0487747    194.59228 0.0091050102  0.007678133          902 
 1782000   0.53101002    -9.065069    195.03175  0.009120452 0.0076710803          911 
 1783000   0.53798624   -9.0543665    194.59653 0.0090949957 0.0076640385          891 
 1784000   0.52835437   -9.0490756    194.59639 0.0090898913 0.0076570027          844 
 1785000   0.53139268   -9.0616132    194.70818 0.0090900176 0.0076499698          881 
 1786000   0.53886965   -9.0489105    194.30942 0.0090663224 0.0076429602          895 
 1787000   0.53484995   -9.0511788     194.6762 0.0090783531 0.0076359534          916 
 1788000   0.53912289   -9.0522206    194.95367 0.0090862076 0.0076289529          818 
 1789000   0.53068593    -9.050801    194.75946  0.009072082 0.0076219644          870 
 1790000   0.55086109   -9.0377821    194.56216 0.0090578286 0.0076149792          874 
 1791000   0.54631913   -9.0538941    194.91766 0.0090693123  0.007608008          859 
 1792000   0.53660999   -9.0469336    194.66658 0.0090525751 0.0076010401          882 
 1793000   0.53459801   -9.0379128    194.68796 0.0090485202 0.0075940885          841 
 1794000   0.54627731   -9.0633339    194.93963 0.0090551668 0.0075871444          847 
 1795000   0.53915114   -9.0659448    194.67823 0.0090379863 0.0075802135          892 
 1796000   0.52962764    -9.037308    194.59936 0.0090292949 0.0075732942          881 
 1797000   0.53775639   -9.0452081    194.60804 0.0090246724 0.0075663819          881 
 1798000   0.53829193   -9.0337693    194.46256 0.0090129108 0.0075594686          857 
 1799000   0.53142839   -9.0543678    194.63366 0.0090158265 0.0075525576          852 
 1800000   0.52858493   -9.0330211    194.55961 0.0090073892 0.0075456601          882 
 1801000   0.53730832   -9.0409571    194.83934 0.0090153311 0.0075387698          861 
 1802000   0.53496313   -9.0554981    194.78245 0.0090076972 0.0075318888          841 
 1803000   0.53256029   -9.0332395    194.76534 0.0090019105 0.0075250132          922 
 1804000   0.53966633   -9.0711188    194.36247 0.0089783108  0.007518149          881 
 1805000   0.54165048   -9.0410183    194.82584 0.0089947295 0.0075112935          870 
 1806000   0.53402588   -9.0266016    194.60958 0.0089797702 0.0075044504          883 
 1807000   0.53492731   -9.0715518    194.69491 0.0089787358 0.0074976052          890 
 1808000   0.52857776   -9.0592441    194.64548 0.0089714917 0.0074907732          893 
 1809000   0.52646727   -9.0599729    195.00369 0.0089830334 0.0074839484          894 
 1810000   0.51058947   -9.0408101     194.5306 0.0089562889   0.00747713          895 
 1811000    0.5373734   -9.0511439    194.67253 0.0089578746  0.007470321          858 
 1812000   0.52841672   -9.0610196    194.57072 0.0089482486 0.0074635183          921 
 1813000   0.52956006    -9.045392    194.33817 0.0089326242 0.0074567249          871 
 1814000   0.52450414   -9.0774574    194.47541 0.0089340046 0.0074499306          895 
 1815000   0.53445421   -9.0588511    194.33612  0.008922687 0.0074431444          878 
 1816000   0.53994337   -9.0646187    194.68309 0.0089336954 0.0074363737          905 
 1817000   0.52952902   -9.0686787    194.67053 0.0089282026 0.0074296089          894 
 1818000   0.51656658   -9.0675589    194.56999  0.008918683 0.0074228585          896 
 1819000   0.51631189   -9.0628489    194.54259 0.0089125248 0.0074161157          905 
 1820000   0.51976449   -9.0686117    194.86323 0.0089223091 0.0074093784          865 
 1821000   0.51746968   -9.0491267    194.48134 0.0088999333  0.007402652          880 
 1822000   0.52019176    -9.070351    194.38776 0.0088907682 0.0073959257          908 
 1823000   0.52241512    -9.069653    194.36286  0.008884753 0.0073892103          871 
 1824000    0.5277751    -9.092295    194.37973 0.0088806527 0.0073825098          906 
 1825000    0.5253592    -9.057311    194.51747 0.0088820761 0.0073758098          888 
 1826000   0.52199485   -9.0730419    194.92584  0.008895849 0.0073691203          914 
 1827000   0.52935858   -9.0694264     194.3726 0.0088657452 0.0073624413          872 
 1828000   0.52388476   -9.0750017    194.36893 0.0088607278 0.0073557638          885 
 1829000   0.52835012   -9.0706887    194.31139 0.0088532619 0.0073490991          887 
 1830000   0.52603388   -9.0728806    194.51579 0.0088577317 0.0073424447          872 
 1831000   0.52371887   -9.0639061    194.71339 0.0088618875 0.0073357843          846 
 1832000   0.52305357   -9.0650015    194.65092 0.0088542083 0.0073291355          840 
 1833000   0.52740903    -9.067677    194.40027 0.0088379829 0.0073225116          851 
 1834000   0.52246631   -9.0690603    194.62559 0.0088434022 0.0073158806          867 
 1835000   0.52419934   -9.0627555    194.34053 0.0088256374 0.0073092651          897 
 1836000   0.51113723     -9.05738    194.62239 0.0088336232 0.0073026613          879 
 1837000   0.52418301   -9.0614956      194.491 0.0088228543 0.0072960617          874 
 1838000   0.51591382   -9.0606661    194.04038 0.0087976234 0.0072894656          901 
 1839000   0.51610593   -9.0758855     194.3075 0.0088049437 0.0072828756          881 
 1840000   0.51309869   -9.0912029    194.38016 0.0088034491 0.0072762936          924 
 1841000   0.51817649    -9.066301    194.29182 0.0087946685 0.0072697236          850 
 1842000    0.5192179   -9.0709078    194.32627 0.0087914525 0.0072631513          838 
 1843000   0.52649059   -9.0798846    194.65806 0.0088016845 0.0072565982          843 
 1844000   0.52310209   -9.0710158    194.45899 0.0087879153 0.0072500539          895 
 1845000   0.51491144    -9.085507     194.2946 0.0087757272 0.0072435089          892 
 1846000   0.51185072   -9.0616736    194.61987 0.0087856568 0.0072369715          885 
 1847000   0.51346266   -9.0893079    194.43422 0.0087725238 0.0072304433          909 
 1848000   0.51209925   -9.0772256    194.14049 0.0087545314 0.0072239203          896 
 1849000    0.5223963   -9.0793185    194.38832 0.0087609665 0.0072174031          872 
 1850000   0.50023074   -9.0826632    194.60585 0.0087660291 0.0072108967          872 
 1851000   0.51063698   -9.0811468    194.20258 0.0087431379  0.007204397          902 
 1852000   0.51169474   -9.0796351    193.94623 0.0087268824 0.0071979017          854 
 1853000   0.51235469   -9.0618756    194.55884 0.0087497231 0.0071914171          887 
 1854000   0.50500288   -9.0923761     194.5127 0.0087429296 0.0071849399          838 
 1855000   0.51410596   -9.0858617    194.25179 0.0087264956 0.0071784717          879 
 1856000   0.52446677    -9.088101    194.17539 0.0087183636 0.0071720062          913 
 1857000   0.51697299   -9.0864502    194.20372 0.0087149398 0.0071655488          882 
 1858000   0.50388699   -9.0821576    194.72329 0.0087335525 0.0071591054          875 
 1859000   0.49944053   -9.0815485    194.55043 0.0087211059 0.0071526705          886 
 1860000   0.51076563   -9.1095387    194.26892 0.0087038047 0.0071462424          862 
 1861000   0.51312804   -9.0835606    194.38265 0.0087042205 0.0071398201          838 
 1862000   0.51101588    -9.096372    194.13528 0.0086884746    0.0071334          852 
 1863000    0.5135172   -9.1050202    194.11627 0.0086829605 0.0071269889          874 
 1864000   0.50038732    -9.084254    194.30756 0.0086868543 0.0071205872          850 
 1865000   0.50569388   -9.0855299    194.32689 0.0086830602 0.0071141914          874 
 1866000   0.51264001   -9.0806816    194.48273 0.0086853667 0.0071078044          877 
 1867000   0.51031996   -9.0706245    194.34704 0.0086746583   0.00710143          872 
 1868000   0.50660308   -9.0978985    193.89646 0.0086499137 0.0070950589          865 
 1869000   0.51368572    -9.089402     194.1503 0.0086566032 0.0070886992          824 
 1870000   0.50710385   -9.0847918     194.4585 0.0086657083 0.0070823467          859 
 1871000    0.5131779   -9.0850171    194.38858 0.0086579629 0.0070760071          847 
 1872000   0.51044404   -9.0888926    194.09148 0.0086401123 0.0070696628          880 
 1873000   0.51582214   -9.0997683    194.26856 0.0086433778 0.0070633238          862 
 1874000   0.50124944   -9.0987682    194.13407 0.0086327848 0.0070569941          875 
 1875000   0.50366557   -9.1051835    194.04919 0.0086244084 0.0070506679          866 
 1876000   0.50791912   -9.1100303    194.31264 0.0086315136  0.007044348          917 
 1877000   0.50695552   -9.0987284    194.18052 0.0086210497 0.0070380397          885 
 1878000   0.50343642   -9.1051223    194.18705 0.0086167488  0.007031737          862 
 1879000   0.49386185   -9.1016667    193.81905 0.0085958423 0.0070254476          884 
 1880000   0.50698989   -9.1204379    194.30751 0.0086129216 0.0070191601          885 
 1881000   0.50314451    -9.116944    194.18074 0.0086027262 0.0070128862          902 
 1882000   0.50346986   -9.1108004    193.99803  0.008590065 0.0070066217          868 
 1883000   0.49629766   -9.0989628    194.32908 0.0086001539 0.0070003565          866 
 1884000   0.50360171   -9.1053041    194.50724 0.0086034698 0.0069940982          896 
 1885000   0.50063199   -9.1063333    194.10867 0.0085812853 0.0069878469          849 
 1886000    0.5012731   -9.1091343     194.1626 0.0085791182 0.0069816034          918 
 1887000   0.50033834   -9.1068895    194.21332 0.0085768115 0.0069753698          855 
 1888000   0.49692996   -9.1198814    193.96158 0.0085611574 0.0069691416          876 
 1889000    0.5036503   -9.1033874    193.85284 0.0085518283 0.0069629208          912 
 1890000   0.50427847   -9.1144408    194.02257  0.008554787  0.006956702          882 
 1891000   0.49971535   -9.1149098     194.1984 0.0085580115 0.0069504929          905 
 1892000   0.48937975   -9.1045358    194.26065   0.00855623 0.0069442907          904 
 1893000   0.49731562   -9.1123586    194.09092 0.0085442385 0.0069380945          890 
 1894000   0.49411293   -9.1089722    194.22426 0.0085455938 0.0069319037          878 
 1895000   0.49823996   -9.1057235    193.76169 0.0085207425 0.0069257262          926 
 1896000   0.50357053   -9.1161426    193.83171 0.0085193263  0.006919553          866 
 1897000   0.48997307   -9.1236571    194.21422 0.0085316386 0.0069133948          903 
 1898000   0.50132698   -9.1218185    193.95686 0.0085158437 0.0069072352          916 
 1899000   0.49523803   -9.1282224    194.21942 0.0085228812  0.006901082          886 
 1900000   0.50297439   -9.1051132    194.12793  0.008514383  0.006894941          890 
 1901000   0.48561933   -9.1159883    193.94628 0.0085019411 0.0068888078          871 
 1902000   0.49253323   -9.1068302    194.02306  0.008500835 0.0068826797          887 
 1903000   0.48291123   -9.1169371    193.73891 0.0084839248 0.0068765517          902 
 1904000   0.49115417   -9.1045822    194.02745 0.0084920977 0.0068704364          819 
 1905000   0.50089697     -9.11375    194.02405 0.0084874912 0.0068643283          861 
 1906000   0.49362105   -9.1235785    193.87283 0.0084764264 0.0068582265          866 
 1907000   0.50029282   -9.1004522    194.16516 0.0084847564 0.0068521368          879 
 1908000   0.49245712   -9.1199154    194.04601 0.0084751053 0.0068460494          847 
 1909000   0.50145975   -9.1175501     193.8536 0.0084622664 0.0068399659          881 
 1910000   0.48262381   -9.1182374    193.81731 0.0084562527 0.0068338952          849 
 1911000   0.47649742   -9.1328879    193.95304 0.0084577463 0.0068278306          902 
 1912000   0.49578508   -9.1188542    193.96715  0.008453938   0.00682177          868 
 1913000   0.50420742    -9.134379     193.9565 0.0084490545  0.006815717          896 
 1914000   0.48761238   -9.1379498    194.08198 0.0084501035 0.0068096747          918 
 1915000   0.49584696   -9.1194826    194.08344 0.0084457544 0.0068036336          891 
 1916000    0.4899848   -9.1264045    193.97617 0.0084366808    0.0067976          916 
 1917000   0.48899786   -9.1266059    193.98936 0.0084328535 0.0067915731          893 
 1918000   0.49007792   -9.1339353    194.02666 0.0084300775 0.0067855496          887 
 1919000   0.48556763   -9.1314072    194.01928  0.008425364 0.0067795394          912 
 1920000   0.48124641   -9.1497204    193.65128 0.0084050037 0.0067735316          905 
 1921000   0.48151175    -9.124026    193.87433 0.0084103043 0.0067675328          937 
 1922000   0.49375774   -9.1249093    193.61603 0.0083947289 0.0067615351          867 
 1923000    0.4870212   -9.1396331    193.79902 0.0083982935 0.0067555494          869 
 1924000   0.48719865   -9.1393582    193.88996 0.0083978671 0.0067495673          928 
 1925000   0.48259676   -9.1520251    193.76181 0.0083879572 0.0067435927          910 
 1926000   0.48799766   -9.1389869     194.0717 0.0083970103 0.0067376282          895 
 1927000   0.48777461   -9.1493743    193.96709 0.0083881288 0.0067316682          916 
 1928000   0.48209892   -9.1296982    193.96941 0.0083838785 0.0067257125          889 
 1929000   0.47960702   -9.1315262    193.62026 0.0083644487 0.0067197698          928 
 1930000   0.48626036   -9.1370722    193.84877 0.0083699815 0.0067138332          938 
 1931000   0.49253632   -9.1279285    193.99147  0.008371805  0.006707906          896 
 1932000    0.4668628   -9.1611991    193.86307 0.0083619338 0.0067019819          920 
 1933000   0.48849597    -9.132898    193.96552 0.0083620245 0.0066960645          906 
 1934000   0.49177198   -9.1383591    193.88809 0.0083543643 0.0066901514          881 
 1935000    0.4750824   -9.1506417    193.80891 0.0083466369 0.0066842518          952 
 1936000   0.47956581    -9.124011    193.82729 0.0083431168 0.0066783588          951 
 1937000   0.48266919   -9.1326406     193.7309 0.0083346628  0.006672473          921 
 1938000   0.48571967   -9.1307771    193.86692 0.0083362109 0.0066665907          904 
 1939000   0.48723833   -9.1534183    193.92752 0.0083345161 0.0066607201          901 
 1940000    0.4711758   -9.1379217    193.75673 0.0083228835  0.006654847          922 
 1941000    0.4779597   -9.1621123    193.69525  0.008315956  0.006648984          883 
 1942000   0.48279645   -9.1495196    193.84083 0.0083179211 0.0066431258          895 
 1943000   0.49249933   -9.1498897    193.52223 0.0082999757 0.0066372779          903 
 1944000   0.47343011    -9.149273    193.87474 0.0083108169 0.0066314375          951 
 1945000   0.47877357   -9.1342355    193.61371 0.0082953603 0.0066256102          867 
 1946000   0.47571267   -9.1682985    193.83472  0.008300562 0.0066197774          892 
 1947000    0.4746734   -9.1578435    193.82096 0.0082957097 0.0066139517          907 
 1948000   0.47138826   -9.1609108    193.80893 0.0082909366 0.0066081276          885 
 1949000   0.47834832   -9.1452215    193.61877 0.0082785519 0.0066023139          927 
 1950000   0.47271408   -9.1526875    193.56984 0.0082722155  0.006596509          934 
 1951000   0.47740557   -9.1682656    193.56804 0.0082678985 0.0065907135          934 
 1952000   0.47872646   -9.1507605    193.71748 0.0082700426 0.0065849247          900 
 1953000   0.48294454   -9.1544978    193.74709 0.0082670717 0.0065791442          915 
 1954000   0.47465053   -9.1476129    193.73156 0.0082621784 0.0065733567          920 
 1955000   0.46715807     -9.14332    193.76056 0.0082591885 0.0065675813          857 
 1956000   0.46097436   -9.1498375    193.99812 0.0082650867 0.0065618165          869 
 1957000   0.47423333   -9.1556613    193.74983 0.0082502909 0.0065560527          921 
 1958000    0.4609635    -9.174209    193.73915 0.0082456227 0.0065502991          920 
 1959000   0.47593715   -9.1530818    193.76028 0.0082423123  0.006544556          869 
 1960000   0.46912256   -9.1505145    193.45113 0.0082249629  0.006538817          887 
 1961000    0.4652765   -9.1613786    193.69428 0.0082311016 0.0065330872          904 
 1962000   0.47503737   -9.1690965     193.3753 0.0082133581  0.006527363          915 
 1963000   0.47110148   -9.1747792    193.64713 0.0082207135 0.0065216482          882 
 1964000   0.47000998   -9.1645105    193.70693 0.0082190652 0.0065159376          919 
 1965000    0.4761493   -9.1575002    193.94652 0.0082250432 0.0065102333          895 
 1966000   0.45862054   -9.1687785    193.72162 0.0082113266 0.0065045416          893 
 1967000   0.46624216   -9.1684871    193.75223 0.0082084488 0.0064988477          910 
 1968000   0.46403439   -9.1565383    193.51902 0.0081944028 0.0064931618          902 
 1969000   0.47329632   -9.1737509    193.60057 0.0081936928 0.0064874807          921 
 1970000   0.46135343   -9.1634351    193.55757 0.0081877147 0.0064818064          888 
 1971000   0.47146098   -9.1563072    193.67059  0.008188339 0.0064761411          876 
 1972000   0.47112185    -9.154847    193.63407 0.0081826431 0.0064704835          867 
 1973000   0.46640576   -9.1564599    193.73909 0.0081829318 0.0064648315          881 
 1974000   0.46625297   -9.1564414    193.65261 0.0081751353 0.0064591851          860 
 1975000    0.4675244   -9.1825787     193.5478 0.0081665739 0.0064535514          939 
 1976000   0.46349733   -9.1808963    193.60612 0.0081649003 0.0064479197          930 
 1977000   0.45870092   -9.1687449    193.70447 0.0081649162   0.00644229          897 
 1978000   0.46617379   -9.1684459    193.65022 0.0081585029 0.0064366707          865 
 1979000   0.46489816   -9.1714868    193.51142 0.0081485355 0.0064310551          886 
 1980000   0.46223196   -9.1689539    193.62746  0.008149304 0.0064254452          859 
 1981000   0.45692711   -9.1831568    193.77609 0.0081514424 0.0064198421          895 
 1982000   0.45900996   -9.1742473    193.59218 0.0081395972 0.0064142465          889 
 1983000   0.45895331   -9.1675752    193.45141 0.0081295767 0.0064086627          903 
 1984000   0.46264487   -9.1677345    193.31944 0.0081199363 0.0064030882          899 
 1985000   0.44725378   -9.1817644    193.67016 0.0081305691 0.0063975128          901 
 1986000   0.45830373   -9.1638579    193.77114 0.0081307123 0.0063919424          920 
 1987000   0.45302712   -9.1603877    193.61244  0.008119965 0.0063863779          950 
 1988000   0.45833277   -9.1674137    193.34774 0.0081047845 0.0063808215          903 
 1989000   0.45670198   -9.1645878     193.3292  0.008099933 0.0063752767          933 
 1990000   0.46545831   -9.1647826    193.50967   0.00810342 0.0063697322          905 
 1991000    0.4628861   -9.1750402    193.46578 0.0080975132 0.0063641983          907 
 1992000   0.45118451   -9.1685569    193.38287 0.0080899795 0.0063586664          868 
 1993000   0.46446666   -9.1833379    193.49642 0.0080906683 0.0063531388          941 
 1994000   0.45114777   -9.1748277    193.56446  0.008089454 0.0063476158          932 
 1995000   0.46691817   -9.1765898    193.46738 0.0080813441 0.0063421031          922 
 1996000   0.45311405   -9.1729914    193.29618  0.008070148 0.0063366007          880 
 1997000   0.46168482   -9.1993952    193.81062 0.0080875739 0.0063310999          939 
 1998000   0.46552453   -9.1735437    193.31822 0.0080629889 0.0063256083          912 
 1999000   0.45391364   -9.1881211    193.35104 0.0080603236 0.0063201249          883 
 2000000   0.46888069   -9.1785134    193.36028 0.0080566785  0.006314642          885 
 2001000   0.44940138   -9.1827598    193.23438 0.0080474086 0.0063091661          898 
 2002000   0.45532564   -9.1889772    193.22379 0.0080429482 0.0063036966          949 
 2003000   0.45873476   -9.1783291    193.42501 0.0080473045 0.0062982348          883 
 2004000   0.44966054   -9.1721925    193.39494 0.0080420385 0.0062927778          878 
 2005000   0.46053915   -9.1808825    193.20096 0.0080299651 0.0062873251          926 
 2006000   0.45708239    -9.178315    193.35442 0.0080323373 0.0062818762          894 
 2007000   0.44915432   -9.1955351    193.39539 0.0080300361 0.0062764371          942 
 2008000   0.44976724   -9.1951566    193.39273 0.0080259267  0.006271005          927 
 2009000   0.44361957   -9.1879282    193.09154 0.0080094385 0.0062655818          950 
 2010000   0.44480152   -9.2039234     193.3768 0.0080172804 0.0062601612          938 
 2011000   0.45121327   -9.1841992    193.49374 0.0080181395  0.006254748          947 
 2012000   0.45205533   -9.1924416    193.07727  0.007996905  0.006249336          926 
Loop time of 5110.83 on 48 procs for 2000000 steps with 4000 atoms

Performance: 67621.046 tau/day, 391.325 timesteps/s
99.4% CPU use with 48 MPI tasks x no OpenMP threads

MPI task timing breakdown:
Section |  min time  |  avg time  |  max time  |%varavg| %total
---------------------------------------------------------------
Pair    | 370.12     | 391.37     | 417.02     |  54.6 |  7.66
Neigh   | 34.174     | 35.556     | 37.501     |  14.0 |  0.70
Comm    | 326.35     | 349.88     | 371.58     |  61.9 |  6.85
Output  | 5.844      | 5.8458     | 5.889      |   0.3 |  0.11
Modify  | 4271.8     | 4282.5     | 4291.2     |   7.8 | 83.79
Other   |            | 45.7       |            |       |  0.89

Nlocal:        83.3333 ave          90 max          77 min
Histogram: 3 2 4 7 7 11 6 5 1 2
Nghost:        2316.15 ave        2338 max        2295 min
Histogram: 3 1 3 11 8 9 4 6 1 2
Neighs:        15744.4 ave       17601 max       14467 min
Histogram: 5 7 7 4 10 3 5 3 1 3
FullNghs:      31489.8 ave       33964 max       29261 min
Histogram: 3 5 3 8 6 9 5 2 5 2

Total # of neighbors = 1511510
Ave neighs/atom = 377.87750
Neighbor list builds = 106532
Dangerous builds = 0

#clear
#
#next RN
#
#jump SELF
Total wall time: 1:25:14
