
units lj                  # Use reduced LJ style units
atom_style atomic         # Uncharged point particles
atom_modify map hash      # Needed for indexing of clusters etc
                          # Used to be able to find where atoms are in relation to each other.

lattice fcc 1.0 spacing 1 1 1
Lattice spacing in x,y,z = 1.5874011 1.5874011 1.5874011
region box block 0 10 0 10 0 10 units lattice
create_box 2 box
Created orthogonal box = (0.0000000 0.0000000 0.0000000) to (15.874011 15.874011 15.874011)
  3 by 4 by 4 MPI processor grid
create_atoms 1 box
Created 4000 atoms
  using lattice units in orthogonal box = (0.0000000 0.0000000 0.0000000) to (15.874011 15.874011 15.874011)
  create_atoms CPU = 0.002 seconds
set type 1 type/fraction 2 0.46 78393
Setting atom values ...
  1843 settings made for type/fraction
mass 1 1.0
mass 2 1.0
pair_style lj/cut  3.5
pair_modify tail  yes
pair_coeff 1  1  1.0  1.0   # Intearaction between 1 and 1 set with epsilon = 1 and sigma = 1
pair_coeff 1  2  1.5  0.8
pair_coeff 2  2  0.5  0.88

write_data data.0
System init for write_data ...
Neighbor list info ...
  update every 1 steps, delay 10 steps, check yes
  max neighbors/atom: 2000, page size: 100000
  master list distance cutoff = 3.8
  ghost atom cutoff = 3.8
  binsize = 1.9, bins = 9 9 9
  1 neighbor lists, perpetual/occasional/extra = 1 0 0
  (1) pair lj/cut, perpetual
      attributes: half, newton on
      pair build: half/bin/atomonly/newton
      stencil: half/bin/3d
      bin: standard
WARNING: Not all mixed pair coeffs generated from mixing. Use write_data with 'pair ij' option to store all pair coeffs. (../write_data.cpp:312)


#############################
#   M E L T   S Y S T E M   #
#############################

velocity all create 2.4 5833274 mom yes dist gaussian # Assign velocities
                                                    # Temperature 2.4, random number seed, zero linear momentum
                                                                                # Gaussian distribution

timestep 0.002   # simulation timestep
thermo 1000       # output thermodynamic data every 1000 steps bf 100

# Define a fix  in this case with index 1 applied to all
# particles in the simulation. This fix is for simulations
# in the anisotropic NPT ensemble. Note that we use the MTK
# correction.
fix 1 all npt temp 2.4 2.4 0.1 iso 5.68 5.68 0.5 mtk yes tchain 5 pchain 5 # Use NPT ensemble
                                                                         # Set temperature and pressure and damping
                                                                         # Numbers of thermostats in chain and in barostat
run 10000          # run for 10000 steps
Per MPI rank memory allocation (min/avg/max) = 3.642 | 3.644 | 3.648 Mbytes
Step Temp E_pair E_mol TotEng Press Volume 
       0          2.4   -5.5244938            0   -1.9253938   -4.2019961         4000 
    1000    2.3348971   -4.9758123            0   -1.4743422    5.5795107    3762.6903 
    2000    2.4345181   -5.0096304            0   -1.3587662    5.9397674    3740.8037 
    3000    2.4220571    -5.047021            0   -1.4148437    5.7182226    3733.2811 
    4000    2.4067459   -4.9332055            0   -1.3239892    6.1283997     3751.754 
    5000    2.4091489   -4.9212712            0   -1.3084512    6.2889494    3749.6385 
    6000    2.3984437   -5.0254183            0   -1.4286522    5.7093313     3737.418 
    7000    2.4508892   -4.9379576            0   -1.2625429    5.5121929     3793.851 
    8000    2.4088593   -4.9609936            0    -1.348608    5.5719651     3780.327 
    9000     2.372648   -4.8870473            0   -1.3289651    6.4270511     3751.932 
   10000    2.3783323   -4.9740719            0   -1.4074653    5.4457457    3777.1701 
Loop time of 2.60388 on 48 procs for 10000 steps with 4000 atoms

Performance: 663625.813 tau/day, 3840.427 timesteps/s
99.6% CPU use with 48 MPI tasks x no OpenMP threads

MPI task timing breakdown:
Section |  min time  |  avg time  |  max time  |%varavg| %total
---------------------------------------------------------------
Pair    | 1.1598     | 1.2212     | 1.3075     |   3.0 | 46.90
Neigh   | 0.21363    | 0.22005    | 0.22842    |   0.7 |  8.45
Comm    | 0.79153    | 0.87655    | 0.95563    |   4.2 | 33.66
Output  | 0.00024427 | 0.00024988 | 0.00032267 |   0.0 |  0.01
Modify  | 0.2349     | 0.26868    | 0.31144    |   4.0 | 10.32
Other   |            | 0.0171     |            |       |  0.66

Nlocal:        83.3333 ave          99 max          75 min
Histogram: 3 8 11 7 10 5 3 0 0 1
Nghost:        1714.83 ave        1745 max        1686 min
Histogram: 2 4 2 6 11 11 3 7 1 1
Neighs:        10098.9 ave       12784 max        8806 min
Histogram: 2 8 14 9 9 4 1 0 0 1

Total # of neighbors = 484745
Ave neighs/atom = 121.18625
Neighbor list builds = 910
Dangerous builds = 234

# Equilibrate just above the melting temperature to avoid step fn in T

fix 1 all npt temp 1.25 1.25 0.1 iso 5.68 5.68 0.5 mtk yes tchain 5 pchain 5
run 2000
Per MPI rank memory allocation (min/avg/max) = 3.644 | 3.645 | 3.649 Mbytes
Step Temp E_pair E_mol TotEng Press Volume 
   10000    2.3783323   -4.9740719            0   -1.4074653    5.4457457    3777.1701 
   11000    1.2651749     -7.07549            0   -5.1782022    5.6682746    2953.3665 
   12000    1.2435331    -7.107709            0   -5.2428756    5.6551465    2939.7587 
Loop time of 0.737507 on 48 procs for 2000 steps with 4000 atoms

Performance: 468605.824 tau/day, 2711.839 timesteps/s
99.2% CPU use with 48 MPI tasks x no OpenMP threads

MPI task timing breakdown:
Section |  min time  |  avg time  |  max time  |%varavg| %total
---------------------------------------------------------------
Pair    | 0.28627    | 0.30608    | 0.33253    |   2.0 | 41.50
Neigh   | 0.039867   | 0.042183   | 0.045876   |   0.6 |  5.72
Comm    | 0.21087    | 0.25932    | 0.35765    |   5.0 | 35.16
Output  | 5.3982e-05 | 5.5692e-05 | 7.2779e-05 |   0.0 |  0.01
Modify  | 0.045978   | 0.12509    | 0.14535    |   4.9 | 16.96
Other   |            | 0.004779   |            |       |  0.65

Nlocal:        83.3333 ave          90 max          76 min
Histogram: 2 1 6 4 7 14 3 5 2 4
Nghost:        2016.77 ave        2051 max        1986 min
Histogram: 1 4 6 5 11 7 7 2 3 2
Neighs:        13012.1 ave       14557 max       11342 min
Histogram: 1 1 8 5 7 8 5 9 2 2

Total # of neighbors = 624580
Ave neighs/atom = 156.14500
Neighbor list builds = 143
Dangerous builds = 9

#############################
# L I N E A R  Q U E N C H  #
#############################

# Define solid atoms. This closely follows ten Wolde  Ruiz-Montero and Frenkel  Faraday Discuss  1996  104  93-110
# Compute components of the per-atom q6 vector
compute q6 all orientorder/atom degrees 1 6 components 6 nnn NULL cutoff 1.3 # compute the Q6 parameter.
                                                                             # Use all neighbours within 1.3 unit cell.

# get number of connections
compute coord_number all coord/atom orientorder q6 0.5

# An atom is solid if it has 8 or more connections (of a possible 14)
variable is_solid atom c_coord_number>=8
group solid dynamic all var is_solid    # Must be dynamic to update
dynamic group solid defined

# do clustering
compute cluster solid cluster/atom 1.3 # Create a cluster where all atoms within are solid and max 1.3 units from another member

# define chunks one chunk per cluster
compute clus_chunks solid chunk/atom c_cluster nchunk every compress yes  # Says which atoms are in which chunk

# count the size of each chunk
compute size_chunks solid property/chunk clus_chunks count


# Find the maximum entry in the vector of chunk sizes
variable max_n equal max(c_size_chunks)


# Thermo style which includes this variable
# thermo_style custom step temp pe vol v_max_n

thermo ${N}  # Print the thermo information every 100 steps
thermo 1000  

# Reset the npt fix at a lower temperature (below freezing)
fix 1  all npt temp  ${temp} ${temp}  0.1  iso  5.68  5.68  0.5  mtk yes tchain  5  pchain  5
fix 1  all npt temp  0.45 ${temp}  0.1  iso  5.68  5.68  0.5  mtk yes tchain  5  pchain  5
fix 1  all npt temp  0.45 0.45  0.1  iso  5.68  5.68  0.5  mtk yes tchain  5  pchain  5

dump dmp2 all dcd ${N} traj.dcd
dump dmp2 all dcd 1000 traj.dcd


compute msd all msd com yes
variable twopoint equal c_msd[4]/6/(step*dt+1.0e-6)
fix 9 all vector 10 c_msd[4]
variable fit equal slope(f_9)/6/(10*dt)
thermo_style custom step temp pe c_msd[4] v_twopoint v_fit v_max_n

fix 1 all npt temp 1.25 ${temp} 0.1 iso 5.68 5.68 0.5 mtk yes tchain 5 pchain 5
fix 1 all npt temp 1.25 0.45 0.1 iso 5.68 5.68 0.5 mtk yes tchain 5 pchain 5
run 500000 # 5000000  # Run for this many steps
Neighbor list info ...
  update every 1 steps, delay 10 steps, check yes
  max neighbors/atom: 2000, page size: 100000
  master list distance cutoff = 3.8
  ghost atom cutoff = 3.8
  binsize = 1.9, bins = 8 8 8
  4 neighbor lists, perpetual/occasional/extra = 1 3 0
  (1) pair lj/cut, perpetual
      attributes: half, newton on
      pair build: half/bin/atomonly/newton
      stencil: half/bin/3d
      bin: standard
  (2) compute orientorder/atom, occasional
      attributes: full, newton on
      pair build: full/bin/atomonly
      stencil: full/bin/3d
      bin: standard
  (3) compute coord/atom, occasional
      attributes: full, newton on
      pair build: full/bin/atomonly
      stencil: full/bin/3d
      bin: standard
  (4) compute cluster/atom, occasional
      attributes: full, newton on
      pair build: full/bin/atomonly
      stencil: full/bin/3d
      bin: standard
Per MPI rank memory allocation (min/avg/max) = 9.833 | 9.838 | 9.844 Mbytes
Step Temp PotEng c_msd[4] v_twopoint v_fit v_max_n 
   12000    1.2435331    -7.107709 4.9495105e-30  3.43716e-32 8.3333333e+20            2 
   13000    1.2527127    -7.154721   0.44711173 0.0028661007  0.036140289            6 
   14000    1.2335395   -7.1296188      0.81488  0.004850476  0.032064725            1 
   15000    1.2147372   -7.1738683    1.2273724 0.0068187352  0.032351391            1 
   16000    1.2166578   -7.1360009    1.6984586 0.0088461382  0.033882747            2 
   17000    1.2711127   -7.1633562     2.100863  0.010298348  0.034660092            2 
   18000    1.2569319   -7.1328913    2.5261921  0.011695334  0.034679951            1 
   19000    1.2274264   -7.1718706    2.9341553  0.012869102  0.034858831            1 
   20000    1.2329057   -7.1785256    3.3117632  0.013799013  0.034492466            2 
   21000    1.2281911   -7.2242847    3.7379773  0.014833243  0.034464684            1 
   22000    1.2264161   -7.1902367    4.1431594  0.015693785  0.034447163            2 
   23000    1.2458403   -7.1441058    4.5766808  0.016582176  0.034402941            1 
   24000    1.2076261   -7.1818866    4.9481461  0.017181062  0.034361003            3 
   25000    1.2633142   -7.2113432    5.2680898  0.017560299  0.034226143            2 
   26000    1.2372721   -7.2099295    5.6365731  0.018065939  0.033901288            1 
   27000     1.231214   -7.2221161    6.0499456  0.018672671  0.033670575            2 
   28000    1.2020567   -7.1640731    6.6318683  0.019737703  0.033714658            1 
   29000    1.2382843    -7.214084    7.0797464  0.020344098  0.033918398            1 
   30000    1.2455451   -7.2109347    7.5167746  0.020879929  0.034133565            2 
   31000    1.2367031     -7.20329    8.0148222  0.021545221  0.034376318            3 
   32000     1.190234   -7.2085511    8.4673398  0.022050364  0.034587272            1 
   33000    1.1940613   -7.2100008    8.8240303  0.022282904  0.034757498            3 
   34000    1.2274822   -7.1576317    9.2288239  0.022619666   0.03486564            1 
   35000    1.2133709   -7.2256556    9.4664041  0.022539057  0.034803175            3 
   36000    1.2072591    -7.244553    9.7698132  0.022615308  0.034662841            1 
   37000    1.2253031   -7.2491746    10.021951  0.022571961  0.034424967            5 
   38000    1.2285713   -7.2207605    10.411621  0.022832501  0.034186027            2 
   39000    1.2096423   -7.2398224    10.753686  0.022977962  0.033986356            1 
   40000    1.1943889   -7.2703908    11.020016  0.022958367  0.033744575            1 
   41000    1.2020815   -7.2556222    11.461276  0.023295277  0.033521565            4 
   42000    1.2079616    -7.223667    11.874691  0.023560895  0.033344478            1 
   43000    1.1968087   -7.2656097    12.104968   0.02345924   0.03317053            1 
   44000    1.2139293   -7.2475108    12.545638  0.023760678  0.033002811            3 
   45000    1.1865663   -7.2578287    12.888883  0.023868302   0.03286565            2 
   46000    1.1998977   -7.3350319    13.291173  0.024078211  0.032742084            3 
   47000    1.1958702   -7.2586502    13.786847  0.024444764   0.03265845            3 
   48000    1.2005855   -7.2582412    14.127931  0.024527659  0.032580916            1 
   49000    1.1632042   -7.2830841    14.501168  0.024661849  0.032517653            1 
   50000    1.1684699    -7.302339    14.827698   0.02471283   0.03243532            2 
   51000    1.2011715   -7.2964292    15.137776  0.024734929   0.03233753            2 
   52000    1.1754703   -7.2974951    15.476836  0.024802621  0.032250841            2 
   53000    1.1795698   -7.2758662    15.851828  0.024924258  0.032176498            2 
   54000    1.1866295   -7.2609291    16.221665  0.025033433  0.032085534            1 
   55000    1.1694935   -7.3181871    16.572749  0.025110225  0.032009144            2 
   56000    1.1739452   -7.3051165    16.881786  0.025121705  0.031929259            3 
   57000    1.1823819   -7.2955296    17.141738   0.02506102  0.031833208            3 
   58000    1.1654977   -7.3273601     17.44311  0.025061939  0.031727345            1 
   59000    1.1631714   -7.3388052      17.7501  0.025070762  0.031629601            4 
   60000    1.1684012   -7.3478412    18.004697  0.025006523  0.031523684            2 
   61000    1.1884986   -7.2904116    18.484375  0.025251878   0.03142724            1 
   62000    1.2045725   -7.3386904    18.583309  0.024977565  0.031315339            2 
   63000    1.1379608   -7.3408303    18.837355  0.024917136  0.031181256            1 
   64000    1.2073098   -7.3392385    19.241355  0.025053847  0.031067593            4 
   65000    1.1680553   -7.3501758    19.444916  0.024929379  0.030944705            1 
   66000    1.1759979   -7.3277809    19.711032  0.024887667  0.030803567            2 
   67000    1.1573615   -7.3891667    19.975971  0.024845735  0.030652995            3 
   68000    1.1643097   -7.3608288     20.26435  0.024833762  0.030511702            3 
   69000    1.1649657   -7.3982074    20.458879  0.024708791  0.030370502            3 
   70000    1.1663424   -7.3317086    20.806026  0.024769079   0.03022371            1 
   71000      1.13617    -7.368018    21.077688  0.024739071  0.030094976            1 
   72000    1.1466838   -7.4036267    21.372067  0.024736188  0.029966298            2 
   73000    1.1455668   -7.3583599      21.7048  0.024777168   0.02983586            3 
   74000    1.1657666   -7.4453406    21.955857  0.024725064  0.029709156            2 
   75000    1.1656983   -7.4144323    22.289908  0.024766564  0.029600133            4 
   76000    1.1531661   -7.3863365    22.546858  0.024722432  0.029483717            2 
   77000    1.1504532   -7.4088522    22.822086  0.024699227  0.029371834            1 
   78000    1.1778353   -7.3880494    23.153728  0.024736888  0.029260214            1 
   79000    1.1564938   -7.3508505    23.507868  0.024797329  0.029157549            1 
   80000    1.1450837   -7.3786732    23.876423  0.024871274  0.029063887            2 
   81000    1.1292038   -7.4477049    23.981796  0.024672629  0.028966361            3 
   82000    1.1266521   -7.4293721    24.416301  0.024813313  0.028876978            2 
   83000    1.1411771   -7.4096154    24.878033  0.024977944  0.028806475            2 
   84000    1.1398131   -7.3982187    25.228648  0.025028421   0.02873806            5 
   85000    1.1162104   -7.4547628    25.540199  0.025039411  0.028674731            2 
   86000    1.1196908   -7.4147939    25.883939  0.025081336  0.028614141            2 
   87000    1.1576059   -7.4261941    26.203993   0.02509961   0.02855234            4 
   88000    1.1165318   -7.4609769    26.354682  0.024957085  0.028490555            2 
   89000    1.1370629   -7.4928365    26.466487  0.024781355  0.028417552            3 
   90000    1.1162475   -7.4138665    26.896878  0.024904516  0.028350084            2 
   91000    1.1145302   -7.4161693    27.206904  0.024914747  0.028281621            1 
   92000    1.1050664   -7.4112281    27.342556  0.024766808  0.028212848            2 
   93000    1.1044775   -7.4937692    27.452518  0.024599031  0.028136005            2 
   94000    1.1413671   -7.4413439    27.802502  0.024647608   0.02805143            1 
   95000     1.128018   -7.4694096    27.976655  0.024540925  0.027966755            2 
   96000    1.1075432   -7.4419133     28.19766  0.024477135  0.027878338            1 
   97000    1.1030644   -7.4471554    28.399312  0.024398034  0.027791147            1 
   98000    1.0933929   -7.4884387    28.522174  0.024253549  0.027702146            2 
   99000    1.1014451   -7.4664851    28.712395  0.024168683  0.027603547            3 
  100000    1.0885427   -7.5046779    28.938401  0.024115334  0.027503678            3 
  101000    1.1152009   -7.4965614    29.032229  0.023953984  0.027400281            1 
  102000    1.1044699   -7.4867501     29.37258  0.023997206  0.027294917            2 
  103000    1.1094093   -7.4760595     29.64794  0.023987006  0.027195412            2 
  104000    1.1213644   -7.6090044    29.833551  0.023905089  0.027098704            2 
  105000    1.0858304   -7.5976758    30.139256  0.023920044  0.027005339            2 
  106000    1.0991686   -7.5268872    30.499064  0.023977251  0.026919111            1 
  107000    1.1000529    -7.518152    30.908651  0.024072158  0.026839988            2 
  108000    1.0962051   -7.5205509    31.139366  0.024027288   0.02676222            7 
  109000    1.0951328   -7.5186473    31.308935  0.023936495  0.026683575            3 
  110000    1.1186063   -7.5143568     31.82447  0.024109447  0.026609887            4 
  111000    1.0927716   -7.5610251    32.120147  0.024114225  0.026546817            2 
  112000    1.0710883   -7.5583614    32.345006  0.024066224  0.026485805            1 
  113000    1.0906972   -7.5864862    32.467637  0.023943685  0.026420788            2 
  114000    1.0809896   -7.5401638    32.903747  0.024052447  0.026358044            1 
  115000    1.0826286   -7.5942093    33.062861  0.023958595  0.026295784            2 
  116000    1.0843255   -7.5852882    33.205484  0.023854514  0.026233046            2 
  117000    1.1002726   -7.5710783     33.52127  0.023875548   0.02617077            6 
  118000    1.0799895   -7.6093992    33.780141  0.023856031  0.026108145            1 
  119000    1.0749351   -7.5919472    34.003854  0.023812223   0.02604844            2 
  120000    1.0704089   -7.5308609    34.339845  0.023847115  0.025987506            1 
  121000    1.0640996   -7.6080293     34.45168  0.023727052  0.025925464            2 
  122000    1.0520455   -7.6005549    34.698885  0.023701424   0.02586215            3 
  123000    1.0784559     -7.58139    35.040166  0.023739949  0.025803247            1 
  124000    1.0911626   -7.6035562     35.33165  0.023744389  0.025744239            5 
  125000    1.0548695   -7.6053361    35.437976  0.023625317  0.025683965            2 
  126000    1.0640825   -7.6295238    35.462366  0.023453946  0.025618017            6 
  127000    1.0679366   -7.6186175     35.56102  0.023334002  0.025548532            1 
  128000    1.0491547   -7.6164897     35.79289  0.023302663  0.025475201            1 
  129000    1.0572447   -7.5935225    35.888351  0.023183689    0.0254003            2 
  130000    1.0772162   -7.6129695    36.253509  0.023239429  0.025328044            2 
  131000    1.0578068   -7.6016375    36.403939  0.023157722  0.025257243            2 
  132000    1.0528205     -7.60494    36.594939  0.023102866  0.025184082            3 
  133000    1.0525085   -7.5956154    37.081738  0.023234172  0.025114864            2 
  134000    1.0647466   -7.6174176    37.364461  0.023236605  0.025050722            2 
  135000    1.0620856   -7.6722761    37.350078  0.023055604  0.024987025            1 
  136000    1.0638406   -7.6583126    37.593453  0.023035204  0.024921989            4 
  137000    1.0633719   -7.5890279    38.027541  0.023131108  0.024858148            2 
  138000    1.0435391   -7.6366672    38.135245   0.02302853  0.024796993            2 
  139000    1.0436658    -7.648484    38.150624  0.022872076  0.024732638            3 
  140000    1.0337957   -7.6488253    38.455588  0.022890231  0.024667992            2 
  141000     1.020394   -7.6728584    38.682825   0.02286219  0.024605303           13 
  142000    1.0323901   -7.6820087    39.012614  0.022894726   0.02454477            2 
  143000    1.0533503   -7.6556891    39.158773  0.022819798  0.024483085            4 
  144000    1.0582788   -7.6989549    39.345805  0.022769563  0.024422612            3 
  145000     1.046927   -7.6416566    39.812164  0.022880554  0.024363617            3 
  146000     1.035418   -7.6776214    39.684864  0.022651178  0.024304072            2 
  147000     1.039299   -7.6787306    39.700314  0.022505847  0.024243194            2 
  148000    1.0198628   -7.7139863    40.116402  0.022588064  0.024180497            3 
  149000    1.0421826   -7.7074697    40.036986   0.02239205  0.024116078            4 
  150000    1.0383102   -7.7145517     40.44124  0.022467356  0.024051803            3 
  151000     1.026765   -7.7084033    40.676203  0.022448235  0.023988974            2 
  152000    1.0268872   -7.7230349    40.780671  0.022357824  0.023925842            2 
  153000     1.014485   -7.7349858    40.937094  0.022296892  0.023860623            3 
  154000    1.0115483   -7.7104268    41.173067  0.022279798  0.023798077            1 
  155000    1.0154597   -7.7104723    41.470265  0.022295841   0.02373983            2 
  156000    1.0135196     -7.70282    41.804149  0.022331276  0.023681708            1 
  157000   0.99696454   -7.7134178    41.740076  0.022155029   0.02362281            2 
  158000    1.0390885   -7.7336049    41.911954  0.022105461  0.023561909            3 
  159000    1.0081543   -7.7432758    42.080979   0.02205502  0.023500754            6 
  160000    1.0036162   -7.7299386    42.234587  0.021997181   0.02343807            3 
  161000    1.0116725   -7.7952984    42.331399  0.021910662  0.023373585            7 
  162000    1.0047676   -7.7867343    42.224505  0.021720424  0.023307961            1 
  163000   0.99052082   -7.7646791    42.379221  0.021666268   0.02323849            4 
  164000    1.0156227   -7.7259697     42.57909  0.021635716  0.023170355            5 
  165000    1.0192816   -7.7664286    42.764193  0.021598077  0.023100851            4 
  166000    1.0175994   -7.7718853    42.839998  0.021506023  0.023031201            1 
  167000    1.0091478   -7.7678467    43.032631  0.021473368  0.022961375            2 
  168000   0.99939635   -7.8115847    43.143522  0.021400556  0.022892217            3 
  169000   0.99728284   -7.7363674    43.447296  0.021423716  0.022824201            3 
  170000    1.0063917   -7.8232889    43.336774  0.021243516  0.022757076            4 
  171000   0.98889926   -7.7791281    43.667546  0.021280481  0.022688304            3 
  172000   0.99622797   -7.7961456    43.564226  0.021106699  0.022619002            4 
  173000   0.99986039    -7.800742    44.090101  0.021238006  0.022550917            3 
  174000   0.98028776   -7.8028436    44.103438  0.021122336  0.022484205            4 
  175000   0.97284187   -7.8140215    44.165228  0.021031061  0.022415603            2 
  176000   0.98114422   -7.8260342    44.357034  0.021002383  0.022347097            2 
  177000   0.97501033   -7.8140472    44.399964  0.020903938  0.022278468            5 
  178000   0.99587954   -7.8475204    44.370179  0.020772556  0.022207351            4 
  179000   0.99604756   -7.8160342    44.506491  0.020719968  0.022136214            2 
  180000    1.0071788   -7.8599418    44.654224  0.020673252  0.022064388            2 
  181000   0.97397321    -7.829818    44.905555  0.020674749  0.021993866            4 
  182000   0.97116173   -7.8667286    45.235129  0.020712056  0.021925492            1 
  183000   0.96536165   -7.8481565    45.210933  0.020587857  0.021858469            2 
  184000   0.97408955   -7.8165533    45.514709  0.020613546  0.021790301            5 
  185000   0.97256105   -7.8597112    45.467061  0.020480658  0.021722895            2 
  186000   0.98992878   -7.8822094    45.581503   0.02042182  0.021655676            4 
  187000   0.96432181   -7.8609705    45.767006  0.020395279  0.021587969            3 
  188000    0.9897148   -7.8384362     45.86034  0.020328165   0.02152008            1 
  189000   0.94463462   -7.8337297    46.169932  0.020357113   0.02145517            1 
  190000   0.95714082   -7.8260086    46.340039  0.020324579  0.021392086            1 
  191000   0.95596611     -7.85538    46.518988  0.020296242  0.021328215            3 
  192000   0.96014883   -7.8848974    46.575757  0.020215172  0.021264291            2 
  193000   0.95052942   -7.8683763    46.764545  0.020191945  0.021200285            3 
  194000   0.95443567   -7.9348439    46.739712  0.020077196  0.021136761            2 
  195000    0.9724923   -7.8845858    46.927228  0.020054371  0.021073048            2 
  196000   0.96970857   -7.8897533    47.082513  0.020018075  0.021009004            4 
  197000   0.95012963   -7.8971078    47.101643  0.019924553  0.020944284            2 
  198000   0.92754665   -7.9071376     47.22241  0.019874752  0.020879771            4 
  199000   0.95650211   -7.9159799    47.331487  0.019820556   0.02081553            5 
  200000   0.94412138   -7.8985442    47.571936   0.01982164  0.020752206            1 
  201000   0.95894555   -7.8968728    47.662835  0.019760711   0.02068876            3 
  202000   0.93369405   -7.9046105    47.764838  0.019704966  0.020625479            1 
  203000   0.94248393   -7.9185809    47.860487  0.019647162  0.020562451            9 
  204000   0.92676229   -7.9394572    47.984028  0.019601318  0.020499697            4 
  205000   0.92446427   -7.9523174    48.005613  0.019514477  0.020436742            3 
  206000   0.95134503   -7.9937913    47.983737  0.019410897  0.020372552            3 
  207000   0.92269075   -7.9813432    48.249592  0.019424151  0.020308624            3 
  208000   0.93205059   -7.9414539    48.281088  0.019343385  0.020245886            2 
  209000   0.93189284   -7.9629811    48.354208  0.019279987  0.020181879            5 
  210000   0.92191665   -7.9918204    48.406594  0.019208966  0.020117019            4 
  211000   0.93484247   -7.9888097    48.528366  0.019166021  0.020052117            4 
  212000   0.92201743   -7.9451587    48.685627  0.019137432  0.019988495            4 
  213000   0.92264731   -7.9663603    48.784718  0.019086353  0.019925319            3 
  214000   0.92416455   -8.0023639    48.907299  0.019044898  0.019862309            4 
  215000   0.90979757   -7.9946425    49.261345  0.019093545   0.01980079            2 
  216000   0.92788947   -7.9331896    49.363631  0.019044611  0.019741454            2 
  217000   0.93482342   -7.9991012    49.556384  0.019030869  0.019683246            2 
  218000   0.91879541   -7.9756823    49.508231  0.018925165   0.01962456            4 
  219000   0.90011243   -8.0250548    49.765156  0.018936513  0.019566206            4 
  220000   0.90868382   -7.9912508    49.886203  0.018896289  0.019508835            6 
  221000   0.91588607   -8.0200586    49.934521  0.018829005  0.019451378            4 
  222000    0.9126477   -8.0280825    49.984344  0.018762892  0.019393712           10 
  223000   0.93004825    -8.004726       49.908  0.018650224  0.019335677            8 
  224000   0.89455321   -7.9941157      50.1404  0.018653423  0.019277016           10 
  225000   0.91881736   -8.0111781    50.162372  0.018578656  0.019217433            5 
  226000   0.90761493   -8.0234426    50.323473  0.018555853  0.019158931            1 
  227000   0.88630626   -8.0695274     50.38485  0.018496641  0.019100772            4 
  228000   0.88347398   -8.0390311    50.566928  0.018482064  0.019043557            2 
  229000   0.88340039   -8.0426386    50.609277  0.018416767  0.018987121            2 
  230000   0.91757635   -8.0356085    50.513081  0.018301841  0.018930238            6 
  231000   0.89276676   -8.0814251    50.724604  0.018298919  0.018872052            5 
  232000   0.87016362   -8.0923799     50.77133  0.018236828  0.018814254            7 
  233000   0.88911505   -8.0608363    50.981903  0.018233871  0.018757184            5 
  234000    0.9008027   -8.0609915    50.860249  0.018112624  0.018699046            5 
  235000   0.86723848   -8.1118177    50.954805   0.01806908  0.018640598            6 
  236000   0.89180874   -8.0932719    51.052193  0.018026904     0.018582            8 
  237000   0.89417229   -8.0620065    51.201624  0.018003384   0.01852417            3 
  238000   0.89944437   -8.1376134    51.087075  0.017887631  0.018466148            2 
  239000     0.908271   -8.1128769    51.293102  0.017884624   0.01840803            7 
  240000   0.88917322     -8.10026    51.419427  0.017853968  0.018350507            8 
  241000   0.87398051   -8.1141871    51.468475  0.017796845  0.018293145            4 
  242000   0.88340821   -8.1013702    51.546022  0.017750008  0.018235992            5 
  243000   0.88180498   -8.1281398    51.673854    0.0177208  0.018179508            4 
  244000   0.90536335   -8.1035562    51.676622   0.01764912  0.018122619            5 
  245000   0.87219853   -8.1123106     51.58191  0.017544867  0.018065765            6 
  246000   0.88175627   -8.0867178    51.642373  0.017494029  0.018008284            6 
  247000   0.86744838   -8.1128169    51.815148  0.017481494  0.017950706            4 
  248000   0.88307391   -8.1460141    51.781673  0.017399756  0.017893567            6 
  249000   0.88821063   -8.1250845    52.044389  0.017417801  0.017837146            3 
  250000   0.86952908   -8.1355988    52.168314  0.017389438  0.017780516            1 
  251000   0.86106078   -8.1539715    52.052043  0.017281555   0.01772346            4 
  252000   0.88515484   -8.1291273    52.250575  0.017278629  0.017667146            2 
  253000   0.85459643   -8.1396756    52.233242  0.017204625  0.017611246            4 
  254000   0.86264855   -8.1396306    52.438542  0.017204246  0.017555606            2 
  255000   0.87648174   -8.1455429    52.355099  0.017109509  0.017500565            8 
  256000    0.8623563   -8.1525277    52.355652  0.017042855  0.017444497            3 
  257000   0.85305663    -8.178187    52.470761  0.017013865  0.017388225            6 
  258000   0.85393118   -8.1703121    52.447046   0.01694026  0.017331728            4 
  259000   0.86360421   -8.2021011    52.473853  0.016883479  0.017275437            3 
  260000   0.86109126   -8.1910033    52.501363   0.01682736  0.017218832            3 
  261000   0.86374178    -8.199555    52.398483  0.016730039  0.017161428            5 
  262000   0.85163564   -8.2124881    52.533995  0.016709286  0.017103995            4 
  263000   0.86752297   -8.2067532    52.697017  0.016697407  0.017047152            5 
  264000   0.84080775   -8.2051748    52.754239  0.016652222   0.01699073            4 
  265000   0.83277064   -8.2396207    52.825219  0.016611704  0.016934747            7 
  266000   0.84123502   -8.2308416    52.779557  0.016534949  0.016878795           10 
  267000   0.84061504   -8.2080182    52.672678  0.016439662  0.016822557           14 
  268000   0.85163562   -8.2386597    52.752694  0.016403201    0.0167659            3 
  269000   0.84204832   -8.2009477    52.912216  0.016391641  0.016709517           11 
  270000   0.83886239   -8.2355723    52.842127  0.016309298  0.016653731            4 
  271000   0.83015229   -8.2293192    52.824865  0.016243808  0.016597659           20 
  272000   0.84173228   -8.2521511    53.028822  0.016246575  0.016540986           14 
  273000   0.82861643    -8.274087    52.838104  0.016128847  0.016484445           16 
  274000   0.83407553   -8.2624006    53.022149  0.016125958  0.016427971            4 
  275000   0.84175218    -8.277993    52.786451  0.015995894  0.016371198            7 
  276000    0.8195328    -8.242562    52.930798  0.015981521  0.016314551            3 
  277000   0.80963148   -8.2545739    53.018759  0.015950288  0.016258135            2 
  278000   0.82260993   -8.2765217    53.123607  0.015924343  0.016201939            5 
  279000   0.82782527   -8.2719267    53.067101  0.015850389  0.016146301            3 
  280000   0.83059104   -8.2526797    53.131979  0.015813089  0.016090807            4 
  281000   0.81754442   -8.2903377    53.197712  0.015776308  0.016035375            5 
  282000    0.8317455   -8.2869731    53.267527  0.015740995  0.015980384            4 
  283000   0.81115537   -8.2934199    53.294444  0.015693299  0.015924839            4 
  284000   0.81076391   -8.3108588    53.197827  0.015609691  0.015869465            2 
  285000   0.81516501   -8.2901829    53.367949  0.015604663  0.015814573            3 
  286000   0.82805637   -8.3344325    53.454165  0.015575223  0.015759579            3 
  287000   0.83189852   -8.3229156    53.255051  0.015463139  0.015704579           10 
  288000   0.80402429   -8.3356883    53.336656   0.01543306  0.015649869            7 
  289000    0.8239726   -8.3067503    53.534718   0.01543677  0.015595724           10 
  290000    0.7975587   -8.3141431    53.429382  0.015353271  0.015541481            7 
  291000   0.81611026   -8.3048558     53.54887  0.015334728   0.01548757            7 
  292000   0.80826872    -8.322586    53.418201   0.01524492  0.015433599           11 
  293000   0.80500099   -8.3196581    53.614995  0.015248861  0.015379936           14 
  294000   0.78742735   -8.3474883    53.473334  0.015156841  0.015326364            7 
  295000   0.80815272   -8.3197181     53.71506  0.015173746  0.015273151            4 
  296000   0.78469381    -8.360605    53.752763  0.015133098  0.015220369            7 
  297000   0.79671199   -8.3912129    53.539091  0.015022192  0.015167567            7 
  298000   0.79978052   -8.3656038    53.677656   0.01501053  0.015114458            5 
  299000    0.7907693   -8.3467887    53.803516  0.014995406  0.015061873            4 
  300000   0.78982798   -8.3400754    53.719965  0.014922213  0.015009829            5 
  301000   0.78487904    -8.362213    53.707596  0.014869213  0.014957353            9 
  302000   0.79140611   -8.3949085    53.762854  0.014835225  0.014905164           11 
  303000   0.78506234   -8.3643066    53.712783  0.014772492  0.014853252           13 
  304000   0.77677741   -8.3508453    54.067571  0.014821154  0.014801706            4 
  305000   0.76407411   -8.3280297    54.092978  0.014779502  0.014750557            3 
  306000   0.78187771   -8.3852225    54.022099  0.014711901   0.01469915            4 
  307000   0.75995308    -8.393319    53.949962  0.014644398  0.014648357            3 
  308000   0.77828968    -8.386694    54.065775  0.014628186  0.014597588            4 
  309000   0.76845771   -8.3913532     54.22713  0.014624361  0.014547128            2 
  310000   0.78037953   -8.3898537    54.118871  0.014548083  0.014496912            6 
  311000   0.77613943   -8.3764337    54.261114   0.01453942  0.014446916            7 
  312000    0.7693757   -8.3988182    54.143487  0.014461402  0.014396938            4 
  313000   0.74365199   -8.4138857    54.254604  0.014444783  0.014347283            9 
  314000   0.77074931   -8.3992293    54.152395  0.014371655  0.014297636            4 
  315000   0.75437064   -8.4108664     54.30412  0.014366169  0.014247909            7 
  316000   0.75235886   -8.4378699    54.133724  0.014275771  0.014198072            5 
  317000   0.76225849   -8.4169925    54.085829  0.014218146  0.014148264            7 
  318000   0.75438704   -8.4509667    54.141102   0.01418792  0.014098489            4 
  319000   0.74653705   -8.4466453    54.097296     0.014132  0.014048668            3 
  320000   0.74231994   -8.4309495    54.104168  0.014089627   0.01399903            6 
  321000    0.7437291   -8.4333281    54.246246  0.014082618  0.013949827            3 
  322000   0.74760242   -8.4575122    54.161698  0.014017003  0.013900801            6 
  323000   0.74213019   -8.4552681    54.254618  0.013997579  0.013851862            3 
  324000   0.75240999   -8.4397466    54.146186  0.013926488  0.013802846            7 
  325000   0.75633935    -8.466599    54.213558  0.013900912  0.013754208            5 
  326000    0.7475623   -8.5027051    54.176537  0.013848808  0.013705202           15 
  327000   0.75459665   -8.4754327    54.326654  0.013844713   0.01365635           17 
  328000   0.73907046   -8.4664268    54.195255   0.01376912  0.013607994           13 
  329000   0.72713224   -8.4838905    54.234941   0.01373732  0.013559707           20 
  330000   0.73682739   -8.4936413    54.418734  0.013742104  0.013511693            9 
  331000   0.75641221   -8.4860044     54.38399   0.01369184  0.013463986            9 
  332000   0.74251369    -8.504446    54.406071  0.013656142  0.013416492            8 
  333000   0.75992972   -8.5154954    54.315893  0.013592566  0.013369146            7 
  334000   0.72108027   -8.5217435    54.358023  0.013562381  0.013322008           10 
  335000   0.73216128   -8.5282157    54.361986  0.013522882  0.013275077            9 
  336000   0.71625322   -8.5134633    54.549112  0.013529046  0.013228225           20 
  337000   0.72064639   -8.5121276    54.302661  0.013427958  0.013181724           11 
  338000   0.72267435    -8.501811    54.425087  0.013418414  0.013135192            7 
  339000   0.72356545    -8.529684    54.327774   0.01335491  0.013088599            7 
  340000   0.72247665   -8.5242653    54.319632  0.013313635  0.013042056            2 
  341000   0.72381069   -8.4987158    54.455052  0.013307686  0.012995811            5 
  342000   0.72809764    -8.545431    54.374947  0.013249256  0.012949728            5 
  343000   0.72206749   -8.5488385    54.322279  0.013197833  0.012903669            8 
  344000   0.71680129   -8.5678152    54.301673  0.013154475  0.012857701           12 
  345000   0.71505308   -8.5565233    54.284653  0.013112235  0.012811845            4 
  346000   0.71733632   -8.5603486    54.323167  0.013083614  0.012765876            4 
  347000   0.71752391   -8.5816111    54.373768  0.013058061  0.012719899           17 
  348000   0.70472941   -8.5687398    54.274891  0.012996861  0.012674008           11 
  349000   0.70592695   -8.5797008    54.132892  0.012925714  0.012628369            5 
  350000   0.69668068   -8.5931687    54.321107  0.012933597  0.012583002            9 
  351000   0.71350523   -8.5897104    54.389124  0.012912897   0.01253786           11 
  352000   0.70857653   -8.5894892    54.317823  0.012859333  0.012492772            5 
  353000   0.70856705   -8.5763992    54.334604  0.012826866   0.01244777           17 
  354000    0.6885368   -8.6013667    54.351715   0.01279466  0.012403028            4 
  355000   0.69899872   -8.5986785    54.506355  0.012794919  0.012358617            4 
  356000   0.69891799   -8.5981484    54.401369  0.012734403  0.012314293            4 
  357000   0.71411715   -8.5897617    54.276098  0.012669491  0.012270063            8 
  358000   0.70260138   -8.6111519    54.149909  0.012604727  0.012225581            3 
  359000    0.6912243   -8.6158276    54.343975  0.012614665  0.012181534            6 
  360000   0.71050852   -8.6046044    54.218848  0.012550659  0.012137497            4 
  361000   0.70198791   -8.6284751    54.297281  0.012533998  0.012093833            7 
  362000   0.67789028   -8.6280198    54.308384   0.01250193  0.012050417           25 
  363000   0.69014447   -8.6468808    54.356047  0.012478431  0.012007251           10 
  364000   0.67318028   -8.6456484    54.224427  0.012414017  0.011964076            4 
  365000   0.68094552   -8.6305958    54.417149  0.012424007  0.011921232            4 
  366000   0.69464903   -8.6580334    54.356015  0.012376142  0.011878499            3 
  367000   0.66992377   -8.6080065     54.44294  0.012362157  0.011835876            4 
  368000   0.67851314   -8.6442349    54.436397  0.012327083  0.011793391            3 
  369000   0.67903075   -8.6653128    54.354664  0.012275218   0.01175097            6 
  370000   0.68936991    -8.619471     54.28588   0.01222655  0.011708789            6 
  371000   0.66560519   -8.6379416    54.357396  0.012209658  0.011666765            7 
  372000   0.65836519   -8.6412517    54.313772  0.012167064  0.011624716           10 
  373000   0.66630631   -8.6436322     54.29422  0.012130076  0.011582967            6 
  374000   0.66507613   -8.6645565    54.373328  0.012115269  0.011541329            4 
  375000   0.66051521   -8.6869141    54.349773  0.012077727   0.01149999            3 
  376000   0.66236515   -8.6556531    54.493487  0.012077457    0.0114589            5 
  377000   0.66921941   -8.6887628     54.36809  0.012017703  0.011417908            9 
  378000   0.66374521   -8.6902283    54.350671   0.01198207  0.011376977            9 
  379000   0.66283414   -8.6760589    54.226726  0.011923203  0.011336088           12 
  380000   0.67568848   -8.6796036    54.244779  0.011895785  0.011295477            5 
  381000   0.66902216   -8.6771497     54.30213  0.011877106  0.011254895            4 
  382000    0.6607618   -8.7038931    54.141726  0.011811022  0.011214276            4 
  383000   0.65293207    -8.688855    54.159403   0.01178403  0.011173785            5 
  384000   0.64720049   -8.7305462    54.133104  0.011747635  0.011133177            9 
  385000   0.66785543   -8.7304822    54.076358  0.011704839  0.011092816            7 
  386000    0.6413233   -8.7009797    54.199485  0.011701098  0.011052756            9 
  387000   0.64177294   -8.7092843    54.296861  0.011691831  0.011012886            3 
  388000   0.65744941   -8.7392912    54.180062  0.011636611  0.010973121            6 
  389000   0.64851221     -8.74403    54.236521  0.011618792  0.010933389            5 
  390000   0.64437109   -8.7274697    54.265552  0.011595203  0.010893847            3 
  391000   0.65967283   -8.7542348    54.207689  0.011553216  0.010854539            9 
  392000   0.64854803   -8.7308609    54.177183  0.011517258  0.010815335            6 
  393000   0.64234001    -8.731613     54.05985  0.011463072  0.010776246            4 
  394000   0.64109115   -8.7257521    54.097132  0.011441864  0.010737237            4 
  395000   0.64699301   -8.7403225    54.114192  0.011416496  0.010698194            8 
  396000   0.65254567   -8.7743685    54.140951  0.011393298  0.010659368            6 
  397000   0.63272438    -8.770395    54.041164  0.011343653  0.010620778           11 
  398000   0.62858962   -8.7718091    54.040113  0.011314931  0.010582309            4 
  399000   0.64314414   -8.7661795    53.999539  0.011278099  0.010543948            6 
  400000   0.63479361   -8.8005142    54.000477  0.011250099  0.010505636            5 
  401000   0.62411218    -8.790648    53.988886  0.011219636  0.010467522            4 
  402000   0.63486857   -8.7989606     54.08462  0.011211571  0.010429461            9 
  403000    0.6293394   -8.7874198    53.849661  0.011135166  0.010391571            7 
  404000   0.63745807   -8.8100914    53.957639  0.011129876  0.010353797            6 
  405000    0.6053911   -8.8012962    53.970471  0.011105035  0.010316143            9 
  406000   0.62224801   -8.8071469    53.967358  0.011077044  0.010278724            9 
  407000   0.59972242   -8.8013382    53.875042  0.011030926  0.010241471            7 
  408000   0.60262081   -8.7914256    53.934004  0.011015932  0.010204402            8 
  409000   0.62422373   -8.8212648    54.004616  0.011003385  0.010167452            8 
  410000   0.61331012   -8.8259823    53.877388  0.010950689  0.010130551            5 
  411000   0.62165356   -8.8156073     53.99969  0.010948842  0.010093749           15 
  412000   0.61903095    -8.812244    53.900366  0.010902178  0.010057172            9 
  413000   0.60395416   -8.8226649    53.876013  0.010870866  0.010020729            8 
  414000   0.61881572   -8.8257244    53.930632  0.010855602 0.0099845271            3 
  415000   0.60971118   -8.8312304    53.895401   0.01082237  0.009948381           15 
  416000   0.59594552   -8.8290221    53.914159  0.010800112 0.0099124301           10 
  417000   0.61181171   -8.8533418    53.904181  0.010772218 0.0098765244           11 
  418000   0.59309838   -8.8523324    53.765008  0.010718702  0.009840816            9 
  419000   0.59943756   -8.8342507    53.882598  0.010716507 0.0098053255           13 
  420000   0.60917693   -8.8284886    53.882428  0.010690958 0.0097698368           12 
  421000   0.58862323    -8.829594    53.839048  0.010656977 0.0097346528            7 
  422000   0.59078148   -8.8643925    53.836686  0.010631257 0.0096995533           10 
  423000   0.58803106   -8.8563584    53.800704  0.010599036  0.009664526            6 
  424000   0.59581945    -8.840745    53.898395  0.010593238 0.0096296974           14 
  425000    0.5945863    -8.861883    53.793913  0.010547826 0.0095949449           11 
  426000   0.59494232   -8.8493518    53.816959  0.010527574 0.0095603207           14 
  427000   0.59564847   -8.8647867    53.715487  0.010483116 0.0095258653           10 
  428000   0.58150596   -8.8592191     53.75974  0.010467239 0.0094915153           10 
  429000   0.58343221   -8.8575198    53.778816  0.010446545 0.0094573098            7 
  430000   0.57631702   -8.9063742    53.676134  0.010402352 0.0094233269            7 
  431000   0.58429438   -8.8654599    53.761526  0.010394727  0.009389433            5 
  432000   0.57789129   -8.8730379    53.803798  0.010378819 0.0093556776            7 
  433000   0.57157002   -8.8742196    53.764345  0.010347256 0.0093221119            9 
  434000   0.56900293   -8.8818187    53.810644  0.010332305 0.0092886692           10 
  435000   0.57336516   -8.8929704    53.732744  0.010293629 0.0092554048            6 
  436000    0.5634575       -8.888    53.740385   0.01027148  0.009222315            7 
  437000   0.56709885   -8.8919375    53.719051  0.010243907 0.0091893726            5 
  438000   0.57148924   -8.8925985    53.735327  0.010223616 0.0091566896            8 
  439000    0.5594124   -8.9021158    53.847637  0.010221647 0.0091240594            9 
  440000    0.5568721   -8.8856272    53.857138  0.010200215 0.0090916009            6 
  441000   0.57296478   -8.9151396    53.719302   0.01015104 0.0090592616            8 
  442000   0.57098961   -8.9065934    53.806436  0.010144501 0.0090270758            5 
  443000   0.55680142   -8.9280967    53.735629  0.010108282 0.0089950246            7 
  444000   0.55997343   -8.9202856    53.736986  0.010085771 0.0089631134            7 
  445000   0.55560839   -8.9164243    53.722252  0.010060347 0.0089313388           10 
  446000    0.5603878   -8.9233436    53.616685  0.010018065 0.0088996437            6 
  447000   0.55962419   -8.9121272    53.741547  0.010018931 0.0088680997            6 
  448000   0.56763548   -8.9303764    53.717574 0.0099921083 0.0088366777            7 
  449000   0.56053612    -8.928306     53.75175 0.0099761971 0.0088054535            9 
  450000   0.55204182   -8.9330551    53.670258 0.0099389366 0.0087743547            5 
  451000   0.54178092    -8.936773    53.553422 0.0098953107 0.0087433648            6 
  452000   0.55112912   -8.9359469    53.642651 0.0098898692 0.0087124783            5 
  453000   0.55395475   -8.9473637     53.59662 0.0098595695 0.0086817422           10 
  454000   0.53339103   -8.9367646    53.591384 0.0098368913 0.0086511436           11 
  455000   0.54264857   -8.9344172    53.626856 0.0098217686 0.0086206677            9 
  456000    0.5424305   -8.9276858    53.613518  0.009797792 0.0085902747            4 
  457000   0.53980019   -8.9673687     53.62779 0.0097789552 0.0085600389           14 
  458000   0.53650335   -8.9449096    53.528365 0.0097395133 0.0085299599            8 
  459000   0.52870699    -8.955833    53.725469 0.0097540793 0.0084999909           15 
  460000   0.53360556   -8.9471924    53.620892 0.0097139298 0.0084701194            9 
  461000   0.54157351   -8.9597612    53.489731 0.0096691487 0.0084404122            7 
  462000   0.52711868   -8.9527092    53.701795  0.009686471 0.0084108796            7 
  463000   0.51600543   -8.9611224    53.576149 0.0096429353 0.0083814671            5 
  464000   0.52371404   -8.9636505    53.558731 0.0096190249 0.0083521823            5 
  465000   0.53739335   -8.9694269    53.662385 0.0096169148  0.008323036           12 
  466000   0.52337332   -8.9622452    53.577049 0.0095810173 0.0082940113            7 
  467000   0.51834516   -8.9795607     53.54344 0.0095545038 0.0082650775           10 
  468000   0.52075804   -8.9614593    53.523619 0.0095305589 0.0082362868            5 
  469000   0.51504878   -8.9676938    53.463864 0.0094996205 0.0082075823            5 
  470000   0.52547392   -8.9802714    53.590414 0.0095018464 0.0081790445            4 
  471000   0.52251533   -8.9762086    53.593109 0.0094821495 0.0081506165            5 
  472000   0.51733492   -8.9688075    53.588215 0.0094611961 0.0081223082           10 
  473000   0.52717294   -8.9920632    53.560916 0.0094363841   0.00809409            4 
  474000   0.51575536    -8.980906       53.512 0.0094078762 0.0080660142            4 
  475000   0.51712069   -9.0098049    53.591687 0.0094020504 0.0080380765            7 
  476000   0.50541839   -8.9783476    53.523293 0.0093703244 0.0080102973           12 
  477000   0.51710864   -8.9851236    53.534403  0.009352621 0.0079826432            9 
  478000   0.51561123   -9.0071128     53.47817 0.0093232514 0.0079550562           10 
  479000   0.49979103   -8.9986653    53.497176 0.0093070939 0.0079275661            9 
  480000   0.50397081   -8.9953767     53.55214 0.0092972466 0.0079002035            8 
  481000   0.50064427   -9.0124035    53.454222 0.0092609532 0.0078730058            8 
  482000   0.48472177   -9.0043673    53.522692 0.0092535775 0.0078459429           10 
  483000   0.48775696   -9.0125825      53.5094 0.0092321256 0.0078189449            9 
  484000   0.49173847   -9.0196085    53.424358 0.0091984087 0.0077920844            9 
  485000   0.49147063    -9.030049    53.412834 0.0091774628 0.0077652747           17 
  486000   0.49001303   -9.0165403    53.419456 0.0091597147 0.0077386585            6 
  487000   0.49206759   -9.0168887    53.493219 0.0091535283 0.0077121651            5 
  488000   0.47471359   -9.0293798    53.469286 0.0091306841 0.0076857677            7 
  489000    0.4930112   -9.0380064    53.435379 0.0091062337 0.0076595624            5 
  490000   0.47239546   -9.0343327    53.483058 0.0090957581 0.0076334391            7 
  491000   0.46443611   -9.0331503    53.537313 0.0090864414 0.0076074215            8 
  492000   0.48009004   -9.0347036    53.450698 0.0090533024 0.0075815128           12 
  493000    0.4738562   -9.0477304    53.438169 0.0090328209 0.0075557571            6 
  494000   0.48124455   -9.0452583    53.411337 0.0090100096  0.007530087           12 
  495000   0.47659065    -9.046224    53.387503 0.0089877951 0.0075045527           10 
  496000   0.47968519   -9.0555776    53.357117 0.0089645695 0.0074790804           15 
  497000   0.47744869   -9.0605192     53.40367 0.0089543377 0.0074537183           12 
  498000   0.47822654   -9.0507408    53.298363 0.0089187354 0.0074284483            8 
  499000   0.47238097   -9.0458181    53.322941 0.0089049667 0.0074033404            5 
  500000   0.46385707    -9.066626    53.447866 0.0089079777 0.0073783214           10 
  501000   0.46775382   -9.0513077    53.393315 0.0088811236 0.0073534363            8 
  502000    0.4682261   -9.0615218    53.407186 0.0088657347 0.0073286261           22 
  503000   0.46780189   -9.0541841    53.357314 0.0088398466 0.0073039149            8 
  504000   0.46886531   -9.0452944    53.379759 0.0088260184 0.0072793297            7 
  505000    0.4515378   -9.0668148    53.381985 0.0088089084  0.007254892            7 
  506000   0.45524232    -9.080819    53.392579 0.0087932442 0.0072305638            4 
  507000   0.45981289   -9.0690133    53.412387 0.0087791563  0.007206331            9 
  508000   0.45547856   -9.0704312     53.38359 0.0087571506 0.0071822261            9 
  509000   0.44721979   -9.0788765    53.323463  0.008730102 0.0071582073           12 
  510000   0.45139216   -9.0820864    53.308877 0.0087106007 0.0071342871           10 
  511000   0.44438215   -9.0780563    53.363002 0.0087023812 0.0071104536           15 
  512000   0.44959682   -9.0930911     53.30503 0.0086759489 0.0070867208           13 
Loop time of 1258.54 on 48 procs for 500000 steps with 4000 atoms

Performance: 68651.173 tau/day, 397.287 timesteps/s
99.4% CPU use with 48 MPI tasks x no OpenMP threads

MPI task timing breakdown:
Section |  min time  |  avg time  |  max time  |%varavg| %total
---------------------------------------------------------------
Pair    | 86.659     | 92.574     | 96.925     |  24.7 |  7.36
Neigh   | 8.4944     | 8.7407     | 9.3233     |   5.8 |  0.69
Comm    | 80.857     | 86.476     | 92.758     |  30.4 |  6.87
Output  | 0.89085    | 0.89182    | 0.92292    |   0.5 |  0.07
Modify  | 1054.3     | 1058.1     | 1061.6     |   5.5 | 84.07
Other   |            | 11.74      |            |       |  0.93

Nlocal:        83.3333 ave          92 max          76 min
Histogram: 3 4 1 11 6 13 5 2 2 1
Nghost:        2263.27 ave        2283 max        2242 min
Histogram: 1 4 4 7 8 4 7 6 6 1
Neighs:        15292.0 ave       16756 max       13971 min
Histogram: 4 4 4 7 8 8 3 3 3 4
FullNghs:      30583.8 ave       33973 max       27764 min
Histogram: 3 3 3 10 9 11 4 2 2 1

Total # of neighbors = 1468024
Ave neighs/atom = 367.00600
Neighbor list builds = 26638
Dangerous builds = 0

#clear
#
#next RN
#
#jump SELF
Total wall time: 0:21:02
