
units lj                  # Use reduced LJ style units
atom_style atomic         # Uncharged point particles
atom_modify map hash      # Needed for indexing of clusters etc
                          # Used to be able to find where atoms are in relation to each other.

lattice fcc 1.0 spacing 1 1 1
Lattice spacing in x,y,z = 1.5874011 1.5874011 1.5874011
region box block 0 10 0 10 0 10 units lattice
create_box 2 box
Created orthogonal box = (0.0000000 0.0000000 0.0000000) to (15.874011 15.874011 15.874011)
  3 by 4 by 4 MPI processor grid
create_atoms 1 box
Created 4000 atoms
  using lattice units in orthogonal box = (0.0000000 0.0000000 0.0000000) to (15.874011 15.874011 15.874011)
  create_atoms CPU = 0.027 seconds
set type 1 type/fraction 2 0.13 78393
Setting atom values ...
  541 settings made for type/fraction
mass 1 1.0
mass 2 1.0
pair_style lj/cut  3.5
pair_modify tail  yes
pair_coeff 1  1  1.0  1.0   # Intearaction between 1 and 1 set with epsilon = 1 and sigma = 1
pair_coeff 1  2  1.5  0.8
pair_coeff 2  2  0.5  0.88

write_data data.0
System init for write_data ...
Neighbor list info ...
  update every 1 steps, delay 10 steps, check yes
  max neighbors/atom: 2000, page size: 100000
  master list distance cutoff = 3.8
  ghost atom cutoff = 3.8
  binsize = 1.9, bins = 9 9 9
  1 neighbor lists, perpetual/occasional/extra = 1 0 0
  (1) pair lj/cut, perpetual
      attributes: half, newton on
      pair build: half/bin/atomonly/newton
      stencil: half/bin/3d
      bin: standard
WARNING: Not all mixed pair coeffs generated from mixing. Use write_data with 'pair ij' option to store all pair coeffs. (../write_data.cpp:312)


#############################
#   M E L T   S Y S T E M   #
#############################

velocity all create 2.4 2750902 mom yes dist gaussian # Assign velocities
                                                    # Temperature 2.4, random number seed, zero linear momentum
                                                                                # Gaussian distribution

timestep 0.002   # simulation timestep
thermo 1000       # output thermodynamic data every 1000 steps bf 100

# Define a fix  in this case with index 1 applied to all
# particles in the simulation. This fix is for simulations
# in the anisotropic NPT ensemble. Note that we use the MTK
# correction.
fix 1 all npt temp 2.4 2.4 0.1 iso 5.68 5.68 0.5 mtk yes tchain 5 pchain 5 # Use NPT ensemble
                                                                         # Set temperature and pressure and damping
                                                                         # Numbers of thermostats in chain and in barostat
run 10000          # run for 10000 steps
Per MPI rank memory allocation (min/avg/max) = 3.642 | 3.644 | 3.648 Mbytes
Step Temp E_pair E_mol TotEng Press Volume 
       0          2.4     -7.50335            0     -3.90425   -3.2182506         4000 
    1000    2.3377246   -4.6602019            0   -1.1544916    5.7093684    4725.9508 
    2000    2.3740372   -4.6985247            0   -1.1383592    5.6416629    4726.7135 
    3000    2.3638109   -4.6748277            0   -1.1299977    5.6052709    4744.5566 
    4000    2.4105976   -4.6462048            0   -1.0312124    5.7394099    4733.9593 
    5000    2.4244775   -4.7267348            0   -1.0909277    5.6801524    4710.8214 
    6000    2.3851452   -4.6797324            0    -1.102909    5.3461461    4767.0715 
    7000    2.4342459   -4.6486872            0  -0.99823114    5.7943159    4737.1871 
    8000    2.4393119   -4.7027719            0   -1.0447188    5.8745607    4697.8701 
    9000    2.4145825    -4.696795            0   -1.0758268    5.6398476    4721.4009 
   10000    2.4060609   -4.6698205            0   -1.0616315    5.8211367    4725.2887 
Loop time of 2.28362 on 48 procs for 10000 steps with 4000 atoms

Performance: 756693.865 tau/day, 4379.015 timesteps/s
99.5% CPU use with 48 MPI tasks x no OpenMP threads

MPI task timing breakdown:
Section |  min time  |  avg time  |  max time  |%varavg| %total
---------------------------------------------------------------
Pair    | 0.92419    | 0.97413    | 1.0438     |   2.3 | 42.66
Neigh   | 0.19068    | 0.19981    | 0.21671    |   1.1 |  8.75
Comm    | 0.73187    | 0.7881     | 0.86167    |   3.6 | 34.51
Output  | 0.00024724 | 0.00025269 | 0.00036755 |   0.0 |  0.01
Modify  | 0.25557    | 0.30609    | 0.36086    |   4.7 | 13.40
Other   |            | 0.01524    |            |       |  0.67

Nlocal:        83.3333 ave          94 max          74 min
Histogram: 2 2 4 8 7 12 5 5 2 1
Nghost:        1469.77 ave        1504 max        1448 min
Histogram: 7 6 3 8 10 6 4 2 1 1
Neighs:        8063.33 ave        9185 max        7141 min
Histogram: 3 7 1 10 7 8 4 4 3 1

Total # of neighbors = 387040
Ave neighs/atom = 96.760000
Neighbor list builds = 905
Dangerous builds = 196

# Equilibrate just above the melting temperature to avoid step fn in T

fix 1 all npt temp 1.25 1.25 0.1 iso 5.68 5.68 0.5 mtk yes tchain 5 pchain 5
run 2000
Per MPI rank memory allocation (min/avg/max) = 3.642 | 3.644 | 3.648 Mbytes
Step Temp E_pair E_mol TotEng Press Volume 
   10000    2.4060609   -4.6698205            0   -1.0616315    5.8211367    4725.2887 
   11000    1.2531996    -6.257701            0   -4.3783714     5.749121    3898.4566 
   12000    1.2436157   -6.3228909            0   -4.4579337    5.6839767    3878.4433 
Loop time of 0.478317 on 48 procs for 2000 steps with 4000 atoms

Performance: 722532.992 tau/day, 4181.325 timesteps/s
99.7% CPU use with 48 MPI tasks x no OpenMP threads

MPI task timing breakdown:
Section |  min time  |  avg time  |  max time  |%varavg| %total
---------------------------------------------------------------
Pair    | 0.21142    | 0.22795    | 0.25894    |   1.7 | 47.66
Neigh   | 0.031682   | 0.03364    | 0.038164   |   0.6 |  7.03
Comm    | 0.13912    | 0.16428    | 0.18599    |   2.3 | 34.35
Output  | 4.9153e-05 | 5.2703e-05 | 6.7009e-05 |   0.0 |  0.01
Modify  | 0.037659   | 0.048029   | 0.057104   |   2.4 | 10.04
Other   |            | 0.004364   |            |       |  0.91

Nlocal:        83.3333 ave          93 max          75 min
Histogram: 1 2 5 14 5 9 6 3 2 1
Nghost:        1671.29 ave        1695 max        1650 min
Histogram: 2 3 6 6 9 7 8 4 1 2
Neighs:        9834.58 ave       11076 max        8807 min
Histogram: 2 1 9 10 8 7 7 2 0 2

Total # of neighbors = 472060
Ave neighs/atom = 118.01500
Neighbor list builds = 143
Dangerous builds = 14

#############################
# L I N E A R  Q U E N C H  #
#############################

# Define solid atoms. This closely follows ten Wolde  Ruiz-Montero and Frenkel  Faraday Discuss  1996  104  93-110
# Compute components of the per-atom q6 vector
compute q6 all orientorder/atom degrees 1 6 components 6 nnn NULL cutoff 1.3 # compute the Q6 parameter.
                                                                             # Use all neighbours within 1.3 unit cell.

# get number of connections
compute coord_number all coord/atom orientorder q6 0.5

# An atom is solid if it has 8 or more connections (of a possible 14)
variable is_solid atom c_coord_number>=8
group solid dynamic all var is_solid    # Must be dynamic to update
dynamic group solid defined

# do clustering
compute cluster solid cluster/atom 1.3 # Create a cluster where all atoms within are solid and max 1.3 units from another member

# define chunks one chunk per cluster
compute clus_chunks solid chunk/atom c_cluster nchunk every compress yes  # Says which atoms are in which chunk

# count the size of each chunk
compute size_chunks solid property/chunk clus_chunks count


# Find the maximum entry in the vector of chunk sizes
variable max_n equal max(c_size_chunks)


# Thermo style which includes this variable
# thermo_style custom step temp pe vol v_max_n

thermo ${N}  # Print the thermo information every 100 steps
thermo 1000  

# Reset the npt fix at a lower temperature (below freezing)
fix 1  all npt temp  ${temp} ${temp}  0.1  iso  5.68  5.68  0.5  mtk yes tchain  5  pchain  5
fix 1  all npt temp  0.45 ${temp}  0.1  iso  5.68  5.68  0.5  mtk yes tchain  5  pchain  5
fix 1  all npt temp  0.45 0.45  0.1  iso  5.68  5.68  0.5  mtk yes tchain  5  pchain  5

dump dmp2 all dcd ${N} traj.dcd
dump dmp2 all dcd 1000 traj.dcd


compute msd all msd com yes
variable twopoint equal c_msd[4]/6/(step*dt+1.0e-6)
fix 9 all vector 10 c_msd[4]
variable fit equal slope(f_9)/6/(10*dt)
thermo_style custom step temp pe c_msd[4] v_twopoint v_fit v_max_n

fix 1 all npt temp 1.25 ${temp} 0.1 iso 5.68 5.68 0.5 mtk yes tchain 5 pchain 5
fix 1 all npt temp 1.25 0.45 0.1 iso 5.68 5.68 0.5 mtk yes tchain 5 pchain 5
run 2000000 # 5000000  # Run for this many steps
Neighbor list info ...
  update every 1 steps, delay 10 steps, check yes
  max neighbors/atom: 2000, page size: 100000
  master list distance cutoff = 3.8
  ghost atom cutoff = 3.8
  binsize = 1.9, bins = 9 9 9
  4 neighbor lists, perpetual/occasional/extra = 1 3 0
  (1) pair lj/cut, perpetual
      attributes: half, newton on
      pair build: half/bin/atomonly/newton
      stencil: half/bin/3d
      bin: standard
  (2) compute orientorder/atom, occasional
      attributes: full, newton on
      pair build: full/bin/atomonly
      stencil: full/bin/3d
      bin: standard
  (3) compute coord/atom, occasional
      attributes: full, newton on
      pair build: full/bin/atomonly
      stencil: full/bin/3d
      bin: standard
  (4) compute cluster/atom, occasional
      attributes: full, newton on
      pair build: full/bin/atomonly
      stencil: full/bin/3d
      bin: standard
Per MPI rank memory allocation (min/avg/max) = 9.756 | 9.761 | 9.766 Mbytes
Step Temp PotEng c_msd[4] v_twopoint v_fit v_max_n 
   12000    1.2436157   -6.3228909 2.5111415e-30 1.7438482e-32 8.3333333e+20            3 
   13000    1.2277926   -6.3285443   0.54164632 0.0034720917  0.044832382            2 
   14000    1.2581026   -6.2901102    1.0877933 0.0064749601  0.044506743            2 
   15000    1.2607636   -6.3024407    1.6133783 0.0089632127   0.04468738            1 
   16000    1.2513989   -6.3394628    2.1121757  0.011000915   0.04424815            2 
   17000    1.2703497    -6.306171    2.6975588  0.013223327  0.044167834            2 
   18000    1.2862411   -6.3239969    3.1726362   0.01468813  0.044361714            4 
   19000    1.2567475   -6.3364892    3.6135388  0.015848854  0.043558493            1 
   20000    1.2740613   -6.2817206    4.1628847  0.017345353   0.04317041            3 
   21000    1.2449204   -6.2971537    4.7368842  0.018797159   0.04317085            2 
   22000    1.2713409    -6.315164    5.2352108  0.019830344  0.043231291            1 
   23000    1.2359096   -6.2925534    5.8775445  0.021295451  0.043489971            1 
   24000    1.2696438   -6.2907261    6.4500222   0.02239591  0.043937639            5 
   25000    1.2416001   -6.3335283    7.1097181   0.02369906  0.044443637            3 
   26000    1.2591381   -6.3207069    7.6214605  0.024427758  0.044926607            2 
   27000     1.233072   -6.3176652    8.2170463  0.025361254  0.045255084            2 
   28000    1.2429864   -6.3393445    8.6280446  0.025678704  0.045325885            2 
   29000    1.2364145   -6.3088332    9.1517972  0.026298267  0.045240299            2 
   30000    1.2321943   -6.3076023    9.6211658   0.02672546  0.045156909            2 
   31000    1.2420363   -6.2958722    10.296723  0.027679364  0.045089446            3 
   32000    1.2502855    -6.333691    10.866764  0.028298864  0.045183633            2 
   33000    1.2409853   -6.3567279    11.448711  0.028910887  0.045323023            2 
   34000     1.262439   -6.3454136    11.936454  0.029256013  0.045411234            2 
   35000    1.2364386    -6.292467    12.498166  0.029757537  0.045484116            1 
   36000    1.2286898   -6.3105654    12.947471  0.029970996  0.045433831            2 
   37000    1.2160044   -6.3310486    13.446414  0.030284715  0.045379904            1 
   38000    1.2164294   -6.3419781    13.935446  0.030560189  0.045304906            1 
   39000    1.2574127   -6.3128751    14.553718  0.031097687  0.045220156            2 
   40000    1.2660689   -6.3289915    15.021964  0.031295757  0.045164978            2 
   41000    1.2673869   -6.3089984    15.561411  0.031628884  0.045088114            1 
   42000    1.2557621   -6.3399383      16.0354  0.031816269  0.045004809            2 
   43000    1.2163289   -6.3163334    16.603933  0.032178164   0.04493679            2 
   44000    1.2132668   -6.3021224    17.190908  0.032558537  0.044887133            1 
   45000    1.2453544   -6.3263674    17.646262  0.032678263  0.044825458            2 
   46000    1.2682816   -6.3700236    18.117894  0.032822271  0.044753802            2 
   47000    1.2001634   -6.3576395    18.506504   0.03281295  0.044658482            3 
   48000    1.2396754   -6.3320651    18.901621  0.032815314  0.044562904            4 
   49000    1.2369245   -6.3675254    19.438518  0.033058704  0.044449277            1 
   50000    1.2411906   -6.3479644    19.879847  0.033133078  0.044305389            3 
   51000    1.2383886   -6.3058166     20.19124  0.032992222  0.044131947            3 
   52000    1.2699447   -6.3840603      20.5901  0.032996955  0.043957068            2 
   53000    1.2262481   -6.3448958    21.225203  0.033372961  0.043783866            4 
   54000    1.2194693   -6.3153066    21.755495  0.033573294    0.0436373            3 
   55000    1.2328282    -6.329141     22.25489  0.033719531  0.043506424            2 
   56000    1.2231312   -6.3220377    22.677265  0.033745929  0.043372003            3 
   57000    1.2328487   -6.3526535    23.126828  0.033811152  0.043245191            3 
   58000    1.2646742   -6.3372651    23.535431  0.033815274  0.043123851            1 
   59000    1.2285291   -6.3628909    24.074531  0.034003575  0.043005863            3 
   60000    1.2369194   -6.3592214    24.480277  0.034000385  0.042900312            4 
   61000    1.2384651   -6.2971376    25.196215  0.034421059  0.042815513            2 
   62000    1.2482113    -6.428696     25.54844    0.0343393    0.0427332            4 
   63000    1.1905061   -6.3443552    25.972636  0.034355338   0.04265127            3 
   64000    1.2586741   -6.3781675    26.477249  0.034475585  0.042578983            2 
   65000    1.2327443   -6.3821183    27.153946  0.034812752  0.042502631            3 
   66000    1.2509982   -6.3290038    27.447711    0.0346562  0.042434354            2 
   67000     1.211796   -6.3382498    28.072919  0.034916566  0.042370973            4 
   68000    1.2282355   -6.3716456    28.386269  0.034787094  0.042301172            1 
   69000    1.2336526    -6.349752    28.928622  0.034937949  0.042229792            3 
   70000    1.2124744   -6.3552656    29.264131   0.03483825  0.042151987            2 
   71000    1.2495557   -6.4067822    29.782877  0.034956429  0.042070974            3 
   72000    1.2424938   -6.3904531    29.865872  0.034566982   0.04197388            4 
   73000    1.2346471   -6.3311926    30.383129  0.034683937  0.041872481            2 
   74000    1.2397674   -6.3031132    30.988309  0.034896744   0.04177725            2 
   75000    1.2143845   -6.4072469    31.450336  0.034944817  0.041695817            3 
   76000    1.2237889   -6.3583393    32.018458  0.035107958  0.041630187            2 
   77000    1.2394132   -6.3120219    32.755891  0.035450098  0.041582158            3 
   78000    1.2159625   -6.3667899    33.223896  0.035495615  0.041545285            3 
   79000    1.2210206   -6.3589133     33.56295  0.035403955   0.04150721            2 
   80000    1.2161985   -6.4028418    34.160209  0.035583551  0.041469628            3 
   81000    1.2102937   -6.3842237    34.544016   0.03553911  0.041437112            1 
   82000    1.2137869   -6.3746806    35.224763  0.035797523  0.041400075            6 
   83000    1.2095795   -6.3773969    35.552197  0.035694976  0.041374747            2 
   84000    1.2122398    -6.352005    36.114275  0.035827654  0.041340022            2 
   85000    1.2351228   -6.3525949    36.376546   0.03566328  0.041303299            1 
   86000    1.2218623   -6.3850693    36.832277   0.03569019  0.041265032            2 
   87000    1.2107181   -6.3860942     37.23673  0.035667366  0.041212247            2 
   88000    1.2160826   -6.3213996     37.68945  0.035690767  0.041156655            2 
   89000    1.2033572   -6.3745269    38.100711  0.035674823  0.041106174            1 
   90000    1.2309619   -6.3901262    38.509237  0.035656701  0.041053977            3 
   91000    1.1989611   -6.4017632    39.117791  0.035822152  0.041008168            1 
   92000    1.2008459   -6.3887919    39.791252  0.036042801  0.040972136            3 
   93000     1.199308   -6.3556566    40.071897  0.035906718  0.040935592            1 
   94000    1.2080054   -6.3504159    40.710195  0.036090598  0.040902569            5 
   95000    1.2049994   -6.3353347    41.111984  0.036063144  0.040871887            2 
   96000    1.2189814   -6.3464575    41.652634    0.0361568  0.040843819            1 
   97000    1.2002602   -6.3958658    42.040189  0.036117001  0.040817575            1 
   98000    1.2125833    -6.386216     42.53612   0.03617017  0.040793953            3 
   99000    1.2059235   -6.3633601     43.23257  0.036391052  0.040782357            5 
  100000    1.2123872   -6.3818205    43.848499  0.036540415  0.040772381            2 
  101000     1.195971   -6.3740041    44.314398  0.036563034  0.040771387            3 
  102000    1.2284951   -6.3660818    45.067084  0.036819513  0.040777091            3 
  103000    1.2185836   -6.3825279    45.358461  0.036697784  0.040777465            4 
  104000    1.1960731   -6.3389558    45.775223  0.036678865  0.040774296            5 
  105000    1.1983595   -6.3363434    46.390335  0.036817726  0.040769955            3 
  106000    1.1900741   -6.3803043    46.767419  0.036766839  0.040766435            2 
  107000    1.1986346   -6.4164324    47.126602  0.036702961  0.040761236            1 
  108000    1.1867572   -6.3820193    47.610268  0.036736318  0.040755274            4 
  109000    1.2087581   -6.3603018     48.06508  0.036747003  0.040749163            2 
  110000    1.2249258   -6.3210276    48.730349  0.036916931  0.040746102            1 
  111000    1.2354358   -6.3780933    49.281548  0.036998159   0.04074403            2 
  112000    1.1906269   -6.3729628    49.513056  0.036840072   0.04074159            2 
  113000    1.2273304   -6.3847721     49.89028  0.036792242   0.04072799            4 
  114000    1.2195735   -6.3872706     50.56951  0.036966016  0.040718429            3 
  115000      1.20301   -6.4121375    50.998661  0.036955551  0.040716645            2 
  116000    1.1916822   -6.4271918    51.455624  0.036965247  0.040706661            6 
  117000    1.1958855   -6.3840013    52.160325  0.037151228  0.040702612            2 
  118000    1.2078252   -6.3665107     52.48738  0.037067359  0.040696046            4 
  119000    1.2245159   -6.3763027     52.87486  0.037027213  0.040685692            4 
  120000    1.2194627   -6.4010764    53.458112  0.037123688  0.040677611            2 
  121000    1.2084641   -6.4116769    53.861302   0.03709456  0.040670768            2 
  122000    1.1918608   -6.3839894    54.394586  0.037154772  0.040661422            1 
  123000    1.2344372   -6.3533294    55.168934  0.037377326  0.040657295            1 
  124000    1.2398279   -6.3911168    55.495322  0.037295243  0.040654793            2 
  125000    1.1903966   -6.3681361    56.334602  0.037556401    0.0406525            2 
  126000    1.2012813    -6.459206    56.387981  0.037293638  0.040654925            2 
  127000    1.2210163   -6.3594737     56.74994  0.037237493  0.040646591            3 
  128000    1.2093446     -6.37751    57.339856  0.037330635  0.040636151            1 
  129000    1.2052499   -6.4121526    57.598363  0.037208245  0.040623849            3 
  130000    1.1915073   -6.3792359    57.902381  0.037116911  0.040608501            2 
  131000    1.2067972    -6.398474    58.509617  0.037219858  0.040594591            3 
  132000    1.2007165   -6.3724821    58.896049  0.037181849   0.04058042            2 
  133000    1.1917808   -6.4216807    59.651305  0.037375505  0.040567719            2 
  134000    1.2016636    -6.407364     59.90183  0.037252382  0.040556491            3 
  135000    1.2051306   -6.4290428    60.051568  0.037068869  0.040539626            4 
  136000    1.1964182   -6.4000315    60.450701   0.03704087  0.040519503            2 
  137000    1.1932986   -6.4120585    60.996306  0.037102376  0.040494505            1 
  138000    1.2299678    -6.401297     61.50295  0.037139462   0.04047043            2 
  139000    1.1893849   -6.3910726    62.145132  0.037257274  0.040449162            3 
  140000    1.1849801   -6.4179324    62.593137  0.037257819  0.040433695            4 
  141000    1.2014893    -6.407124    63.013954   0.03724229  0.040416006            1 
  142000    1.1827653   -6.3992721    63.743518  0.037408168  0.040403771            2 
  143000    1.1994327   -6.4354065    64.073513  0.037338877  0.040389223            5 
  144000    1.1978191   -6.4189842    64.610839  0.037390532  0.040374119            2 
  145000    1.1995776   -6.4361795    64.932388  0.037317464  0.040365733            5 
  146000    1.1862142   -6.4148422    65.755636  0.037531756  0.040357619            1 
  147000    1.1739492   -6.3866789    66.302334  0.037586357  0.040353996            5 
  148000    1.2075408   -6.4023838    66.995367  0.037722616  0.040355502            5 
  149000    1.1809008   -6.4210146    67.607519  0.037811811  0.040360078            1 
  150000     1.206906   -6.4094356    68.039377  0.037799654  0.040366895            3 
  151000    1.1996231    -6.414836    68.643815    0.0378829  0.040367373            2 
  152000    1.1798852   -6.3917089    68.745453  0.037689393  0.040364167            3 
  153000    1.1834332    -6.405833     68.76641  0.037454472  0.040354509            4 
  154000    1.1992983   -6.4035902    69.238202  0.037466559  0.040341212            3 
  155000    1.1856507   -6.3950009    69.801041  0.037527441  0.040329095            3 
  156000    1.2023175    -6.383071     70.03533  0.037412035  0.040313573            2 
  157000    1.1539998    -6.423432    70.681364  0.037516648  0.040297803            2 
  158000    1.1892035   -6.4502856    71.064157  0.037481095  0.040282519            2 
  159000    1.1931353   -6.4125349    71.885049  0.037675602  0.040272651            2 
  160000    1.2171679   -6.4266195    72.093375  0.037548633  0.040263763            3 
  161000    1.1891718    -6.413292    72.736636  0.037648362  0.040252969            3 
  162000    1.2286602   -6.4532201    72.948912   0.03752516  0.040243128            1 
  163000    1.1981824   -6.4465425    73.791717  0.037725827  0.040233898            3 
  164000     1.164508   -6.4108963    74.194981  0.037700702  0.040224991            3 
  165000    1.2075343   -6.4262569    74.559078    0.0376561  0.040217633            2 
  166000    1.2194478   -6.4082979    74.831163  0.037565845  0.040209031            4 
  167000    1.2004972   -6.4238829    75.382509  0.037616022  0.040196827            3 
  168000    1.1913359   -6.4406312     75.75167  0.037575233   0.04018212            2 
  169000    1.2039108   -6.4372922    76.501192  0.037722481  0.040171223            2 
  170000    1.1904748   -6.3935924    76.952479  0.037721803  0.040162248            3 
  171000    1.2058777   -6.4312044    77.152849  0.037598854  0.040153829            2 
  172000    1.1919723   -6.4279906    77.648845  0.037620565  0.040144206            2 
  173000    1.1678322   -6.4230939    77.964488  0.037555148  0.040130127            3 
  174000    1.1697206   -6.4399221    78.369337  0.037533207  0.040117046            4 
  175000    1.1858271   -6.4794634    78.693786  0.037473231   0.04010455            1 
  176000    1.1843636   -6.4702054    79.489528  0.037637087   0.04009162            2 
  177000    1.2010816    -6.467486    80.137416   0.03772948  0.040080838            2 
  178000     1.180665   -6.4516537    80.281843  0.037585132  0.040069095            3 
  179000    1.1893575   -6.4276245    80.873479  0.037650595  0.040058028            2 
  180000    1.2023078   -6.4321014    81.213861   0.03759901  0.040047619            3 
  181000    1.2084526   -6.4360286    81.792405  0.037657645  0.040036015            3 
  182000     1.186614   -6.4068718    82.152332  0.037615536  0.040023877            2 
  183000    1.1880112   -6.4528384    82.978874  0.037786373   0.04001204            3 
  184000    1.1988164    -6.434347    83.460618  0.037799193  0.040002416            3 
  185000    1.2016241    -6.410198    84.030095  0.037851394  0.039995482            4 
  186000    1.1911985   -6.4514172    84.666569   0.03793305   0.03999376            3 
  187000    1.1634833   -6.4234779    85.268702   0.03799853  0.039993243            2 
  188000    1.1552053   -6.4575025     85.26637  0.037795377    0.0399896            3 
  189000    1.1732022   -6.4337985    85.664644  0.037771007  0.039984111            4 
  190000     1.188171   -6.4301951    86.258997  0.037832893  0.039977513            3 
  191000    1.1880429    -6.435973    86.809461  0.037874983  0.039972852            2 
  192000    1.1595416   -6.4516626    87.032948  0.037774717  0.039968787            2 
  193000    1.2001081   -6.4173201    87.072376  0.037596017  0.039960902            6 
  194000    1.1554269   -6.4138126    87.727688  0.037683715  0.039950449            8 
  195000    1.1629673   -6.4620086    88.653674  0.037886185  0.039940266            3 
  196000    1.1651814   -6.3986621     89.01315  0.037845727  0.039931531            2 
  197000    1.1656741   -6.4703134    89.354629  0.037798066   0.03992309            4 
  198000    1.1410121   -6.4622944    89.643317  0.037728669   0.03991407            3 
  199000    1.1604964   -6.4486493    90.225971   0.03778307  0.039905852            4 
  200000    1.1835299   -6.3887168    90.617205  0.037757168  0.039895328            4 
  201000     1.141063   -6.4353944    91.187267  0.037805666   0.03988367            3 
  202000    1.1749936   -6.4315618     91.33165  0.037678073  0.039870988            4 
  203000    1.1784146   -6.4463182    91.893598  0.037723152  0.039858613            1 
  204000    1.1821343   -6.4125167    92.320266  0.037712527  0.039845978            4 
  205000     1.162867    -6.429835    92.808582  0.037727066   0.03983422            2 
  206000    1.1854592   -6.4838177    92.805802    0.0375428  0.039819836            2 
  207000    1.1471007   -6.4466093    93.351315  0.037581045  0.039807069            3 
  208000    1.1708417   -6.4745167    94.141181  0.037716819  0.039793981            2 
  209000     1.186927    -6.474187    94.422094  0.037648363  0.039780806            1 
  210000    1.1827723   -6.4549806    95.182676  0.037770903  0.039770453            4 
  211000    1.1747559   -6.4421277    95.705453  0.037798362  0.039761825            3 
  212000    1.1676521   -6.4727752    96.229726   0.03782615  0.039754174            4 
  213000    1.1995711   -6.4800001    96.651322  0.037813506  0.039745666            3 
  214000    1.1702223   -6.4814241    97.180185  0.037842751  0.039735833            3 
  215000    1.1518522   -6.4593662    97.914199   0.03795124  0.039728484            2 
  216000     1.173187   -6.4617458    98.211281  0.037890155   0.03972107            1 
  217000    1.1475436   -6.4415172     98.08911  0.037668629  0.039709952            2 
  218000     1.186487    -6.415943    98.588086  0.037686577  0.039696756            4 
  219000    1.1625841   -6.4615206    98.645567  0.037536365  0.039681491            4 
  220000    1.1813332   -6.4540185    99.182111  0.037568981  0.039665671            4 
  221000    1.1578048    -6.449863    99.665144  0.037581125  0.039652519            2 
  222000    1.1680344   -6.4524675     100.2099   0.03761633  0.039637499            4 
  223000    1.1491592   -6.4761169    100.05943  0.037391417  0.039622391            2 
  224000    1.1424794   -6.4554973    100.89453  0.037535169   0.03960595            2 
  225000    1.1886906   -6.4619702    101.41515  0.037561165  0.039589463            3 
  226000     1.151264   -6.4197603    102.10752  0.037650264  0.039573514            3 
  227000    1.1287612   -6.4854993    102.26691  0.037542918  0.039558203            2 
  228000    1.1777374   -6.4682178    102.89153  0.037606554   0.03954394            3 
  229000    1.1438321   -6.4507806    103.66142  0.037722496  0.039530755            6 
  230000    1.1532997   -6.4633475    103.94022  0.037659501  0.039519102            3 
  231000    1.1918969   -6.4789718    104.09576  0.037552582  0.039507712            1 
  232000    1.1746945   -6.4783304    104.94516  0.037695821  0.039497773            5 
  233000    1.1798175   -6.4751153    105.23395  0.037637321  0.039489396            4 
  234000    1.1436482   -6.4704287    106.07084  0.037774515   0.03948004            3 
  235000    1.1712493   -6.4926397    106.31342  0.037699795  0.039470952            1 
  236000    1.1535397   -6.4850764    106.93688  0.037760197   0.03946162           11 
  237000    1.1449757   -6.5069977    107.57711  0.037825987  0.039453899            3 
  238000    1.1764846    -6.448069    108.15422  0.037869123  0.039448668            2 
  239000    1.1627283   -6.4731044     108.8694  0.037960042  0.039445486            5 
  240000    1.1619153    -6.478717    109.28344  0.037945639  0.039441333            4 
  241000    1.1404639   -6.4822238    109.84764  0.037983277  0.039436771            2 
  242000     1.176372   -6.4803188    109.79565  0.037808421  0.039432609            3 
  243000    1.1741322   -6.4562891    110.57328  0.037919507  0.039426764            2 
  244000    1.1641615   -6.4680966    110.65507  0.037792031  0.039420155            5 
  245000    1.1983033   -6.4975789    111.51986  0.037931923   0.03941342            3 
  246000    1.1577397   -6.4594465    111.63645  0.037817224  0.039404189            2 
  247000    1.1579318   -6.4660282    112.26273  0.037875415  0.039397143            4 
  248000    1.1655974   -6.4881134    112.77442  0.037894629  0.039391987            3 
  249000    1.1452523   -6.5188018    113.02115  0.037825016  0.039386189            3 
  250000    1.1612157   -6.4953532     113.8836  0.037961199   0.03938064            2 
  251000    1.1657131   -6.4772698     114.0558   0.03786713  0.039373695            2 
  252000    1.1557165   -6.4894365    114.29872  0.037797194  0.039366023            4 
  253000    1.1630234   -6.5150335    114.82452  0.037820987  0.039359205            2 
  254000    1.1754564   -6.5047025     115.1544  0.037780315  0.039351671            2 
  255000    1.1517872   -6.5196479    116.15329  0.037958592   0.03934654            4 
  256000    1.1459593   -6.5024562    115.93063  0.037737836  0.039340727            4 
  257000    1.1497733   -6.4733462    116.81074  0.037876373   0.03933462            3 
  258000    1.1397657   -6.4896004    117.35649  0.037905843  0.039329109            5 
  259000     1.141462   -6.4750692     117.7516  0.037886615  0.039322282            2 
  260000    1.1476654   -6.5027766    117.87104  0.037779179  0.039314966            2 
  261000    1.1543934   -6.5011354    118.23652  0.037751125  0.039306708            2 
  262000    1.1599404   -6.4846825     118.7996  0.037786131  0.039299405            3 
  263000    1.1623505   -6.5097659    119.80677  0.037961588  0.039292921            4 
  264000    1.1309864   -6.5467699    119.92443  0.037854934  0.039287726            2 
  265000    1.1543917   -6.5107856    120.29432  0.037828404  0.039281298            4 
  266000    1.1323876   -6.4812797    120.68685  0.037809164   0.03927457            4 
  267000    1.1704451   -6.4871972    121.08327  0.037791283  0.039267058            2 
  268000    1.1524632   -6.4762868    121.45514  0.037765903  0.039259282            3 
  269000    1.1178633   -6.5033324    122.00827  0.037796862  0.039251864            3 
  270000    1.1206294   -6.5226556    122.05815  0.037672269  0.039243863            3 
  271000    1.1428412   -6.4391984    123.33695  0.037926491  0.039237688            5 
  272000    1.1434111   -6.4688559    123.53822  0.037848718  0.039231034            3 
  273000    1.1417118   -6.5355846    123.75674  0.037776784  0.039223457            5 
  274000     1.142088   -6.4974778    124.27749  0.037797289  0.039215632            2 
  275000    1.1516676   -6.5279234    124.70836  0.037790413  0.039208376            2 
  276000    1.1081241   -6.5172118    124.68284  0.037645786  0.039199317            3 
  277000    1.1424247   -6.5075153    125.29151  0.037692992  0.039188912            4 
  278000    1.1462467   -6.4711323    125.52725  0.037628073  0.039177806            6 
  279000    1.1464837   -6.5179063    125.87168  0.037596081   0.03916638            2 
  280000    1.1407289   -6.5198754     126.2784  0.037582858  0.039155496            2 
  281000    1.1390113   -6.5164982     127.1225  0.037699437  0.039145141            2 
  282000    1.1498474    -6.512936    127.35679  0.037634984   0.03913554            3 
  283000    1.1187119   -6.5236267    128.04495  0.037704639  0.039127293            4 
  284000    1.1294422   -6.4811657    128.13013  0.037596868  0.039119418            2 
  285000    1.1780067   -6.5009421    128.59507  0.037600896  0.039110257            1 
  286000    1.1611861   -6.5022318    129.49944  0.037732937  0.039101775            4 
  287000    1.1360339   -6.5304876    129.48045  0.037595948   0.03909191            2 
  288000     1.141672   -6.4879943    130.45154  0.037746393  0.039081466            2 
  289000    1.1016264   -6.5319432    129.96311  0.037474944  0.039070687            3 
  290000    1.1431753   -6.5262968     130.6748  0.037550231  0.039059742            2 
  291000     1.129131   -6.5221231    130.96009  0.037502889  0.039048053            2 
  292000    1.1337113   -6.5052141    131.54594  0.037541648  0.039038005            3 
  293000    1.1347854   -6.5239692    132.00202  0.037543237  0.039026546            5 
  294000    1.1425892   -6.5628096    132.48888  0.037553537  0.039015211            4 
  295000    1.1279192   -6.5198303    132.99288  0.037568611  0.039003869            2 
  296000    1.1245544   -6.5403478    132.91249  0.037419056  0.038990794            3 
  297000    1.1212529   -6.5127429    133.23265  0.037382897  0.038977421            3 
  298000    1.1419354   -6.5364935    133.28086  0.037270935  0.038962952            2 
  299000    1.1376478   -6.5162976    133.92726  0.037326438  0.038947435            2 
  300000    1.1337238   -6.5644523    134.25099  0.037291943  0.038931901            3 
  301000    1.1528117   -6.5400305    134.59688  0.037263809  0.038915736            3 
  302000    1.1601245   -6.5501943    134.56342  0.037131187  0.038898938            5 
  303000    1.1151342   -6.5089918    135.08225  0.037151335  0.038881698            2 
  304000    1.1242675   -6.5231633    135.61473  0.037175091  0.038864194            3 
  305000    1.1430102   -6.4928823    135.81343  0.037107495  0.038846089            3 
  306000    1.1652215   -6.5112924    135.82016  0.036988061  0.038827484            2 
  307000    1.1463855   -6.5134353    136.54787  0.037065111  0.038808999            2 
  308000    1.1487193   -6.5476354    137.26203  0.037137995  0.038791017            3 
  309000    1.1154275   -6.5717113    137.60898  0.037111376  0.038774642            3 
  310000    1.1324649   -6.4964015    138.29305  0.037175552  0.038758566            2 
  311000    1.1286075   -6.5218978    137.76582  0.036914743  0.038741143            3 
  312000    1.1402814   -6.5386699    138.54023  0.037003267  0.038722987            2 
  313000    1.1382686   -6.5095645     139.2441  0.037072443   0.03870539            3 
  314000    1.1365941     -6.51062    139.71988  0.037080648  0.038686695            3 
  315000    1.1057127   -6.5469581    139.65182  0.036944925  0.038668494            2 
  316000    1.1256514   -6.4982595    140.42084  0.037030812  0.038650703            3 
  317000    1.1478696    -6.526833    141.28301  0.037140643  0.038634991            3 
  318000    1.1071055   -6.5170852    141.28637  0.037024731  0.038618216            2 
  319000    1.1426884   -6.4973346    141.58499  0.036986674  0.038601591            4 
  320000    1.0976162   -6.5136088    142.84289  0.037198669  0.038585888            3 
  321000    1.1396293   -6.5419519    142.75072  0.037058858  0.038570407            4 
  322000    1.1340823   -6.5524004    143.06031   0.03702389  0.038554978            3 
  323000     1.106016   -6.5239432     144.0219  0.037157353  0.038540934            4 
  324000    1.1320366    -6.534894    144.11428  0.037066431  0.038526236            2 
  325000    1.1182559   -6.5450376    144.25154  0.036987576   0.03851135            2 
  326000    1.1251567   -6.5039106     144.3919  0.036909994  0.038495196            2 
  327000    1.1375637   -6.5598899    144.69204  0.036873608  0.038478158            3 
  328000    1.1271935   -6.5621907    144.97758  0.036833735  0.038460481            2 
  329000    1.1233938   -6.5815655    145.54013  0.036864268  0.038442795            5 
  330000    1.1311631   -6.5380561    146.06184  0.036884303  0.038425705            2 
  331000    1.1256643   -6.5182192    146.77995  0.036953662  0.038408779            1 
  332000    1.1204853    -6.519218    147.32874  0.036980105  0.038391414            2 
  333000    1.1186301    -6.559573     147.4502   0.03689945  0.038374476            4 
  334000    1.1330495   -6.5267532    147.75329  0.036864594  0.038357323            3 
  335000    1.1374494   -6.5606159    148.09727  0.036840118  0.038339882            3 
  336000    1.1131582   -6.5537134    148.64615  0.036866604  0.038322002            6 
  337000     1.122009   -6.5285924    148.78732  0.036792116  0.038304441            2 
  338000    1.1062741   -6.5317822    149.27235  0.036802848  0.038287031            4 
  339000    1.1150951   -6.5212644      149.525  0.036756392  0.038269623            3 
  340000    1.1284841    -6.527357    150.13804  0.036798538    0.0382517            4 
  341000     1.122314   -6.5603528    149.64516  0.036570176  0.038233217            3 
  342000    1.1274836   -6.5856442    150.10271  0.036574735  0.038213792            2 
  343000    1.0996849    -6.579528    150.19591  0.036490745  0.038194958            2 
  344000    1.1057579   -6.5447518    151.19332  0.036626288   0.03817613            3 
  345000    1.1291808   -6.5497387     151.2465  0.036532971   0.03815786            1 
  346000    1.1139123   -6.5151085    151.98614  0.036605525  0.038139178            2 
  347000    1.1314694    -6.564455    152.14526  0.036538246  0.038120709            2 
  348000    1.1199966   -6.5523204    153.12357  0.036667521  0.038103277            2 
  349000    1.0965934   -6.5639522     153.3065  0.036606137  0.038085798            3 
  350000     1.130986   -6.5662118    153.59561  0.036570383  0.038067816            2 
  351000    1.1259461   -6.5676322    153.52681  0.036449859  0.038048608            2 
  352000    1.1279158   -6.5894874    154.17519  0.036499808  0.038028116            1 
  353000    1.1487244   -6.5290071    154.34305  0.036436036  0.038007231            2 
  354000    1.1223264   -6.5492386    154.51216   0.03637292  0.037987753            3 
  355000    1.1110341   -6.5250978    155.43972  0.036488198  0.037968197            2 
  356000    1.1010657   -6.5745446    155.29118  0.036350933  0.037948828            2 
  357000    1.1001309   -6.5661546    156.45774  0.036521414  0.037930057            2 
  358000    1.1097299   -6.5800135    156.34061  0.036392134  0.037911355            3 
  359000    1.1091702   -6.6106828    156.72114  0.036379095   0.03789201            2 
  360000    1.1304861   -6.5871001     157.4004  0.036435277    0.0378733            3 
  361000    1.1188401   -6.5376335    157.63973  0.036389596  0.037854614            3 
  362000    1.1430898   -6.5953471    157.47644  0.036251481  0.037835338            2 
  363000    1.0848819    -6.552283    157.87485  0.036243078  0.037815097            2 
  364000    1.1031263   -6.5776532    158.67804   0.03632739  0.037795566            5 
  365000    1.0941361   -6.5591234    158.57598  0.036204561  0.037775921            4 
  366000    1.1247761   -6.5407695    159.56462  0.036330742  0.037756818            3 
  367000    1.0910968   -6.5939277     159.7582  0.036275703  0.037737657            2 
  368000    1.1093791   -6.5911195    160.39044  0.036320299  0.037718353            2 
  369000    1.1035838   -6.5649111    160.25335   0.03619091  0.037697153            4 
  370000    1.0731499   -6.6201505    160.05339   0.03604806  0.037676239            2 
  371000    1.1117547   -6.5417769    160.33102  0.036013258  0.037654138            3 
  372000    1.1277721   -6.5741723    160.76083   0.03601273  0.037632837            5 
  373000    1.1127943    -6.579965    160.76372  0.035916827  0.037611597            4 
  374000    1.1087377   -6.5850579    161.27736   0.03593524  0.037588786            3 
  375000    1.1001641   -6.5809958    161.45563  0.035879028   0.03756643            3 
  376000    1.0946448   -6.5699933    162.54452  0.036024939  0.037545593            2 
  377000    1.1250547   -6.5799045    162.64148  0.035950812  0.037524475            3 
  378000    1.1114231   -6.6009536    163.30814  0.036002677  0.037504013            3 
  379000    1.0994037   -6.5703737    164.10155  0.036082135  0.037483948            3 
  380000    1.0857477   -6.5885099    163.97706  0.035959882  0.037463206            2 
  381000    1.1006548   -6.5912422    164.46967  0.035973243  0.037442979            3 
  382000     1.104716   -6.6158998    164.69473  0.035928169  0.037421748            3 
  383000    1.1041981   -6.5968845    165.28535   0.03596287  0.037401154            4 
  384000    1.0975096   -6.5797845    165.67662  0.035954127  0.037380243            5 
  385000    1.1085295   -6.6038689    165.52234  0.035827345  0.037359644            5 
  386000    1.1167346   -6.5446286    166.16426  0.035873112  0.037338853            2 
  387000    1.0700067   -6.6098635    167.12349   0.03598697  0.037318493            2 
  388000    1.0943835   -6.5836503    166.56387  0.035774028  0.037296864            2 
  389000    1.1047026   -6.5620791    166.96353   0.03576768  0.037275147            4 
  390000    1.1053705   -6.5961331    167.21329  0.035729335  0.037253277            5 
  391000    1.1184563   -6.5835968     167.5062  0.035700384  0.037231646            9 
  392000     1.094654   -6.5711605    169.04713   0.03593689  0.037211433            5 
  393000    1.1159862   -6.5819129    169.39301   0.03591879  0.037192522            3 
  394000     1.102246   -6.5947462    169.00584  0.035745736  0.037173697            1 
  395000    1.0910825   -6.5823898    169.40533   0.03573952  0.037153518            4 
  396000    1.0825959   -6.6214365    169.96248  0.035766514  0.037133122            3 
  397000    1.1144659   -6.6325992    170.08084  0.035701269   0.03711284            4 
  398000    1.0961091   -6.6418433    170.33192  0.035664137  0.037092623            4 
  399000     1.084033   -6.5788417    170.96548  0.035707076  0.037071916            5 
  400000     1.087493   -6.5940878    171.38104  0.035704383  0.037052684            2 
  401000    1.0905196   -6.5746959    171.77678  0.035697586   0.03703282            2 
  402000    1.0979691   -6.6137696    172.06263   0.03566804  0.037013083            3 
  403000    1.1045845   -6.5891485    172.40578  0.035650492  0.036993234            2 
  404000     1.092614   -6.5933916    173.24103  0.035734535  0.036973558            4 
  405000    1.0720065    -6.617836    172.98795  0.035594228  0.036953728            3 
  406000    1.0907973   -6.5799314    173.43248  0.035597799  0.036933968            5 
  407000    1.0916247   -6.5448327    174.54434   0.03573799   0.03691488            2 
  408000    1.0882785   -6.6028218    174.76898  0.035696279  0.036896768            3 
  409000    1.0840259   -6.5844052    175.21228  0.035699323  0.036878525            3 
  410000    1.0834236   -6.5630242    175.37591  0.035645511  0.036859399            2 
  411000    1.0775197   -6.5912809    175.71042  0.035626605  0.036840598            3 
  412000    1.0971356   -6.6033942    175.21298  0.035439518  0.036820799            3 
  413000    1.0904379   -6.6311061    175.83615  0.035479449   0.03680132            2 
  414000     1.116848   -6.5774863    177.10002  0.035648151  0.036782408            2 
  415000    1.1153975   -6.5928807    176.60017  0.035461882  0.036762951            2 
  416000    1.0937196   -6.6173996    176.51532   0.03535964  0.036743075            8 
  417000    1.1087899   -6.5978158    177.52235   0.03547609  0.036723066            2 
  418000    1.0739218   -6.6295522    177.42925  0.035372658  0.036703117            2 
  419000     1.088864   -6.6174839    177.80344  0.035362657   0.03668251            6 
  420000    1.0588324   -6.6153548    178.23689  0.035364462   0.03666152            3 
  421000     1.069838   -6.5840512    178.70944  0.035373999  0.036641105            3 
  422000     1.097168    -6.612443    178.77614  0.035303345  0.036620718            5 
  423000     1.091362   -6.6388852    178.85625  0.035235667  0.036599585            3 
  424000     1.091219   -6.6279151    179.87006  0.035351819  0.036578525            9 
  425000    1.0849736   -6.6282328    179.75934  0.035246929  0.036557817            4 
  426000    1.0638514   -6.6139632    179.90345   0.03519238  0.036537225            2 
  427000    1.1020203   -6.6204836    180.62064  0.035249929  0.036517016            4 
  428000    1.0952681   -6.6208397    180.35109  0.035115087  0.036496762            2 
  429000     1.067528   -6.6195626    181.04338  0.035167712  0.036476531            1 
  430000    1.0735895   -6.6271239    181.32698  0.035140887   0.03645544            3 
  431000    1.0735076    -6.610637    181.73782   0.03513879  0.036434384            3 
  432000    1.0787622   -6.6267173    182.23102  0.035152589  0.036414114            3 
  433000    1.0660524   -6.6129257    182.29282  0.035083299  0.036393471            5 
  434000    1.1069485   -6.6642528    182.28366  0.035000702  0.036372823            4 
  435000     1.083266   -6.6357738    182.85195  0.035029109  0.036351687            4 
  436000     1.069072   -6.6534704    182.96102  0.034969615   0.03632945            3 
  437000    1.0808856   -6.6107676    183.50123  0.034992607  0.036307663            3 
  438000    1.0587893   -6.6287455    183.98345  0.035004462  0.036286267            3 
  439000    1.0913099   -6.6007682    183.86263   0.03490179  0.036264531            4 
  440000    1.0675355   -6.6247952    184.36391  0.034917406  0.036243417            3 
  441000    1.0550207   -6.6215386    184.88763  0.034937194   0.03622229            4 
  442000     1.073714   -6.5811311    185.49622  0.034972893  0.036201044            5 
  443000    1.0747757   -6.6088542    185.94448   0.03497827  0.036179874            3 
  444000    1.0813465    -6.691882    185.22918  0.034765237  0.036158627            8 
  445000    1.0709543   -6.6968919     186.3841  0.034903389  0.036137298            3 
  446000    1.0943199   -6.6538739    186.65679  0.034876081  0.036116143            3 
  447000    1.0932137   -6.6229655    187.03266  0.034868133  0.036095541            4 
  448000    1.0566398   -6.6721363    186.86282   0.03475871  0.036074081            4 
  449000     1.081562   -6.6019815    187.53231  0.034805551  0.036052896            2 
  450000    1.0701638   -6.6380772    188.43879  0.034896073  0.036032043            3 
  451000    1.0674539   -6.6301134    187.87879  0.034715223  0.036011394            3 
  452000     1.055996   -6.6378608    189.15333  0.034873402  0.035991193            3 
  453000    1.0870492   -6.6470192     189.2313  0.034810762   0.03597032            8 
  454000    1.0594691   -6.6084885    189.60178  0.034802089  0.035950906            2 
  455000    1.0432068   -6.6506204    189.75753  0.034754126  0.035930813            2 
  456000    1.0566813   -6.6364239    190.15746  0.034750998  0.035910798            3 
  457000    1.0232019   -6.6498843    189.50151  0.034555345   0.03588973            4 
  458000    1.0875157   -6.6300029    190.38497  0.034640643  0.035868122            2 
  459000    1.0503574   -6.6461373    190.33032   0.03455525  0.035846805            4 
  460000      1.06669   -6.6247557    190.30477  0.034475501  0.035825293            1 
  461000    1.0290183   -6.6712212    190.83347  0.034496289  0.035803898            3 
  462000    1.0553404   -6.6351407    192.21254  0.034670371  0.035782761            3 
  463000    1.0769289   -6.6447244    192.71789  0.034686445  0.035762318            5 
  464000     1.057502   -6.6645584    192.50166  0.034572856  0.035742605            1 
  465000    1.0890282   -6.6558096    192.33965  0.034469471  0.035722249            2 
  466000    1.0608327   -6.6577946    193.30352  0.034567868  0.035701942            4 
  467000    1.0555371   -6.6488111    193.72597  0.034569231  0.035681872            5 
  468000    1.0896333   -6.6513915    194.08676  0.034559607   0.03566229            2 
  469000    1.0854636   -6.6188541    194.78137  0.034609342  0.035642729            3 
  470000    1.0680016   -6.6528497    195.08742  0.034589969  0.035623687            5 
  471000     1.064901   -6.6568654    194.96601  0.034495047  0.035604683            5 
  472000    1.0808114   -6.6261802     195.9232   0.03459096  0.035585723            3 
  473000    1.0915183   -6.6372511    195.84229  0.034503575  0.035566317            6 
  474000    1.0646473   -6.6548693    196.30882  0.034512803  0.035546753            5 
  475000    1.0443767   -6.6353741    196.05462  0.034395548  0.035526787            4 
  476000     1.034638   -6.6739774    196.38494  0.034381116   0.03550701            6 
  477000     1.067388   -6.6559823    196.91576  0.034401776   0.03548735            2 
  478000      1.06046   -6.6824665    197.02911  0.034349565  0.035467241            2 
  479000    1.0682365   -6.6991686    197.76109  0.034405199  0.035447185            2 
  480000    1.0928995   -6.6761617    197.82863  0.034345249  0.035427577            3 
  481000    1.0744647   -6.6766785    198.52358  0.034394245  0.035407985            4 
  482000    1.0516549    -6.630594     198.5948    0.0343352  0.035388718            3 
  483000    1.0554788   -6.6769448    199.21214  0.034370624  0.035369171            3 
  484000    1.0643932   -6.6631153    199.48015  0.034345755  0.035349341            2 
  485000    1.0448151   -6.6373534    199.51578  0.034281062  0.035329847            5 
  486000    1.0674892   -6.6727178    199.91749  0.034279405   0.03531025            4 
  487000    1.0884985   -6.6626383    199.62135  0.034158342   0.03529001            2 
  488000    1.0720914   -6.6682301    200.14906  0.034178459  0.035269432            2 
  489000    1.0750757   -6.6742299    199.95011   0.03407466  0.035248607            3 
  490000    1.0630092   -6.6579045     199.9655  0.034007739  0.035227496            2 
  491000    1.0714763   -6.6373489     200.7083  0.034064544  0.035206319            4 
  492000    1.0590872   -6.6007613    202.00982  0.034215755  0.035185816            6 
  493000    1.0701588   -6.6635519    202.19265  0.034177257  0.035165162            3 
  494000    1.0571655   -6.6294993     202.0173  0.034078492  0.035144064            2 
  495000    1.0519166   -6.6512739    202.19364  0.034039334  0.035123513            4 
  496000     1.050451   -6.7168978    202.08374  0.033952242  0.035103219            3 
  497000     1.059125    -6.646715    203.02341  0.034041483  0.035082419            7 
  498000    1.0513406   -6.6103744    203.74216    0.0340934  0.035062172            4 
  499000    1.0471163   -6.6656448    203.59319  0.034000198  0.035042279            4 
  500000     1.039942   -6.6841195    203.77941  0.033963234  0.035021976            6 
  501000    1.0571596   -6.6664439    204.24491  0.033972872  0.035002032            3 
  502000    1.0610542   -6.6866227    204.51529  0.033950082  0.034982452            2 
  503000    1.0662298   -6.6765779     205.1744  0.033991782  0.034962536            5 
  504000    1.0505036   -6.6749456    205.57896  0.033991229  0.034942785            3 
  505000     1.053175   -6.7097872     205.6294  0.033932244  0.034923015            4 
  506000    1.0581884   -6.6950144    205.80866  0.033894707  0.034903841            3 
  507000     1.058546   -6.6582908    206.30807   0.03390994  0.034884569            2 
  508000    1.0500502   -6.6913222    206.55464  0.033883636  0.034864613            2 
  509000    1.0538105   -6.7081149    206.77921  0.033853832  0.034844469            2 
  510000     1.045591   -6.6750443    207.13146   0.03384501  0.034825092            5 
  511000    1.0461788   -6.6574906    207.63921  0.033861581   0.03480572            2 
  512000     1.046211   -6.6714596    207.71271  0.033807406  0.034786143            4 
  513000    1.0542186   -6.7076482    207.49468  0.033706088  0.034765959            4 
  514000    1.0537414   -6.6809209    208.58077  0.033816597  0.034745507            4 
  515000    1.0680011   -6.6834373    208.11111  0.033674938  0.034725163            3 
  516000    1.0534905   -6.6751376    208.35128  0.033648462  0.034704682            4 
  517000    1.0375586   -6.6648787     209.2315  0.033725258    0.0346838            2 
  518000     1.038829    -6.654616    208.52398  0.033546328  0.034662856            4 
  519000    1.0544626   -6.6653724    209.74523  0.033677783  0.034642449            2 
  520000    1.0414838   -6.7079867    209.56055  0.033583422  0.034622337            4 
  521000    1.0492268   -6.6725377    209.78628  0.033555067  0.034601708            4 
  522000     1.043194   -6.6606356    210.32589   0.03357693  0.034581563            2 
  523000    1.0550482   -6.7086981    209.99855  0.033460573  0.034560348            3 
  524000    1.0225703   -6.7325129    210.70425  0.033508946  0.034539398            4 
  525000    1.0648875    -6.705031    211.00911  0.033493509  0.034518432            5 
  526000    1.0328016   -6.6774059    211.73149   0.03354428  0.034497512            4 
  527000    1.0656349   -6.6950657    211.47707  0.033440397  0.034476962            5 
  528000    1.0446947   -6.6787556    212.12699  0.033479638   0.03445576            1 
  529000    1.0499638   -6.6764088    211.96883  0.033391435  0.034434967            3 
  530000    1.0230095   -6.7158075    212.42567  0.033400262  0.034414358            5 
  531000    1.0513438   -6.7135563    212.70505  0.033381207  0.034394006            5 
  532000    1.0350189   -6.7330179    212.84817  0.033340879  0.034373548            2 
  533000     1.050227   -6.7086068    213.15881  0.033326893  0.034353177            4 
  534000    1.0764697   -6.6702208     214.0209  0.033399017  0.034333245            6 
  535000    1.0147354   -6.7092946    214.16102  0.033358414  0.034313149            2 
  536000    1.0143715   -6.6877854    214.24495  0.033309227  0.034293135            4 
  537000    1.0333882   -6.7382044    214.92527  0.033352773  0.034272812            3 
  538000    1.0526289   -6.7285109    214.45451   0.03321786  0.034252988            7 
  539000    1.0357545   -6.6820184    215.80282   0.03336469  0.034233093            5 
  540000     1.050235   -6.7183756    215.85001  0.033310187  0.034213795            3 
  541000    1.0347218   -6.6980705    216.02202  0.033275111  0.034194325            2 
  542000    1.0194071   -6.6978962    216.69413  0.033317056   0.03417517            6 
  543000    1.0390282   -6.7428643    216.70949  0.033258055  0.034155766            6 
  544000    1.0333882   -6.7240118    216.94187  0.033232517  0.034136157            3 
  545000    1.0487258    -6.721561    217.38053  0.033238613  0.034116866            4 
  546000    1.0545965   -6.7161143    217.60549  0.033212071  0.034097735            1 
  547000    1.0305841   -6.7188326    218.60935  0.033304289  0.034078403            4 
  548000    1.0434104   -6.7127687    219.20759  0.033334488  0.034059543            5 
  549000    1.0285116   -6.7315023     219.0894  0.033255829  0.034041155            3 
  550000    1.0409722   -6.7328311    218.74147  0.033142647  0.034022382            2 
  551000    1.0346587   -6.7095917    219.62892  0.033216715  0.034003544            3 
  552000    1.0384355   -6.7120928    220.10876  0.033228979  0.033985847            2 
  553000    1.0154082   -6.7185367    219.98378  0.033150058   0.03396791            5 
  554000    1.0476596    -6.705671    220.79802  0.033212699   0.03394993            3 
  555000     1.017417   -6.7361911    221.04568  0.033190041  0.033931988            4 
  556000    1.0354031   -6.6916644      221.655  0.033221672  0.033913669            4 
  557000    1.0359625   -6.7348046    221.32063  0.033112004  0.033895525            4 
  558000    1.0227007   -6.7406173    221.76869  0.033119577  0.033877548            7 
  559000    1.0326777    -6.720889    222.80585  0.033214944  0.033859927            5 
  560000    1.0204372   -6.7236888    222.56348  0.033119566  0.033841799            5 
  561000    1.0425581   -6.7064749    222.18042  0.033003628   0.03382351            2 
  562000    1.0129528   -6.7435676    222.48856  0.032990594  0.033804989            5 
  563000   0.99983098   -6.7222156    223.05324  0.033015577  0.033786232            3 
  564000     1.015022   -6.7356551    223.54665  0.033029943  0.033767363            1 
  565000   0.98918102   -6.6762899    224.34589  0.033089364  0.033748778            4 
  566000    1.0288268   -6.7149226    224.09377  0.032993783  0.033730426            3 
  567000    1.0507269   -6.7372499    224.30511  0.032966653  0.033711951            2 
  568000    1.0322384   -6.7272512    224.55155  0.032944769  0.033694102            4 
  569000    1.0378035   -6.7595138    224.13699  0.032826155  0.033675544            6 
  570000    1.0366558   -6.6976553    226.12531  0.033059255  0.033657447            2 
  571000    1.0339666    -6.686202    226.14534  0.033004282  0.033640149            2 
  572000     1.025122   -6.7517754    225.75492  0.032889703  0.033622216            3 
  573000    1.0387683   -6.7429404    226.48809  0.032938931   0.03360391            2 
  574000    1.0478738   -6.7249408    226.74262  0.032918498  0.033586068            3 
  575000    1.0314712   -6.7389171    226.72979   0.03285939  0.033567692            3 
  576000    1.0340357   -6.7297605    226.54834  0.032776091  0.033549059            5 
  577000    1.0190578   -6.7332523    227.46867  0.032852206  0.033530903            3 
  578000    1.0445139   -6.7405152    227.32657   0.03277488  0.033512854            5 
  579000    1.0071671   -6.7198258    227.38018   0.03272599  0.033494546            3 
  580000    1.0151859   -6.7083331    228.43122  0.032820577  0.033476337            2 
  581000    1.0165903   -6.7286553    227.78534  0.032671449  0.033457754            6 
  582000    1.0186395   -6.7188805     228.3918  0.032702148  0.033438741            3 
  583000    1.0164538   -6.7459759    228.86981  0.032714381  0.033420115            3 
  584000    1.0195795   -6.7245124    228.18026  0.032559969  0.033401426            5 
  585000    1.0169986   -6.7127507    229.72919  0.032724956  0.033382739            3 
  586000      1.02336   -6.7183975    228.96475  0.032560402  0.033363701            3 
  587000    1.0134371   -6.7435304    229.83456  0.032628416  0.033344973            6 
  588000    1.0178007   -6.7288296    230.29532  0.032638225  0.033326373            2 
  589000    1.0317811   -6.7648305    230.59012  0.032624521  0.033307735            7 
  590000    1.0283825   -6.7505427    230.61041  0.032572091  0.033289401            3 
  591000   0.99934411   -6.7565902    230.41305  0.032489149  0.033270691            2 
  592000    1.0271449   -6.6832959    232.09173  0.032670571  0.033251965            4 
  593000    1.0031162   -6.7742072    231.49035  0.032530965  0.033233807            3 
  594000    1.0137608   -6.7240756    232.31821  0.032592341  0.033215646            5 
  595000    1.0183527   -6.7408471    232.37978  0.032546187  0.033197402            3 
  596000    1.0325091   -6.7628736    232.84475  0.032556592  0.033179537            3 
  597000     1.023355   -6.7313128    233.40578  0.032580371  0.033161768            4 
  598000    1.0183175   -6.7720898    233.04921    0.0324762  0.033143889            4 
  599000    1.0095075   -6.7318752    233.61563  0.032500783  0.033126117            2 
  600000    1.0109916   -6.7140678    234.54023  0.032575032   0.03310913            3 
  601000    1.0089969   -6.7384014    234.19056  0.032472347  0.033091747            3 
  602000    1.0040544   -6.7620541    234.41189  0.032449043  0.033074405            3 
  603000    1.0199036   -6.7588442    234.79236  0.032447812  0.033056995            2 
  604000    1.0072825   -6.7444811    235.54865  0.032498434  0.033039922            7 
  605000    1.0193895   -6.7594729     235.2063  0.032397562  0.033022485            4 
  606000    1.0000406   -6.7446363    235.90343  0.032439965   0.03300535            3 
  607000    1.0153363   -6.7551626    236.38841  0.032453104  0.032988412            3 
  608000    1.0131505   -6.7922189    235.80053  0.032319151  0.032971115            2 
  609000   0.98940193   -6.7548498    236.64562  0.032381721  0.032953652            8 
  610000    1.0221381   -6.7186332    237.45771  0.032439578  0.032936877            1 
  611000    1.0253866    -6.748923    236.55084  0.032262798  0.032920069            4 
  612000    1.0096671   -6.7637681    237.00224  0.032271547  0.032902958            5 
  613000    1.0149654   -6.7752264    236.89248   0.03220398  0.032885335            2 
  614000   0.99304912   -6.7580262     237.9955  0.032301236  0.032867649            5 
  615000   0.99536455   -6.7644925    238.19527  0.032275782  0.032850021            3 
  616000    1.0010968   -6.7638544     238.9214  0.032321618   0.03283252            6 
  617000    1.0021933   -6.7423637    238.49064  0.032211054  0.032815174            2 
  618000    1.0025177   -6.7451729    238.51492  0.032162207  0.032797722            5 
  619000    1.0077521   -6.7826554    239.34593  0.032222123  0.032780393            3 
  620000   0.99894785   -6.7519108    239.48985  0.032189496  0.032763064            3 
  621000    1.0325714   -6.8182726    239.56733  0.032148058  0.032745603            2 
  622000     0.998305   -6.7485033    241.07673  0.032298598  0.032728381            2 
  623000    1.0108689    -6.776641    240.51336  0.032171396  0.032711435            7 
  624000    1.0176682   -6.7426247    240.64745  0.032137747   0.03269435            5 
  625000    1.0085674   -6.7351181    241.06295  0.032141727  0.032677136            3 
  626000    1.0177395   -6.7500377    241.40934  0.032136494  0.032659889            2 
  627000    1.0035787   -6.7828238    241.19172  0.032056316  0.032642047            4 
  628000    1.0005196   -6.7749303    241.21258  0.032008038  0.032624027            3 
  629000   0.99534173   -6.7895337    241.37639  0.031978854   0.03260606            3 
  630000    1.0012419   -6.7917443    241.39651  0.031930755  0.032588451            3 
  631000    1.0357502   -6.7651654    242.79853   0.03206531  0.032571162            3 
  632000    1.0090301   -6.7814367    242.89918  0.032027846   0.03255376            4 
  633000    1.0078431   -6.7899785    242.30108   0.03189851  0.032536386            5 
  634000    1.0249541   -6.7465936    243.81251   0.03204686  0.032518955            5 
  635000   0.99836831   -6.7623278    242.74941  0.031856878  0.032501409            6 
  636000    1.0139776   -6.7650026    243.28859  0.031877436  0.032484052            3 
  637000   0.98840213   -6.7530273    244.28956  0.031958341    0.0324665            5 
  638000   0.99802612   -6.7915944    244.62927  0.031952622  0.032449192            4 
  639000    0.9990781   -6.7714021    245.13699  0.031968831  0.032432283            4 
  640000   0.98756797   -6.7680874    244.44368  0.031828605  0.032414637            4 
  641000    1.0047375   -6.8076999    243.85752  0.031702746  0.032396349            4 
  642000     1.004146   -6.7779106    244.63742  0.031754598  0.032378327            2 
  643000    1.0021473   -6.7780386    244.86692  0.031734955   0.03236059            3 
  644000   0.96256582   -6.7521616    245.85584  0.031813644  0.032342803            3 
  645000   0.99075345    -6.792378    245.79781  0.031756823  0.032325616            6 
  646000   0.98792799   -6.7791232     246.3986  0.031785165  0.032308287            4 
  647000    1.0164347   -6.8181668    246.53066  0.031753047  0.032290531            2 
  648000   0.98826642   -6.8131412    246.68499  0.031723892  0.032272707            6 
  649000    1.0155906   -6.8239798     246.2413  0.031618041  0.032254535            6 
  650000    1.0047728   -6.7915569    246.63078  0.031619331  0.032236687            2 
  651000   0.98281367      -6.7628    246.69885  0.031579474  0.032218163            5 
  652000     1.011008   -6.8052951    246.37294  0.031489383   0.03219961            3 
  653000   0.99818119   -6.8152346    247.14348  0.031539495  0.032180672            5 
  654000   0.99629848   -6.8001636    247.45638  0.031531139  0.032162554            6 
  655000    1.0021815   -6.7617942    248.55317  0.031622541  0.032144434            4 
  656000   0.98092666   -6.7860946    248.08898  0.031515369  0.032126272            3 
  657000   0.99553796   -6.7970629    248.76926  0.031553686  0.032108373            4 
  658000   0.99657265   -6.8428117    248.50132  0.031471798  0.032090373            3 
  659000   0.99437556   -6.8171948    248.72906  0.031452841  0.032072065            2 
  660000    0.9946242   -6.8252346    248.60628  0.031389682  0.032053593            4 
  661000      1.00745   -6.7863076    248.82184   0.03136937  0.032035154            5 
  662000   0.99080749   -6.8061156     249.4274  0.031398213  0.032016917            7 
  663000   0.99932065   -6.7915829    249.62878  0.031376166  0.031998632            3 
  664000   0.98863518   -6.7950846    249.81522  0.031352312  0.031980212            5 
  665000   0.98920122   -6.8466398     250.1346  0.031345188    0.0319616            3 
  666000     1.015996   -6.8538392    250.10098  0.031293917  0.031943309            5 
  667000   0.97798839   -6.8101618    251.14852  0.031377877  0.031924941            3 
  668000   0.96900857   -6.7949673     250.8281  0.031290931  0.031906834            3 
  669000   0.99917432   -6.7946616    251.19308  0.031289621  0.031889105            2 
  670000   0.98290905   -6.7739889    251.89466  0.031330182  0.031871119            3 
  671000   0.99385767    -6.828956     251.8755  0.031281111  0.031853082            5 
  672000   0.99445213   -6.7793723    252.53383  0.031316199  0.031835189            4 
  673000   0.98004428   -6.7892907    252.66457  0.031285856   0.03181735            5 
  674000   0.99919343   -6.8058152    252.28227   0.03119217  0.031799235            6 
  675000   0.99094108   -6.7895715    253.06776  0.031242933   0.03178122            3 
  676000   0.98195201    -6.782419    253.72847  0.031278164  0.031763405            4 
  677000   0.97663724   -6.8044509    253.26176  0.031174515  0.031745576            3 
  678000    1.0083369   -6.8132908    253.06823  0.031104748   0.03172739            3 
  679000    1.0028242   -6.8236957    253.29609  0.031086904  0.031708829            4 
  680000   0.97949339   -6.8245012    253.07496  0.031014089  0.031690326            6 
  681000    1.0068519   -6.8445569    253.12814  0.030975054    0.0316715            4 
  682000   0.96391831   -6.8078425    254.71561  0.031123609  0.031652882            4 
  683000   0.98845137   -6.8112154    254.03581  0.030995097  0.031634096            7 
  684000   0.97933394   -6.8087747    254.11109  0.030958954  0.031615335            4 
  685000   0.99917462   -6.8567078    253.46981  0.030835743  0.031596687            4 
  686000   0.97095023   -6.8410123    253.94724  0.030848791  0.031577936            3 
  687000   0.94653572   -6.7956781    254.92579  0.030922585  0.031559074            4 
  688000   0.98911693   -6.8033407    255.04042  0.030891523  0.031540437            5 
  689000   0.97352086   -6.8712839    255.23698  0.030870462  0.031521479            4 
  690000   0.96787766   -6.8303594    255.73162  0.030885461  0.031502756            4 
  691000   0.97738356   -6.8555866    255.41064  0.030802054  0.031484116            3 
  692000   0.97979937   -6.8276921    256.35365  0.030871104  0.031465336            4 
  693000    0.9774905   -6.8281373    256.49546   0.03084361  0.031446632            6 
  694000   0.97145075   -6.8188538    256.22413  0.030766586  0.031427866            3 
  695000   0.99653905   -6.8696349     256.4839  0.030753465  0.031408942            3 
  696000   0.97539728   -6.8417885    256.92584  0.030762193  0.031389864            3 
  697000    0.9806187   -6.8586887    255.77496  0.030580459  0.031370807            4 
  698000    0.9614202   -6.7906514    256.74709  0.030652709  0.031351593            5 
  699000   0.97804249   -6.8090696    257.56743  0.030706656  0.031332529            4 
  700000    0.9964263   -6.8216709    256.93256   0.03058721  0.031313296            4 
  701000    0.9668674   -6.7741265    257.59806  0.030622689  0.031294112            6 
  702000    0.9808049   -6.8188999    258.48309  0.030684127  0.031274873            5 
  703000    0.9839939   -6.7998554    258.14733  0.030600679  0.031255711            3 
  704000   0.98678466   -6.8321636    257.10928  0.030434337  0.031236323            5 
  705000   0.98636412   -6.8217466    258.80878  0.030592054  0.031217013            2 
  706000   0.97598972   -6.8626937    258.65208  0.030530227  0.031197667            2 
  707000   0.98330857   -6.8193753    258.36817  0.030453579  0.031178105            3 
  708000   0.96629365   -6.8547631     258.7324  0.030453437  0.031158708            3 
  709000   0.96844629   -6.8209328    258.71254  0.030408149  0.031138872            7 
  710000   0.98130055   -6.8357097    259.06778  0.030407016  0.031118745            4 
  711000   0.98056061   -6.8583836    259.26726   0.03038763   0.03109853            4 
  712000    0.9680126   -6.8471091     259.3907  0.030359398  0.031078548            2 
  713000   0.98159236   -6.8530222    259.76005  0.030359987   0.03105847            5 
  714000   0.97870772   -6.8862279    258.97211  0.030225503  0.031038239            8 
  715000   0.97539039   -6.8434782    259.45412  0.030239407  0.031017976            5 
  716000   0.96876975    -6.860907    260.08488  0.030270587   0.03099765            5 
  717000   0.95909792   -6.8656409    260.00288  0.030218837  0.030977631            7 
  718000   0.97595883   -6.8562532    260.35491  0.030217608  0.030957559            4 
  719000   0.94251982   -6.8540156    260.57878  0.030201528  0.030937804            8 
  720000   0.98189763   -6.8177214    261.24599  0.030236805  0.030918193            3 
  721000   0.94919577   -6.8658739    262.18765  0.030303704  0.030898813            5 
  722000   0.93617642   -6.8441691    262.10815  0.030252556  0.030879307            3 
  723000   0.95261556   -6.8621762    262.50007  0.030255887  0.030860001            3 
  724000   0.98740028    -6.870769    261.82322   0.03013619  0.030840747            2 
  725000   0.94995721   -6.8582026    261.85171  0.030097898  0.030821287            5 
  726000   0.95049417   -6.8820846    262.42829  0.030122623  0.030802256            3 
  727000   0.95204379   -6.8547848    262.65901  0.030107636   0.03078304            6 
  728000   0.96852327   -6.8578503     261.8502  0.029973695  0.030763685            6 
  729000   0.95546866   -6.8351129    263.60855  0.030133579  0.030744297            4 
  730000   0.94472752   -6.8513905    262.80694  0.030000792   0.03072475            4 
  731000   0.94624638   -6.8502955    263.19579   0.03000408  0.030705266            5 
  732000   0.96870739    -6.848802     263.3155  0.029976719  0.030685583            6 
  733000   0.97880885   -6.8101409    264.63807  0.030086184   0.03066597            9 
  734000    0.9539929   -6.8696339    263.86413  0.029957326  0.030646679            4 
  735000   0.95590996   -6.8745294    264.99549   0.03004484  0.030627531            2 
  736000   0.97258688    -6.847994    265.22908  0.030030466  0.030608282            4 
  737000   0.96839349   -6.8700566    264.72575  0.029932807  0.030589078            5 
  738000   0.94231886   -6.8375937    265.15637  0.029940873  0.030569583            5 
  739000   0.95207894   -6.8657711    265.54694    0.0299444  0.030550335            4 
  740000   0.95871149   -6.8452998    265.71337  0.029922676   0.03053128            3 
  741000   0.97500508   -6.8536746    265.88441  0.029901531  0.030512258            5 
  742000    0.9646556   -6.8747169    266.57425  0.029938707  0.030493202            2 
  743000   0.93417672   -6.8849159    266.00471  0.029834535  0.030473968            3 
  744000   0.93857339   -6.8846921    266.35478  0.029833645  0.030454988            6 
  745000   0.93963038    -6.850116     267.2398  0.029892595  0.030436147            2 
  746000   0.97034219   -6.8809815    266.70894  0.029793224  0.030417368            5 
  747000   0.96950878   -6.8643162    267.60407  0.029853198  0.030398345            5 
  748000   0.96509242   -6.8944197    267.32795  0.029782525  0.030379623            2 
  749000   0.96864799   -6.8820482    268.49354  0.029872446  0.030360853            4 
  750000   0.96429569    -6.853009    268.88457  0.029876063  0.030342004           15 
  751000   0.93161502   -6.8842549    268.09655   0.02974884  0.030323185            7 
  752000   0.95349957   -6.8979409    268.74101  0.029780697  0.030304459            4 
  753000   0.94872918    -6.845653    269.07602  0.029778223   0.03028589            3 
  754000   0.95874692   -6.8651521    269.85432  0.029824748  0.030267672            3 
  755000   0.96243869   -6.8874915    269.15913  0.029708513  0.030249499            5 
  756000    0.9583412   -6.8890803    270.80316  0.029850436  0.030231372            3 
  757000   0.95689392   -6.8500434    270.45441  0.029772612  0.030213466            4 
  758000   0.95891854   -6.8511358    270.81207  0.029772655   0.03019566            4 
  759000   0.96021721   -6.8964729    271.51574  0.029810687  0.030177753            4 
  760000   0.94079545   -6.8690426    271.32408  0.029750448   0.03016006            5 
  761000   0.95034087   -6.8948199     271.9761  0.029782753  0.030142418            5 
  762000   0.94649885   -6.8841467      272.139  0.029761483  0.030124757            7 
  763000   0.95017869    -6.867354    271.87826     0.029694  0.030107185            4 
  764000   0.94436682    -6.905211    271.30055  0.029592119  0.030089332            4 
  765000   0.92927975   -6.8733791    271.96121  0.029625404  0.030071352            4 
  766000   0.96451782    -6.894582    271.47799  0.029534159  0.030053312            4 
  767000   0.95199036   -6.8805436    272.38777    0.0295945  0.030035415            5 
  768000   0.95241638   -6.8492659    273.27305  0.029652024  0.030017735            5 
  769000   0.94168196    -6.908154    273.01525  0.029585527   0.02999974            4 
  770000   0.96331033   -6.8634801    273.21117  0.029568309  0.029981766            5 
  771000     0.934222   -6.8999108    272.79624   0.02948511  0.029963884            4 
  772000   0.94023224   -6.8728842    273.65714  0.029539847  0.029946152            5 
  773000   0.91418849   -6.8876141    274.52201   0.02959487  0.029928519            4 
  774000   0.94686032   -6.8980144    274.19497  0.029521422  0.029911085            2 
  775000   0.95170886   -6.8747738    274.87882  0.029556863   0.02989348            3 
  776000   0.95177441   -6.8632261    274.42847  0.029470411  0.029875895            4 
  777000   0.94061239   -6.9036028    274.45797  0.029435647  0.029858204            4 
  778000    0.9536895   -6.9128367    273.91241  0.029339376  0.029840233            4 
  779000   0.93258155   -6.9156203    275.25045  0.029444849  0.029822248            3 
  780000    0.9400454    -6.894415    274.88599  0.029368162  0.029804077            8 
  781000   0.93685548   -6.8863673    274.72453   0.02931333  0.029785769            5 
  782000   0.94980031   -6.8915864    274.95905  0.029300836  0.029767564            5 
  783000   0.93963622   -6.8639282    276.41254  0.029418108  0.029749676            3 
  784000   0.92358079   -6.8970876    275.82434  0.029318063  0.029731594            6 
  785000   0.92219891   -6.8866098    275.49164  0.029245397  0.029713594            2 
  786000   0.94287716   -6.8797539    275.86667   0.02924795   0.02969545            3 
  787000   0.93005756   -6.9002445    275.99111  0.029223963  0.029677426            5 
  788000   0.94921157   -6.8837246    275.82099  0.029168887  0.029659357            2 
  789000   0.92147296   -6.9078759    276.40718  0.029193829  0.029641237            4 
  790000   0.93264963   -6.8753602    276.84965  0.029203549  0.029623018            4 
  791000   0.91999905   -6.9173079    276.34449   0.02911341  0.029604802            6 
  792000   0.93574486   -6.8933194    276.92795  0.029138042  0.029586482            6 
  793000   0.94231284   -6.8854897    278.21418  0.029236462  0.029568461           14 
  794000   0.94003235   -6.9220623    276.64311  0.029034751  0.029550301           10 
  795000   0.94411493   -6.8939661    277.95633  0.029135883  0.029532385            4 
  796000   0.94810745   -6.9152996    277.89774  0.029093147  0.029514476            3 
  797000   0.93023887   -6.9107227    278.45168  0.029114563  0.029496613            7 
  798000   0.93598627   -6.9029368    278.20772  0.029052602  0.029478891            6 
  799000   0.94617869   -6.9154416    278.53692  0.029050576  0.029461308            3 
  800000   0.92872594   -6.9296621    279.61592  0.029126658  0.029443661           10 
  801000   0.92002536   -6.8924705    279.50299  0.029078547  0.029426126            2 
  802000   0.92900595   -6.8983895    279.63327  0.029055826  0.029408883            6 
  803000   0.93774239   -6.9112315    279.97601  0.029055211  0.029391688            6 
  804000   0.95308435   -6.9066682    280.11785  0.029033774  0.029374707            5 
  805000   0.93545035   -6.8893817    281.31523  0.029121659   0.02935765            3 
  806000   0.93514889   -6.8831164    281.80524  0.029136191  0.029340726            4 
  807000   0.93227039   -6.8596107    281.99261  0.029119435  0.029324112            6 
  808000    0.9367458   -6.9080194    281.49005  0.029031565  0.029307172            6 
  809000   0.92225198   -6.8960821    280.44475  0.028888005  0.029289933            8 
  810000   0.92544902   -6.9096367    281.14307  0.028924184    0.0292725            4 
  811000   0.91276565   -6.9140368    282.19596  0.028996707  0.029255281            7 
  812000   0.94508318   -6.9376774    281.65141  0.028905112  0.029238024            7 
  813000   0.92137568   -6.9330672    281.76841   0.02888155   0.02922064            6 
  814000   0.94537105    -6.925866    281.92843  0.028862452  0.029203107            8 
  815000   0.91887364   -6.9275349    281.79461  0.028813355  0.029185463            5 
  816000   0.92128116   -6.9014329    282.38016  0.028837843  0.029167958           12 
  817000   0.92102697   -6.9127531    283.27964  0.028894292  0.029150728            2 
  818000   0.95022638   -6.9461013    282.50385  0.028779936   0.02913378            5 
  819000   0.94131551   -6.9481093    283.15832  0.028811388  0.029116554            3 
  820000   0.92265477   -6.9767826    283.25135  0.028785706  0.029099243            6 
  821000   0.93711203   -6.9130859    282.54279  0.028678724  0.029081713            4 
  822000   0.91691454   -6.9269284    283.23086  0.028713591  0.029064432            7 
  823000   0.91771422   -6.9435914    283.34921  0.028690686  0.029047116            7 
  824000   0.90924204   -6.9516289    283.82697  0.028704184  0.029029501            6 
  825000   0.92803075   -6.9409259    283.89255  0.028676016  0.029012146            6 
  826000   0.92384462   -6.9625548     283.8352  0.028635512  0.028994754            9 
  827000   0.91869731   -6.9198752    284.63126  0.028681103  0.028977309            4 
  828000   0.93213012   -6.9414273    284.46816  0.028630049  0.028959945            3 
  829000   0.94113817   -6.9517901    285.06034  0.028655041    0.0289425            5 
  830000   0.93251457   -6.9653734    284.32336  0.028546522  0.028924819            3 
  831000   0.92050335   -6.9348886    284.43009  0.028522873  0.028907177            8 
  832000   0.90473916   -6.9198648    285.55148  0.028600909  0.028889745            4 
  833000   0.93189358   -6.9372393    285.09763  0.028521171  0.028872304            6 
  834000   0.93695047   -6.9131939     285.7774  0.028554896   0.02885503            6 
  835000   0.93191793   -6.9298141    284.79942  0.028423095  0.028837463            3 
  836000   0.90571601    -6.928773    286.09992  0.028518732  0.028820239            9 
  837000   0.92019278   -6.9360492    286.29886  0.028504467  0.028802995            7 
  838000   0.91290428   -6.9322813    286.47661  0.028488127  0.028785761            6 
  839000   0.92384742   -6.9275749    285.68141   0.02837519  0.028768492            4 
  840000   0.92894545   -6.9534013    286.75395  0.028447812  0.028750941            6 
  841000    0.9204925    -6.951243    286.90783  0.028429234  0.028733425            4 
  842000   0.92989102   -6.9233985    286.21888  0.028327285  0.028716076            5 
  843000   0.90859074   -6.9344531    287.65824  0.028435967  0.028698818            4 
  844000   0.90769767   -6.9473181    287.80744  0.028417006  0.028681649            5 
  845000   0.91567858   -6.9560753    287.29823  0.028333158  0.028664454            7 
  846000   0.90548356   -6.9450554    287.66743  0.028336036  0.028647177            4 
  847000   0.89606845   -6.9349454    288.76331    0.0284104  0.028630024            3 
  848000   0.92004095   -6.9500122    288.17774  0.028319353  0.028612773            5 
  849000   0.90297754   -6.9226299    288.34877  0.028302785  0.028595328            5 
  850000   0.90954626   -6.9349394    287.99537  0.028234841   0.02857798            4 
  851000   0.91260125   -6.9221156    287.99954   0.02820207  0.028560601           15 
  852000    0.8973836   -6.9560046    288.61097  0.028228772  0.028543049            4 
  853000   0.90608296   -6.9393926    289.08006  0.028241507  0.028525425            8 
  854000    0.9192658   -6.9387328    289.97983  0.028296236  0.028508021            5 
  855000    0.9103458   -6.9443694    289.36537  0.028203252  0.028490628            3 
  856000   0.89229449   -6.9590845    289.22108  0.028156258  0.028473303            5 
  857000   0.90418172   -6.9309504    288.96599  0.028098599  0.028455758            7 
  858000   0.91664852   -6.9669753    289.25388  0.028093811  0.028438222            2 
  859000   0.94176841   -6.9562653    289.62274  0.028096889  0.028420673            8 
  860000   0.89633351   -6.9416064    290.86222  0.028184324  0.028403189           10 
  861000   0.91343183   -6.9702827    290.07401  0.028075301  0.028385653            3 
  862000   0.90819002   -6.9560692    289.43864  0.027981307  0.028368096            4 
  863000   0.90254709   -6.9519632    290.40463  0.028042162  0.028350464            7 
  864000       0.9113   -6.9809871     290.1779  0.027987837  0.028332986            4 
  865000   0.92026274   -6.9757804    291.04499  0.028039017  0.028315473            6 
  866000   0.89052973   -6.9827694     291.1217   0.02801402  0.028298046            6 
  867000   0.89761535   -6.9628417    291.31369  0.028000162  0.028280634            9 
  868000   0.93621804   -6.9515026    290.95857  0.027933811  0.028263184            4 
  869000   0.91007921   -6.9547193    292.05574   0.02800688  0.028245787            5 
  870000   0.92394135   -6.9749787    291.83825  0.027953856  0.028228532            4 
  871000   0.91326373   -6.9691935    291.77383  0.027915598  0.028211097            4 
  872000   0.90294717   -6.9777399    292.96523  0.027997442  0.028193869            5 
  873000   0.91860424    -6.972683    292.95809   0.02796469  0.028176954            4 
  874000   0.88798036   -6.9659067    292.64476  0.027902818  0.028159863            5 
  875000   0.89929557   -6.9784013    292.81995  0.027887614  0.028142787            3 
  876000    0.9139665   -6.9698752    292.20536  0.027797314  0.028125625            3 
  877000   0.91162564   -6.9884487    291.92463  0.027738942   0.02810833            9 
  878000   0.87019349   -6.9645705    292.51166  0.027763066  0.028090843            4 
  879000   0.90282451   -6.9734733    292.56772  0.027736796  0.028073301            4 
  880000   0.90032536   -6.9758915    293.33446  0.027777884  0.028055711            6 
  881000   0.89615071   -6.9709332    293.30596  0.027743659  0.028038276            4 
  882000   0.90624156   -6.9969539    292.27197   0.02761451  0.028020594            8 
  883000    0.8996898   -6.9597282     294.4105  0.027785061  0.028003126            5 
  884000   0.89700691   -6.9670295      293.553  0.027672794  0.027985779            3 
  885000   0.89301234   -6.9866346    293.95146  0.027679045  0.027968463            4 
  886000   0.91438363    -6.998411    294.47417  0.027696969  0.027951256            6 
  887000   0.89036768   -6.9809388    293.96965  0.027618343  0.027934181            8 
  888000    0.8912414   -6.9721562    295.90838   0.02776918  0.027917238            4 
  889000   0.91510541   -6.9761047    295.47297  0.027697129  0.027900172            4 
  890000   0.89913736   -6.9284644    295.58425  0.027676428  0.027883029            4 
  891000   0.89767416   -6.9864629    295.50498  0.027637952  0.027866137            3 
  892000   0.89583236   -6.9649713     294.9593  0.027555989  0.027848856            3 
  893000   0.88374141   -6.9854506    295.44943  0.027570869    0.0278317            4 
  894000   0.89401535   -6.9886812    295.77626  0.027570494  0.027814438            9 
  895000   0.90348084   -6.9749484    295.60511  0.027523753  0.027797055            2 
  896000   0.88542174   -6.9753836    295.89487  0.027519984  0.027779745            4 
  897000   0.89261234   -6.9765628     295.8023  0.027480704  0.027762478            4 
  898000   0.89521295   -6.9736028    296.69741  0.027533167  0.027745348            2 
  899000   0.87847485   -7.0133569    296.62863  0.027496165  0.027728324            5 
  900000    0.8932222   -6.9803829    296.77625  0.027479282  0.027711052            2 
  901000   0.89082591    -6.995965    296.15019   0.02739088  0.027693737            3 
  902000   0.89255708   -6.9924982     296.7628   0.02741711   0.02767636            3 
  903000   0.90199973    -6.996547    297.25608   0.02743227  0.027658972           11 
  904000    0.8753073   -6.9980781    296.43502  0.027326237  0.027641575            3 
  905000   0.89075775   -7.0057976    296.98667  0.027346839  0.027624199            7 
  906000   0.88389756   -6.9907306     297.3584  0.027350846  0.027606829            3 
  907000    0.8932353   -6.9873219    297.81745  0.027362868  0.027589488            2 
  908000   0.85835305   -6.9531889    298.35235  0.027381823  0.027572277            2 
  909000   0.89909015   -7.0059345    297.79352  0.027300469  0.027555197            3 
  910000   0.89660816   -6.9955501    298.07712   0.02729644  0.027538165            7 
  911000   0.89107369    -6.986018    299.13135  0.027362912  0.027521017            5 
  912000   0.90039199   -6.9863677    299.17327  0.027336739  0.027503962            2 
  913000   0.86500977   -7.0012481    298.88519  0.027280503  0.027486854            4 
  914000   0.88841014   -7.0013921    299.42428  0.027299807  0.027469778            6 
  915000    0.8772964   -6.9937929    299.03329  0.027234361  0.027452644            5 
  916000   0.90467768   -6.9846536    299.35334  0.027233747   0.02743556            3 
  917000   0.87415857   -6.9737568     298.5325  0.027129453  0.027418426            3 
  918000   0.91429741   -6.9941371    298.95771  0.027138499  0.027401325           10 
  919000   0.90374004   -7.0191612     298.7535  0.027090451  0.027383976            5 
  920000   0.88771106    -7.019989    299.40396  0.027119924  0.027366745            3 
  921000   0.88251844   -7.0156848    299.86625  0.027132306  0.027349803            9 
  922000   0.86463027   -7.0325649    300.25437  0.027137958  0.027332802            8 
  923000   0.86562219   -6.9793871    300.81297   0.02715899  0.027315801            4 
  924000   0.87472863   -7.0197012    299.80005  0.027038244  0.027298917            3 
  925000    0.8872136   -7.0294056    299.96791  0.027024136  0.027281674            8 
  926000   0.86487095   -7.0081128    301.07337  0.027094436  0.027264636           12 
  927000   0.88468719   -7.0169773    299.92171  0.026961678  0.027247408            2 
  928000   0.86663284   -7.0343396    300.87327  0.027018074  0.027230162            4 
  929000   0.87552996   -7.0220578    301.53939  0.027048744  0.027213035            5 
  930000   0.88619602   -7.0297364    300.44308  0.026921423  0.027195826           11 
  931000   0.90682689   -7.0298023    301.72865  0.027007577  0.027178712            7 
  932000   0.87864184   -7.0165955    301.77008  0.026982303  0.027161598            7 
  933000   0.88784446   -7.0190022    301.14091  0.026897188  0.027144602            7 
  934000   0.88124265     -7.02946    301.07613  0.026862609  0.027127362            6 
  935000   0.86312946   -7.0361819    301.74353  0.026893363  0.027110111            6 
  936000   0.89731555   -7.0208841    301.11723   0.02680887  0.027092908            3 
  937000   0.87735823   -7.0203624    301.40176  0.026805564  0.027075579            3 
  938000   0.86701434   -7.0119011    301.28908  0.026766976  0.027058334            4 
  939000   0.87574382   -7.0087336    302.27819  0.026826251  0.027041071            6 
  940000   0.89397512    -7.028574    302.51732  0.026818911  0.027023667            6 
  941000   0.86659688   -7.0292159    302.15423  0.026758257  0.027006295            7 
  942000   0.86685729   -7.0165686    302.88266  0.026794291  0.026988973            7 
  943000   0.86521835   -7.0793193    301.68367  0.026659921  0.026971423            8 
  944000   0.87837366   -6.9934553    303.38016  0.026781441  0.026953947            7 
  945000   0.86095299   -7.0215208    302.76619  0.026698959  0.026936694            3 
  946000   0.86772576   -7.0469512    302.96848  0.026688556  0.026919269            5 
  947000   0.84455423   -7.0339818    303.13573   0.02667509   0.02690179            2 
  948000    0.8839843   -7.0372577    303.08259  0.026642281  0.026884496            9 
  949000   0.89694642    -7.045662    302.95551  0.026603048  0.026867137            3 
  950000   0.88473823    -7.013104    302.86304  0.026566933  0.026849751            4 
  951000   0.88468411   -7.0263336    303.38789  0.026584989  0.026832268            7 
  952000   0.86110936   -7.0420873    302.26016  0.026458347  0.026814497            6 
  953000   0.88373007   -7.0313729    302.12867  0.026419086   0.02679671            6 
  954000   0.88454537    -7.045921    302.92907  0.026461309  0.026778938            4 
  955000    0.8672917   -7.0470032    302.66435  0.026410502  0.026761138            2 
  956000   0.86444371   -7.0448503    302.32445  0.026353247  0.026743157            5 
  957000   0.86731341    -7.082823    302.68385  0.026357005  0.026724994            3 
  958000   0.85927815   -7.0410983    302.59796  0.026322022  0.026706882            2 
  959000   0.86109064   -7.0601218    302.64665  0.026298805   0.02668868            7 
  960000   0.88738882   -7.0367141    302.84637  0.026288748  0.026670686            3 
  961000   0.88388114   -7.0081151    303.43016  0.026312015  0.026652673            6 
  962000   0.87686512   -7.0771581    303.81791  0.026318252  0.026634655            5 
  963000   0.86887908   -7.0215834     304.1911  0.026323218   0.02661676            3 
  964000   0.85637071   -7.0842495    303.67118  0.026250967  0.026598717           11 
  965000   0.87072014   -7.0876206     304.4319  0.026289456   0.02658056            5 
  966000   0.87759549   -7.0781591     303.8166  0.026209162  0.026562534            5 
  967000   0.86684411    -7.029286    304.35427  0.026228393  0.026544444            7 
  968000   0.85936234   -7.0166544    305.17934  0.026272326  0.026526425            5 
  969000   0.88947095    -7.068107    303.82047  0.026128351  0.026508332            7 
  970000   0.84741874   -7.0440418    304.44952  0.026155457  0.026490204            7 
  971000    0.8782619    -7.046652    304.79889  0.026158504  0.026472287            5 
  972000   0.86067233   -7.0563403    305.45899  0.026188185  0.026454471            3 
  973000    0.8445986   -7.0820684     304.6301  0.026090279  0.026436478            7 
  974000   0.87626393   -7.0554074    304.37882  0.026041993  0.026418457           21 
  975000   0.86874484    -7.064403    304.79954  0.026051242  0.026400626            3 
  976000   0.87199395   -7.0463989    305.51696  0.026085806  0.026382753            5 
  977000   0.84422129   -7.0120012    305.83758  0.026086453     0.026365            3 
  978000   0.86413542   -7.0397586    305.74722  0.026052081  0.026347167            5 
  979000    0.8782169   -7.0356641    305.72873  0.026023896  0.026329314            4 
  980000    0.8670479    -7.072049    305.89392  0.026011388  0.026311402            2 
  981000   0.85164092   -7.0676698    305.49101  0.025950646  0.026293385            6 
  982000   0.87577974   -7.0932988    305.62691  0.025935753  0.026275469            5 
  983000   0.84911027   -7.0742194    306.00818   0.02594169  0.026257475           10 
  984000   0.85862554   -7.0551166    306.00526  0.025915079  0.026239688            6 
  985000   0.85193317   -7.0709778    306.33795  0.025916916  0.026221865            6 
  986000   0.84755183   -7.0359453    306.95672  0.025942928  0.026204002            3 
  987000   0.87311954   -7.0456568    306.97322  0.025918036  0.026186274            2 
  988000   0.87705893   -7.0506412    306.69527  0.025868359  0.026168553           13 
  989000   0.86947129   -7.0617288    307.14284  0.025879916  0.026150684            4 
  990000   0.86238151   -7.0635373    307.13173  0.025852839  0.026132928            5 
  991000   0.86991911   -7.0823536     307.0311   0.02581829  0.026115198            4 
  992000   0.85637013   -7.0715034     306.7267  0.025766692  0.026097346           12 
  993000   0.85517654   -7.0427901    307.51162  0.025806615  0.026079427            7 
  994000   0.84327319   -7.0586055    307.74356  0.025800097  0.026061489            3 
  995000   0.84806949   -7.0782109     307.4796   0.02575206  0.026043504            3 
  996000   0.83575331   -7.0665829    307.92626  0.025763576  0.026025655            9 
  997000   0.86003842   -7.0656782    306.91731  0.025653403  0.026007743            5 
  998000   0.84904233   -7.0549527    307.21846  0.025652844  0.025989827            3 
  999000   0.85392455    -7.099307    307.59344  0.025658445  0.025972045            2 
 1000000   0.86625134   -7.0770069    307.71172  0.025642643  0.025954143            3 
 1001000   0.84484495   -7.0493275    308.28146  0.025664457   0.02593626            5 
 1002000      0.84359   -7.0953413    307.96454  0.025612486  0.025918315            6 
 1003000    0.8512448   -7.0777675    307.94197  0.025585075  0.025900438            7 
 1004000   0.85189466   -7.0776816    308.35282  0.025593694  0.025882532            4 
 1005000   0.87335147    -7.062367    308.13423  0.025550102  0.025864636            2 
 1006000   0.85297934   -7.0858761    308.20356  0.025530447  0.025846654            5 
 1007000   0.85705309   -7.0750449    308.32438  0.025515093  0.025828729            3 
 1008000   0.83386662   -7.0762103    308.65807  0.025517367  0.025810848           11 
 1009000   0.85570285   -7.0860252    308.44149   0.02547419  0.025792807            6 
 1010000   0.85131577   -7.0713528    309.23092  0.025514102  0.025774793            3 
 1011000   0.84588299   -7.0957358    309.19438  0.025485854  0.025756967            8 
 1012000   0.85887943   -7.0923032    308.43009  0.025397734  0.025739297            5 
 1013000    0.8496757    -7.103627    309.46904  0.025458131  0.025721427            6 
 1014000   0.85676846   -7.0835268    309.13698  0.025405735  0.025703527            7 
 1015000   0.85945758   -7.1111612    309.08714  0.025376612  0.025685643            6 
 1016000   0.85308149    -7.110003    309.15135  0.025356902  0.025667778            7 
 1017000   0.83247177   -7.1154956    309.29993  0.025344144  0.025650071            5 
 1018000   0.84651136   -7.1059341     309.5867  0.025342722  0.025632233            5 
 1019000   0.84162631   -7.1001932    310.08747  0.025358806  0.025614469            8 
 1020000   0.83637487   -7.1129301    309.65636  0.025298723  0.025596705            5 
 1021000   0.85936906     -7.10113     310.1201  0.025311794   0.02557909            3 
 1022000   0.84641363   -7.1189132    309.95261   0.02527337  0.025561363            3 
 1023000   0.83467585    -7.082178    311.01744  0.025335406  0.025543612            7 
 1024000   0.84119006   -7.1114369    311.00972  0.025310036  0.025525879            6 
 1025000   0.83428302    -7.118652    309.67028  0.025176445  0.025508128            7 
 1026000   0.86141208   -7.0899482    311.05583  0.025264444  0.025490442            5 
 1027000   0.85561673   -7.0976196    310.77259   0.02521686  0.025472791            5 
 1028000   0.84542446   -7.1126777    310.91771  0.025204094  0.025455153            4 
 1029000    0.8495431   -7.0766456    311.65732  0.025239497  0.025437526            4 
 1030000   0.83620166   -7.1093113    311.28288  0.025184699  0.025419973            3 
 1031000   0.86768645   -7.0863685      311.122  0.025147268  0.025402398            2 
 1032000   0.84014922   -7.0864957    311.25347  0.025133517  0.025384882            8 
 1033000   0.86210217   -7.1251344    311.01958  0.025090318  0.025367283            5 
 1034000   0.81750771   -7.1120294    311.21496  0.025081799  0.025349576            6 
 1035000     0.833451   -7.0991668    311.68777  0.025095633  0.025332008            5 
 1036000   0.84591811   -7.1259578    311.67114  0.025070072  0.025314344            4 
 1037000   0.82238335   -7.1112445    311.23174  0.025010587  0.025296604            7 
 1038000   0.84004135   -7.0870409    311.64281  0.025019493  0.025278835            4 
 1039000   0.82798228   -7.1333413    311.42924  0.024978283  0.025261088            9 
 1040000   0.85025324   -7.1009465    311.97167   0.02499773  0.025243318           10 
 1041000   0.86061446    -7.070068    312.09898  0.024983908  0.025225642           11 
 1042000     0.843101   -7.1228477    311.27993  0.024894428  0.025207946            7 
 1043000   0.84514227   -7.0593867     312.6737  0.024981919  0.025190395            8 
 1044000   0.84699714    -7.120443    312.78264  0.024966686  0.025172924            4 
 1045000   0.84692863   -7.1210027    312.50745  0.024920849  0.025155382            7 
 1046000   0.84445061   -7.1195104    311.98731  0.024855586  0.025137818            9 
 1047000   0.83288259   -7.1008483    313.39745  0.024944082  0.025120184            3 
 1048000   0.79931542   -7.1124098    313.43807  0.024923511   0.02510265            5 
 1049000   0.83104639   -7.1142041    312.92118  0.024858689  0.025085113            4 
 1050000   0.84223643   -7.1218683    313.05204    0.0248454  0.025067627            6 
 1051000   0.83746266   -7.0988136    313.72443  0.024875074  0.025050165            5 
 1052000   0.82535056   -7.1501986    313.63912  0.024844671  0.025032752            9 
 1053000   0.84458606   -7.0958608    313.58832  0.024817056  0.025015263            4 
 1054000   0.82183437   -7.1379148    313.43612  0.024781477  0.024997771            3 
 1055000   0.83872891   -7.1244168    313.59219  0.024770315  0.024980152            5 
 1056000   0.83699544   -7.1404607    313.48637  0.024738508  0.024962593            8 
 1057000    0.8235349   -7.1301195    312.33043  0.024623969  0.024945008            4 
 1058000   0.82991749   -7.1428962    312.77584  0.024635778  0.024927289            4 
 1059000   0.84102394   -7.1410704    313.51926  0.024671015  0.024909619           11 
 1060000   0.81904028   -7.1556507    313.47561  0.024644309  0.024891961            7 
 1061000   0.84737198   -7.1328106    313.91175  0.024655337   0.02487435            9 
 1062000   0.84867284    -7.152538    313.87117  0.024628937  0.024856759            6 
 1063000   0.84049843   -7.1653322    314.02059  0.024617481  0.024839268            4 
 1064000   0.82584223   -7.1317768    314.80832   0.02465604  0.024821727            4 
 1065000   0.82191491   -7.1857458    313.47109  0.024528254  0.024804013            6 
 1066000   0.82796065   -7.1346233    314.31927   0.02457155   0.02478635            4 
 1067000   0.81103519    -7.146425    314.25398  0.024543422   0.02476884            5 
 1068000   0.83255132   -7.1301958    314.31141  0.024524923  0.024751244            7 
 1069000   0.82116713   -7.1356603    315.27496  0.024577094  0.024733784            6 
 1070000    0.8230466   -7.1578525    314.31778  0.024479578  0.024716257            5 
 1071000   0.84180514    -7.104123    315.05194  0.024513845  0.024698835            6 
 1072000   0.83841699   -7.1326508    315.28756  0.024509294  0.024681409            3 
 1073000   0.85103964   -7.1435801    315.01559   0.02446533  0.024664017            6 
 1074000   0.82875435   -7.1443921    315.14478  0.024452575  0.024646494            5 
 1075000   0.82820185   -7.1272746    315.10379  0.024426651  0.024629147            7 
 1076000   0.83503198   -7.1208567    315.16541  0.024408721  0.024611722            8 
 1077000   0.81636565   -7.1120151    314.44829   0.02433057  0.024594206            3 
 1078000   0.81568947   -7.0766616     315.8209  0.024414108  0.024576705            5 
 1079000   0.81059812   -7.1368559    315.61586  0.024375646  0.024559285            8 
 1080000   0.82575556    -7.116439    315.58817  0.024350939  0.024541761            4 
 1081000   0.84135379   -7.1480539    315.51808   0.02432301  0.024524226            7 
 1082000   0.82407549   -7.1553553    315.68767  0.024313591  0.024506737            9 
 1083000   0.81310524   -7.1748332    315.68264  0.024290754  0.024489334            5 
 1084000   0.83964851    -7.135394     316.2322  0.024310594  0.024471967            5 
 1085000    0.8248934   -7.1361318    315.71335  0.024248337  0.024454655            5 
 1086000   0.80496144   -7.1718501    316.08546  0.024254563   0.02443727            4 
 1087000   0.82365339   -7.1272023    316.38818  0.024255457  0.024419949           13 
 1088000    0.8250803   -7.1916452    316.33046  0.024228742  0.024402615            7 
 1089000   0.80867425   -7.1211247    316.64052   0.02423022  0.024385312            5 
 1090000   0.82363059   -7.1428698    317.20751  0.024251339  0.024368006            4 
 1091000   0.82184086   -7.1432627    315.85934  0.024126134  0.024350705            8 
 1092000   0.81416759   -7.1610633    316.11385  0.024123462  0.024333327            8 
 1093000   0.81300029    -7.119835    316.82271  0.024155437  0.024315953            6 
 1094000   0.83484775   -7.1522944    316.34267  0.024096791  0.024298706           10 
 1095000   0.81593251   -7.1296163    316.43903  0.024082118  0.024281442            7 
 1096000   0.81510198   -7.1251801    316.55749  0.024069152  0.024264184            4 
 1097000    0.8218476   -7.1534159    316.80962  0.024066364   0.02424689            6 
 1098000   0.81514333   -7.1447057    317.30188  0.024081806  0.024229713            7 
 1099000   0.81244208   -7.1656874    317.62121  0.024084108  0.024212564            7 
 1100000    0.8176786   -7.1539533    317.53122  0.024055396  0.024195343            9 
 1101000   0.80286444   -7.1630193    317.82145  0.024055514  0.024178361            4 
 1102000   0.82132409   -7.1608026    317.69235  0.024023922   0.02416128           12 
 1103000   0.83372733   -7.1734463    318.56495  0.024068068   0.02414424            5 
 1104000   0.82758724   -7.1803359    317.83042  0.023990822  0.024127118           14 
 1105000   0.80342892   -7.1585643    317.79017  0.023966076   0.02410991           16 
 1106000   0.80865696   -7.1876453    317.87495  0.023950795  0.024092761           13 
 1107000   0.80085731   -7.1307907    319.01917  0.024015294  0.024075803            7 
 1108000   0.81684583   -7.1463503    318.79164  0.023976507  0.024058864            6 
 1109000   0.80407432   -7.1817091    317.72411   0.02387467  0.024041809            7 
 1110000   0.80838026   -7.1473125    319.07505  0.023954583  0.024024785            3 
 1111000   0.80241425   -7.1555905    318.37094  0.023880208  0.024007791            8 
 1112000   0.81871763   -7.1180757    318.96311  0.023903111   0.02399091            5 
 1113000    0.7916266   -7.1577516    319.36715  0.023911886  0.023973987            4 
 1114000   0.80132039   -7.1861713    319.52561  0.023902275   0.02395712            6 
 1115000   0.82364366    -7.166881     318.7349  0.023821741  0.023940134            9 
 1116000   0.81521257   -7.1955218    318.89761  0.023812546  0.023923173           11 
 1117000   0.82927648   -7.1958254     319.4414  0.023831796   0.02390612            8 
 1118000   0.79603237   -7.1733966    318.97341  0.023775597  0.023889115            6 
 1119000    0.8173535   -7.1884998    318.94397  0.023752157  0.023872198            4 
 1120000   0.80052585   -7.1660774    319.19303  0.023749481  0.023855322            8 
 1121000   0.79631767   -7.1714522    320.27034  0.023808381  0.023838378            8 
 1122000   0.79480349    -7.178263    318.90263  0.023685578  0.023821396            7 
 1123000   0.81108839   -7.1651232    319.94256  0.023741656  0.023804497            9 
 1124000   0.81020793   -7.1840465     319.6481  0.023698702   0.02378763           10 
 1125000   0.79008679   -7.1731101    319.78912  0.023688083  0.023770717            6 
 1126000   0.80785277   -7.1924625    319.83719  0.023670603  0.023753869            7 
 1127000      0.81816   -7.1533433    320.13208  0.023671405  0.023737083            5 
 1128000   0.81035946   -7.1917548    319.52258  0.023605392   0.02372016            4 
 1129000   0.81220392   -7.2079582    319.73266   0.02359999  0.023703207            6 
 1130000   0.79076886   -7.1745976    320.46545  0.023633145  0.023686201            9 
 1131000    0.8052874    -7.187753    319.83303  0.023565652  0.023669253            8 
 1132000   0.81704092    -7.196569    320.58442  0.023600149  0.023652342            6 
 1133000   0.81214963   -7.2113817    319.87264  0.023526967  0.023635439            6 
 1134000   0.79282314   -7.2037514    320.48779  0.023551425  0.023618432            5 
 1135000   0.78909771   -7.2068943    320.66929  0.023544001  0.023601599            9 
 1136000   0.79161248   -7.2148561    320.24459  0.023492121   0.02358478            6 
 1137000   0.79931001    -7.195948    320.83243  0.023514543  0.023567832            3 
 1138000   0.79991413   -7.1695595    320.19836  0.023447449  0.023550875            8 
 1139000   0.80852894   -7.2194395    319.84217  0.023400803  0.023533883            4 
 1140000   0.78651768   -7.1857022    321.05991  0.023469292  0.023516958            6 
 1141000   0.80510476    -7.195773    321.32484  0.023468072  0.023500177           11 
 1142000    0.8026001   -7.1995101    321.82635  0.023484118  0.023483393            7 
 1143000   0.78714352   -7.2094799    320.97893  0.023401788  0.023466608            6 
 1144000   0.80673567   -7.2103851    320.94934  0.023379177  0.023449762            6 
 1145000    0.8087954   -7.1869516    321.29817  0.023384146  0.023432958           21 
 1146000   0.78963542   -7.2219695    321.42744  0.023373141  0.023416146           10 
 1147000   0.79753307    -7.187025    320.91311  0.023315396  0.023399345            7 
 1148000   0.79133342   -7.2050021    320.85362  0.023290768  0.023382524            2 
 1149000   0.79463926   -7.1964029    321.79697  0.023338916  0.023365731            4 
 1150000   0.79205974   -7.2112066    321.04233  0.023263937  0.023348959           18 
 1151000   0.79960331   -7.1784889    321.90778  0.023306384  0.023332233            3 
 1152000   0.80323403   -7.2161698    321.63837  0.023266665  0.023315408           10 
 1153000   0.79219196   -7.1752026    322.10481  0.023280197  0.023298695            4 
 1154000   0.78079874   -7.1714792    322.13158  0.023261957   0.02328209            9 
 1155000   0.78620616    -7.183877    321.61681  0.023204676  0.023265501            4 
 1156000   0.78229015   -7.1687697    321.76508  0.023195292  0.023248906            7 
 1157000   0.78366549   -7.1888811    321.49539  0.023155819  0.023232167            5 
 1158000   0.79030979    -7.186355    321.89882  0.023164855   0.02321545           12 
 1159000   0.78238555   -7.2327826    321.41511  0.023110089  0.023198687            7 
 1160000   0.77161922   -7.2342433    322.20421  0.023146854  0.023181912            8 
 1161000   0.77952445   -7.2083456    321.77275  0.023095948   0.02316519           10 
 1162000   0.78696183    -7.244843    321.84148  0.023081001  0.023148368            7 
 1163000   0.79979322   -7.2030018    322.07195  0.023077669  0.023131599           10 
 1164000   0.78583996    -7.206422    321.94603  0.023048828  0.023114871            9 
 1165000   0.79650693   -7.2239145    321.83557  0.023021142   0.02309816            9 
 1166000    0.7817879   -7.1968087    322.37302   0.02303981  0.023081553            6 
 1167000   0.78867845   -7.2301591    322.83412  0.023052993  0.023064936            8 
 1168000    0.7844693   -7.2358663    322.69133  0.023023069  0.023048325            7 
 1169000    0.7664819   -7.2376369    323.14138  0.023035456  0.023031746           13 
 1170000   0.79311478   -7.2607027    322.25617  0.022952719   0.02301523            5 
 1171000   0.78448813   -7.2188911    323.07598  0.022991459  0.022998674            8 
 1172000   0.77541329   -7.2276306    323.06656  0.022971172  0.022982081            6 
 1173000   0.78650325   -7.2616045     322.5708  0.022916368  0.022965466            9 
 1174000   0.76918632   -7.2185877     322.6703  0.022903911   0.02294879            7 
 1175000   0.78783181   -7.2411047    322.42201  0.022866809  0.022932125            4 
 1176000    0.7902803   -7.2695858     322.9507  0.022884828   0.02291552            7 
 1177000   0.78324819   -7.2213598     322.7936  0.022854262  0.022899025           11 
 1178000   0.78750837   -7.2112334    322.94986  0.022845916  0.022882451           12 
 1179000   0.80445469    -7.247778    322.72651  0.022810752  0.022865894            7 
 1180000    0.7797686   -7.2263171    323.60106  0.022853182  0.022849358            8 
 1181000   0.77655136   -7.2414677     323.4662  0.022824315  0.022832847            6 
 1182000   0.78529396   -7.2426021    323.64494  0.022817607  0.022816443            7 
 1183000   0.78042905   -7.2099573    324.35211  0.022848134  0.022800003            4 
 1184000    0.7955454   -7.2349292    324.55387  0.022843037  0.022783618            8 
 1185000   0.78894519   -7.2614066    324.00436  0.022785117  0.022767144            8 
 1186000   0.78047809   -7.2513404     323.7519  0.022748166  0.022750611            7 
 1187000   0.78700844   -7.2242278    324.08078  0.022752091  0.022734109            2 
 1188000   0.79174412   -7.2168362    323.77214  0.022711289  0.022717656            7 
 1189000   0.78469283   -7.2319285    324.57973  0.022748789  0.022701312            3 
 1190000   0.76796065   -7.2400696    324.89455  0.022751719   0.02268492            6 
 1191000   0.77703335    -7.240655    323.23653  0.022616605  0.022668531           10 
 1192000     0.775341   -7.2112207    324.45057  0.022682506  0.022652043            4 
 1193000   0.75932667   -7.2146225     324.9054  0.022695264  0.022635584            5 
 1194000   0.77609879   -7.2411886    324.76919   0.02266675  0.022619203            7 
 1195000   0.76797795   -7.2452988    323.98637  0.022593192  0.022602798            5 
 1196000   0.77511491   -7.2231988    324.78856  0.022630195  0.022586406            4 
 1197000    0.7770008   -7.2401425    325.45497  0.022657683  0.022569936            7 
 1198000   0.76449346   -7.2489541    324.84034  0.022596017  0.022553448           10 
 1199000   0.77667303    -7.248731    324.38689  0.022545655   0.02253697            8 
 1200000   0.76130887   -7.2045695    325.13947   0.02257913  0.022520536            8 
 1201000   0.76016445   -7.2783472    324.01998  0.022482652  0.022504161            8 
 1202000   0.76287399   -7.2460953    324.35779  0.022487368  0.022487716           11 
 1203000   0.77140184    -7.259357    324.34414  0.022467729  0.022471311           18 
 1204000   0.77745693   -7.2496641    324.89015   0.02248686  0.022454867            5 
 1205000   0.77936634   -7.2377229      324.817  0.022463139  0.022438415           15 
 1206000   0.76725123   -7.2566345    324.27823  0.022407285  0.022422077            3 
 1207000   0.75313148   -7.2897617    324.87813  0.022430139  0.022405682            8 
 1208000   0.77671154   -7.2288818    324.88611  0.022412121  0.022389256            7 
 1209000   0.77694273   -7.2446427    324.50507   0.02236732   0.02237281            4 
 1210000   0.78563732   -7.2242841    324.88708  0.022375143  0.022356536            7 
 1211000   0.76207941   -7.2383493    325.30868  0.022385678  0.022340108            5 
 1212000   0.75056413   -7.2439609    324.34887  0.022301215  0.022323768            5 
 1213000   0.77163275   -7.2696869    324.77782  0.022312299  0.022307389            5 
 1214000   0.75914374   -7.2640923    324.61788  0.022282941  0.022290929            6 
 1215000   0.76239988   -7.2658248    324.76646  0.022274792  0.022274471            9 
 1216000   0.76475256   -7.2581537    324.87905  0.022264189  0.022257948            5 
 1217000   0.76679109   -7.2634407    324.78916   0.02223974  0.022241403           13 
 1218000   0.76593552   -7.2693636    324.72715  0.022217238  0.022224846            9 
 1219000   0.76845348   -7.2995875    324.88151  0.022209564  0.022208247           10 
 1220000   0.77133763   -7.2946977    325.28819  0.022219139   0.02219165            6 
 1221000   0.75034111   -7.2755486    325.24619  0.022198074  0.022175062            6 
 1222000   0.76552021   -7.2663049    325.41336  0.022191309  0.022158546            8 
 1223000   0.76317401   -7.2758361    325.40658  0.022172703  0.022142023           10 
 1224000    0.7611443    -7.264411    324.72897  0.022108454  0.022125559            5 
 1225000    0.7828764   -7.2639158    324.16671  0.022052157  0.022109188            5 
 1226000   0.76569671   -7.2678652    325.69747  0.022138218  0.022092841            6 
 1227000   0.77986174   -7.2322532     325.9135  0.022134848  0.022076581           18 
 1228000   0.75312682   -7.2556454    325.62363  0.022097152  0.022060269            9 
 1229000    0.7652608   -7.2625703    325.68245  0.022083161  0.022043936           14 
 1230000   0.76418251   -7.2359492    325.53444  0.022055179  0.022027573           13 
 1231000   0.76808553   -7.2540019    325.76979  0.022053195  0.022011212            4 
 1232000   0.74761283   -7.2754175    325.09456  0.021989621  0.021994805            7 
 1233000   0.76865335   -7.2854753     325.2537  0.021982543  0.021978327            4 
 1234000   0.76786142   -7.2795665    325.01371  0.021948522  0.021961922            8 
 1235000   0.75843753   -7.2964026    325.63697  0.021972805  0.021945521           24 
 1236000   0.77460308   -7.2852731    326.30123  0.021999813  0.021929162            7 
 1237000   0.76251909   -7.2765924    326.33506  0.021984307  0.021912863           15 
 1238000     0.760182   -7.3200107    325.72059  0.021925188  0.021896497           10 
 1239000   0.74781561   -7.2774655    325.86745   0.02191737  0.021880071           11 
 1240000   0.77209593   -7.2953607    326.22049   0.02192342  0.021863689           16 
 1241000   0.75676277   -7.2792504    325.91919  0.021885522  0.021847381            5 
 1242000   0.74184705   -7.2949928    326.01369  0.021874241  0.021831116           13 
 1243000    0.7775515   -7.2946028    326.45777  0.021886415   0.02181491           16 
 1244000   0.75098186   -7.2970751    326.80141  0.021891841  0.021798736           22 
 1245000   0.75731779   -7.2922974    326.81858  0.021875407  0.021782566            8 
 1246000   0.74451774   -7.2988365    326.90558  0.021863669  0.021766453           12 
 1247000   0.75990002   -7.2837532    327.14593  0.021862198  0.021750285           14 
 1248000   0.74601975   -7.2657538    326.95767  0.021832109  0.021734195            5 
 1249000   0.75090757   -7.2882564    327.02355  0.021819025    0.0217182            7 
 1250000   0.76724458   -7.2652827    327.65232  0.021843488  0.021702244            9 
 1251000   0.75292494   -7.2715063    327.30056  0.021802595  0.021686287            7 
 1252000   0.76493541   -7.2903531    327.48253  0.021797293  0.021670282            9 
 1253000   0.74794597   -7.2932809    327.78415  0.021799957  0.021654309            6 
 1254000   0.75718614   -7.2931248     328.1959  0.021809935  0.021638376            9 
 1255000   0.74183594   -7.2939562    327.65523  0.021756656  0.021622512           20 
 1256000    0.7438202   -7.2844108    327.46271   0.02172656  0.021606712           16 
 1257000   0.76608498   -7.2908322    327.62529  0.021720053  0.021590855            8 
 1258000   0.74480992   -7.2805307    328.05922  0.021731533  0.021575064            9 
 1259000   0.74589842   -7.2762522      327.528   0.02167911  0.021559295            6 
 1260000   0.74197076   -7.2996987    327.86233  0.021684016  0.021543421            5 
 1261000   0.74556501   -7.2906496    327.22551  0.021624736  0.021527528            7 
 1262000   0.75705516   -7.3323288    328.42602  0.021686874  0.021511656            7 
 1263000   0.74039163   -7.3119498    327.67172  0.021619934  0.021495747           10 
 1264000   0.75585535   -7.3267375    327.75743  0.021608481  0.021479906            4 
 1265000   0.75626208   -7.3326068    327.83954  0.021596807     0.021464            8 
 1266000   0.74009496    -7.290093     327.4681  0.021555299  0.021448238            5 
 1267000   0.73101348    -7.332767    328.29636  0.021592763  0.021432355            6 
 1268000    0.7537198   -7.3005695     328.7519  0.021605672  0.021416514           10 
 1269000   0.76004329   -7.3099304    328.44925  0.021568772  0.021400751           16 
 1270000   0.74719209   -7.3016035    327.75304  0.021506105  0.021384902            9 
 1271000   0.74908438   -7.3134483    328.58114  0.021543479  0.021369105            6 
 1272000   0.77237217   -7.2955706    328.36118  0.021512131  0.021353328           16 
 1273000   0.75488901   -7.3098124    328.01808  0.021472773  0.021337531            7 
 1274000   0.71935492   -7.3090148    328.11568  0.021462302  0.021321662            8 
 1275000   0.73712839   -7.3125926    327.56056  0.021409187  0.021305815           14 
 1276000   0.74546282   -7.3117048    328.64868  0.021463471  0.021290045           10 
 1277000   0.76893002   -7.3100893    328.94392   0.02146593  0.021274326           10 
 1278000   0.75241154   -7.3063591    328.43374  0.021415867  0.021258584           13 
 1279000   0.75433909   -7.3181907     328.8449  0.021425912   0.02124281            7 
 1280000   0.73748551   -7.3186615    328.85707  0.021409965  0.021227014            9 
 1281000   0.74359439   -7.3284767    327.88444  0.021329979  0.021211224           11 
 1282000   0.75103403   -7.3318359     328.9321  0.021381442   0.02119538           31 
 1283000   0.73530484   -7.3073437    329.04127  0.021371868  0.021179577           17 
 1284000   0.74294647   -7.2864054    330.27611  0.021435366  0.021163919           14 
 1285000   0.74722497    -7.306437    329.13518  0.021344694  0.021148271           12 
 1286000   0.72477279   -7.2927384     328.3951  0.021280139  0.021132646           16 
 1287000    0.7269408   -7.2932726    329.17703  0.021314234  0.021117034           12 
 1288000   0.75118064    -7.319622    328.42027  0.021248723  0.021101441           12 
 1289000   0.73680245   -7.3387426    328.82784  0.021258588   0.02108586           15 
 1290000   0.74435768   -7.3169719    329.25275  0.021269557   0.02107022           17 
 1291000   0.71390666   -7.3076845    329.14311  0.021246005  0.021054589           13 
 1292000   0.74006407   -7.3016425    329.76318  0.021269555  0.021039058           10 
 1293000   0.73614299   -7.3322429    329.05459  0.021207437  0.021023502           12 
 1294000   0.74265217    -7.313773    330.73002  0.021298945   0.02100791            8 
 1295000   0.73757907   -7.3277988    329.66341  0.021213862  0.020992388            7 
 1296000   0.71448917   -7.3279908    330.06278  0.021223173  0.020976865            5 
 1297000   0.73415618   -7.3235641    329.26793   0.02115574  0.020961292            5 
 1298000   0.72638285   -7.3227528    329.58126  0.021159557  0.020945747            4 
 1299000   0.72798502   -7.3229646    329.67189  0.021149082  0.020930268            9 
 1300000   0.72376568   -7.3286628    329.61843  0.021129387   0.02091474            5 
 1301000   0.73230384   -7.3191674    329.50833  0.021106094  0.020899306            7 
 1302000   0.74281739   -7.3394718    329.35281  0.021079929  0.020883915           12 
 1303000    0.7338006    -7.357514    329.85842  0.021096087  0.020868433            6 
 1304000   0.74983586   -7.3311777    329.52608  0.021058671  0.020852965           10 
 1305000   0.73386957   -7.3379967    329.85205  0.021063349  0.020837561           10 
 1306000   0.74780646   -7.3298729    330.05312  0.021060051  0.020822183           11 
 1307000   0.72377908   -7.3618369    329.74168   0.02102408  0.020806807           15 
 1308000   0.73078392   -7.3331531    329.70859  0.021005899  0.020791416           10 
 1309000   0.73533584     -7.34208    330.59614  0.021046355  0.020776068           12 
 1310000   0.73947509   -7.3579836    330.31619   0.02101248  0.020760694           16 
 1311000   0.73997337   -7.3315092    329.83656  0.020965965  0.020745271            5 
 1312000   0.72352999   -7.3665029    330.49084  0.020991542  0.020729914            7 
 1313000   0.73561291   -7.3671501    330.15384  0.020954166  0.020714545            7 
 1314000   0.73791421   -7.3481652    330.15673  0.020938402  0.020699188            8 
 1315000   0.72304992   -7.3573907    330.04969  0.020915697  0.020683838           12 
 1316000   0.73760913   -7.3186248    330.97731  0.020958543  0.020668612            9 
 1317000    0.7190938   -7.3417381    330.64794  0.020921788  0.020653498            8 
 1318000   0.73085789   -7.3413737    331.29442  0.020946789  0.020638382            8 
 1319000   0.72107456   -7.3588545    330.97182  0.020910527  0.020623255            5 
 1320000   0.72490651   -7.3602682    330.82666  0.020885521  0.020608068            4 
 1321000    0.7182449   -7.3622379    330.72675  0.020863408  0.020592868            4 
 1322000   0.72660029   -7.3511557    330.34971   0.02082386  0.020577665            5 
 1323000   0.72649469    -7.362694    331.29632  0.020867745   0.02056249            6 
 1324000   0.72297203   -7.3635289    331.52966   0.02086667  0.020547343            8 
 1325000   0.72879046   -7.3641556     330.7659  0.020802887  0.020532154            5 
 1326000   0.72195338   -7.3747847    331.61399  0.020840497  0.020516995            6 
 1327000   0.73217128   -7.3357663    331.67977  0.020828923  0.020501812            7 
 1328000   0.70955276   -7.3431297     331.2975   0.02078925  0.020486676            5 
 1329000   0.70021498   -7.3465025    330.72513  0.020737718  0.020471502            5 
 1330000   0.73210532   -7.3559244    331.29473  0.020757815  0.020456393            8 
 1331000   0.71636583   -7.3783571    331.85908  0.020777553  0.020441374            7 
 1332000    0.7303071   -7.3621102     331.8861  0.020763645  0.020426349            6 
 1333000   0.72200889    -7.363151    331.12989  0.020700793  0.020411314           13 
 1334000   0.72041308   -7.3698156    330.99604  0.020676914  0.020396268            7 
 1335000   0.72071965   -7.3596519    332.33102  0.020744758  0.020381264            6 
 1336000   0.73455614   -7.3879003    331.08006  0.020651201  0.020366252           26 
 1337000   0.72039891   -7.3748558    331.46935  0.020660019  0.020351177           14 
 1338000   0.71819464   -7.3605142    331.16006  0.020625315  0.020336101           11 
 1339000   0.73513228   -7.4001195    330.90772  0.020594207  0.020321051            8 
 1340000   0.71858703   -7.3747802    331.57491   0.02062033  0.020305968            6 
 1341000   0.72279797   -7.3461122    331.23121  0.020583595  0.020290919            5 
 1342000   0.69908248   -7.3623428    331.23322  0.020568382  0.020275915            9 
 1343000    0.7146637   -7.3559047    331.47275  0.020567929  0.020260906            5 
 1344000   0.72188853   -7.3805241     331.8979  0.020578987  0.020245915            6 
 1345000   0.70745029   -7.3793869    331.48874  0.020538336  0.020230889            9 
 1346000   0.71997384   -7.3985819    331.35355  0.020514707  0.020215869           29 
 1347000    0.7077304   -7.3959187    332.22454  0.020553362  0.020200861           11 
 1348000   0.70179421   -7.3971414     331.6639  0.020503456  0.020185866            8 
 1349000   0.70172184   -7.3795818    332.30343  0.020527763  0.020170895            7 
 1350000    0.7081338   -7.4003845    331.76781  0.020479494  0.020155917            9 
 1351000    0.7167864    -7.384409    332.73359  0.020523907  0.020140981           12 
 1352000   0.70319314    -7.415242     332.1282  0.020471413  0.020126067           16 
 1353000   0.71563771     -7.38141    332.54965   0.02048224  0.020111168           18 
 1354000   0.71602226   -7.3809064    332.53836  0.020466418  0.020096405            6 
 1355000   0.71630145   -7.3935125    332.43278  0.020444821  0.020081629            8 
 1356000   0.70234731   -7.3493741    332.97798  0.020463248  0.020066799            7 
 1357000   0.70798969   -7.3619024    332.23084  0.020402287  0.020052028            9 
 1358000   0.70260513   -7.3865276     331.9849  0.020372171  0.020037153            4 
 1359000   0.70103318    -7.385276    332.14733  0.020367141  0.020022285            6 
 1360000   0.69979358   -7.3397195    331.92607  0.020338607  0.020007467           14 
 1361000   0.70231243   -7.3795938    332.01443  0.020329074  0.019992626           12 
 1362000   0.71409573   -7.3771822    332.25074  0.020328606   0.01997775            9 
 1363000    0.7060296   -7.3769329    332.42307  0.020324228   0.01996285            7 
 1364000   0.71127433   -7.3718112    332.57164  0.020318404   0.01994799           11 
 1365000   0.70419004   -7.3537338    332.21038  0.020281464  0.019933164            8 
 1366000    0.7072169   -7.3597299    332.85442  0.020305906  0.019918441           10 
 1367000   0.71649365    -7.377936    332.99868  0.020299846  0.019903742            9 
 1368000   0.71559776   -7.3946098    332.99204  0.020284603  0.019889033           15 
 1369000   0.71198679   -7.3682927    332.46248  0.020237551  0.019874318            9 
 1370000   0.71253943   -7.3623177    332.87446  0.020247838  0.019859588           10 
 1371000   0.70835515   -7.3780352    332.73394  0.020224528  0.019844812           10 
 1372000   0.71467456   -7.4176037    332.51132  0.020196266  0.019830026           13 
 1373000   0.71356957   -7.3687826     333.0773  0.020215908  0.019815267           10 
 1374000     0.704264     -7.41637    332.44048  0.020162571  0.019800513            8 
 1375000   0.69869497   -7.4003267    333.02546  0.020183361  0.019785781           12 
 1376000   0.71364527   -7.4041087    332.46355  0.020134663  0.019770969           22 
 1377000   0.70107437   -7.4042662    332.41988  0.020117398  0.019756269           21 
 1378000   0.70006743   -7.4056385    333.32615  0.020157604  0.019741563           11 
 1379000   0.69519655   -7.3953769    332.78626  0.020110361  0.019726842           26 
 1380000   0.68907342   -7.4136232     332.4415   0.02007497   0.01971209           13 
 1381000   0.70450868   -7.4068359     332.6863  0.020075205  0.019697343            8 
 1382000   0.69305484   -7.4142137    332.63357  0.020057499  0.019682582            9 
 1383000   0.70473037   -7.4360975    333.14858  0.020074029  0.019667796           21 
 1384000   0.70329166   -7.4114263    333.28271    0.0200676  0.019653094            5 
 1385000   0.69283742   -7.3855008    333.33297  0.020056135  0.019638479           10 
 1386000   0.72080908   -7.4102095    334.00266   0.02008193  0.019623871            5 
 1387000   0.68359697   -7.4073199    333.89308  0.020060868  0.019609298            6 
 1388000   0.70686646   -7.3980602    333.26697  0.020008824  0.019594729            7 
 1389000   0.69650069   -7.4315148    332.81071  0.019967045  0.019580095           11 
 1390000   0.69530265    -7.413354    334.07136  0.020028259  0.019565464            7 
 1391000   0.70153774   -7.4097536    333.06557  0.019953605   0.01955085           11 
 1392000   0.70804576   -7.4110056    333.23831  0.019949611  0.019536189           11 
 1393000   0.69629623   -7.4176396    332.89974  0.019915036  0.019521562           10 
 1394000   0.70289637   -7.4046203    332.96123  0.019904426   0.01950689           13 
 1395000   0.67712295   -7.4264876     332.4124  0.019857371  0.019492174            7 
 1396000   0.70154723   -7.4131706    333.07848  0.019882908  0.019477468            8 
 1397000   0.70276101   -7.4312206    332.92421  0.019859473  0.019462799           11 
 1398000   0.69827075   -7.4204199    333.39958  0.019873604   0.01944816            9 
 1399000   0.69815403   -7.4337384    332.43136  0.019801725  0.019433515            5 
 1400000   0.69490232   -7.4185164    333.96322  0.019878763  0.019418879           11 
 1401000   0.69273505   -7.4027582    332.90056  0.019801365  0.019404299            8 
 1402000   0.68310734    -7.398727    332.79513  0.019780975   0.01938976           20 
 1403000   0.69281906    -7.412582     332.7815  0.019766067  0.019375178            7 
 1404000   0.70003417   -7.4181599    333.04703  0.019767749  0.019360624           13 
 1405000   0.68884996   -7.4128345    333.54855  0.019783425   0.01934613           11 
 1406000   0.68071856    -7.426244    333.24267  0.019751225  0.019331614           18 
 1407000   0.69614145   -7.4206321    333.06999   0.01972696  0.019317153           13 
 1408000   0.70750923   -7.4197367    333.64295   0.01974686  0.019302697            8 
 1409000    0.6909705   -7.4350054    333.14709  0.019703518  0.019288223           10 
 1410000   0.69584475   -7.4179551    333.28887  0.019697924  0.019273755            9 
 1411000   0.69647503   -7.4224511    333.82556   0.01971566  0.019259282           19 
 1412000   0.68576101   -7.4486546    333.98766  0.019711264   0.01924485           11 
 1413000   0.69142227   -7.4158503    333.09804  0.019644848  0.019230404            6 
 1414000   0.68517704    -7.418905    334.08773  0.019689282  0.019216043           10 
 1415000    0.7030627   -7.4246744     334.0235  0.019671584  0.019201679           13 
 1416000   0.66479301   -7.4241821    333.39133  0.019620488  0.019187321           12 
 1417000   0.68811058   -7.4275354    333.72814  0.019626449  0.019172964           16 
 1418000   0.70139591   -7.4276538     333.1035  0.019575899  0.019158618            9 
 1419000   0.67691465   -7.4266295    333.82612  0.019604541  0.019144259           13 
 1420000   0.69554412   -7.4264965    333.06781  0.019546233  0.019129854           12 
 1421000   0.70849473   -7.4219981     333.5338  0.019559805  0.019115497            7 
 1422000   0.67940871    -7.445768    333.27364  0.019530804  0.019101144            9 
 1423000   0.67179789    -7.444481    334.33092  0.019578995  0.019086815            9 
 1424000   0.67863694   -7.4205367    334.35083  0.019566411  0.019072527           11 
 1425000   0.67265708   -7.4415171    333.90094  0.019526371  0.019058221            8 
 1426000    0.6776397    -7.391428    333.82474  0.019508225  0.019043932           12 
 1427000   0.68080357   -7.4479568    333.91676  0.019499928  0.019029712           14 
 1428000   0.67307488   -7.4337534    333.77998   0.01947829  0.019015447           24 
 1429000   0.67679539   -7.4468149    333.93335  0.019473603  0.019001112           13 
 1430000   0.67889918   -7.4552056    333.87936  0.019456839  0.018986795           14 
 1431000   0.68860083   -7.4588457     333.7278  0.019434416  0.018972481           11 
 1432000   0.69099056   -7.4617511    332.90459  0.019372939  0.018958131           10 
 1433000    0.6815546   -7.4468319       333.57  0.019398116   0.01894379           11 
 1434000   0.67327571   -7.4578688    333.58401  0.019385402  0.018929415           11 
 1435000   0.68624544   -7.4616685    333.27802  0.019354124  0.018915116           14 
 1436000   0.67714665    -7.456399    332.91696  0.019319694  0.018900768           34 
 1437000    0.6863591   -7.4751567    333.11694  0.019317846  0.018886422           23 
 1438000   0.67357562   -7.4574392    333.74903  0.019341043  0.018872105           11 
 1439000   0.67362871   -7.4335338     333.6824  0.019323743  0.018857764            6 
 1440000   0.66918359    -7.461652    334.37117  0.019350183  0.018843487           10 
 1441000   0.68257632   -7.4486756      334.434  0.019340389  0.018829259           11 
 1442000   0.68511501   -7.4430094    334.04051  0.019304236  0.018815045            7 
 1443000   0.67564826   -7.4458674    333.81421   0.01927779  0.018800841           11 
 1444000   0.68065987    -7.445356    334.02626  0.019276677   0.01878668            4 
 1445000   0.68288988   -7.4585388    333.82019  0.019251453  0.018772509           10 
 1446000   0.67004183   -7.4340106    334.08625  0.019253472  0.018758324            8 
 1447000   0.69228844   -7.4565258    334.44869  0.019261039  0.018744203           15 
 1448000   0.66113906    -7.453772    334.72112  0.019263416  0.018730078           11 
 1449000   0.67178935   -7.4686514    334.67961  0.019247734  0.018716006            9 
 1450000   0.67676536   -7.4615284    334.45532   0.01922157  0.018701944            6 
 1451000   0.67253978   -7.4719605     334.6185  0.019217695  0.018687887            8 
 1452000   0.66368849   -7.4619601    334.79186  0.019214409  0.018673874           11 
 1453000   0.67754549   -7.4448181    334.28955  0.019172376  0.018659796            7 
 1454000   0.66791839   -7.4454144    334.24037  0.019156372  0.018645743            6 
 1455000   0.68538081   -7.4493456    334.22182  0.019142143  0.018631687            8 
 1456000   0.68362986   -7.4706543    334.20703   0.01912815  0.018617594           10 
 1457000   0.66686024   -7.4703101     334.5159  0.019132687  0.018603519            9 
 1458000   0.66023816   -7.4743345    334.70655  0.019130461  0.018589425           10 
 1459000   0.66282856   -7.4465021    334.52745   0.01910712  0.018575391            5 
 1460000   0.65895021   -7.4758416    334.59854   0.01909809  0.018561397            8 
 1461000   0.69408832   -7.4931084    334.18156  0.019061234  0.018547361           11 
 1462000    0.6701973   -7.4385193    334.64626  0.019074684  0.018533373           22 
 1463000    0.6544083   -7.4691206     334.4363  0.019049687   0.01851934           12 
 1464000   0.66892291   -7.4735812    334.03513   0.01901384  0.018505278           11 
 1465000   0.66501129   -7.5036402    334.83305  0.019046249  0.018491226            9 
 1466000   0.67246986   -7.4889612    334.32929  0.019004621  0.018477183           24 
 1467000   0.66982477   -7.4630841    334.10531  0.018978943  0.018463103           12 
 1468000   0.68044166   -7.5008278    333.69757  0.018942868   0.01844907            9 
 1469000   0.66101093   -7.4950336    333.66992  0.018928405  0.018435004            7 
 1470000    0.6599776   -7.4913051    334.46778  0.018960759   0.01842095           15 
 1471000   0.65719862   -7.4791946    334.08264   0.01892605  0.018406912           12 
 1472000   0.67526105    -7.489081    333.97471  0.018907083  0.018392883            8 
 1473000    0.6638888   -7.5091248    334.37921  0.018917131  0.018378884            7 
 1474000   0.65429452   -7.4792028    334.72106  0.018923624  0.018364895           14 
 1475000   0.68343351   -7.4930924     334.0899  0.018875135  0.018350933            8 
 1476000   0.66392344   -7.4840824    334.44593  0.018882449  0.018336975           10 
 1477000   0.66341534   -7.4988094      333.845  0.018835759  0.018322984            8 
 1478000    0.6649724   -7.5085761    333.87863  0.018824911  0.018308994           16 
 1479000   0.65947314   -7.4937624    333.40944  0.018785747  0.018295002           19 
 1480000   0.66298394    -7.504408     334.2279  0.018819139  0.018281022           21 
 1481000   0.65329874    -7.487243    333.78534   0.01878153  0.018267038           14 
 1482000   0.66460042   -7.4835745    333.97803  0.018779691  0.018253089           20 
 1483000   0.65115586   -7.5120563    333.85663  0.018760206  0.018239092           12 
 1484000   0.65121628   -7.5058316    334.38327  0.018777138  0.018225136           12 
 1485000   0.66623264   -7.4932626      334.241  0.018756509  0.018211172           15 
 1486000   0.65656953   -7.5048119    334.29761  0.018747062  0.018197235           38 
 1487000   0.66871188   -7.5176492    334.70675  0.018757384  0.018183286           14 
 1488000   0.65301774   -7.4788979     334.5588  0.018736492  0.018169352           15 
 1489000    0.6632137   -7.4822442     333.9295  0.018688689  0.018155408           26 
 1490000   0.65437546   -7.5153093    334.15309  0.018688652  0.018141477           14 
 1491000   0.64554988   -7.5176148    333.49893  0.018639556  0.018127582           20 
 1492000   0.65272762   -7.5108069    334.92286  0.018706594   0.01811368            9 
 1493000   0.65595219   -7.5066185    334.13974  0.018650354  0.018099778           17 
 1494000   0.64738706    -7.502087    334.83889  0.018676868  0.018085905           15 
 1495000   0.65719908   -7.5171412     333.8549  0.018609526   0.01807202            9 
 1496000   0.65918244   -7.5328184    333.48753  0.018576623  0.018058119           16 
 1497000   0.66035908   -7.5132066    333.82481  0.018582989  0.018044263           22 
 1498000   0.65822327   -7.5067351    333.58416  0.018557196  0.018030401           10 
 1499000   0.65233655   -7.5081831    333.99689  0.018567761  0.018016537           11 
 1500000   0.65404939   -7.5217892     334.6502  0.018591678  0.018002709           30 
 1501000   0.66242604   -7.5252648    334.04523  0.018545704   0.01798889           20 
 1502000   0.65728461   -7.5054769    334.11254  0.018537091  0.017975041           45 
 1503000    0.6351339   -7.4962797     334.4492  0.018543424  0.017961253           31 
 1504000   0.65951746   -7.5076842    334.75468  0.018548021  0.017947496           32 
 1505000   0.65836469   -7.5254708    333.88705  0.018487655  0.017933721           15 
 1506000   0.65880689   -7.5176271    334.44817  0.018506428  0.017919975           16 
 1507000   0.63890677   -7.5206779    334.07609  0.018473573  0.017906199           17 
 1508000   0.65195137   -7.5147996    334.44163  0.018481522  0.017892483            8 
 1509000   0.65473497   -7.5179554    334.06294  0.018448362  0.017878751            8 
 1510000   0.65109991   -7.5359099    333.89026  0.018426615  0.017865004           19 
 1511000   0.64826245   -7.5534644    334.40821  0.018442985    0.0178513           16 
 1512000   0.64855237   -7.5600627    334.20908  0.018419813  0.017837567           16 
 1513000   0.64357653   -7.5513311     334.7085  0.018435146  0.017823847           13 
 1514000    0.6533187    -7.545125    334.28496  0.018399656  0.017810142           19 
 1515000   0.64068636   -7.5240857    334.48581   0.01839856  0.017796429            9 
 1516000   0.65123204   -7.5238926    334.82642  0.018405146  0.017782729            9 
 1517000   0.65475218   -7.5356127    334.11581  0.018353978  0.017769042           12 
 1518000   0.65029219   -7.5491718     333.8551  0.018327575  0.017755335            9 
 1519000   0.64519244   -7.5418643    334.21704  0.018335365  0.017741627           17 
 1520000   0.63377403   -7.5510857    334.41919  0.018334385  0.017727959           19 
 1521000   0.64408455   -7.5689408    334.56827  0.018330499  0.017714317           22 
 1522000   0.63983232   -7.5127147    334.43722   0.01831128  0.017700701            9 
 1523000   0.65750099   -7.5147851    334.71085  0.018314229  0.017687122           12 
 1524000    0.6574797   -7.5463496    335.05255  0.018320896  0.017673516           14 
 1525000   0.65621548   -7.5228817    334.24678  0.018264851  0.017659932           17 
 1526000   0.63692776   -7.5075671    334.06663  0.018243045  0.017646368           16 
 1527000   0.65071462   -7.5075188    335.11539  0.018288332  0.017632864           23 
 1528000   0.64645346   -7.5347762    334.78634  0.018258417   0.01761933           24 
 1529000   0.66291266   -7.5424616    334.73519  0.018243688  0.017605791           24 
 1530000   0.64562188   -7.5497333    333.72038  0.018176491  0.017592254           25 
 1531000    0.6392088   -7.5324355    335.26069  0.018248459  0.017578726           16 
 1532000   0.64150018   -7.5435971    334.78482  0.018210662  0.017565206           13 
 1533000   0.64895741   -7.5456753     333.9344  0.018152555  0.017551717           26 
 1534000   0.63677362   -7.5140488    334.53421  0.018173305  0.017538213           21 
 1535000   0.64143929   -7.5452202    334.90403  0.018181543  0.017524733           15 
 1536000   0.62982167   -7.5366367    334.08466  0.018125253  0.017511244           10 
 1537000   0.64437304   -7.5447593    333.77071  0.018096438  0.017497816           12 
 1538000   0.63927816   -7.5481117    334.64227  0.018131896  0.017484398           15 
 1539000   0.64769452   -7.5620731    334.58326  0.018116919  0.017470986           26 
 1540000    0.6310321   -7.5427765    334.78524  0.018116084  0.017457596           24 
 1541000   0.64314238   -7.5334092    334.81539  0.018105959  0.017444221           13 
 1542000   0.64108251   -7.5547312    334.58178  0.018081592  0.017430875           25 
 1543000   0.62746795   -7.5659687    334.73237  0.018078007  0.017417522           23 
 1544000   0.63468407   -7.5745099    334.50588  0.018054074  0.017404144           14 
 1545000   0.63990289   -7.5774671    334.50322  0.018042245  0.017390779           16 
 1546000   0.63040232   -7.5686148     334.6968  0.018041009  0.017377402           14 
 1547000   0.62294721   -7.5575338    334.69253  0.018029117  0.017363997           16 
 1548000   0.63068639   -7.5814792    335.34798  0.018052755  0.017350619           13 
 1549000   0.63588014   -7.5524509    334.56834  0.017999157  0.017337262           20 
 1550000   0.64514202   -7.5322911    334.66356  0.017992664  0.017323944           22 
 1551000   0.62967221   -7.5494892    334.99437  0.017998838  0.017310677           21 
 1552000   0.64232575   -7.5451148    335.14219  0.017995178   0.01729738            7 
 1553000   0.62437924   -7.5796684    334.53952  0.017951251  0.017284045           31 
 1554000    0.6398685   -7.5551652    334.52579  0.017938964  0.017270771           14 
 1555000   0.63040235   -7.5810642      335.047  0.017955359  0.017257502           12 
 1556000   0.64913948   -7.5513844     334.7196  0.017926285  0.017244225           17 
 1557000   0.63248879   -7.5460524    333.69519  0.017859944  0.017230935           32 
 1558000   0.62488305   -7.5499941    334.07739  0.017868923  0.017217639           20 
 1559000   0.62367811   -7.5559353    334.75699  0.017893788  0.017204384           24 
 1560000   0.62364148   -7.5423854    334.40898  0.017863727  0.017191086           14 
 1561000   0.63970015   -7.5626391    334.47646  0.017855886  0.017177782           15 
 1562000   0.62604321   -7.5752261    334.67424  0.017855006  0.017164481           27 
 1563000   0.63402429   -7.5526071    334.86711  0.017853866   0.01715121           30 
 1564000   0.63544225   -7.5641639     334.6483  0.017830792  0.017137946           21 
 1565000   0.62203279   -7.5639694    334.41141  0.017806785  0.017124693           12 
 1566000   0.63856363   -7.5781076    335.33168  0.017844385  0.017111431           16 
 1567000   0.61832911   -7.5466292    334.77913  0.017803613  0.017098176           13 
 1568000    0.6119742   -7.5733612    334.07995    0.0177551  0.017084952           12 
 1569000   0.61332956   -7.5722285    334.66077  0.017774632  0.017071726           12 
 1570000   0.62229136   -7.5728533    334.48118  0.017753778  0.017058477           23 
 1571000   0.62875495   -7.5594647    334.40432    0.0177384  0.017045267           20 
 1572000   0.63240733   -7.5732172    333.91254  0.017701047  0.017032031           27 
 1573000    0.6194947   -7.5712076    334.34515  0.017712712  0.017018818           20 
 1574000   0.62460996   -7.5656044    334.75445  0.017723129  0.017005604           21 
 1575000   0.63092625    -7.585918    334.77483  0.017712954  0.016992393           24 
 1576000   0.63005791   -7.5809166    334.77797  0.017701881  0.016979192           10 
 1577000   0.61961671   -7.5820877    334.68444  0.017685713  0.016965984           14 
 1578000    0.6292277   -7.5592551    334.14799  0.017646176  0.016952799           26 
 1579000    0.6402521   -7.5896314     334.4034   0.01764848    0.0169396           12 
 1580000   0.60868701   -7.5580666     334.5257   0.01764376  0.016926445           19 
 1581000   0.63177088   -7.5843665    334.99285  0.017657224  0.016913304           12 
 1582000   0.62945018   -7.5705428    334.75832  0.017633709  0.016900171           11 
 1583000   0.62395972   -7.5832535     334.0355  0.017584518  0.016887055           20 
 1584000   0.62056016   -7.5755821    334.61107  0.017603697  0.016873933           18 
 1585000   0.61726957   -7.5983493    334.48363   0.01758589   0.01686082           15 
 1586000    0.6377156   -7.5950618    334.59001  0.017580391  0.016847718           16 
 1587000   0.62240467   -7.5952261    334.19906  0.017548785   0.01683461           15 
 1588000    0.6087937   -7.5797358    334.55194  0.017556252  0.016821513           17 
 1589000   0.61088272   -7.5827998    334.83201  0.017559891   0.01680841           17 
 1590000    0.6160289   -7.5698141    334.19822   0.01751563  0.016795282           10 
 1591000    0.6207828    -7.603147    334.60148  0.017525743  0.016782226           14 
 1592000   0.62086662    -7.597681    334.22044  0.017494788  0.016769168           16 
 1593000   0.61007361   -7.5873238    333.93289  0.017468764  0.016756107           13 
 1594000   0.63277146   -7.6154947    333.57912   0.01743931  0.016743064           11 
 1595000    0.6116135   -7.5876443    334.06702  0.017453867  0.016730037           20 
 1596000   0.62376343   -7.5918352    335.20443   0.01750232  0.016717041           13 
 1597000   0.62149304    -7.592223    333.99702  0.017428356  0.016704036           14 
 1598000   0.62849201   -7.5906016    334.57486  0.017447584  0.016691046           16 
 1599000   0.62511963   -7.5875393     334.0726  0.017410496  0.016678058            8 
 1600000    0.6136851   -7.6051688    334.87127  0.017441212  0.016665093           18 
 1601000   0.61417279   -7.5920326    334.03821  0.017386957  0.016652158           11 
 1602000   0.60577951   -7.6032656    334.79052  0.017415237  0.016639204           20 
 1603000    0.6209443   -7.5813524    334.43556   0.01738592  0.016626239           18 
 1604000   0.60311191   -7.5963002    334.43198  0.017374895  0.016613294           19 
 1605000   0.60852588   -7.5928257    334.09259  0.017346448  0.016600371           17 
 1606000   0.61446713   -7.6220345    334.08165  0.017335079  0.016587427           13 
 1607000   0.60371141   -7.5958126    334.39521  0.017340552   0.01657448           22 
 1608000   0.60748615   -7.5872311    334.37189   0.01732856  0.016561556           15 
 1609000    0.6182232   -7.6054488    334.34473  0.017316383  0.016548635           11 
 1610000   0.61045021    -7.618728    334.40358  0.017308674  0.016535748           16 
 1611000   0.60061903   -7.6199086    334.90673  0.017323957  0.016522862           15 
 1612000   0.60010502   -7.6043337    334.44327  0.017289251  0.016509983           15 
 1613000   0.61781582   -7.6099288    334.11217  0.017261426  0.016497125           31 
 1614000   0.61737242   -7.6073567    334.33036  0.017261997  0.016484275           10 
 1615000   0.58666356   -7.6042073    334.91546  0.017281499  0.016471426           15 
 1616000   0.61164839   -7.5979503    334.30866  0.017239514  0.016458618           27 
 1617000   0.61936343   -7.6032676    334.44662  0.017235963  0.016445816           30 
 1618000   0.60461896   -7.6084332     335.0138  0.017254522  0.016432997           28 
 1619000   0.60978053   -7.6041735    334.39956  0.017212249  0.016420195           26 
 1620000   0.61469835   -7.6181616    334.58427  0.017211125  0.016407411           23 
 1621000   0.60277604   -7.6028536    334.04941  0.017173011  0.016394667           43 
 1622000   0.59919899   -7.6138138    334.78169  0.017200046  0.016381923           29 
 1623000   0.60060707   -7.6102727     334.9371  0.017197428  0.016369162           32 
 1624000   0.61330117   -7.6059229    334.55566  0.017167265  0.016356425           42 
 1625000   0.61738557    -7.628248    334.16421  0.017136626  0.016343673           44 
 1626000   0.57912091   -7.6128407    334.13708  0.017124697    0.0163309           46 
 1627000   0.59506639    -7.615213    333.87018  0.017100501   0.01631814           31 
 1628000   0.61536681    -7.633488    334.06556  0.017099998  0.016305406           39 
 1629000   0.61015147   -7.6331751    333.70466  0.017071038  0.016292668           39 
 1630000   0.59569266   -7.6463357    334.26389  0.017089156  0.016279947           44 
 1631000   0.60314091   -7.6241595    334.56244  0.017093932  0.016267232           39 
 1632000   0.60079977   -7.6212249     334.2936   0.01706973   0.01625453           44 
 1633000   0.59327746   -7.6296564    334.25809  0.017057465  0.016241804           40 
 1634000   0.60005382   -7.6385791    334.14467  0.017041242  0.016229063           50 
 1635000   0.60349637   -7.6386616    334.11042  0.017029073  0.016216346           62 
 1636000   0.59758069   -7.6569689    333.74393  0.016999997  0.016203628           29 
 1637000   0.59627076   -7.6369566    333.75878  0.016990368  0.016190903           38 
 1638000   0.59570174   -7.6202124    334.32349  0.017008725  0.016178195           49 
 1639000   0.59996973   -7.6091804    333.61793  0.016962474  0.016165504           39 
 1640000   0.60831612   -7.6343999    334.22817  0.016983139  0.016152806           30 
 1641000   0.59213494   -7.6378163    333.68652  0.016945283  0.016140122           35 
 1642000   0.60659578     -7.64271    333.37327  0.016919066  0.016127434           38 
 1643000   0.61939342   -7.6289035    334.22089  0.016951759   0.01611477           44 
 1644000   0.59868758   -7.6470643    333.99116  0.016929803   0.01610214           67 
 1645000   0.58570301   -7.6346848    333.40279  0.016889706  0.016089517           65 
 1646000    0.5992092   -7.6397456    333.45873  0.016882277  0.016076861           59 
 1647000   0.60259047   -7.6195219     333.2028  0.016859077  0.016064219           75 
 1648000   0.60139291   -7.6299864    333.84126  0.016881132  0.016051597           38 
 1649000   0.58588811   -7.6361234     333.4066  0.016848929  0.016039004           43 
 1650000    0.6065591   -7.6560967    333.74352  0.016855733  0.016026401           36 
 1651000    0.5971653    -7.639768     333.8375  0.016850267  0.016013799           68 
 1652000   0.58607173   -7.6570925    333.56553  0.016826348  0.016001201           49 
 1653000    0.5958497   -7.6553204    333.61889  0.016818859  0.015988585           30 
 1654000   0.59423714   -7.6401003    334.08843  0.016832347  0.015976013           56 
 1655000   0.59915053   -7.6422321    333.84429  0.016809883  0.015963464           51 
 1656000   0.58717879   -7.6576938    332.94306  0.016754381  0.015950887           81 
 1657000   0.59102807   -7.6471837    333.07455  0.016750883  0.015938329           55 
 1658000   0.58652667   -7.6722859    333.63309  0.016768853  0.015925759           55 
 1659000   0.58006458   -7.6598127    333.21242  0.016737614  0.015913202           55 
 1660000   0.59899648   -7.6593373    333.63233  0.016748611  0.015900642           47 
 1661000   0.59071535   -7.6771838     333.4935  0.016731562  0.015888105           60 
 1662000    0.5807244   -7.6580358    333.82932  0.016738333  0.015875575           42 
 1663000   0.59052168   -7.6605484    333.96394  0.016735014  0.015863039           25 
 1664000    0.5888453    -7.649733     332.9749  0.016675426  0.015850528           59 
 1665000   0.58598115   -7.6522223     333.7216  0.016702783  0.015838015           49 
 1666000   0.57686794    -7.668097    332.98383  0.016655854  0.015825525           93 
 1667000   0.58625352   -7.6614011    333.72623  0.016682975  0.015813024           45 
 1668000   0.58171393    -7.657188    333.71118  0.016672221  0.015800539           74 
 1669000   0.57838971   -7.6446443    333.70415  0.016661881  0.015788083           42 
 1670000   0.58412904   -7.6322544    333.89386   0.01666137  0.015775659           64 
 1671000   0.57934526    -7.663183    333.07478  0.016610552  0.015763213           66 
 1672000   0.57759623   -7.6564151    333.99437   0.01664645  0.015750788           42 
 1673000   0.57761993   -7.6871139    333.58435  0.016616076  0.015738374           82 
 1674000   0.59303956   -7.6585008    333.71249  0.016612529  0.015725989           67 
 1675000   0.58645469   -7.6624154    333.44653  0.016589379  0.015713598           44 
 1676000   0.58882679   -7.6591076    333.29366  0.016571881   0.01570123           61 
 1677000   0.60416301   -7.6558636    333.12858  0.016553795  0.015688853           35 
 1678000   0.58724735   -7.6838156     333.9939  0.016586904  0.015676489           61 
 1679000   0.58290675   -7.6554064    333.94606  0.016574651  0.015664149           31 
 1680000   0.57392996   -7.6556361    333.31268  0.016533367  0.015651794           71 
 1681000   0.58180683   -7.6762119    333.33559  0.016524667  0.015639454           54 
 1682000   0.56951366   -7.6681219    334.03412  0.016549451  0.015627151           51 
 1683000   0.58647086   -7.6631591    332.95537  0.016486204   0.01561483           79 
 1684000   0.57296943   -7.6858631    333.65856  0.016511211  0.015602527           74 
 1685000   0.58115546   -7.6767156    333.58955     0.016498  0.015590239           73 
 1686000   0.58434853   -7.6787414    333.68677  0.016493019  0.015577953           27 
 1687000   0.58524545     -7.67261    332.95535  0.016447113  0.015565683           60 
 1688000    0.5715672   -7.6687572    333.98476  0.016488189  0.015553417           32 
 1689000   0.57637002   -7.6811138    333.73756   0.01646623  0.015541164           60 
 1690000   0.56461079   -7.6741817    333.81814   0.01646046  0.015528923           50 
 1691000   0.56126516   -7.6696264    333.68253  0.016444044  0.015516712           71 
 1692000   0.56494971   -7.6714117    333.58152   0.01642935  0.015504483           54 
 1693000   0.57830519   -7.6767273    332.98098  0.016390085  0.015492243           51 
 1694000    0.5709793   -7.6849708    333.43353  0.016402672  0.015480029           73 
 1695000    0.5791361   -7.6975058     333.6249  0.016402404   0.01546783           56 
 1696000   0.57472671   -7.6828588    333.25434  0.016374525   0.01545565           62 
 1697000   0.57372491    -7.701013    333.09196  0.016356902  0.015443456           76 
 1698000   0.57716157   -7.6875279    333.82391  0.016383192  0.015431261           61 
 1699000   0.56936982   -7.6808346    333.26105  0.016345941   0.01541912           64 
 1700000    0.5859463   -7.6877613    332.94637    0.0163209  0.015406976           63 
 1701000   0.57705499    -7.684627    333.30096  0.016328677  0.015394848           75 
 1702000   0.56964049   -7.6645605    333.15476  0.016311925  0.015382723           81 
 1703000   0.57474141   -7.7042989    333.43934  0.016316272  0.015370607           56 
 1704000   0.57026182   -7.7160161    333.10606  0.016290398  0.015358494           47 
 1705000   0.57943587   -7.6747545     333.6092  0.016305435  0.015346374           77 
 1706000   0.56255528   -7.7086634    333.21515  0.016276629  0.015334266           43 
 1707000   0.56203396   -7.6921331    333.13968  0.016263409  0.015322158           89 
 1708000   0.57332797    -7.716425    333.45255  0.016269152  0.015310059           61 
 1709000   0.57280458   -7.7106481    333.04751  0.016239882  0.015297986           70 
 1710000   0.56863719   -7.6906586    333.36207  0.016245715  0.015285904           58 
 1711000   0.57032917   -7.6965532    332.61433  0.016199802  0.015273817           40 
 1712000   0.55208178   -7.6908662    332.98344  0.016208306  0.015261759           45 
 1713000    0.5674351   -7.6820157    333.49464  0.016223713  0.015249709           73 
 1714000     0.565721   -7.7041493    332.73582  0.016177354  0.015237653           72 
 1715000   0.56869135   -7.7229809    333.63238  0.016211486  0.015225624           66 
 1716000   0.57553427   -7.6990855    332.73829   0.01615862  0.015213606           72 
 1717000   0.56107651   -7.7031048    332.88449  0.016156304   0.01520159           64 
 1718000   0.56428148   -7.6880469    332.70479  0.016138183  0.015189597           68 
 1719000   0.57005201   -7.7213692    333.21316   0.01615344  0.015177613           68 
 1720000   0.56581335   -7.7099213    332.68202  0.016118315  0.015165629           58 
 1721000   0.57173046   -7.7069099    333.22511  0.016135247  0.015153665           70 
 1722000   0.55903496    -7.716461    332.53534  0.016092496  0.015141694           53 
 1723000    0.5673369   -7.6921143    333.15471  0.016113112  0.015129756           62 
 1724000   0.56662915   -7.7039125    332.18003  0.016056653  0.015117824           73 
 1725000   0.56833233   -7.7001702    333.48119  0.016110202  0.015105901           30 
 1726000   0.56264166   -7.6994293    333.41777  0.016097807  0.015093992           87 
 1727000   0.57273353   -7.7134038    332.89749   0.01606338  0.015082087           89 
 1728000    0.5608456   -7.7077674    333.14479   0.01606601  0.015070185           86 
 1729000     0.559876   -7.7003472    333.36064  0.016067122    0.0150583           77 
 1730000    0.5649968   -7.7238626    333.48337  0.016063746  0.015046412           58 
 1731000   0.55502505   -7.7080262    333.15728  0.016038768  0.015034547           28 
 1732000   0.56904988   -7.6915702    333.60785  0.016051186  0.015022708           46 
 1733000    0.5679766   -7.7034446    333.34737  0.016029398  0.015010878           50 
 1734000    0.5599526   -7.7177281     332.8359  0.015995574  0.014999041           67 
 1735000   0.54969119   -7.7114039    332.97855  0.015993206  0.014987209           34 
 1736000   0.56359306   -7.7298011    333.06013  0.015987909  0.014975385           49 
 1737000   0.56824606   -7.7090238    333.26078  0.015988332  0.014963563           47 
 1738000    0.5625356   -7.7269897    333.41896  0.015986716  0.014951767           28 
 1739000   0.55906719   -7.7333265    333.19588  0.015966833  0.014939973           31 
 1740000   0.55707964    -7.710942    333.12612  0.015954316  0.014928201           28 
 1741000   0.56816559   -7.7135961      332.534   0.01591681  0.014916423           14 
 1742000   0.56682742   -7.7349084    333.03308  0.015931548  0.014904659           39 
 1743000   0.55065284   -7.7042016    332.80836  0.015911664  0.014892913           39 
 1744000   0.56307037     -7.74008    332.54703  0.015890053  0.014881176           36 
 1745000   0.56742337   -7.7255898    333.12037  0.015908327  0.014869428           24 
 1746000   0.55344398   -7.7106509    333.09711  0.015898105  0.014857705           25 
 1747000   0.56321355   -7.7172042    333.03375  0.015885983  0.014845999           36 
 1748000   0.55534668   -7.7168604    332.52675  0.015852724  0.014834292           44 
 1749000    0.5593478   -7.7293733    333.00525  0.015866459  0.014822596           35 
 1750000   0.54457475   -7.7257524    332.70041  0.015842876  0.014810922           23 
 1751000   0.55265056   -7.7317532    332.80802   0.01583895  0.014799254           27 
 1752000   0.55160562   -7.7138343       332.95  0.015836663   0.01478761           25 
 1753000   0.54877815    -7.732508    332.69714  0.015815608   0.01477596           26 
 1754000   0.56428394   -7.7210699    332.77034   0.01581007  0.014764314           29 
 1755000   0.55108294   -7.7378759    332.13686  0.015770981  0.014752674           48 
 1756000   0.55181746   -7.7374355    333.14656  0.015809916  0.014741047           35 
 1757000   0.55123151   -7.7241259    332.94409  0.015791315  0.014729436           71 
 1758000    0.5439915   -7.7248512    332.62926  0.015767409  0.014717823           36 
 1759000   0.56966836   -7.7369171    332.64325  0.015759108  0.014706224           28 
 1760000   0.56315317   -7.7139598     333.5187  0.015791605  0.014694634           78 
 1761000   0.54550548   -7.7499173    332.32975  0.015726375  0.014683044           26 
 1762000    0.5459136   -7.7382438    332.84964  0.015742038  0.014671459           28 
 1763000   0.54575328   -7.7519576    332.70593  0.015726315   0.01465989          105 
 1764000   0.56613701   -7.7420874    332.85511  0.015724448  0.014648315           46 
 1765000   0.54668151   -7.7220987    333.14376  0.015729167  0.014636766           32 
 1766000   0.55758584   -7.7432873    332.59878  0.015694544  0.014625233           46 
 1767000   0.53502832   -7.7584212    332.83828  0.015696957  0.014613702           60 
 1768000   0.54513339   -7.7335015    332.19812  0.015657905  0.014602185           51 
 1769000    0.5551013   -7.7564137     333.2086  0.015696655  0.014590673           52 
 1770000   0.55655392   -7.7204492    332.26115   0.01564318  0.014579163           59 
 1771000   0.55207002   -7.7464144    332.47088  0.015644216  0.014567678           71 
 1772000    0.5391504    -7.740279    331.72203  0.015600171  0.014556188           26 
 1773000   0.55283507   -7.7378133    332.70619  0.015637629  0.014544732           46 
 1774000   0.54502331   -7.7231262    332.69897  0.015628475  0.014533277           66 
 1775000   0.53871342   -7.7326428    332.96945  0.015632369  0.014521841           46 
 1776000   0.54754088   -7.7287086     332.1608  0.015585623  0.014510398           71 
 1777000   0.55424189   -7.7290361    332.60638  0.015597748  0.014498974           99 
 1778000   0.53865967   -7.7487261    332.25723  0.015572611  0.014487556           68 
 1779000   0.54544235   -7.7306494    332.57889  0.015578925  0.014476143           34 
 1780000   0.54057278   -7.7543992    332.82418  0.015581656  0.014464733           58 
 1781000   0.53226072   -7.7352508    332.41997  0.015553994  0.014453338           49 
 1782000   0.53916101   -7.7436926    332.37528  0.015543176  0.014441957           82 
 1783000   0.54106827    -7.740294    333.18204  0.015572165  0.014430583           63 
 1784000   0.53609751   -7.7445572      332.361  0.015525084  0.014419233           65 
 1785000   0.53597085     -7.74977    332.38631  0.015517568  0.014407873           75 
 1786000   0.54623203    -7.746823    332.58633  0.015518213  0.014396522           69 
 1787000   0.52492964   -7.7408089    332.19941  0.015491485  0.014385186           86 
 1788000    0.5334952   -7.7553223    331.95273  0.015471324   0.01437385           34 
 1789000   0.54414125    -7.747126    332.29097  0.015478432  0.014362532           38 
 1790000   0.54323553   -7.7466267    332.43879  0.015476666  0.014351221           25 
 1791000   0.54858893   -7.7408862    332.75201  0.015482599  0.014339945           44 
 1792000   0.52239837   -7.7558501    332.52104  0.015463218  0.014328673           31 
 1793000   0.54135424   -7.7672713     332.8681  0.015470724  0.014317395           61 
 1794000   0.52984828   -7.7562937     332.6564  0.015452267  0.014306128           45 
 1795000   0.53047788   -7.7526973    332.17498  0.015421308  0.014294864           34 
 1796000    0.5457256    -7.738371    332.34584  0.015420649  0.014283606           39 
 1797000   0.53523505   -7.7463921    332.11267  0.015401256  0.014272361           30 
 1798000   0.54330361   -7.7628592    332.47415  0.015409443  0.014261116           43 
 1799000   0.53781686   -7.7671073    332.88652   0.01541998  0.014249872           48 
 1800000    0.5356581   -7.7837523    332.81517   0.01540811   0.01423863           55 
 1801000   0.52377783   -7.7541755    332.28414  0.015374983  0.014227407           37 
 1802000   0.53706473   -7.7569907    331.76501  0.015342444  0.014216192           33 
 1803000   0.54530607   -7.7561514    332.81958  0.015382676  0.014204988           27 
 1804000   0.54244825   -7.7478317    331.75714  0.015325071  0.014193803           44 
 1805000   0.52347296   -7.7795794    332.08947  0.015331924  0.014182626           63 
 1806000   0.53504242   -7.7574174    332.17996   0.01532761  0.014171467           30 
 1807000   0.53616058   -7.7604307    331.69302  0.015296671   0.01416031           50 
 1808000    0.5287648   -7.7533571    332.44284  0.015322771  0.014149167           27 
 1809000   0.53476905   -7.7685457    332.30615  0.015308004  0.014138048           34 
 1810000   0.54607816    -7.765024    331.99617  0.015285275  0.014126923           27 
 1811000   0.54562868   -7.7703164    332.51709  0.015300805  0.014115802           35 
 1812000   0.53789033   -7.7638737    331.62055  0.015251129   0.01410469           48 
 1813000   0.52359871    -7.754472    332.74687  0.015294487  0.014093598           37 
 1814000   0.52679846   -7.7555194    332.23953   0.01526275  0.014082521           40 
 1815000    0.5273604   -7.7379339    332.48997  0.015265839  0.014071445           36 
 1816000   0.52183131   -7.7595589    332.23069  0.015245535  0.014060393           40 
 1817000   0.52011459   -7.7871912    332.07935  0.015230203   0.01404934           47 
 1818000   0.52431656   -7.7748604    332.42422  0.015237634  0.014038299           40 
 1819000   0.53108681   -7.7766572    332.09373  0.015214116  0.014027248           33 
 1820000   0.52585778    -7.782708    332.62355  0.015230016   0.01401622           33 
 1821000    0.5380777   -7.7719811    332.11573  0.015198413  0.014005183           36 
 1822000   0.52472611   -7.7784179    331.92841  0.015181504  0.013994167           46 
 1823000   0.52444966   -7.7662204    332.19461  0.015185345  0.013983161           30 
 1824000   0.53565662   -7.7934869    332.00635  0.015168419  0.013972167           41 
 1825000   0.52849629   -7.7737088    332.22369  0.015170032  0.013961184           30 
 1826000   0.52427754   -7.7656313    332.36254   0.01516806  0.013950222           34 
 1827000   0.53050952   -7.7611515    331.68391  0.015128804  0.013939268           27 
 1828000    0.5195985   -7.7519675    331.81047  0.015126298  0.013928305           53 
 1829000   0.53014099   -7.7725785    332.02253   0.01512769  0.013917357           37 
 1830000   0.53040141    -7.797617    332.04873  0.015120616  0.013906406           50 
 1831000   0.52915973   -7.7694669    332.28994  0.015123336  0.013895486           37 
 1832000   0.51111507   -7.7645459    331.41913   0.01507547  0.013884562           39 
 1833000    0.5220791   -7.7699503     332.0167  0.015094413  0.013873637           42 
 1834000   0.51606597    -7.783109    331.85684  0.015078919  0.013862735           35 
 1835000   0.52978575   -7.7838023    331.93272  0.015074147  0.013851818           42 
 1836000   0.52946242   -7.7855621    332.32784  0.015083871   0.01384092           51 
 1837000   0.51557107   -7.7672289    332.10412  0.015065511  0.013830041           36 
 1838000   0.51850724   -7.7856988    331.77407   0.01504235  0.013819176           22 
 1839000   0.51769576   -7.7796645    331.43732  0.015018911  0.013808307           35 
 1840000   0.51482317   -7.8017136     332.0658  0.015039212  0.013797454           39 
 1841000   0.51617494    -7.771837    331.75011  0.015016753  0.013786607           37 
 1842000   0.51913307    -7.768859    331.33188   0.01498968  0.013775786           27 
 1843000   0.52269392   -7.7874692     331.8119  0.015003251  0.013764969           59 
 1844000   0.52166061   -7.7773396    331.86028  0.014997301  0.013754166           39 
 1845000   0.51869984   -7.7940867    332.06276  0.014998318  0.013743364           29 
 1846000   0.52752729   -7.7748764    332.11371  0.014992493   0.01373257           21 
 1847000   0.51634182   -7.7982692    331.71828  0.014966535  0.013721779           23 
 1848000   0.51744643   -7.7789961    332.45863  0.014991821  0.013711017           41 
 1849000   0.51988578   -7.7868331    331.90282  0.014958663  0.013700255           41 
 1850000   0.51600608   -7.7745898    331.82479  0.014947063  0.013689514           43 
 1851000   0.51608949    -7.792766    331.39829  0.014919786  0.013678764           29 
 1852000   0.51565826   -7.7698674     331.6544  0.014923254  0.013668026           30 
 1853000   0.51890541   -7.8018645    331.94913  0.014928455  0.013657288           34 
 1854000   0.50768131   -7.7855048    331.88441  0.014917494  0.013646568           29 
 1855000   0.50513255   -7.7833248    331.67045  0.014899841  0.013635854           35 
 1856000   0.51942981   -7.8082225    331.62418  0.014889735  0.013625131           34 
 1857000   0.51221604   -7.7970048    331.47332  0.014874947  0.013614429           43 
 1858000   0.50121667   -7.7872593    331.72904  0.014878411  0.013603739           43 
 1859000   0.50444387   -7.7935046    331.14209  0.014844096  0.013593038           43 
 1860000   0.50618188   -7.7959411    331.15185  0.014836553  0.013582367           34 
 1861000   0.51011692   -7.7958605    331.95879  0.014864714  0.013571708           32 
 1862000   0.50607272    -7.811294    331.99528  0.014858364  0.013561055           37 
 1863000   0.50828713   -7.7975577    331.48114   0.01482739   0.01355041           38 
 1864000   0.50951777    -7.790457    331.54246  0.014822177  0.013539778           36 
 1865000   0.50990379   -7.7982679    331.00508  0.014790218  0.013529153           47 
 1866000   0.50264991   -7.8106592    331.40357  0.014800088  0.013518539           38 
 1867000   0.52015761   -7.8148687    331.42733  0.014793221  0.013507942           45 
 1868000   0.50659553   -7.8025678    332.01954  0.014811721  0.013497362           37 
 1869000   0.50520312   -7.7975547     331.8357  0.014795599  0.013486781           31 
 1870000   0.49777632   -7.8065256    331.19156  0.014758982    0.0134762           26 
 1871000   0.49991508   -7.8178062    331.35638  0.014758435  0.013465628           38 
 1872000    0.5017569   -7.8142534    331.14131  0.014740977  0.013455061           35 
 1873000   0.51104489   -7.8032525    331.62116  0.014754456  0.013444502           34 
 1874000   0.50769099   -7.7985453    331.73067  0.014751453  0.013433965           32 
 1875000   0.50432179   -7.8143159    331.88758  0.014750559  0.013423435           57 
 1876000   0.51297099   -7.8184045    331.61493  0.014730585  0.013412902           38 
 1877000   0.50302165   -7.8093543    330.68039  0.014681246  0.013402374           49 
 1878000   0.52184348   -7.7999642    331.59212  0.014713885  0.013391859           35 
 1879000   0.50063799   -7.8063021    331.69089  0.014710435  0.013381361           36 
 1880000   0.50529285   -7.8056763    331.59117   0.01469819  0.013370862           27 
 1881000   0.49698598   -7.8088979    331.56362  0.014689156  0.013360385           43 
 1882000   0.50427821   -7.8136575    331.58365  0.014682237  0.013349923           33 
 1883000   0.50011255   -7.8060704    331.50941  0.014671155   0.01333946           27 
 1884000   0.51970089   -7.8124037    331.62058  0.014668285  0.013329003           33 
 1885000   0.50480435   -7.8073544    331.55746  0.014657713  0.013318557           26 
 1886000   0.49628448   -7.8290026    331.56144  0.014650116  0.013308136           28 
 1887000   0.49779971   -7.8122868    331.56334  0.014642437  0.013297717           21 
 1888000   0.49424848   -7.8103801     331.7092  0.014641119  0.013287316           30 
 1889000   0.48805697   -7.8052044    331.39099  0.014619331  0.013276915           25 
 1890000   0.50779506   -7.8141019    331.68132  0.014624397  0.013266521           19 
 1891000   0.48380713   -7.8200045    331.35348  0.014602216  0.013256132           23 
 1892000   0.49430231   -7.8182515    331.50909  0.014601352  0.013245754           30 
 1893000   0.50206993   -7.8072714    331.27582  0.014583369  0.013235393           30 
 1894000   0.50025765     -7.81275    331.66701  0.014592882  0.013225036           31 
 1895000   0.50266413   -7.8166444    331.45296  0.014575768  0.013214709           27 
 1896000    0.4956962   -7.8253683    331.22049  0.014557863  0.013204374           26 
 1897000   0.50196309   -7.8181479    331.31874  0.014554505  0.013194045           28 
 1898000   0.48685719   -7.7955923    331.14498  0.014539207   0.01318372           35 
 1899000   0.49027622   -7.8129071    331.41421  0.014543365  0.013173409           50 
 1900000   0.49219841   -7.8163226    331.60045  0.014543879  0.013163111           41 
 1901000   0.48838341    -7.824484    331.14012  0.014516049  0.013152822           33 
 1902000   0.49937711    -7.824029    331.39568  0.014519614  0.013142543           46 
 1903000     0.501759   -7.8221036    331.36484  0.014510634  0.013132275           25 
 1904000   0.49073143   -7.8199384    331.42202  0.014505516  0.013122014           26 
 1905000   0.49731998   -7.8365519    331.26018  0.014490822  0.013111757           38 
 1906000    0.4925814   -7.8241975    330.96904   0.01447049  0.013101502           27 
 1907000   0.49656088   -7.8179202    330.58233  0.014446003  0.013091254           19 
 1908000   0.49798092   -7.8411941    331.31127  0.014470269  0.013081014           38 
 1909000    0.4840685   -7.8302191    331.23599  0.014459402  0.013070795           35 
 1910000   0.49057402   -7.8290824    331.41609   0.01445969  0.013060578           27 
 1911000   0.49541373    -7.821662    330.72186   0.01442185  0.013050368           25 
 1912000   0.48105022   -7.8235476    330.99133  0.014426051  0.013040162           27 
 1913000    0.4856662   -7.8230806    331.34495  0.014433915  0.013029965           37 
 1914000   0.48966863   -7.8247119    330.86171  0.014405334  0.013019788           28 
 1915000   0.48772846   -7.8246144    330.73813  0.014392434  0.013009624           39 
 1916000   0.47990186   -7.8303886    330.92006  0.014392835  0.012999461           29 
 1917000   0.49476664    -7.826496    331.21759  0.014398261  0.012989311           34 
 1918000   0.49376515   -7.8288776    331.08049  0.014384797  0.012979177           36 
 1919000    0.4953471   -7.8272764    330.82629  0.014366262  0.012969042           47 
 1920000   0.49752186   -7.8387711    331.32024  0.014380219  0.012958913           30 
 1921000    0.4875397   -7.8191578    331.28656  0.014371272  0.012948799           37 
 1922000     0.491534   -7.8090872    330.69631  0.014338203   0.01293868           38 
 1923000   0.48242489   -7.8279559    330.78906  0.014334766  0.012928582           32 
 1924000   0.48993771      -7.8473    331.19796  0.014345026  0.012918498           39 
 1925000   0.48359016   -7.8221003    330.82284  0.014321335  0.012908416           33 
 1926000   0.48134033   -7.8327144    331.11948  0.014326734  0.012898337           40 
 1927000   0.49166734   -7.8332541     331.3252  0.014328196  0.012888267           29 
 1928000   0.48271766   -7.8303901    330.90145  0.014302449    0.0128782           31 
 1929000   0.47720151   -7.8257648     330.4553   0.01427576  0.012868152           20 
 1930000   0.48658828   -7.8437145     330.8255  0.014284348  0.012858102           54 
 1931000   0.48282671   -7.8381284    330.75981  0.014274116  0.012848051           41 
 1932000   0.48660095   -7.8484217    330.72005  0.014265013  0.012838024           34 
 1933000   0.48166461   -7.8422556    330.56835  0.014251093  0.012827993           77 
 1934000   0.47254676   -7.8331961    330.64299   0.01424694   0.01281798           37 
 1935000   0.48322763   -7.8331752    331.11838  0.014260051  0.012807974           38 
 1936000   0.48069245   -7.8233507    330.54674  0.014228079  0.012797981           53 
 1937000   0.47778046   -7.8395395    330.49075  0.014218325  0.012788004           37 
 1938000   0.48263383   -7.8276724    330.72368  0.014221005  0.012778038           41 
 1939000   0.48297292   -7.8525669    331.12214  0.014230795  0.012768093           46 
 1940000   0.46913389   -7.8402393    330.63047   0.01420234  0.012758138           33 
 1941000   0.47468008   -7.8409711    330.29177  0.014180481  0.012748181           47 
 1942000   0.47976153   -7.8345392    330.59551  0.014186213  0.012738235           44 
 1943000   0.47967721   -7.8539042    330.83694  0.014189267  0.012728304           36 
 1944000   0.47347976    -7.848219    330.36053  0.014161545  0.012718381           36 
 1945000   0.48426085   -7.8333361    330.67064  0.014167551  0.012708471           35 
 1946000   0.46332615   -7.8440077    330.26943   0.01414309   0.01269857           40 
 1947000   0.47787471   -7.8543645    330.86064   0.01416113  0.012688684           33 
 1948000   0.47346029   -7.8309318    330.45004  0.014136295  0.012678797           34 
 1949000   0.47813867   -7.8442856    330.89232  0.014147953  0.012668929           36 
 1950000   0.48803138   -7.8353677    330.55073  0.014126099  0.012659069           52 
 1951000   0.46942814   -7.8563635      330.822  0.014130446  0.012649217           44 
 1952000   0.47479743   -7.8423237    330.82116  0.014123171  0.012639362           66 
 1953000   0.48813613    -7.832561    330.31941   0.01409453  0.012629518           39 
 1954000   0.47267098   -7.8620826    330.47758  0.014094063  0.012619684           44 
 1955000   0.48010835   -7.8466244    330.76213  0.014098983  0.012609858           55 
 1956000   0.48047899   -7.8431806    329.89714  0.014054922  0.012600037           41 
 1957000    0.4730894   -7.8489708    330.58302  0.014076947  0.012590232           49 
 1958000   0.46927468    -7.853446    330.44058  0.014063695  0.012580435           55 
 1959000   0.46164937    -7.849299    330.22343  0.014047279   0.01257065           38 
 1960000   0.46955761   -7.8424101    331.00318  0.014073264  0.012560872           45 
 1961000   0.47837767   -7.8548649    330.89268  0.014061392  0.012551105           42 
 1962000   0.46721939   -7.8535551    330.55553  0.014039905  0.012541332           39 
 1963000   0.46631688   -7.8466513    330.48393  0.014029714  0.012531572           40 
 1964000   0.48015799   -7.8542963    330.48272  0.014022519  0.012521826           37 
 1965000   0.47572383   -7.8489143    330.33343  0.014009051  0.012512083           70 
 1966000   0.48055093   -7.8617071    330.41879  0.014005544  0.012502353           47 
 1967000   0.47598402    -7.857119    330.34186  0.013995164  0.012492646           41 
 1968000   0.46669946   -7.8572627    330.49013  0.013994331   0.01248293           36 
 1969000   0.46013956   -7.8492935     329.8126  0.013958549  0.012473228           35 
 1970000   0.47636479   -7.8434807    330.64865  0.013986829  0.012463537           27 
 1971000   0.47201799   -7.8765996    330.60505   0.01397789   0.01245386           32 
 1972000   0.47699032    -7.853356    330.45248  0.013964354  0.012444191           47 
 1973000   0.47799353   -7.8452117    330.01214  0.013938678  0.012434532           39 
 1974000   0.46730866   -7.8601802    330.28972  0.013943335  0.012424884           42 
 1975000   0.46637571   -7.8656911    330.81453  0.013958419  0.012415243           35 
 1976000   0.46892327   -7.8475362    330.52646  0.013939206  0.012405615           25 
 1977000   0.46676569   -7.8673055    330.36327  0.013925277  0.012395988           43 
 1978000   0.47229272   -7.8707291    329.92929  0.013899953   0.01238638           30 
 1979000   0.46472664   -7.8698673    330.18874  0.013903855   0.01237677           35 
 1980000    0.4719508   -7.8574821    330.32129  0.013902411  0.012367172           47 
 1981000   0.47374527   -7.8557637    330.65059  0.013909246  0.012357582           40 
 1982000   0.46818852   -7.8577122    330.27014  0.013886232  0.012348003           36 
 1983000   0.45756662   -7.8661734    329.65686  0.013853457  0.012338421           42 
 1984000   0.45239039   -7.8484647    330.07526  0.013864048  0.012328856           36 
 1985000   0.46920385    -7.866214    330.25528  0.013864621  0.012319289           53 
 1986000   0.45943464    -7.871161    330.17989  0.013854477  0.012309737           47 
 1987000    0.4566082   -7.8691926    330.35333  0.013854778  0.012300188           34 
 1988000   0.46538375   -7.8507644    330.52268  0.013854908  0.012290657           46 
 1989000   0.46361478   -7.8676026    330.04748  0.013828032  0.012281133           36 
 1990000   0.45962352   -7.8674926    330.29779  0.013831566  0.012271607           38 
 1991000   0.45281385    -7.864839    330.22511  0.013821577  0.012262099           45 
 1992000   0.47017058   -7.8666934    330.11366  0.013809976  0.012252603           66 
 1993000   0.45540405   -7.8690536    330.42536   0.01381608  0.012243103           61 
 1994000   0.44956988   -7.8747467    329.69589  0.013778665   0.01223362           48 
 1995000   0.46060299   -7.8847386    330.05518  0.013786766  0.012224144           54 
 1996000    0.4492044   -7.8779906     330.0545  0.013779831  0.012214674           75 
 1997000   0.45881586   -7.8832174    329.86462  0.013765006  0.012205211           43 
 1998000   0.45701589   -7.8738225    330.08864  0.013767461  0.012195762           42 
 1999000   0.47092425   -7.8889958    330.22026  0.013766061  0.012186316           70 
 2000000   0.44956782   -7.8735786    329.80411  0.013741838  0.012176889           37 
 2001000   0.45442548   -7.8764429    329.95263  0.013741156  0.012167468           44 
 2002000   0.44196913   -7.8773649    330.38609  0.013752335  0.012158052           49 
 2003000   0.46156148   -7.8751757    330.33437  0.013743317  0.012148647           40 
 2004000   0.45033504   -7.8784407    330.24129  0.013732589  0.012139259           55 
 2005000   0.44541215   -7.8739217    330.00947  0.013716104  0.012129875           40 
 2006000   0.45571858   -7.8759337    330.05647  0.013711219  0.012120502           46 
 2007000    0.4473561   -7.8665089     330.0529  0.013704239  0.012111131           48 
 2008000   0.46002153   -7.8784156    330.43363  0.013713215  0.012101769           28 
 2009000   0.46027929   -7.8833446    330.00661  0.013688676   0.01209242           45 
 2010000   0.44365429   -7.8838916    330.03101  0.013682878  0.012083069           56 
 2011000   0.44794048   -7.8762694     329.5185  0.013654836  0.012073733           30 
 2012000    0.4451924   -7.8863351    330.45928  0.013687015  0.012064409           36 
Loop time of 4398.69 on 48 procs for 2000000 steps with 4000 atoms

Performance: 78568.868 tau/day, 454.681 timesteps/s
99.4% CPU use with 48 MPI tasks x no OpenMP threads

MPI task timing breakdown:
Section |  min time  |  avg time  |  max time  |%varavg| %total
---------------------------------------------------------------
Pair    | 275.51     | 288.55     | 303.29     |  33.2 |  6.56
Neigh   | 27.887     | 28.558     | 29.241     |   5.8 |  0.65
Comm    | 248.93     | 265.69     | 283.83     |  46.1 |  6.04
Output  | 4.0114     | 4.0132     | 4.0506     |   0.3 |  0.09
Modify  | 3748.9     | 3764.4     | 3777.1     |  12.6 | 85.58
Other   |            | 47.51      |            |       |  1.08

Nlocal:        83.3333 ave          89 max          77 min
Histogram: 3 2 6 7 3 9 6 1 6 5
Nghost:        1842.46 ave        1862 max        1823 min
Histogram: 2 4 4 5 8 10 4 7 2 2
Neighs:        11409.8 ave       12626 max       10221 min
Histogram: 3 5 2 9 6 6 5 2 7 3
FullNghs:      22819.4 ave       24709 max       20944 min
Histogram: 3 4 7 6 2 6 9 3 5 3

Total # of neighbors = 1095330
Ave neighs/atom = 273.83250
Neighbor list builds = 107660
Dangerous builds = 0

#clear
#
#next RN
#
#jump SELF
Total wall time: 1:13:21
