
units lj                  # Use reduced LJ style units
atom_style atomic         # Uncharged point particles
atom_modify map hash      # Needed for indexing of clusters etc
                          # Used to be able to find where atoms are in relation to each other.

lattice fcc 1.0 spacing 1 1 1
Lattice spacing in x,y,z = 1.5874011 1.5874011 1.5874011
region box block 0 10 0 10 0 10 units lattice
create_box 2 box
Created orthogonal box = (0.0000000 0.0000000 0.0000000) to (15.874011 15.874011 15.874011)
  3 by 4 by 4 MPI processor grid
create_atoms 1 box
Created 4000 atoms
  using lattice units in orthogonal box = (0.0000000 0.0000000 0.0000000) to (15.874011 15.874011 15.874011)
  create_atoms CPU = 0.002 seconds
set type 1 type/fraction 2 0.39 78393
Setting atom values ...
  1580 settings made for type/fraction
mass 1 1.0
mass 2 1.0
pair_style lj/cut  3.5
pair_modify tail  yes
pair_coeff 1  1  1.0  1.0   # Intearaction between 1 and 1 set with epsilon = 1 and sigma = 1
pair_coeff 1  2  1.5  0.8
pair_coeff 2  2  0.5  0.88

write_data data.0
System init for write_data ...
Neighbor list info ...
  update every 1 steps, delay 10 steps, check yes
  max neighbors/atom: 2000, page size: 100000
  master list distance cutoff = 3.8
  ghost atom cutoff = 3.8
  binsize = 1.9, bins = 9 9 9
  1 neighbor lists, perpetual/occasional/extra = 1 0 0
  (1) pair lj/cut, perpetual
      attributes: half, newton on
      pair build: half/bin/atomonly/newton
      stencil: half/bin/3d
      bin: standard
WARNING: Not all mixed pair coeffs generated from mixing. Use write_data with 'pair ij' option to store all pair coeffs. (../write_data.cpp:312)


#############################
#   M E L T   S Y S T E M   #
#############################

velocity all create 2.4 5300450 mom yes dist gaussian # Assign velocities
                                                    # Temperature 2.4, random number seed, zero linear momentum
                                                                                # Gaussian distribution

timestep 0.002   # simulation timestep
thermo 1000       # output thermodynamic data every 1000 steps bf 100

# Define a fix  in this case with index 1 applied to all
# particles in the simulation. This fix is for simulations
# in the anisotropic NPT ensemble. Note that we use the MTK
# correction.
fix 1 all npt temp 2.4 2.4 0.1 iso 5.68 5.68 0.5 mtk yes tchain 5 pchain 5 # Use NPT ensemble
                                                                         # Set temperature and pressure and damping
                                                                         # Numbers of thermostats in chain and in barostat
run 10000          # run for 10000 steps
Per MPI rank memory allocation (min/avg/max) = 3.642 | 3.644 | 3.648 Mbytes
Step Temp E_pair E_mol TotEng Press Volume 
       0          2.4   -5.9084669            0   -2.3093669   -4.1681406         4000 
    1000    2.3768961   -5.0329343            0   -1.4684815    5.6360313    3910.1544 
    2000    2.4440306   -5.0852414            0    -1.420112    5.4532772     3904.701 
    3000    2.4332352   -5.0306277            0   -1.3816874    5.9136742    3892.0806 
    4000    2.4269453   -5.0389655            0   -1.3994577    5.9653073    3887.9699 
    5000     2.373537   -5.0222811            0   -1.4628658    5.7902326    3902.8527 
    6000    2.4188813   -5.0066696            0   -1.3792549    5.8920055    3902.9115 
    7000    2.4367409   -5.0630572            0   -1.4088596    5.3655919    3913.8328 
    8000    2.3703743   -5.0564766            0   -1.5018041    5.6777832    3889.8881 
    9000    2.4120457   -5.0393348            0   -1.4221707    5.8411062    3891.8219 
   10000    2.3911023   -5.0218403            0   -1.4360836    5.5706895    3923.0464 
Loop time of 2.55723 on 48 procs for 10000 steps with 4000 atoms

Performance: 675731.218 tau/day, 3910.482 timesteps/s
99.6% CPU use with 48 MPI tasks x no OpenMP threads

MPI task timing breakdown:
Section |  min time  |  avg time  |  max time  |%varavg| %total
---------------------------------------------------------------
Pair    | 1.1186     | 1.1848     | 1.3039     |   2.9 | 46.33
Neigh   | 0.20959    | 0.21771    | 0.24071    |   1.0 |  8.51
Comm    | 0.74494    | 0.86677    | 0.94725    |   4.6 | 33.89
Output  | 0.00026694 | 0.00027097 | 0.00034283 |   0.0 |  0.01
Modify  | 0.23869    | 0.27199    | 0.31597    |   4.7 | 10.64
Other   |            | 0.01567    |            |       |  0.61

Nlocal:        83.3333 ave          92 max          74 min
Histogram: 1 2 5 7 7 8 7 6 2 3
Nghost:        1668.62 ave        1710 max        1631 min
Histogram: 2 4 6 8 7 5 7 4 3 2
Neighs:        9741.77 ave       11146 max        8313 min
Histogram: 3 0 5 7 8 8 9 4 3 1

Total # of neighbors = 467605
Ave neighs/atom = 116.90125
Neighbor list builds = 904
Dangerous builds = 206

# Equilibrate just above the melting temperature to avoid step fn in T

fix 1 all npt temp 1.25 1.25 0.1 iso 5.68 5.68 0.5 mtk yes tchain 5 pchain 5
run 2000
Per MPI rank memory allocation (min/avg/max) = 3.643 | 3.645 | 3.649 Mbytes
Step Temp E_pair E_mol TotEng Press Volume 
   10000    2.3911023   -5.0218403            0   -1.4360836    5.5706895    3923.0464 
   11000    1.2426665   -7.0288949            0   -5.1653612     5.646254    3104.8247 
   12000    1.2486252   -7.1167074            0   -5.2442378    5.3367486    3093.4603 
Loop time of 0.614207 on 48 procs for 2000 steps with 4000 atoms

Performance: 562676.485 tau/day, 3256.230 timesteps/s
99.6% CPU use with 48 MPI tasks x no OpenMP threads

MPI task timing breakdown:
Section |  min time  |  avg time  |  max time  |%varavg| %total
---------------------------------------------------------------
Pair    | 0.26239    | 0.29546    | 0.33387    |   2.5 | 48.10
Neigh   | 0.039174   | 0.041885   | 0.047467   |   0.6 |  6.82
Comm    | 0.18305    | 0.22686    | 0.26753    |   3.3 | 36.94
Output  | 5.2464e-05 | 5.3928e-05 | 6.8987e-05 |   0.0 |  0.01
Modify  | 0.040125   | 0.044993   | 0.049575   |   1.3 |  7.33
Other   |            | 0.004959   |            |       |  0.81

Nlocal:        83.3333 ave          93 max          74 min
Histogram: 1 3 2 6 14 9 8 4 0 1
Nghost:        1944.73 ave        1972 max        1919 min
Histogram: 2 0 6 12 10 5 1 7 4 1
Neighs:        12346.8 ave       13878 max       10660 min
Histogram: 1 1 3 7 12 9 6 4 3 2

Total # of neighbors = 592648
Ave neighs/atom = 148.16200
Neighbor list builds = 143
Dangerous builds = 10

#############################
# L I N E A R  Q U E N C H  #
#############################

# Define solid atoms. This closely follows ten Wolde  Ruiz-Montero and Frenkel  Faraday Discuss  1996  104  93-110
# Compute components of the per-atom q6 vector
compute q6 all orientorder/atom degrees 1 6 components 6 nnn NULL cutoff 1.3 # compute the Q6 parameter.
                                                                             # Use all neighbours within 1.3 unit cell.

# get number of connections
compute coord_number all coord/atom orientorder q6 0.5

# An atom is solid if it has 8 or more connections (of a possible 14)
variable is_solid atom c_coord_number>=8
group solid dynamic all var is_solid    # Must be dynamic to update
dynamic group solid defined

# do clustering
compute cluster solid cluster/atom 1.3 # Create a cluster where all atoms within are solid and max 1.3 units from another member

# define chunks one chunk per cluster
compute clus_chunks solid chunk/atom c_cluster nchunk every compress yes  # Says which atoms are in which chunk

# count the size of each chunk
compute size_chunks solid property/chunk clus_chunks count


# Find the maximum entry in the vector of chunk sizes
variable max_n equal max(c_size_chunks)


# Thermo style which includes this variable
# thermo_style custom step temp pe vol v_max_n

thermo ${N}  # Print the thermo information every 100 steps
thermo 1000  

# Reset the npt fix at a lower temperature (below freezing)
fix 1  all npt temp  ${temp} ${temp}  0.1  iso  5.68  5.68  0.5  mtk yes tchain  5  pchain  5
fix 1  all npt temp  0.45 ${temp}  0.1  iso  5.68  5.68  0.5  mtk yes tchain  5  pchain  5
fix 1  all npt temp  0.45 0.45  0.1  iso  5.68  5.68  0.5  mtk yes tchain  5  pchain  5

dump dmp2 all dcd ${N} traj.dcd
dump dmp2 all dcd 1000 traj.dcd


compute msd all msd com yes
variable twopoint equal c_msd[4]/6/(step*dt+1.0e-6)
fix 9 all vector 10 c_msd[4]
variable fit equal slope(f_9)/6/(10*dt)
thermo_style custom step temp pe c_msd[4] v_twopoint v_fit v_max_n

fix 1 all npt temp 1.25 ${temp} 0.1 iso 5.68 5.68 0.5 mtk yes tchain 5 pchain 5
fix 1 all npt temp 1.25 0.45 0.1 iso 5.68 5.68 0.5 mtk yes tchain 5 pchain 5
run 2000000 # 5000000  # Run for this many steps
Neighbor list info ...
  update every 1 steps, delay 10 steps, check yes
  max neighbors/atom: 2000, page size: 100000
  master list distance cutoff = 3.8
  ghost atom cutoff = 3.8
  binsize = 1.9, bins = 8 8 8
  4 neighbor lists, perpetual/occasional/extra = 1 3 0
  (1) pair lj/cut, perpetual
      attributes: half, newton on
      pair build: half/bin/atomonly/newton
      stencil: half/bin/3d
      bin: standard
  (2) compute orientorder/atom, occasional
      attributes: full, newton on
      pair build: full/bin/atomonly
      stencil: full/bin/3d
      bin: standard
  (3) compute coord/atom, occasional
      attributes: full, newton on
      pair build: full/bin/atomonly
      stencil: full/bin/3d
      bin: standard
  (4) compute cluster/atom, occasional
      attributes: full, newton on
      pair build: full/bin/atomonly
      stencil: full/bin/3d
      bin: standard
Per MPI rank memory allocation (min/avg/max) = 9.822 | 9.827 | 9.834 Mbytes
Step Temp PotEng c_msd[4] v_twopoint v_fit v_max_n 
   12000    1.2486252   -7.1167074 1.0657511e-30 7.4010489e-33 8.3333333e+20            1 
   13000    1.2272446   -7.1308389   0.46390478 0.0029737485  0.037748246            2 
   14000    1.2715634   -7.1025037   0.89597385 0.0053331775  0.036943322            1 
   15000    1.2084067    -7.090161    1.3210329 0.0073390714   0.03644297            1 
   16000    1.2489995   -7.0675081    1.7567383 0.0091496783  0.035910229            1 
   17000    1.2899876   -7.0867317    2.1941234  0.010755506  0.035708919            2 
   18000    1.2639249   -7.1110816    2.6010489  0.012041893  0.035853424            1 
   19000    1.2281741   -7.0782229     2.954939  0.012960259  0.035410956            2 
   20000    1.2387325   -7.0953567    3.3901281  0.014125533  0.034995669            1 
   21000    1.2583894   -7.0916357    3.8015979  0.015085706    0.0349489            1 
   22000     1.255545   -7.1309645    4.2084881  0.015941243  0.034752818            3 
   23000    1.2458401   -7.1046497    4.6221859   0.01674705  0.034645412            2 
   24000    1.2385992   -7.1311887    5.0720926  0.017611432  0.034630656            1 
   25000    1.2495214   -7.0814508    5.5120382   0.01837346  0.034734594            1 
   26000    1.2371067    -7.090967    5.9402433  0.019039241   0.03483296            2 
   27000    1.2212982   -7.1369229    6.3706265  0.019662427  0.034889914            1 
   28000    1.2508467   -7.0954398    6.8016965  0.020243144  0.034930066            1 
   29000    1.2343889   -7.0784298    7.2755152  0.020906652  0.035042108            2 
   30000    1.2434306   -7.1172291     7.618958  0.021163772  0.035141233            3 
   31000    1.2516709   -7.1197474    8.0223251   0.02156539  0.035104669            1 
   32000    1.2410762   -7.1047386    8.3818821  0.021827818  0.035085059            2 
   33000    1.2588784    -7.050724    8.8081094    0.0222427  0.035031301            1 
   34000    1.2375923   -7.0524007    9.1434642  0.022410451  0.034918847            2 
   35000    1.2472943   -7.0996593    9.5427017  0.022720718  0.034794541            1 
   36000    1.2333735   -7.0964996    9.9005703  0.022917986  0.034677176            4 
   37000     1.244969   -7.1319805    10.216855  0.023010934  0.034529162            2 
   38000    1.2283166   -7.1258302    10.596901  0.023238817  0.034366572            1 
   39000    1.2282036   -7.0962945    11.000718  0.023505807  0.034203826            3 
   40000    1.2322257   -7.0551157    11.372882  0.023693504  0.034065592            2 
   41000    1.2251499   -7.1149551     11.76347  0.023909492  0.033941324            1 
   42000    1.2409699   -7.1281744    12.210194  0.024226576  0.033860177            2 
   43000    1.2140953    -7.130126    12.564967  0.024350712   0.03376827            3 
   44000    1.2433051   -7.1021944    12.974869  0.024573616  0.033673607            1 
   45000    1.2415423   -7.1289811    13.282061  0.024596409  0.033580348            2 
   46000    1.2213923   -7.1174334    13.735721  0.024883552  0.033480747            2 
   47000    1.2433913   -7.1366199    14.054235  0.024918856  0.033392735            1 
   48000    1.2352693   -7.1279754    14.468415  0.025118776  0.033304617            1 
   49000    1.2420619   -7.1193435    14.898734  0.025337983  0.033250622            2 
   50000    1.2347413   -7.1625882    15.242914  0.025404856  0.033200443            4 
   51000    1.2195352   -7.1018324    15.666424  0.025598732  0.033163847            3 
   52000    1.2014089   -7.1581293    16.005409  0.025649694  0.033112846            2 
   53000    1.2340671    -7.104676    16.435546  0.025842053  0.033071038            1 
   54000     1.256515   -7.1210008    16.684915  0.025748326  0.033023208            2 
   55000    1.2496123   -7.0996371     17.15249  0.025988622  0.032980162            1 
   56000    1.2355253   -7.1232916    17.572197  0.026149103  0.032951203            1 
   57000    1.2225225   -7.1377063    18.034442  0.026366143  0.032935659            2 
   58000    1.2401631   -7.1940861    18.385622  0.026416123  0.032925854            1 
   59000    1.2677426    -7.189531     18.80369  0.026558884  0.032918039            1 
   60000    1.2060106   -7.0901184    19.422522  0.026975725   0.03293292            2 
   61000    1.2333055   -7.1058817    19.760709  0.026995504   0.03295132            1 
   62000    1.2237215   -7.1314869    20.301631  0.027287138  0.032983479            2 
   63000    1.2411177   -7.1412697    20.833896  0.027558063  0.033033261            1 
   64000     1.208623   -7.1208405    21.215483  0.027624327  0.033091823            1 
   65000    1.2138948   -7.1209926     21.56885  0.027652372  0.033139175            1 
   66000    1.2292857   -7.1379619     21.89355  0.027643371  0.033176215            1 
   67000    1.2434994   -7.1688222    22.164639  0.027567958  0.033196515            2 
   68000    1.2266787   -7.1212717    22.706102  0.027826105  0.033208238            2 
   69000    1.2252581   -7.1311949    22.831111  0.027573805  0.033206507            1 
   70000    1.2465397   -7.1603459    23.209944  0.027630886  0.033180422            2 
   71000    1.2513436   -7.1403484    23.716916  0.027836755   0.03316794            2 
   72000    1.1999102   -7.1387143    24.102975  0.027896962  0.033160285            1 
   73000    1.2298395   -7.1127446    24.574744   0.02805336  0.033155227            1 
   74000    1.2265966   -7.1720885    24.923026  0.028066471  0.033155153            1 
   75000    1.2315455   -7.1137571    25.455361  0.028283734  0.033161562            1 
   76000    1.2403746   -7.1418297    25.925588   0.02842718  0.033179663            1 
   77000    1.2140715   -7.1225609    26.395504  0.028566562  0.033208617            1 
   78000    1.2699661   -7.1990102    26.692811   0.02851796  0.033244075            1 
   79000    1.2250199   -7.1563279    27.165202  0.028655276  0.033265305            2 
   80000    1.2170915   -7.1316807    27.540685  0.028688213  0.033282459            3 
   81000    1.2238827   -7.0861241    28.006681  0.028813457   0.03330001            1 
   82000    1.1927902   -7.1379112    28.344153  0.028805033  0.033316693            1 
   83000    1.1977407   -7.1988101    28.723536  0.028838891  0.033334068            1 
   84000    1.2042996   -7.1934611    29.060564  0.028829924  0.033346384            1 
   85000    1.1924005   -7.1447899    29.513106  0.028934417  0.033358385            2 
   86000    1.2449904   -7.1428312    30.050823  0.029119014  0.033379671            1 
   87000    1.2330038   -7.1665206     30.47567  0.029191255   0.03340284            1 
   88000     1.227319    -7.136682    30.800045  0.029166709  0.033424001            1 
   89000    1.1989913   -7.1786586    31.143915  0.029160969  0.033436325            1 
   90000     1.230263   -7.1241539    31.696694  0.029348791  0.033443226            2 
   91000     1.219436   -7.1432578    32.101977  0.029397415  0.033458646            1 
   92000    1.2299207   -7.1436231    32.641716  0.029566772  0.033479734            2 
   93000    1.1915186   -7.1179221     32.98462  0.029556111  0.033496538            2 
   94000    1.2338333   -7.1471943    33.077478  0.029324005  0.033508307            2 
   95000    1.2098116   -7.1606406    33.461061  0.029351808  0.033508842            2 
   96000    1.2023676   -7.1590158    34.008927  0.029521637  0.033508908            2 
   97000    1.2218732   -7.1985411    34.298962  0.029466462  0.033511492            3 
   98000    1.2321361    -7.203966    34.699024  0.029505973  0.033511847            2 
   99000     1.221593   -7.2063849    34.988539  0.029451632  0.033511723            3 
  100000    1.2136499   -7.1510844    35.339874  0.029449895  0.033502605            2 
  101000    1.2214565   -7.2227247    35.755125  0.029500928  0.033491773            2 
  102000    1.1960587   -7.1442709    36.397565  0.029736573  0.033491293            3 
  103000    1.2135432   -7.1395155     36.97086  0.029911699  0.033496537            1 
  104000    1.2147698   -7.1323928    37.300072  0.029887878  0.033506061            5 
  105000    1.2065133   -7.1320154    37.849582  0.030039351  0.033514547            1 
  106000    1.2055333   -7.1709446     38.21315  0.030041784  0.033520255            2 
  107000    1.2173026   -7.1130816    38.381292  0.029891972   0.03352523            1 
  108000    1.2327202    -7.194874    38.818736  0.029952728  0.033525045            1 
  109000    1.2346678   -7.2249083    38.883151   0.02972718  0.033520366            1 
  110000    1.2027151   -7.1579302    39.292346  0.029766929  0.033505622            4 
  111000    1.1969542   -7.1376264    39.683821  0.029792659   0.03348847            1 
  112000    1.1890198   -7.1861319    39.884259  0.029675788  0.033467795            5 
  113000    1.2212397    -7.170576    40.360546  0.029764414  0.033446564            3 
  114000    1.2120314    -7.176075     40.78136  0.029810935  0.033423521            1 
  115000    1.2045153   -7.1820354    41.264963  0.029902147   0.03340674            1 
  116000     1.196432   -7.1576141    41.540144  0.029842057  0.033390841            2 
  117000    1.2042135   -7.1434673    41.839638  0.029800312  0.033371833            1 
  118000    1.1959116   -7.1707629    42.256248  0.029841983  0.033353146            3 
  119000    1.2118684    -7.210437     42.63589  0.029857065  0.033338176            2 
  120000    1.2119682    -7.190091    42.962248  0.029834895  0.033323568            1 
  121000    1.2166855   -7.1819364    43.590166  0.030020775  0.033310502            1 
  122000    1.2202323   -7.1454106    44.151023  0.030157802  0.033306628            1 
  123000    1.1955157   -7.1765338    44.260795  0.029986988   0.03329974            4 
  124000    1.2259742   -7.1860646     44.79904  0.030106882  0.033288797            1 
  125000    1.2168255   -7.1843449    44.909912  0.029939941  0.033274551            5 
  126000    1.2060099    -7.229596    45.212234  0.029902271  0.033257518            1 
  127000    1.2423176    -7.155152    45.812317  0.030060575  0.033241378            1 
  128000    1.2116991   -7.2193331    46.124609  0.030029042  0.033223753            1 
  129000    1.2097603   -7.2363375     46.62611  0.030120226  0.033210599       -1e+20 
  130000    1.2185249   -7.2255453    46.834755  0.030022278  0.033198266       -1e+20 
  131000    1.1826547   -7.1419202    47.440948   0.03017872  0.033181257            1 
  132000    1.1954565   -7.1820204    47.681727    0.0301021  0.033168006            3 
  133000    1.2234716   -7.1876005    48.035035   0.03009714  0.033156207            2 
  134000    1.1796037   -7.1849659    48.468943  0.030142377  0.033142389            1 
  135000    1.1864299   -7.1568575    48.744238  0.030089036  0.033128081            2 
  136000    1.2026992    -7.168193    49.205921  0.030150687  0.033112493            1 
  137000    1.1867596    -7.176234    49.436873   0.03007109  0.033095543            1 
  138000     1.196143    -7.165598    49.953561  0.030165194  0.033080386            1 
  139000    1.1887946   -7.2198502    50.292515  0.030151388  0.033069681            2 
  140000    1.1998256   -7.2298275    50.867353  0.030278186  0.033059494            1 
  141000    1.2136483   -7.2365161        51.43  0.030395981  0.033052111            3 
  142000    1.1956749   -7.1884712    51.767995  0.030380278  0.033049441            1 
  143000    1.1981971   -7.2256702    51.996499   0.03030099  0.033045706            2 
  144000    1.1893949   -7.2406418    52.451215  0.030353712   0.03303725            3 
  145000    1.1819941   -7.1684868    53.098467   0.03051636  0.033030306            2 
  146000    1.2075252   -7.2259332    53.258938  0.030398937  0.033025048            1 
  147000    1.2198816   -7.1993795    53.435665  0.030292327   0.03302011            3 
  148000    1.1873896   -7.1696138    54.097627  0.030460376  0.033016175            2 
  149000    1.2018887   -7.2578357    54.414729  0.030433294  0.033010515            1 
  150000    1.2091839   -7.2652101    54.607024  0.030337235  0.033004899            3 
  151000    1.1712382   -7.1931225    55.274547  0.030504717  0.032999074            1 
  152000    1.1953989   -7.1960988    55.684998  0.030529056  0.032991736            1 
  153000    1.1911398   -7.1777376    55.832716  0.030409976  0.032983137            2 
  154000    1.2133326   -7.2194857    56.037528  0.030323338    0.0329732            2 
  155000    1.1891721   -7.2108919    56.371456  0.030307234  0.032960351            2 
  156000     1.195615   -7.2257367    56.720958  0.030299657  0.032948826            1 
  157000    1.1798104    -7.198213    57.382433  0.030457767  0.032934856            2 
  158000    1.2048852   -7.2298703    57.438855  0.030294754  0.032920043            1 
  159000    1.2131225   -7.2302235    57.810816  0.030299169  0.032905182            1 
  160000    1.1853778   -7.2104573    58.548245  0.030493877  0.032893927            2 
  161000    1.1974334    -7.252839    58.692387  0.030379082  0.032882795            2 
  162000    1.1783283   -7.2159856    59.068236  0.030384895  0.032871695            1 
  163000    1.2077909   -7.2473341    59.588457  0.030464446  0.032861244            3 
  164000    1.1841892   -7.2112059    59.869951  0.030421723  0.032849027            1 
  165000    1.2202432    -7.193874    60.155193   0.03038141  0.032834248            1 
  166000     1.197067   -7.1858743    60.560881  0.030402049   0.03282179            1 
  167000     1.200062    -7.229553     60.74498  0.030311866  0.032808563            2 
  168000    1.1923023    -7.257574    61.020987  0.030268347  0.032790393            1 
  169000    1.1861497   -7.2405449    61.226958  0.030190808  0.032772595            2 
  170000     1.192489   -7.1751683    61.644732  0.030218006  0.032754352            1 
  171000    1.1992089   -7.2244487    62.062225  0.030244749  0.032735178            1 
  172000    1.1901992   -7.2581764    62.195382  0.030133421  0.032716034            3 
  173000    1.1701353   -7.2602569    62.386321  0.030051214  0.032693069            2 
  174000     1.183511   -7.2256254    62.759474  0.030057219  0.032668614            1 
  175000    1.1572824   -7.2385401    63.193186  0.030091993  0.032645117            1 
  176000    1.1894305   -7.2173497    63.456554  0.030045717  0.032619275            2 
  177000    1.1929006   -7.2836763    63.468697  0.029881684  0.032591763            3 
  178000    1.1890553   -7.2653977    64.157225  0.030036154  0.032562523            1 
  179000     1.157755   -7.2391316    64.439622  0.029999824  0.032535995            2 
  180000    1.1635984   -7.1725625    65.061004  0.030120835  0.032512304            1 
  181000    1.1738221   -7.2656015    65.109932  0.029976948  0.032486882            1 
  182000    1.1647582   -7.2883604    65.433131  0.029960225  0.032461992            2 
  183000    1.1868833   -7.2548546    65.964316  0.030038395  0.032438385            2 
  184000    1.1924227   -7.2417389    66.160935  0.029964191  0.032415271            2 
  185000    1.1885337   -7.2542582    66.586813   0.02999406  0.032393457            1 
  186000    1.1922648   -7.2854387    66.838355  0.029945499  0.032369319            2 
  187000    1.1647554   -7.2134038    67.566347   0.03010978  0.032346613            3 
  188000    1.1754074   -7.2994039    67.322889  0.029841706  0.032319469            4 
  189000    1.1791678   -7.2650352    67.840099   0.02991186  0.032292639            1 
  190000    1.1871345   -7.2798235    68.132957  0.029882876  0.032267218            1 
  191000    1.1653722   -7.2367413    68.479688    0.0298777  0.032241527            1 
  192000    1.1590804   -7.2571639    68.616265  0.029781365  0.032214239            2 
  193000    1.1543731   -7.2091782    69.076997  0.029825992  0.032185096            1 
  194000    1.1610699   -7.2656138    69.416413  0.029818047  0.032156516            2 
  195000    1.1751448   -7.2596275     69.65087  0.029765329  0.032127691            4 
  196000    1.1816598    -7.260701    70.044322  0.029780749  0.032099398            3 
  197000     1.157792   -7.2946856    70.387355  0.029774685  0.032070967            1 
  198000    1.1787492   -7.2585284    70.688178  0.029750917  0.032044365            3 
  199000    1.1879754   -7.2332712    71.557715  0.029965542  0.032019992            3 
  200000    1.1597786   -7.2486125    71.573436  0.029822265  0.031996801            1 
  201000    1.1743781   -7.2624891    72.482606  0.030050832  0.031976256            2 
  202000    1.1625316   -7.2590638    72.407375  0.029871029  0.031957034            2 
  203000    1.1638258   -7.2344076    72.858293  0.029908987  0.031937486            1 
  204000    1.1438973   -7.3007844    73.309747  0.029946792  0.031919954            1 
  205000    1.1634247   -7.2767635    73.436268  0.029852142  0.031899373            1 
  206000    1.1723585   -7.2381787    73.949281  0.029914758  0.031878904            2 
  207000    1.1941479    -7.310032    74.005546  0.029792893  0.031857494            3 
  208000    1.1678918    -7.257047    74.563962  0.029873382  0.031838079            2 
  209000    1.1722344    -7.228387     75.46372  0.030089202  0.031819747            1 
  210000    1.1689526    -7.297983     75.54089  0.029976544  0.031803905            1 
  211000    1.1560132   -7.2571441    76.005822  0.030018097  0.031788581            1 
  212000    1.1693625   -7.2479805    76.253498  0.029973859  0.031772867            2 
  213000    1.1735361   -7.2839158    76.512406  0.029934431  0.031756571            1 
  214000    1.1692612   -7.2885801    76.775452  0.029896983  0.031740951            1 
  215000     1.173731   -7.2737156    77.250613  0.029942098  0.031726631            3 
  216000    1.1797231   -7.2989227    77.675807  0.029967518  0.031712093            1 
  217000    1.1752684   -7.2870269    77.964021    0.0299401  0.031696809            3 
  218000    1.1663819   -7.2913529    78.515544  0.030013587  0.031681847            1 
  219000    1.1471538   -7.2775812    78.546119  0.029888173  0.031666865            1 
  220000    1.1623759   -7.3029744    79.311696  0.030042309  0.031653391            2 
  221000    1.1742812    -7.270665    79.771371  0.030079702  0.031639939            1 
  222000    1.1778539    -7.288442    79.863932  0.029978953  0.031627078            2 
  223000    1.1800625   -7.2921513    80.252607  0.029989763  0.031616871            2 
  224000    1.1664725   -7.2639894    81.059951  0.030156232  0.031605371            1 
  225000    1.1777268   -7.3118415    80.921916   0.02997108   0.03159274            1 
  226000    1.1571297   -7.2999181    81.077365  0.029895784  0.031579938            1 
  227000    1.1615193   -7.2798729     81.76529  0.030016626  0.031567344            1 
  228000    1.1520931   -7.3152503    82.172048  0.030033643  0.031555132            1 
  229000     1.145927   -7.3278971    82.366758  0.029973347  0.031543662            3 
  230000    1.1490025   -7.2881219    83.015436  0.030078056  0.031532798            2 
  231000      1.15844   -7.2477341    83.204649  0.030016107   0.03152136            1 
  232000    1.1935179   -7.3511493     83.13873   0.02986305   0.03150937            2 
  233000    1.1852932    -7.264458    83.983473  0.030037008   0.03149636            1 
  234000    1.1483823   -7.2809457     84.36376  0.030044074  0.031483481            2 
  235000    1.1230774   -7.3035331     84.51329  0.029969252  0.031470986            1 
  236000    1.1901754   -7.2797736    84.595738  0.029871376  0.031458068            2 
  237000    1.1200628   -7.3267955    85.160763  0.029944009  0.031445891            2 
  238000    1.1357078   -7.2977507    85.631792   0.02998312  0.031433185            3 
  239000     1.150721   -7.2807248    85.934892  0.029963351  0.031420133            2 
  240000    1.1591139   -7.3002665    86.309863  0.029968702  0.031408345            2 
  241000    1.1943783   -7.3097686    86.494458   0.02990818  0.031396951            3 
  242000    1.1896329   -7.3142648    86.936621  0.029936853  0.031384801            2 
  243000     1.144703   -7.2972424    87.253203  0.029922223  0.031373067            3 
  244000    1.1566807   -7.2972436    87.615147  0.029923206   0.03136075            1 
  245000    1.1385046   -7.3125464    87.874994  0.029889454   0.03134863            1 
  246000    1.1549386   -7.3135837     88.32534  0.029920508  0.031336571            3 
  247000     1.166557   -7.3090793    88.357226   0.02981013  0.031322957            1 
  248000    1.1726483   -7.2804566    88.826555  0.029847633  0.031307571            1 
  249000    1.1392807    -7.247909     89.21613  0.029858142  0.031292935            2 
  250000    1.1539472   -7.2952086    89.382725  0.029794242  0.031280025            1 
  251000    1.1731956   -7.3290919    89.838698  0.029826925  0.031266252            2 
  252000    1.1755097   -7.3203183    89.972194   0.02975271  0.031251367            2 
  253000    1.1738401   -7.3120351    90.380115  0.029769471  0.031236369            1 
  254000    1.1316417   -7.3342342    90.435492  0.029670437   0.03122052            1 
  255000    1.1478305   -7.3169594    90.701164  0.029640903  0.031204594            3 
  256000    1.1458479   -7.3232775    91.124434  0.029662902  0.031187493            2 
  257000     1.139459   -7.3003765    91.531968  0.029679626  0.031170773            1 
  258000    1.1521228   -7.3141492    91.766341  0.029640291  0.031154126            1 
  259000    1.1669251   -7.3119527    92.437151  0.029741683  0.031139008            3 
  260000     1.170063   -7.2887163    92.736487  0.029723233  0.031124286            5 
  261000    1.1617733   -7.3352392    92.768206  0.029619478  0.031109658            2 
  262000    1.1536462   -7.2736111    92.959018  0.029567118  0.031094198            1 
  263000     1.137071   -7.3388686    92.922104  0.029442999  0.031077741            2 
  264000    1.1391311   -7.3221336    93.209747  0.029422269  0.031059369            2 
  265000    1.1519234   -7.3573894    93.353014  0.029356294  0.031040062            2 
  266000    1.1659214   -7.3251078    93.585996  0.029318921  0.031017475            2 
  267000    1.1409536   -7.3368094    94.139382   0.02938183  0.030997179            1 
  268000    1.1313432   -7.3365494    94.690664  0.029443614  0.030977566            4 
  269000     1.140869   -7.3511462    95.089605  0.029457746  0.030959678            1 
  270000    1.1639446   -7.3041643    95.371566  0.029435668  0.030941241            1 
  271000    1.1524499   -7.3226786    95.575931  0.029389893   0.03092165            2 
  272000    1.1637305   -7.3445766     95.54694   0.02927296  0.030900837            2 
  273000    1.1417477   -7.3456523    95.708234  0.029214967  0.030878554            3 
  274000    1.1378689   -7.3715084    95.702877  0.029106714  0.030855288            4 
  275000    1.1248843   -7.3075585    96.328267  0.029190384  0.030831126            2 
  276000     1.135339   -7.3197554    96.563924  0.029155774  0.030808011            2 
  277000    1.1353709     -7.29241    97.110275  0.029214884  0.030784041            1 
  278000    1.1220634   -7.3358806    97.270252  0.029157749  0.030759992            1 
  279000    1.1529155   -7.3009215    97.523768  0.029128963  0.030736879            2 
  280000    1.1396133   -7.3766974    97.597015  0.029046731  0.030713328            1 
  281000    1.1484965    -7.306099    98.020791  0.029069037  0.030689084            3 
  282000    1.1456107   -7.3220593    98.091351  0.028986806   0.03066365            3 
  283000    1.1428574    -7.315036    98.468168  0.028995338  0.030638366            1 
  284000    1.1610568   -7.3266077    98.745669  0.028974668  0.030614293            4 
  285000    1.1071596   -7.3398207    98.666425  0.028849832  0.030589539            2 
  286000     1.143653   -7.3599377    99.268477  0.028924381  0.030564607            1 
  287000    1.1352568    -7.329192    99.563723  0.028909327  0.030539621            1 
  288000    1.1922498   -7.3650821    99.533518  0.028800208  0.030514544            3 
  289000    1.1297354   -7.3468841    99.942595  0.028818511  0.030489188            1 
  290000    1.1676324    -7.355872    100.52987  0.028887894  0.030464959            5 
  291000    1.1453787   -7.3555198    100.96318   0.02891271  0.030441819            1 
  292000    1.1421111   -7.3640828    101.31191  0.028913216   0.03041919            2 
  293000    1.1592903   -7.3329886    101.38062  0.028834078  0.030396558            1 
  294000    1.1629766   -7.3826405    101.90481  0.028884583  0.030373431            3 
  295000    1.1381083    -7.381277    101.96864  0.028804701  0.030350357            1 
  296000    1.1396434    -7.365819     102.2665  0.028791246  0.030327124            2 
  297000    1.1550353   -7.3463454    102.71736  0.028820807  0.030304718            4 
  298000     1.146437   -7.3653241    102.80582   0.02874883  0.030282117            1 
  299000     1.108192   -7.4088961    102.95629  0.028694618  0.030260106            3 
  300000    1.1363108   -7.3840518    103.18362  0.028662116  0.030237222            1 
  301000    1.1206622    -7.344099    104.03236  0.028801871  0.030214338            1 
  302000    1.1457714   -7.3716351    104.28108  0.028775134  0.030192375            1 
  303000    1.1399012   -7.3786456    104.58519  0.028763804  0.030171433            3 
  304000    1.1535641   -7.3393619    104.80087  0.028728309  0.030150383            2 
  305000    1.1510459   -7.3231428     105.2577  0.028758935  0.030130445            1 
  306000    1.1140553   -7.3821076    105.28819  0.028673254  0.030108379            1 
  307000    1.1355706    -7.360463    105.20827  0.028558163   0.03008551            1 
  308000    1.1351036    -7.335163    106.00597   0.02868127  0.030062911            2 
  309000    1.1081339   -7.3867897    106.01877  0.028591901  0.030040414            1 
  310000    1.1422616   -7.3758069    106.57664  0.028649635  0.030018959            2 
  311000    1.0993029   -7.3506935    106.62369  0.028570119  0.029996909            3 
  312000    1.1356581   -7.3494459    107.36286  0.028675978  0.029975528            2 
  313000    1.1588648   -7.3636337    107.34668  0.028580052  0.029954244            2 
  314000    1.1348501   -7.3567924    108.01339  0.028665975  0.029933576            1 
  315000     1.142819   -7.3649065    108.20172  0.028624792   0.02991316            2 
  316000    1.1365469   -7.3724903     108.5444  0.028624577  0.029892723            2 
  317000     1.136349   -7.3606437    108.70468  0.028576414   0.02987209            2 
  318000    1.1371353   -7.3822449    108.88881  0.028534804    0.0298509            2 
  319000    1.1361459   -7.3841074    109.04216  0.028485411  0.029829309            2 
  320000    1.1322582   -7.3369656    109.48737  0.028512336  0.029807458            2 
  321000    1.1479757   -7.3515835    109.55094  0.028440016  0.029784873            1 
  322000    1.1346281   -7.3880416    109.60197    0.0283649  0.029762481            1 
  323000     1.100868   -7.3448975    110.12666  0.028412451  0.029740732            1 
  324000    1.1297636   -7.3488739    110.56265  0.028436897  0.029718415            2 
  325000    1.1277449    -7.320442    110.97371  0.028454798  0.029697133            1 
  326000    1.1212075   -7.3996232    110.86012  0.028338477  0.029675506            1 
  327000    1.1135814   -7.3888128     111.1417  0.028323572  0.029653419            2 
  328000    1.1159171   -7.3916563    111.76366  0.028395238  0.029631895            3 
  329000    1.1281313   -7.3593547    112.08398  0.028390066  0.029610782            3 
  330000    1.1495335   -7.4015859    112.48013  0.028404073  0.029590341            1 
  331000    1.1090896   -7.3589927    112.58484  0.028344623  0.029569937            2 
  332000    1.1495725   -7.3756387    113.08251  0.028384165  0.029549391            2 
  333000     1.133776   -7.3828014    113.16142  0.028318674  0.029530102            2 
  334000    1.1288311   -7.4250936    113.66006  0.028358298  0.029510692            2 
  335000    1.1326389   -7.3798613    113.57258  0.028251885  0.029491133            3 
  336000    1.1418551   -7.3655213     113.9753  0.028267683  0.029470927            2 
  337000    1.1135022   -7.3786904    114.47889  0.028308331  0.029449731            2 
  338000    1.1370468    -7.403816    114.31753  0.028184796  0.029428677            2 
  339000    1.1233494    -7.376841    114.81747  0.028224551  0.029407551            1 
  340000    1.0991948   -7.4167003    114.90722  0.028163535  0.029385541            2 
  341000    1.1089503   -7.4248984    115.05084  0.028116041  0.029363375            4 
  342000     1.096405   -7.4238379    115.29486   0.02809329  0.029341623            2 
  343000    1.1402329   -7.3616544    115.96161  0.028173376  0.029320276            4 
  344000    1.1096016      -7.4492    115.82021  0.028057222  0.029299207            1 
  345000    1.1168531   -7.4014509    116.29965  0.028091703  0.029278164            1 
  346000    1.1117663   -7.4372322    116.59712  0.028082158  0.029257151            3 
  347000    1.0962159   -7.4316997    116.51367  0.027981189  0.029235207            1 
  348000    1.1270716   -7.3769905    117.11868   0.02804566  0.029213567            6 
  349000    1.1441552   -7.4075106    118.03835  0.028184897  0.029193114            1 
  350000    1.1176906   -7.4185114    117.89606  0.028070491  0.029173441            1 
  351000    1.1240155   -7.4066755    118.07879  0.028033901  0.029153445            1 
  352000    1.1064804    -7.426645    118.13238  0.027966946  0.029133983            1 
  353000    1.0957097   -7.4032474    118.48872   0.02797184  0.029114153            2 
  354000    1.1086499    -7.396245    118.54454  0.027905964  0.029093615            1 
  355000    1.1214908   -7.3870097    119.16152  0.027972188  0.029073616            2 
  356000    1.0763764   -7.4257044      119.135  0.027887406  0.029053689            1 
  357000    1.1174415   -7.4627621    119.41047  0.027873592   0.02903282            1 
  358000    1.1036583   -7.4210414    119.72331  0.027868555  0.029011977            3 
  359000    1.1227408   -7.3990223    120.14717  0.027889315  0.028991263            1 
  360000    1.1026001   -7.4128421    120.19901  0.027823845  0.028970819            2 
  361000    1.1198775   -7.4034047    120.83151  0.027892777  0.028950851            1 
  362000    1.1039018   -7.4062138    121.12538  0.027883374  0.028932128            1 
  363000    1.0978438   -7.4341091    121.53563  0.027900742  0.028913616            2 
  364000    1.1122429   -7.4132805    121.93541  0.027915615  0.028895058            3 
  365000    1.1161374    -7.428128    122.21526  0.027903026  0.028876519            2 
  366000    1.0919576   -7.4474971    122.32505  0.027851786   0.02885756            1 
  367000    1.1081355   -7.4405065    122.37835  0.027787999  0.028838754            2 
  368000    1.1005385    -7.411749    122.99292  0.027851659  0.028819355            4 
  369000    1.1035977   -7.4013139    123.60028  0.027913342  0.028801466            4 
  370000    1.1232883   -7.4488147    123.28617  0.027767155  0.028782796            1 
  371000    1.1041211   -7.4278796    123.90162  0.027830552  0.028763297            4 
  372000    1.1082948   -7.4241318    124.41653  0.027871086  0.028744817            2 
  373000    1.0925101   -7.4642994    124.02946  0.027709889  0.028726183            3 
  374000    1.1031478   -7.4464776    124.63274  0.027770219  0.028707006            2 
  375000     1.119977   -7.4285141    125.17144  0.027815876  0.028688226            4 
  376000    1.1056386   -7.4598989    125.04814  0.027714571   0.02866966            2 
  377000    1.1057709   -7.4066646     125.3295  0.027703249  0.028651214            1 
  378000    1.1354067   -7.4393162    125.61644  0.027693219  0.028632196            2 
  379000    1.1188687   -7.4519693    125.94228  0.027691795   0.02861367            2 
  380000    1.1027956   -7.4484428    126.45041  0.027730352  0.028595337            2 
  381000    1.0829183   -7.4029557    127.05247  0.027789254  0.028578085            2 
  382000    1.0767334   -7.4312711    126.55324    0.0276076  0.028559873            3 
  383000    1.0878741   -7.4533881    127.04526  0.027642571  0.028540957            2 
  384000    1.1366824   -7.4512639    126.91039  0.027541318    0.0285218            3 
  385000    1.0970679   -7.4026227    127.80721  0.027663898  0.028503443            2 
  386000    1.0949921    -7.427382     127.9226  0.027617142  0.028485914            3 
  387000     1.079316   -7.4733673    128.09901  0.027583767   0.02846846            2 
  388000    1.0969731   -7.4589777    128.55881  0.027611428  0.028451164            2 
  389000    1.1025846   -7.4771128     128.3388  0.027493315  0.028433391            3 
  390000    1.1047403   -7.4436528    128.84729  0.027531472  0.028415115            3 
  391000    1.0966414   -7.4163335     129.2934  0.027556138  0.028397055            2 
  392000    1.0795748   -7.4394526    128.86478  0.027394723  0.028377978            2 
  393000    1.0937065   -7.4455203    129.45083  0.027449286  0.028358787            3 
  394000    1.0826937   -7.4511065    129.84927   0.02746389  0.028339704            2 
  395000    1.0819306    -7.387967    130.12545  0.027452627  0.028320393            1 
  396000    1.1007186    -7.425241    129.91639  0.027339308  0.028301837            2 
  397000    1.0931953   -7.4677531    130.41625  0.027375367  0.028282621            3 
  398000    1.1099996   -7.4240305    130.46687  0.027317183  0.028263502            2 
  399000     1.095986   -7.4425171    131.50989  0.027466559  0.028244972            1 
  400000    1.0949963   -7.4758328    131.37052  0.027368859  0.028226375            3 
  401000    1.0925291    -7.479356    131.53849  0.027335513  0.028207506            1 
  402000    1.0801995   -7.4575512    131.75217   0.02731181  0.028189495            5 
  403000    1.0885563   -7.4203483    132.26723  0.027350543  0.028171195            1 
  404000    1.0756763   -7.4189489    132.62815  0.027357291  0.028152905            2 
  405000    1.0951071   -7.4902395    132.77575  0.027320113  0.028135643            1 
  406000    1.0727356   -7.4573839    132.60162  0.027217081  0.028117631            1 
  407000    1.1102916   -7.4437919    133.25413  0.027283811  0.028098595            2 
  408000    1.0909489   -7.4799153    132.73045  0.027109977  0.028079248            2 
  409000    1.1100027   -7.5167972    132.94176  0.027086747  0.028059435            1 
  410000    1.0890797   -7.4637285     133.6626  0.027167196  0.028039658            1 
  411000    1.0801515   -7.4884179    134.04703  0.027179041  0.028020331            2 
  412000    1.1069945   -7.4201949    134.41495   0.02718749  0.028001264            3 
  413000    1.0943821   -7.4891832     134.1768  0.027073608   0.02798204            1 
  414000    1.1160074    -7.473734    134.70417  0.027114367  0.027962513            3 
  415000    1.1084705   -7.4716997    134.54861  0.027017794  0.027942785            3 
  416000    1.0747723   -7.4904195     134.8435   0.02701192  0.027923401            2 
  417000    1.1149445   -7.4526833    135.41622  0.027061595  0.027905077            1 
  418000    1.1111265   -7.4641569    135.96393  0.027106047  0.027886844            3 
  419000    1.0835984   -7.4293519    136.06568  0.027061591  0.027868803            1 
  420000    1.0975095   -7.4566393    136.30941  0.027045518  0.027850734            1 
  421000    1.0702452   -7.4656639     136.7153   0.02706162  0.027833228            1 
  422000    1.0777965   -7.5104527    136.74326  0.027003013  0.027815242            2 
  423000    1.0877701    -7.456833    137.93665   0.02717428  0.027797516            1 
  424000    1.0958779   -7.4764743     137.3977  0.027004264  0.027780086            1 
  425000    1.0794703   -7.4597173    137.63208  0.026986682  0.027762069            4 
  426000    1.0618838   -7.4734939    137.81964  0.026960024  0.027743996            2 
  427000    1.0853325   -7.4501265    138.55296  0.027039999  0.027726462            2 
  428000    1.0931538   -7.4944194    138.48476  0.026963543  0.027709429            3 
  429000    1.0991971   -7.4936473    138.63851  0.026930558  0.027691832            4 
  430000    1.0923701   -7.4805685    138.76982  0.026893375  0.027674241            4 
  431000     1.084577   -7.4718618    139.75292   0.02702106  0.027656357            2 
  432000    1.0863334     -7.45584      139.661  0.026940779  0.027639469            1 
  433000    1.0888928   -7.4603059    139.69925  0.026885923  0.027622135            1 
  434000     1.090209   -7.4778659    139.87204  0.026857151  0.027604911            4 
  435000    1.0789766   -7.4583049    140.53087  0.026921623  0.027586951            2 
  436000    1.0733143    -7.478594    140.25874  0.026807864  0.027568941            1 
  437000    1.0959953   -7.4679749    140.74716  0.026839658  0.027551084            1 
  438000    1.0725341   -7.4996175    140.63588  0.026757206  0.027533916            1 
  439000    1.0905095   -7.4608285     141.6613  0.026890908  0.027516666            2 
  440000    1.0711712   -7.5239398    141.00962  0.026706368  0.027499593            3 
  441000    1.0823802   -7.4391303    141.97555  0.026828334  0.027482069            1 
  442000    1.0933935    -7.465747    141.77521  0.026729866  0.027465239            2 
  443000    1.0615708   -7.4860774    142.27113  0.026762816  0.027448175            2 
  444000    1.0693361    -7.519476    142.54049  0.026753095  0.027430885            1 
  445000    1.0623814   -7.5008926    142.49299   0.02668408  0.027412827            3 
  446000    1.0893463   -7.4458211     142.9077  0.026701738   0.02739482            1 
  447000    1.0669444   -7.5058454    143.31847  0.026718581  0.027377136            3 
  448000    1.0809106   -7.4515383     143.7851   0.02674574  0.027360478            1 
  449000    1.0736072   -7.4986775    143.88647  0.026704987  0.027343163            1 
  450000    1.0840988   -7.4642417    144.53957  0.026766587  0.027326392            2 
  451000    1.0832448   -7.4888829    144.18149  0.026641074  0.027309421            1 
  452000     1.057406   -7.4719329    144.53475  0.026647263  0.027291731            2 
  453000    1.0681052   -7.5044245    144.31965  0.026548868  0.027273821            2 
  454000    1.0629623    -7.506289    144.40726  0.026506472  0.027255553            1 
  455000     1.071448    -7.491411    144.87624  0.026534111  0.027237684            4 
  456000    1.0747073   -7.4661668    145.67346  0.026621611   0.02722035            2 
  457000    1.0831278   -7.5113207    145.27994  0.026491602  0.027202971            1 
  458000    1.0788629   -7.4731706    146.17156   0.02659599  0.027185764            2 
  459000    1.0466827   -7.4901178    146.00465  0.026507742  0.027168011            3 
  460000    1.0761341   -7.4682285    146.48841  0.026537756  0.027150494            1 
  461000    1.0739262   -7.5201627    146.11161  0.026412076  0.027133771            2 
  462000    1.0851212    -7.509388    147.00531  0.026516109  0.027116792            2 
  463000     1.084095   -7.5307762    146.98805  0.026455733  0.027099619            1 
  464000    1.0923507   -7.4718088    147.57869  0.026504794  0.027082859            3 
  465000    1.0891927   -7.5152328    147.39101  0.026414159  0.027065984            3 
  466000    1.0626299    -7.454881    148.43799  0.026544705  0.027048943            4 
  467000     1.113407   -7.5468586    148.26595  0.026457164  0.027032194            2 
  468000    1.0701034   -7.5185444    148.42149  0.026428327  0.027015463            2 
  469000     1.030124   -7.5196394    148.63579  0.026410054  0.026998458            2 
  470000    1.0701263    -7.497556    148.59831  0.026347218  0.026981955            4 
  471000    1.0684862   -7.4630576    150.01818  0.026542494  0.026965781            2 
  472000    1.0555657   -7.5346491    149.15553  0.026333956  0.026950286            2 
  473000    1.0503941   -7.5053154    149.68957  0.026372369  0.026933825            2 
  474000    1.0840355   -7.5157434    149.98346  0.026368401  0.026917533            1 
  475000    1.0520281   -7.5510094    150.27388  0.026363839  0.026901193            4 
  476000    1.0842766   -7.4976938    150.55874  0.026358323  0.026884667            3 
  477000    1.0811496   -7.5155943    150.79632  0.026344571  0.026868547            1 
  478000    1.0561567   -7.5535966    151.29105  0.026375706  0.026852797            3 
  479000    1.0567254   -7.5207984    151.23158  0.026310295   0.02683733            2 
  480000    1.0614604   -7.5503344    151.67511  0.026332485  0.026821559            3 
  481000    1.0512042    -7.559527    151.91782  0.026319789  0.026805856            2 
  482000    1.0835514   -7.5734189    151.67736   0.02622361  0.026790164            5 
  483000    1.0535911    -7.527183    152.18641  0.026257144  0.026774419            5 
  484000    1.0621473   -7.5271839    152.08461  0.026185366  0.026758529            5 
  485000    1.0869758   -7.5376022    152.90827  0.026272898   0.02674294            3 
  486000     1.063931   -7.4850691    152.86371  0.026211198  0.026727516            2 
  487000    1.0743046   -7.5475235    153.03868  0.026187316  0.026711897            2 
  488000    1.0599807   -7.5716951    153.28057  0.026174961  0.026695766            4 
  489000    1.0405519   -7.5417334    153.42888  0.026146708  0.026679243            1 
  490000    1.0600892    -7.597843      153.467  0.026099831  0.026663035            3 
  491000    1.0613931   -7.5266358    154.43422  0.026210831  0.026646946            1 
  492000    1.0516779   -7.5383127     154.1499  0.026109401  0.026630853            3 
  493000    1.0434117   -7.4970972    154.12274  0.026051849  0.026614186            2 
  494000    1.0474365    -7.519258    154.66162  0.026090016  0.026597787            3 
  495000    1.0458365   -7.5325834    154.41668  0.025996073  0.026581427            3 
  496000    1.0508329   -7.5201121    155.05999  0.026051746  0.026564615            1 
  497000    1.0510174    -7.541513    154.77802  0.025952049  0.026547817            1 
  498000    1.0515014   -7.5482016    155.06082  0.025947259  0.026530799            7 
  499000    1.0222899   -7.5431504    155.29364  0.025934142  0.026513759            3 
  500000     1.060058    -7.531864    155.43054   0.02590509  0.026496433            4 
  501000    1.0560557   -7.5491737      155.632  0.025886893  0.026478898            2 
  502000    1.0430991   -7.5496497    155.54957  0.025821642  0.026461228            4 
  503000    1.0559354   -7.5577495    155.68142  0.025792151  0.026443397            1 
  504000    1.0457578   -7.5401656    155.90722  0.025778311  0.026425572            1 
  505000    1.0652188   -7.5466645    156.20044  0.025775651  0.026407377            1 
  506000    1.0568867    -7.547641    156.00699   0.02569285  0.026389522            1 
  507000    1.0582827   -7.5735695    156.27378  0.025686026  0.026371388            2 
  508000    1.0416998   -7.5454057    156.89626  0.025737576  0.026352929            1 
  509000    1.0834266   -7.5301198    156.82551  0.025675427  0.026334521            2 
  510000    1.0512794   -7.5775545    157.12193  0.025673518  0.026316129            1 
  511000    1.0583377   -7.5712877    157.20871  0.025637428  0.026297886            2 
  512000    1.0438798   -7.5867999    157.11079  0.025571418  0.026279748            2 
  513000    1.0502519   -7.5969358    157.76677   0.02562813  0.026261672            3 
  514000    1.0446533   -7.5673829    157.84592  0.025591103  0.026243152            4 
  515000    1.0457507   -7.5377703    157.61551  0.025504128  0.026224756            1 
  516000    1.0596373   -7.5852988    157.77583  0.025480593  0.026206174            2 
  517000    1.0459881   -7.5609662    158.59985  0.025564128  0.026188001            1 
  518000    1.0454702   -7.5913377    158.80226  0.025547338  0.026170013            2 
  519000    1.0656048   -7.6021187     158.6201  0.025468866  0.026151427            2 
  520000    1.0605114   -7.5527501    158.66996  0.025427878  0.026132638            1 
  521000     1.034096   -7.5389827    159.16729  0.025458619  0.026114314            2 
  522000    1.0513418   -7.5782539     159.6396  0.025485249  0.026095994            2 
  523000    1.0457152   -7.6016298    159.23334  0.025371788  0.026077365            1 
  524000    1.0440228   -7.5863866    159.37217  0.025345446  0.026058502            2 
  525000    1.0286414   -7.5702243    159.98927  0.025395122   0.02603968            3 
  526000    1.0438468   -7.5835401    159.57188  0.025280716  0.026020982            1 
  527000    1.0371462    -7.620777    159.88723  0.025282611  0.026001693            2 
  528000    1.0383055   -7.5759372    160.65006  0.025355124  0.025982954            3 
  529000    1.0542582   -7.5661101    160.99345  0.025361286  0.025964391            1 
  530000    1.0511435   -7.5311579    161.03014  0.025319205  0.025945645            1 
  531000    1.0493304     -7.58509    161.36899    0.0253247  0.025927476            1 
  532000    1.0454269   -7.5652671    161.96739  0.025370831   0.02590907            1 
  533000    1.0482267    -7.593273    161.68461  0.025279019  0.025891259            2 
  534000    1.0470929    -7.581161    162.43531   0.02534883  0.025873209            3 
  535000    1.0623813   -7.6094326    162.11727   0.02525191   0.02585547            1 
  536000    1.0180848   -7.5955439    162.10584  0.025203023  0.025837407            2 
  537000    1.0203095   -7.6313641    162.35997  0.025195525  0.025819034            2 
  538000    1.0511903   -7.5996249    162.69121  0.025200001  0.025800623            1 
  539000    1.0385156   -7.6241749    162.44025  0.025114448   0.02578215            1 
  540000    1.0161266   -7.5929363     162.9968  0.025153827  0.025763633            1 
  541000    1.0212992    -7.564154    163.16071   0.02513258  0.025744848            2 
  542000    1.0345803   -7.6214359    163.15365  0.025085125  0.025726067            2 
  543000    1.0194139   -7.5909146    163.68465  0.025120419  0.025707674            3 
  544000    1.0278782   -7.5803757    164.33964  0.025174577  0.025689382            2 
  545000    1.0537945   -7.5878688    163.50521  0.025000797  0.025670911            2 
  546000    1.0448627   -7.6230859    163.79393  0.024999073   0.02565252            1 
  547000    1.0515859   -7.5871074    164.09374  0.024999046  0.025633947            1 
  548000    1.0450531   -7.6143251    164.73283  0.025050614  0.025615702            3 
  549000    1.0365328   -7.5907883    164.54916  0.024977104  0.025597687            2 
  550000    1.0298155   -7.6085064    165.28123  0.025042611  0.025579567            3 
  551000    1.0418474   -7.5623715    165.06565  0.024964557  0.025561732            2 
  552000    1.0351814   -7.5988478    165.43712   0.02497541  0.025543412            1 
  553000    1.0651561   -7.5968632     165.0219  0.024867677  0.025524872            5 
  554000    1.0091635   -7.5635621    166.00283  0.024970342   0.02550649            1 
  555000    1.0581555   -7.6319696    165.16437  0.024799454   0.02548834            3 
  556000    1.0374579   -7.6123909    165.69077  0.024833749  0.025469449            1 
  557000    1.0132763   -7.6081871    165.98479  0.024833153  0.025450856            2 
  558000    1.0256235   -7.6435592    166.20664   0.02482178  0.025432235            2 
  559000    1.0213382   -7.6396529    166.54741  0.024828176  0.025413763            2 
  560000    1.0195862   -7.6080673    166.82358  0.024824938  0.025395267            2 
  561000    1.0307911   -7.5963351    166.94689  0.024799004  0.025376336            3 
  562000    1.0294448   -7.6189788    166.66292   0.02471277   0.02535798            3 
  563000    1.0001041   -7.5903374    167.27719  0.024759797  0.025339562            1 
  564000    1.0247709   -7.6085639    167.52476  0.024752476  0.025320993            1 
  565000    1.0475155   -7.5830465    168.22269  0.024811607  0.025302619            1 
  566000    1.0131659   -7.5967248    167.75844  0.024699416  0.025284444            1 
  567000    1.0105679   -7.6043769    167.57584  0.024629018  0.025265766            1 
  568000    1.0275798   -7.6245832    167.81195  0.024620298  0.025246713            1 
  569000    1.0304376   -7.5988058    168.06708  0.024614393  0.025227459            5 
  570000    1.0307423   -7.6098726    167.95486  0.024554804   0.02520869            1 
  571000    1.0302281   -7.5885834    168.30865  0.024563434  0.025189809            2 
  572000    1.0309537   -7.6054092    168.52487  0.024551991  0.025170771            2 
  573000    1.0203482   -7.5981982    169.64071  0.024671424  0.025151659            4 
  574000    1.0295889   -7.6324036    168.64568  0.024483984  0.025132814            2 
  575000    1.0199683   -7.6413514    168.59327  0.024433807  0.025113839            1 
  576000    1.0305844   -7.6039827    169.16146  0.024473591  0.025094492            1 
  577000    1.0432387   -7.5958864    169.07016   0.02441799  0.025075307            2 
  578000    1.0305714   -7.6236224    169.20306  0.024394904  0.025056529            2 
  579000   0.99429456   -7.5868582    169.75995  0.024432924  0.025037256            1 
  580000    1.0142019   -7.6410668    169.42532  0.024342718  0.025017956            1 
  581000    1.0140904   -7.6636925    169.33849  0.024288366  0.024998169            2 
  582000    1.0167012   -7.5928874    169.62323  0.024287404  0.024978301            3 
  583000    1.0054653   -7.5978011    170.20116  0.024328354  0.024958643            1 
  584000    1.0179044   -7.6046189    170.32103  0.024303799  0.024939186            2 
  585000     1.028016   -7.6268383    170.23137  0.024249483  0.024919467            3 
  586000     1.018475   -7.6294942    170.45653  0.024240121  0.024899498            2 
  587000   0.99741399   -7.6372902    170.55096  0.024212232  0.024879911            2 
  588000    1.0050909   -7.6482772    171.01121  0.024236283  0.024860649            3 
  589000    1.0247641   -7.6249399    171.27687  0.024232721  0.024841556            1 
  590000    1.0081483   -7.6194806    171.55638  0.024231128   0.02482254            1 
  591000    1.0366885   -7.6161673    172.07531  0.024263298  0.024803271            3 
  592000    1.0107127   -7.6365594    172.00373  0.024212237   0.02478428            1 
  593000      1.02603   -7.6085823    171.85569  0.024150603  0.024765415            5 
  594000   0.99267731   -7.6576848    172.84278  0.024248426  0.024746917            2 
  595000   0.99915936   -7.6322716    172.67387  0.024184016  0.024728427            2 
  596000    1.0022857   -7.6366084    172.82104  0.024164016  0.024709724            2 
  597000    1.0222665   -7.6553366    173.07923   0.02415958  0.024691356            2 
  598000    1.0079031    -7.649626    173.50506   0.02417852  0.024673203            1 
  599000    1.0334433   -7.6528742    173.46129  0.024132066  0.024655079            1 
  600000   0.99803725   -7.6319729    173.64801  0.024117779  0.024636468            3 
  601000    1.0050487   -7.6492174    173.74226  0.024090718  0.024617755            2 
  602000    1.0240638   -7.6584185    173.61397  0.024032942  0.024599304            1 
  603000    1.0121706   -7.6222262    174.71696  0.024145517  0.024581055            1 
  604000    1.0339644   -7.6966496    174.51291  0.024077388  0.024563076            3 
  605000    0.9972142    -7.659605     174.2501  0.024001392  0.024544889            2 
  606000    1.0034782   -7.6655737    174.55378  0.024003546  0.024526668            1 
  607000    1.0226732   -7.6809097    174.94166  0.024017251  0.024508374            2 
  608000    1.0175691   -7.6469869    175.05976  0.023993936  0.024489995            1 
  609000   0.98084546   -7.6533507    175.44635  0.024007437  0.024471577            1 
  610000    1.0264604   -7.6816682    175.70647  0.024003616  0.024453655            3 
  611000    1.0151167   -7.6521854    175.45572  0.023930131  0.024435681            1 
  612000   0.99998083   -7.6372756    176.09292  0.023977794  0.024417566            2 
  613000    1.0098812   -7.6824349     176.1053  0.023940361  0.024399326            2 
  614000   0.99713435   -7.6511024    176.25265   0.02392137  0.024381401            1 
  615000   0.98506747   -7.6808618     176.0067  0.023849147  0.024363305            2 
  616000   0.99592781   -7.6170782     176.9633   0.02393984  0.024345169            1 
  617000   0.99686068   -7.6920041    176.37267  0.023821268  0.024327204            1 
  618000   0.99378382   -7.6909229    176.77519     0.023837  0.024309359            1 
  619000    1.0034235   -7.6505133    176.89168  0.023814174  0.024291488            1 
  620000    1.0175268   -7.6798153    176.90761  0.023777905  0.024273703            1 
  621000    0.9882806   -7.6686793     177.2904  0.023790982  0.024255733            2 
  622000    1.0075751   -7.6991302    176.91339  0.023702223  0.024237856            2 
  623000   0.99955963   -7.6631552    177.67951  0.023766655  0.024219528            1 
  624000   0.99171215   -7.6750812    177.59001  0.023716615  0.024201535            2 
  625000    1.0232945   -7.6825843    177.62358  0.023683144  0.024183531            2 
  626000     1.009136   -7.6691339    178.04113  0.023700896  0.024165425            1 
  627000    1.0082041   -7.6620686    178.33536  0.023702201  0.024147485            2 
  628000    1.0280118   -7.6586841    178.42742  0.023676674  0.024129612            6 
  629000    1.0051059   -7.6855693    178.31508  0.023624149   0.02411143            4 
  630000   0.99791157   -7.6354425     178.6314  0.023628492  0.024092962            1 
  631000   0.99267431    -7.626238     179.1381  0.023657964  0.024074406            2 
  632000   0.98782993   -7.6806546     178.8888  0.023587659  0.024056001            3 
  633000    1.0051574   -7.7042603    178.67715  0.023522532  0.024037618            2 
  634000     1.028827   -7.6842505    178.39242  0.023448005  0.024018888            2 
  635000    1.0109027   -7.6778462    179.31813  0.023532563  0.024000503            1 
  636000   0.99894665   -7.6748755     179.4374   0.02351119  0.023982325            3 
  637000    1.0137904   -7.6576688    179.95033  0.023541382  0.023964277            4 
  638000     1.033218   -7.7233094    179.39196  0.023431551  0.023946141            2 
  639000    1.0188982   -7.6834082    179.90237  0.023461446  0.023928166            2 
  640000   0.97281331   -7.6881287    180.93181  0.023558829   0.02391026            1 
  641000     1.006812   -7.6656179    181.08786  0.023542364  0.023892808            2 
  642000    1.0083194   -7.7067338    180.72522  0.023458622  0.023875329            2 
  643000    1.0079387   -7.6912417    180.96311  0.023452969  0.023857613            3 
  644000   0.99054772   -7.6987912    181.09262   0.02343331  0.023840071            1 
  645000   0.99866076   -7.7121943    181.36262  0.023431863  0.023822422            2 
  646000    1.0037711   -7.7289015    181.39737  0.023400073  0.023804886            3 
  647000    1.0028103   -7.6887181    181.60718   0.02339093  0.023787452            3 
  648000   0.98958041    -7.707084    181.76496  0.023375123  0.023770142            2 
  649000   0.99554318   -7.7042554    182.06846  0.023378077  0.023752986            1 
  650000   0.99308191   -7.6730137    182.49819  0.023397203  0.023735895            7 
  651000   0.99137184   -7.6570928    182.80272  0.023400246  0.023718859            1 
  652000   0.99799572   -7.7081901    182.43011  0.023316732  0.023701587            1 
  653000   0.99544132   -7.7009835    182.52994  0.023293764  0.023684285            2 
  654000   0.98249613   -7.7380547    182.78708  0.023290913  0.023666824            1 
  655000   0.97984131   -7.6715503    183.68658  0.023369793   0.02364979            2 
  656000   0.98663615   -7.7253025    183.03744  0.023251707  0.023632888            2 
  657000    1.0074629   -7.7022687    183.58973  0.023286369  0.023615794            2 
  658000    1.0015417   -7.7193774    183.78577  0.023275807  0.023598608            4 
  659000    1.0009506   -7.7084212    184.30954  0.023306719  0.023581512            1 
  660000   0.99864711   -7.7058064    184.33234  0.023274285  0.023564576            2 
  661000   0.96933896   -7.6896906    184.76001  0.023292992  0.023547779            5 
  662000   0.99127047   -7.6893058    185.11879   0.02330297  0.023531166            2 
  663000   0.97475797   -7.7166174    185.19846  0.023277836  0.023515018            1 
  664000    1.0112256   -7.7047956    186.28074  0.023378607  0.023499429            4 
  665000   0.99709832   -7.7112832    185.68483  0.023268776   0.02348366            2 
  666000   0.97812357   -7.7154213    186.17621  0.023295322  0.023467581            2 
  667000   0.98821576   -7.7091706    186.37417  0.023285129  0.023451541            3 
  668000    1.0080453   -7.7478757    185.91101  0.023192492  0.023435779            2 
  669000   0.98267777   -7.7247771    186.21721  0.023195965  0.023419741            2 
  670000   0.99890099   -7.7078501    186.29708  0.023171278  0.023403397            1 
  671000   0.99631736   -7.7331341    186.35208  0.023143577   0.02338727            3 
  672000   0.98006129   -7.7060383    186.61287  0.023141477  0.023371116            2 
  673000   0.99627612   -7.6899086    187.16442  0.023175386  0.023355263            3 
  674000   0.98426913   -7.7646197    186.64077  0.023076257  0.023339184            2 
  675000    1.0041382   -7.7002313    187.26091  0.023118631   0.02332297            2 
  676000   0.99214584   -7.7113416    187.41588  0.023103535  0.023306796            2 
  677000   0.98174744    -7.697789    187.26697   0.02305108  0.023290518            1 
  678000   0.95795088   -7.7400218    187.58811  0.023056552  0.023274274            1 
  679000   0.97088516   -7.7084596     187.8372  0.023053166  0.023257993            6 
  680000    1.0083679   -7.7192366    187.64009  0.022995109  0.023241746            2 
  681000   0.97249866   -7.7811197    187.63577  0.022960813  0.023225627            3 
  682000    1.0133276   -7.7033692    188.25268  0.023002527  0.023209349            2 
  683000   0.97592303   -7.7163292    188.55203  0.023005373  0.023193269            2 
  684000   0.99768131   -7.7298217    188.19964  0.022928806  0.023177013            2 
  685000   0.96363452   -7.7296138    189.04691  0.022998408  0.023160954            2 
  686000   0.97273402   -7.7377345    189.12334  0.022974166  0.023145167            2 
  687000   0.96357984    -7.754699     188.9722  0.022922392  0.023129268            4 
  688000   0.97079866   -7.7565841    188.69947  0.022856041  0.023113151            4 
  689000   0.98956646   -7.7414241    189.34177  0.022900553  0.023097215            2 
  690000   0.98333966   -7.7613904    189.68582  0.022908915  0.023081345            1 
  691000   0.96469968   -7.7312743     190.1963  0.022937325  0.023065765            3 
  692000   0.98074922   -7.7319414    190.17506  0.022901621  0.023049948            3 
  693000    0.9673811   -7.7396814    189.67371  0.022808286  0.023034132            2 
  694000   0.94315937   -7.7607242    189.94759  0.022808308  0.023018257            3 
  695000   0.99401912   -7.7503384    190.41192  0.022831166  0.023002349            4 
  696000   0.96744142   -7.7771717    190.82278  0.022847556  0.022986455            4 
  697000   0.97149345    -7.768506    190.92637  0.022827161  0.022970631            2 
  698000   0.98523871   -7.7798309    190.18577  0.022706038  0.022954488            2 
  699000    0.9795531    -7.748701    189.85384  0.022633982  0.022938097            1 
  700000   0.95993082   -7.7471546    191.20442  0.022762431  0.022922055            2 
  701000   0.97256391   -7.7564922    191.03275  0.022709552  0.022905956            1 
  702000    0.9585001   -7.7641618    191.47801  0.022730058  0.022890244            2 
  703000   0.97092232   -7.7456771    191.17376   0.02266166  0.022874509            2 
  704000   0.98867909   -7.7524929     191.7009  0.022691868  0.022858669            1 
  705000   0.98304627   -7.7491797    191.62965  0.022651259  0.022842646            4 
  706000   0.97052424   -7.7454282    191.85503  0.022645778  0.022826628            3 
  707000   0.95352969   -7.7397634    192.31953  0.022668497  0.022810826            2 
  708000   0.97277932   -7.8149966    191.80198  0.022575562  0.022795182            2 
  709000    0.9737243   -7.7667439    192.75702  0.022655973  0.022779338            4 
  710000   0.97593117   -7.7672121    192.66126  0.022612824  0.022763693            3 
  711000    0.9839076   -7.7651192    193.32768  0.022659128  0.022748315            2 
  712000   0.96981473   -7.7839768    193.40335   0.02263616  0.022732881            3 
  713000   0.95519743   -7.7843869    193.41673  0.022605976  0.022717456            1 
  714000   0.95754863    -7.793049    193.34831  0.022566329  0.022701879            4 
  715000   0.95990632   -7.7613315    193.68523  0.022574036  0.022686158            3 
  716000   0.98055117   -7.7825826    193.33553  0.022501808  0.022670561            4 
  717000    0.9688662   -7.7879755    193.93819  0.022540468  0.022655074            5 
  718000   0.97001576   -7.7672046    193.83382  0.022496961  0.022639358            4 
  719000   0.96521717   -7.7935595    193.97487   0.02248202  0.022623657            1 
  720000    0.9421828   -7.7878854    194.23551  0.022480962  0.022607725            4 
  721000   0.94507652   -7.7887455    193.66649  0.022384014  0.022591917            2 
  722000   0.96334959   -7.7461149    194.82763   0.02248703  0.022576299            2 
  723000   0.96614678   -7.7761557     194.3733  0.022403561  0.022560745            4 
  724000   0.96364069   -7.7751018    194.72116  0.022412656  0.022545139            1 
  725000    0.9497638   -7.7942925    195.09526  0.022424743  0.022529306            3 
  726000   0.96274108    -7.747585    194.70811  0.022349416  0.022513254            3 
  727000   0.98986814   -7.7779093    194.78479  0.022327463  0.022497257            1 
  728000   0.98294216   -7.7552394    195.48228  0.022376635  0.022481429            2 
  729000   0.96314938    -7.827009    195.08799  0.022300868  0.022465722            2 
  730000   0.95646326   -7.7809532    195.83403  0.022355483  0.022450004            2 
  731000   0.96344191    -7.815096    195.83806   0.02232536  0.022434218            2 
  732000   0.95071348   -7.7858564    196.04544   0.02231847  0.022418423            3 
  733000   0.97566132    -7.774434    196.31904  0.022319126  0.022402945            2 
  734000   0.94118002   -7.7879291    195.97604  0.022249777  0.022387444            1 
  735000   0.95259972   -7.8287394    195.78181  0.022197485  0.022371677            3 
  736000   0.96697461   -7.7637452    196.53295  0.022252372  0.022355907            4 
  737000   0.96927294   -7.7831918    196.30102  0.022195955  0.022340379            3 
  738000   0.97164503   -7.7441796    197.11651  0.022257962  0.022324988            1 
  739000   0.96336974    -7.755756    196.92169  0.022205873  0.022309541            3 
  740000   0.94927345   -7.7940738    197.16903  0.022203719  0.022293972            1 
  741000   0.94656544     -7.78544    196.93267  0.022147174  0.022278149            2 
  742000   0.98624651   -7.7966894    196.70192   0.02209141  0.022262284            5 
  743000   0.95130154   -7.7891159     197.5966  0.022162024  0.022246739            1 
  744000   0.97238966   -7.7717966    197.86842  0.022162682  0.022231363            1 
  745000   0.94177344   -7.7931432    197.93665  0.022140564  0.022215851            2 
  746000   0.95121576   -7.8230783    197.53213  0.022065698  0.022200434            2 
  747000   0.96903425    -7.792501    198.71154  0.022167731  0.022185223            6 
  748000   0.95290311   -7.8103274    197.97613  0.022056164   0.02217012            4 
  749000   0.95858801    -7.850269    197.86672  0.022014543  0.022154795            5 
  750000   0.98397534   -7.7872852    198.95387  0.022105986  0.022139664            2 
  751000   0.95695123    -7.823051    198.98874  0.022080419  0.022124852            3 
  752000   0.95372435   -7.7730637    199.89038  0.022150973  0.022110093            2 
  753000   0.97462266   -7.7921508    199.45402  0.022073265  0.022095322            2 
  754000   0.93763062   -7.8239315    199.07303  0.022001882  0.022080359            2 
  755000   0.94736971   -7.8337698    199.74632  0.022047055  0.022065492            2 
  756000   0.94965055   -7.7821201    199.98391  0.022044081  0.022050639            2 
  757000   0.94934243   -7.7879622    199.91045  0.022006875  0.022035885            2 
  758000   0.95311303   -7.8001823    200.52515  0.022045421  0.022021116            2 
  759000   0.95058973   -7.8035959     200.3109  0.021992852   0.02200644            3 
  760000   0.97003767   -7.7962085    200.83279  0.022021139  0.021991555            3 
  761000   0.95092307   -7.8062394    200.24954  0.021928333  0.021976702            3 
  762000   0.94471649   -7.7982915    200.39618  0.021915593  0.021961922            6 
  763000   0.94861906   -7.7724365    201.04029  0.021957218  0.021947232            2 
  764000   0.92814174   -7.7919505    200.62513  0.021883194  0.021932643            1 
  765000   0.93752365   -7.7892703    201.07559  0.021903659  0.021917902            2 
  766000    0.9297928   -7.8387048    201.15311  0.021883497  0.021903144            3 
  767000   0.96495559   -7.8266435    200.96962  0.021835031  0.021888286            2 
  768000     0.953457   -7.8286998    201.35037  0.021847914  0.021873338            2 
  769000   0.92932519   -7.8138912    201.15332  0.021798149  0.021858313            2 
  770000    0.9521854   -7.8319832    201.15635  0.021770168  0.021843394            1 
  771000   0.95037526   -7.8262873    201.55671  0.021785204  0.021828344            2 
  772000   0.96092915   -7.7996244    202.23608  0.021830319  0.021813535            4 
  773000   0.94423151   -7.7970902    201.80334  0.021755427  0.021798634            2 
  774000   0.96868066   -7.7862989     201.7113   0.02171741  0.021783693            1 
  775000   0.94180167   -7.8395141    202.29116  0.021751738  0.021768861            3 
  776000   0.94717239   -7.8803072    201.86424   0.02167786  0.021753912            2 
  777000   0.93160912   -7.8529284    202.10727  0.021676027  0.021738921            3 
  778000   0.93584673   -7.8439467    201.93124   0.02162931  0.021723845            3 
  779000   0.94689862   -7.8440006    202.15658  0.021625651  0.021708639            2 
  780000   0.94257419   -7.8833295    202.39658  0.021623567  0.021693513            2 
  781000   0.93680877   -7.8610238    202.66857  0.021624901  0.021678408            1 
  782000   0.94612208   -7.8174082    202.77127  0.021608191  0.021663254            1 
  783000   0.95471134   -7.7900094    203.32731  0.021639774  0.021648074            2 
  784000   0.93073432   -7.8264426    203.06976  0.021584796  0.021632966            2 
  785000   0.91446586   -7.8318998    203.11128  0.021561707  0.021617949            3 
  786000   0.94326185   -7.8617596      203.293  0.021553541  0.021602909            4 
  787000   0.92393507   -7.8159772    203.71277  0.021570603  0.021587787            3 
  788000   0.94313748   -7.8589379    203.53221  0.021524134  0.021572722            3 
  789000   0.93177137   -7.9073888    202.91518  0.021431684  0.021557441            2 
  790000   0.93617736   -7.8765871    203.23746   0.02143855  0.021542064            1 
  791000   0.93145711   -7.8387981    204.12037  0.021504463  0.021527023            4 
  792000   0.93977001    -7.849949    203.30874  0.021391913  0.021511774            1 
  793000   0.91175463   -7.8415737    203.78474  0.021414958  0.021496528            1 
  794000   0.93600353   -7.8090286    204.23813  0.021435572  0.021481401            3 
  795000   0.92353034   -7.8418975    203.96368  0.021379841   0.02146628            2 
  796000   0.93328835   -7.8308401    204.16556  0.021374116  0.021451198            1 
  797000   0.92472611   -7.8261359    204.43658  0.021375636  0.021436062            1 
  798000   0.95158715   -7.8103822    204.74491  0.021381047  0.021420786            3 
  799000   0.94478388    -7.870176    204.57197  0.021336251  0.021405305            3 
  800000     0.935326   -7.8744751    204.51079  0.021303207  0.021389738            3 
  801000   0.93564654   -7.8569177    204.85321  0.021312236  0.021374281            2 
  802000   0.90775758   -7.8469003    204.74533  0.021274452  0.021358903            2 
  803000   0.92640556   -7.8605757    204.47624  0.021220033  0.021343757            3 
  804000   0.93964689   -7.8525049    205.00497  0.021248442  0.021328553            2 
  805000   0.93746819   -7.8529093     205.2997  0.021252557  0.021313272            4 
  806000   0.93064512   -7.8018614    205.47635  0.021244453  0.021298221            3 
  807000   0.92859367   -7.8449927     205.7675  0.021248193  0.021283015            2 
  808000    0.9387889   -7.8260335    205.69779  0.021214706  0.021268029            2 
  809000   0.93241689   -7.8362221    206.20458  0.021240686  0.021252875            3 
  810000   0.92174264   -7.8476983    205.96931  0.021190258  0.021237838            3 
  811000     0.919558    -7.843195    206.31652  0.021199807  0.021222754            2 
  812000   0.91852671   -7.8856491    206.10406  0.021151895  0.021207548            2 
  813000   0.92303303   -7.8692408    206.24366  0.021140186  0.021192249            4 
  814000    0.9308741   -7.8769306    206.20595  0.021110355  0.021176965            2 
  815000   0.95438166   -7.8499885    206.48983  0.021113479  0.021161815            2 
  816000   0.91802814   -7.8756102    206.62035  0.021100934  0.021146582            2 
  817000   0.92356123   -7.8619098    206.78885  0.021092294  0.021131295            2 
  818000   0.93441165   -7.8847222    206.50649  0.021037744   0.02111609            2 
  819000   0.95026437   -7.8874777    206.96549   0.02105876  0.021100637            3 
  820000   0.92311322    -7.882978     206.5439  0.020990234   0.02108512            1 
  821000     0.924646   -7.9321967    205.89245  0.020898544  0.021069597            2 
  822000   0.92347897   -7.8923884    206.88837  0.020974084  0.021054142            2 
  823000   0.92230311   -7.8662965    207.03245  0.020963188  0.021038801            1 
  824000   0.89812415    -7.893052    207.26956  0.020961727  0.021023512            3 
  825000   0.93222485    -7.880085      207.768  0.020986666  0.021008459            1 
  826000   0.92158163   -7.9429917    207.48006  0.020932209  0.020993525            3 
  827000   0.93174303   -7.9005654    207.49673  0.020908578  0.020978498            2 
  828000   0.91589323   -7.8781333    208.26164   0.02096031  0.020963694            1 
  829000   0.93407065   -7.8991338    207.90876  0.020899554   0.02094882            1 
  830000   0.90989141   -7.9017161    208.53631   0.02093738  0.020934017            4 
  831000   0.94033322   -7.8938083    209.01417  0.020960106  0.020919205            2 
  832000   0.91602454   -7.8843603    208.85654  0.020919125  0.020904389            2 
  833000   0.93427296   -7.9347584    208.68588  0.020876939  0.020889474            2 
  834000   0.91270062   -7.8961913    208.48376   0.02083171  0.020874741            2 
  835000   0.92808977   -7.8843145     209.0751  0.020865779  0.020859875            2 
  836000   0.94204373   -7.8620317     209.6614  0.020899262  0.020845023            1 
  837000   0.93639412   -7.8638895    209.21664  0.020830012  0.020830218            1 
  838000   0.92764967    -7.887134    209.57444  0.020840735  0.020815468            4 
  839000   0.91969478   -7.8914283    210.09552  0.020867652  0.020800743            2 
  840000    0.9135077   -7.9027702    209.86118  0.020819562  0.020786161            1 
  841000   0.92121238   -7.8873711    210.44148  0.020852307  0.020771571            5 
  842000   0.91201549   -7.9227088     210.0794  0.020791706  0.020756904            1 
  843000   0.93369716   -7.8968477    209.83412  0.020742796  0.020742178            2 
  844000   0.93774356   -7.9094247    209.86736  0.020721501  0.020727526            2 
  845000   0.93984331   -7.8919323    210.40561   0.02075006  0.020712908            2 
  846000   0.90151531   -7.8969845    210.76317  0.020760754  0.020698413            3 
  847000   0.91664343   -7.9018895    209.72785  0.020634381  0.020683851            3 
  848000    0.8920976   -7.8711076    210.91321  0.020726534  0.020669294            3 
  849000   0.91435357   -7.8732464    211.33454  0.020743477  0.020654838            3 
  850000   0.90890332   -7.8858983    211.11773  0.020697817  0.020640291            2 
  851000   0.92284807    -7.903355     210.8976  0.020651939    0.0206256            2 
  852000     0.904054   -7.8824781    211.07915  0.020645456  0.020610975            2 
  853000     0.909407   -7.8971443    211.06811  0.020620175  0.020596371            4 
  854000   0.91979692    -7.857556    212.25389  0.020711737   0.02058195            1 
  855000   0.90227576   -7.8792575    211.46441  0.020610567  0.020567661            5 
  856000   0.90921364    -7.892403    212.03875  0.020642402  0.020553194            2 
  857000   0.91159772   -7.9055145    211.75016  0.020590253  0.020538835            2 
  858000   0.91137431    -7.938983    211.59665  0.020551345  0.020524277            7 
  859000   0.90056575   -7.9440242    211.87316  0.020554245  0.020509549            4 
  860000   0.93008108   -7.9291672    211.19373  0.020464509  0.020494839            2 
  861000   0.91806728   -7.9009257    211.73216  0.020492853  0.020480295            3 
  862000   0.89209407   -7.8795994    211.77199   0.02047293  0.020465847            2 
  863000   0.93334491   -7.9028365     212.1772  0.020488336  0.020451165            2 
  864000   0.92298578   -7.9570712    211.77967   0.02042628  0.020436661            3 
  865000   0.91389141   -7.9114543    212.45216  0.020467453  0.020421971            5 
  866000   0.91969891   -7.9523221    211.80295  0.020381346  0.020407171            2 
  867000    0.9157959   -7.9391379    211.90289  0.020367444  0.020392244            1 
  868000   0.91026863   -7.9418841    212.67094  0.020417717  0.020377284            2 
  869000   0.90060895   -7.8985935    212.61053  0.020388428  0.020362391            2 
  870000   0.90422369   -7.9090034    212.72611  0.020376064  0.020347637            3 
  871000   0.89593156   -7.9197476    212.80309  0.020360035  0.020333124            2 
  872000    0.8934436   -7.8988754    212.84729  0.020340911  0.020318362            3 
  873000   0.91572377   -7.9178211    212.54878  0.020289116  0.020303608            1 
  874000   0.91520377   -7.8713119    213.27269  0.020334925  0.020288861            1 
  875000   0.89634538   -7.9441705    212.40789  0.020229323  0.020274003            2 
  876000   0.89851825   -7.9158619    212.07361  0.020174431  0.020259057            2 
  877000   0.88677636   -7.9050253    212.90913  0.020230818  0.020244293            1 
  878000   0.89578026   -7.9029436     213.4975   0.02026362  0.020229622            3 
  879000   0.90974782     -7.89192    213.73424  0.020263011  0.020214805            3 
  880000   0.89956494   -7.9293657    213.17711  0.020187227  0.020200035            1 
  881000    0.8928574   -7.9348127    213.51972   0.02019672  0.020185215            2 
  882000   0.91682802   -7.9363132    213.55637  0.020177284  0.020170287            3 
  883000   0.92193821   -7.9235138    214.12222  0.020207835  0.020155494            3 
  884000   0.90124867   -7.9279916    213.77843  0.020152567  0.020140667            3 
  885000   0.88759802   -7.9470902    213.46905  0.020100664   0.02012563            4 
  886000   0.90249052   -7.9620234    213.35702   0.02006744  0.020110749            4 
  887000    0.9122474   -7.9324226    213.65975  0.020073258   0.02009566            2 
  888000   0.90615981   -7.9179281    213.95669  0.020078518  0.020080714            3 
  889000   0.90753986    -7.926234    213.99479  0.020059504  0.020065749            4 
  890000   0.92162556    -7.969972     213.4437  0.019985365  0.020050731            2 
  891000   0.89073563   -7.9400891    214.80598  0.020090346  0.020035879            2 
  892000   0.88990439    -7.963062    214.13817  0.020005434  0.020021094            2 
  893000   0.88895911   -7.9534359    215.14598  0.020077079  0.020006252            1 
  894000   0.90414093   -7.9605923     214.5456  0.019998657  0.019991582            2 
  895000   0.88578101   -7.9248952    214.85673  0.020005282  0.019976832            1 
  896000    0.8777226    -7.972793    214.53797  0.019953308  0.019962005            4 
  897000   0.89920143   -7.9547523    214.88152   0.01996298  0.019947217            2 
  898000   0.89897417   -7.9403677    215.07451  0.019958659  0.019932386            2 
  899000   0.88973164    -7.923389    215.43476  0.019969851  0.019917727            2 
  900000     0.883243   -7.9595323    214.86333  0.019894753  0.019902962            2 
  901000   0.90145477   -7.9672703    215.51608  0.019933045  0.019888237            1 
  902000   0.88583111   -7.9338251    215.38637  0.019898962  0.019873497            1 
  903000   0.89253953   -7.9648759    215.28381  0.019867461  0.019858819            3 
  904000   0.90864608   -7.9821819    215.32427  0.019849214  0.019843806            3 
  905000   0.89140844    -7.973937    215.39284  0.019833594  0.019828815            3 
  906000   0.88047041   -7.9981669    214.67931  0.019746073   0.01981368            4 
  907000   0.90651231   -7.9927426    214.47816  0.019705821    0.0197984            5 
  908000   0.88239608   -7.9713962    215.40648  0.019769317  0.019783135            2 
  909000   0.89286176   -7.9661109    214.88581  0.019699836  0.019767897            3 
  910000   0.89380322    -8.001702    214.68043   0.01965938  0.019752644            3 
  911000   0.90782403   -7.9764639    215.38489   0.01970224  0.019737314            2 
  912000   0.88171685   -7.9577059    215.27246  0.019670363  0.019721984            2 
  913000   0.87588047   -7.9732259    215.40319  0.019660751  0.019706742            1 
  914000   0.90091184   -7.9578529    215.10123  0.019611709  0.019691515            1 
  915000   0.87320861   -7.9897887    215.84623  0.019658127  0.019676267            2 
  916000   0.91331394   -7.9641568    216.41676  0.019688569  0.019661133            2 
  917000    0.8892731   -7.9765023    215.88636  0.019618899  0.019645967            3 
  918000   0.90815499   -8.0011208    215.35769  0.019549536  0.019630687            4 
  919000   0.86597544   -7.9802851    215.98241  0.019584912  0.019615507            3 
  920000   0.88982203   -8.0114196    215.33731  0.019505191  0.019600252            4 
  921000   0.87549436   -7.9800172     215.9156  0.019536337  0.019584837            3 
  922000   0.88729056    -8.013461    215.39616  0.019468199   0.01956955            2 
  923000   0.90268757   -8.0010247    215.64059  0.019469175  0.019554193            3 
  924000   0.85457289   -7.9837313    215.96891  0.019477715  0.019538991            3 
  925000   0.87577128   -7.9760016    215.71461  0.019433749  0.019523721            2 
  926000   0.86034944   -7.9750081    216.28673  0.019464248  0.019508351            1 
  927000   0.88059929   -7.9958479    216.27806  0.019442472  0.019493089            1 
  928000   0.86764174   -8.0138702    216.06651  0.019402525  0.019477714            1 
  929000   0.88527703   -8.0100918    216.30515  0.019403045  0.019462284            2 
  930000   0.86898128   -7.9791457    216.23703  0.019376078  0.019446813            2 
  931000    0.8850489   -8.0109761     216.7628  0.019402328  0.019431478            3 
  932000   0.88832528   -8.0061521    216.37928  0.019347218  0.019416031            2 
  933000   0.87506425   -8.0319599    216.35731  0.019324519  0.019400616            2 
  934000   0.88889228   -7.9841114    216.66063  0.019330891  0.019385344            2 
  935000   0.90237172   -7.9671836    217.08576  0.019348107  0.019370197            8 
  936000   0.88847312   -7.9763795    216.82032  0.019303803  0.019355143            4 
  937000   0.87076253   -7.9930702    217.52736  0.019346083  0.019340105            1 
  938000   0.86408296   -7.9871393    217.34593   0.01930934   0.01932509            1 
  939000   0.88274548   -8.0035235    216.94554  0.019253243  0.019309821            2 
  940000   0.87682073   -8.0166306    217.16948  0.019252613  0.019294588            2 
  941000   0.88487669   -8.0126142    216.84606  0.019203512  0.019279339            1 
  942000   0.87026061   -7.9978158    217.17299  0.019212048  0.019264085            2 
  943000   0.87124851   -7.9694983    217.89608  0.019255574   0.01924895            2 
  944000   0.87131544    -8.014848    217.25429  0.019178521  0.019233889            2 
  945000   0.86989264   -8.0286656    217.30819   0.01916298  0.019218677            2 
  946000   0.86435028   -7.9806965    217.67012  0.019174606  0.019203427            2 
  947000   0.88483644   -8.0261753    217.67182  0.019154508  0.019188186            2 
  948000   0.87043143   -7.9892389    217.86301  0.019151108  0.019172948            3 
  949000   0.89852655   -8.0195452    217.80199   0.01912557  0.019157817            1 
  950000   0.88459903   -8.0122081    217.63415  0.019090715  0.019142648            2 
  951000    0.8719594   -8.0054186    217.76415  0.019082032  0.019127433            2 
  952000   0.88106325   -7.9990677    218.30399  0.019109243  0.019112228            2 
  953000   0.86190959    -8.035964    217.85508  0.019049937  0.019097059            1 
  954000   0.87359244   -8.0314356    217.75002  0.019020791  0.019081995            3 
  955000   0.85653022   -8.0299634    218.93849  0.019104581  0.019067022            1 
  956000   0.86350191   -7.9937336    218.68994   0.01906293  0.019052126            3 
  957000   0.85260309   -8.0079392    218.59005  0.019034313  0.019037143            3 
  958000   0.86231663   -8.0228658    218.41346  0.018999083  0.019022174            2 
  959000   0.85022337    -8.003518    219.03557  0.019033331  0.019007247            1 
  960000   0.87800063   -8.0353398    218.69073  0.018983571  0.018992308            3 
  961000   0.86816405   -8.0306062    218.99792  0.018990455  0.018977278            2 
  962000   0.84440287   -8.0133392    218.73189  0.018947668   0.01896209            4 
  963000   0.85181596   -7.9895916    219.19296  0.018967892   0.01894704            2 
  964000   0.87132728   -8.0449435    218.62288  0.018898935  0.018931893            3 
  965000   0.84179433   -8.0215847    218.99913  0.018911842   0.01891682            4 
  966000   0.87241443   -8.0268665    219.16801  0.018906833  0.018901881            2 
  967000   0.86283202   -8.0297658     219.6195  0.018926189  0.018887029            2 
  968000   0.88516289   -8.0445633    219.74273  0.018917246   0.01887214            2 
  969000   0.85490337   -8.0701666    219.16044  0.018847647  0.018857201            1 
  970000   0.87558997   -8.0245799    219.14155  0.018826593  0.018842237            1 
  971000   0.86158872    -8.045642    219.41784  0.018830917  0.018827275            2 
  972000   0.86113632   -8.0740005    219.76549  0.018841349  0.018812258            6 
  973000   0.86245692   -8.0622863    219.86331  0.018830362   0.01879731            1 
  974000   0.86599538   -8.0420047    219.59164  0.018787786  0.018782449            3 
  975000   0.88129761   -8.0597413    219.61963  0.018770909  0.018767677            3 
  976000   0.85767971   -8.0568329    219.60122  0.018750104  0.018752836            2 
  977000   0.85925112   -8.0384677    220.40213  0.018799226  0.018737949            2 
  978000   0.85667927    -8.039132    220.48646   0.01878719  0.018723062            3 
  979000   0.88409449   -8.0748752    220.27125  0.018749681  0.018708206            2 
  980000   0.83139991   -8.0127603    220.32685  0.018735277  0.018693517            1 
  981000   0.87128124   -8.0276133    221.02627  0.018775592  0.018678862            2 
  982000   0.87756226   -8.0338705    220.61115  0.018721245  0.018664168            2 
  983000   0.85903703   -8.0578821    220.71374  0.018710897  0.018649532            2 
  984000   0.86915051   -8.0195327    221.24001   0.01873645  0.018634892            2 
  985000   0.84797998   -8.0637666    220.96525  0.018694184  0.018620112            1 
  986000   0.83900505   -8.0312864    220.63758  0.018647531  0.018605389            4 
  987000   0.85126144   -8.0887935    220.10557  0.018583719  0.018590645            1 
  988000   0.86264234   -8.0440089    220.46266  0.018595028  0.018575816            1 
  989000     0.891223   -8.0889139    220.59659  0.018587512  0.018561092            7 
  990000   0.88389307   -8.0370887    221.11092   0.01861203  0.018546394            4 
  991000   0.86401206   -8.0446077    221.09758  0.018592127  0.018531666            4 
  992000   0.88395682   -8.0427022    220.85438  0.018552955  0.018516946            1 
  993000   0.84339859   -8.0476738    220.84948   0.01853386  0.018502185            2 
  994000   0.85183649   -8.0671202    221.10958   0.01853702  0.018487495            4 
  995000   0.86853674   -8.0752368    220.97253  0.018506912  0.018472812            2 
  996000   0.87267462   -8.0840781    220.55565  0.018453451   0.01845809            3 
  997000   0.84895885   -8.0688368    221.16956  0.018486256  0.018443379            4 
  998000   0.85304157   -8.0688225    220.64343    0.0184238  0.018428691            4 
  999000   0.83944096   -8.0633956     221.3975   0.01846826  0.018413971            7 
 1000000   0.83667328   -8.0574065    221.78334  0.018481945  0.018399266            2 
 1001000   0.83839346   -8.0462328    221.15397  0.018411086   0.01838469            2 
 1002000   0.83945408   -8.0358625    221.90645  0.018455294  0.018370074            3 
 1003000   0.87145084   -8.0629749    221.32116  0.018388265   0.01835537            3 
 1004000   0.84066412   -8.0459592    221.77642  0.018407737  0.018340773            3 
 1005000   0.83512726    -8.064016    221.83066  0.018393918   0.01832621            2 
 1006000   0.84912327   -8.0852545    221.60028  0.018356551  0.018311594           15 
 1007000   0.85139258   -8.0686758    221.91725  0.018364553  0.018296868            4 
 1008000   0.87089679   -8.0611249    221.82673   0.01833885   0.01828225            6 
 1009000   0.84587831   -8.0741372    222.40871   0.01836874  0.018267676            1 
 1010000   0.85376186   -8.0824094    222.06191   0.01832194  0.018253123            1 
 1011000    0.8462601   -8.1126308    221.75547  0.018278559  0.018238524            1 
 1012000   0.85687128   -8.1040449    222.41152  0.018314519  0.018223907            2 
 1013000    0.8430131   -8.1011298    221.85829  0.018250929   0.01820931            3 
 1014000   0.84590377   -8.0473211    222.30138  0.018269344  0.018194669            2 
 1015000   0.84495192    -8.069671    222.22563  0.018245126  0.018180052            3 
 1016000   0.85758599   -8.0659636    222.65053  0.018262018  0.018165524            4 
 1017000   0.85352094   -8.0755585    222.83425  0.018259116  0.018151059            2 
 1018000   0.85455883   -8.0995288    222.50296  0.018214061  0.018136669            1 
 1019000   0.85047533   -8.1252121    222.51808  0.018197422  0.018122244            1 
 1020000    0.8481495   -8.0753598    223.22359  0.018237222  0.018107831            1 
 1021000   0.85136794    -8.070181    223.39818  0.018233609  0.018093551            1 
 1022000   0.82815087   -8.1078597    223.12491  0.018193485  0.018079325            3 
 1023000   0.84900999   -8.1130811    223.00588  0.018166005  0.018065092            2 
 1024000   0.85809402   -8.1041569    223.27273  0.018169981  0.018050843            4 
 1025000   0.84504079   -8.0581312    223.99569  0.018211032   0.01803665            3 
 1026000   0.84873964   -8.0961432    224.45616  0.018230682   0.01802261            2 
 1027000   0.84586627     -8.09867    223.82867  0.018162015  0.018008534            1 
 1028000   0.81970388   -8.1048264    223.84615  0.018145765  0.017994508            2 
 1029000   0.83534006   -8.1086795    224.14109  0.018152016  0.017980482            3 
 1030000   0.84668085   -8.1113382    223.33618   0.01806927  0.017966372            1 
 1031000   0.85506441   -8.0990335    224.35699  0.018134254   0.01795234            3 
 1032000   0.83182121   -8.0717708    225.04587  0.018172308  0.017938455            2 
 1033000   0.83091381   -8.1134488    224.68934  0.018125955   0.01792458            1 
 1034000   0.82725694   -8.1030082    224.25542  0.018073455  0.017910586            2 
 1035000   0.84620562    -8.133623    224.29663   0.01805931  0.017896639            4 
 1036000   0.84381107   -8.1334673    224.11597  0.018027346  0.017882609            2 
 1037000   0.84585978   -8.1300189    224.22135   0.01801843  0.017868638            4 
 1038000   0.83970077   -8.1017882    224.54088  0.018026725  0.017854738            3 
 1039000   0.83637628   -8.0966597    224.76084  0.018027017  0.017840756            2 
 1040000   0.84021066   -8.1171968    224.63795  0.017999835  0.017826747            1 
 1041000   0.82361256   -8.0915896    224.65377  0.017983812  0.017812791            3 
 1042000   0.84109207   -8.1094849    225.08174  0.018000779  0.017798881            1 
 1043000   0.84752399   -8.1361153     224.4607  0.017933901  0.017784898            2 
 1044000   0.83977005   -8.1184514    224.58542  0.017926678  0.017770897            1 
 1045000   0.84263798   -8.1238436    225.33249  0.017969098    0.0177569            4 
 1046000   0.81391127   -8.1273927    225.14617  0.017937075  0.017743012            2 
 1047000   0.82225917   -8.1363743    224.52496    0.0178705  0.017729094            4 
 1048000   0.83359379   -8.1261227    225.23878  0.017910208  0.017715161            2 
 1049000   0.82674064   -8.1305966    224.15262  0.017806849  0.017701163            2 
 1050000   0.84883547   -8.1034003    224.93183  0.017851733  0.017687081            2 
 1051000    0.8311337   -8.1309798    224.99353   0.01783964  0.017673074            4 
 1052000   0.83435965   -8.1195867    225.93751  0.017897458  0.017659154            4 
 1053000   0.82971919    -8.145421    224.79184  0.017789794  0.017645208            1 
 1054000   0.85551252   -8.1218912    225.88207  0.017859114  0.017631324            1 
 1055000   0.84029451   -8.1639326    224.88377  0.017763331  0.017617427            2 
 1056000   0.83742251   -8.1219375    225.07847  0.017761874  0.017603423            5 
 1057000    0.8340515   -8.1597042    225.56653  0.017783548  0.017589462            2 
 1058000   0.80641998    -8.158602    225.08965  0.017729178  0.017575408            2 
 1059000   0.81519286   -8.1182321    225.55661  0.017749182  0.017561365            2 
 1060000   0.86077948   -8.1103486    225.73175  0.017746207  0.017547432            2 
 1061000   0.82684861   -8.1520166    225.16342  0.017684843  0.017533558            3 
 1062000   0.83664106    -8.134166    225.40773  0.017687361  0.017519609            2 
 1063000   0.84653266   -8.1419333    225.73422  0.017696317   0.01750567            2 
 1064000   0.82414166   -8.1201792    225.24974   0.01764174  0.017491747            4 
 1065000   0.80896756   -8.1437582    225.93222  0.017678578  0.017477887            3 
 1066000   0.83025217   -8.1361683    225.58294  0.017634689  0.017464099            8 
 1067000    0.8407624   -8.1186198    226.32681  0.017676259   0.01745025            5 
 1068000   0.83273911   -8.1317917    225.98035  0.017632674  0.017436405            1 
 1069000   0.81011841   -8.1486889    226.73215  0.017674786  0.017422527            2 
 1070000   0.82099442   -8.1418981    226.27703  0.017622822  0.017408658            2 
 1071000   0.82127685   -8.1678343     225.8706  0.017574743  0.017394772            1 
 1072000   0.83076357   -8.1530901    225.99736  0.017568203  0.017380854            2 
 1073000   0.83225771   -8.1304068    226.01017  0.017552824  0.017366902           11 
 1074000   0.83925231   -8.1415385    226.81952   0.01759928  0.017353064            9 
 1075000   0.82287624   -8.1702788    226.03164  0.017521832  0.017339061            8 
 1076000   0.82975093   -8.1784224    225.36012  0.017453541  0.017325126            6 
 1077000   0.80105256   -8.1512944    226.10825  0.017495222   0.01731113            2 
 1078000   0.81822233   -8.1544119     226.1646  0.017483349  0.017297166            4 
 1079000   0.83560983   -8.1528783    226.20916  0.017470587   0.01728326            4 
 1080000   0.81184011   -8.1718511    226.34963  0.017465249  0.017269384            2 
 1081000   0.82364382   -8.1580418    226.22095  0.017439173  0.017255495            2 
 1082000   0.81115878   -8.1510186    226.32953  0.017431418  0.017241616            1 
 1083000   0.82921834   -8.1759044    226.17788  0.017403653  0.017227647            1 
 1084000   0.82005546   -8.1639737     226.0085  0.017374577  0.017213693            2 
 1085000   0.80842009    -8.164817    225.53751   0.01732239  0.017199753            6 
 1086000   0.81793761   -8.1399172    226.64762  0.017391622  0.017185885            6 
 1087000    0.8222573   -8.1591136    226.74757  0.017383285  0.017172006            2 
 1088000    0.8085859   -8.1459655    226.92384  0.017380809  0.017158061            3 
 1089000     0.813062   -8.1680469    226.18372  0.017308212   0.01714413            2 
 1090000   0.81490504   -8.1535755     227.1164  0.017363639  0.017130337            4 
 1091000   0.81371055   -8.1679775    226.60891   0.01730896  0.017116472            2 
 1092000   0.82581414   -8.1709018    226.49416  0.017284353    0.0171025            2 
 1093000   0.82052345   -8.1902382    226.23078  0.017248458  0.017088558            1 
 1094000    0.8100873   -8.1491249    226.57899  0.017259216  0.017074648            3 
 1095000   0.82145647   -8.2022485    225.84782   0.01718781  0.017060704            1 
 1096000   0.80641305    -8.186335    226.47178   0.01721957  0.017046741            3 
 1097000    0.8388225   -8.1987837    226.60083  0.017213676  0.017032753            2 
 1098000   0.81958772   -8.1628592    226.91415  0.017221778  0.017018796            1 
 1099000   0.79013908   -8.1781025    226.59598  0.017181982  0.017004851            3 
 1100000   0.83795114   -8.1911148    226.08574  0.017127707  0.016990862            3 
 1101000   0.82989172   -8.1874113    226.54639  0.017147017  0.016976916            2 
 1102000   0.81831272   -8.1710185    226.07399  0.017095734   0.01696289            2 
 1103000   0.81674658   -8.1917334    226.39647  0.017104598    0.0169489            1 
 1104000   0.80696381   -8.2087699    225.92536  0.017053544  0.016934927            4 
 1105000   0.80875291   -8.1892039     226.7845  0.017102903  0.016920876            1 
 1106000   0.80052805   -8.1900323    226.41737  0.017059778  0.016906908            3 
 1107000   0.82393364   -8.1996359    226.71224  0.017066565  0.016892982            2 
 1108000    0.8209942   -8.1817686    226.98225  0.017071469  0.016879169            3 
 1109000   0.81456203   -8.1972275    227.53857  0.017097879  0.016865368            4 
 1110000   0.80536731   -8.1728667    227.04699  0.017045569  0.016851499            2 
 1111000   0.82403844    -8.142311    227.47508  0.017062337  0.016837738            4 
 1112000   0.82508387   -8.1896885    227.42587  0.017043305  0.016823859            3 
 1113000    0.8222842   -8.2223722    226.72276  0.016975349  0.016809982            2 
 1114000   0.81875629   -8.1843677    226.86482  0.016970738  0.016796103            2 
 1115000   0.82590084    -8.166212     227.5265   0.01700497  0.016782304            3 
 1116000   0.80595085   -8.1990503    227.51775   0.01698908  0.016768535            2 
 1117000    0.7975389   -8.2039238    227.62371  0.016981775  0.016754742            3 
 1118000   0.82603187   -8.1951416     228.1023  0.017002259  0.016740975            3 
 1119000   0.78853443   -8.2078292    227.08364  0.016911203  0.016727206            3 
 1120000    0.8102917   -8.1833477    226.78243  0.016873692  0.016713353            6 
 1121000   0.80647038   -8.1950639    227.16707  0.016887234  0.016699526            4 
 1122000   0.82486212   -8.1682042    227.47612  0.016895137  0.016685758            2 
 1123000   0.77547968   -8.2374976    227.44783  0.016877993  0.016671979            3 
 1124000   0.80691457   -8.2383435    227.50978  0.016867569  0.016658183            4 
 1125000   0.79558205   -8.2360882    227.57842  0.016857661  0.016644398            3 
 1126000   0.80286671   -8.2124123    227.55272  0.016840788  0.016630647            4 
 1127000   0.81383969   -8.2440449    228.27253  0.016879069  0.016616866            2 
 1128000   0.80496663   -8.2079061    227.71951   0.01682325  0.016603077            3 
 1129000   0.82821902   -8.1959162    227.52906  0.016794292  0.016589325            2 
 1130000   0.79529738   -8.2236861    227.56963  0.016782421  0.016575584            2 
 1131000   0.78801293   -8.2038825    227.78137  0.016783184  0.016561904            3 
 1132000   0.78428749   -8.2065568    227.92093  0.016778631  0.016548207            4 
 1133000   0.79448824   -8.2070422    228.36952  0.016796817  0.016534534            2 
 1134000   0.78641802   -8.2189886     227.6528  0.016729335  0.016520876            4 
 1135000   0.79675194   -8.2363695    227.47563  0.016701588  0.016507187            2 
 1136000   0.80624394    -8.209748    227.66691  0.016700918  0.016493447            6 
 1137000   0.80990153   -8.2341639    227.74447  0.016691914  0.016479771            7 
 1138000     0.791133   -8.2503238    227.57213  0.016664626  0.016466036            1 
 1139000   0.78186339   -8.2294296    228.16736  0.016693544  0.016452281            2 
 1140000   0.79974303   -8.2178677    228.22913  0.016683416  0.016438584            2 
 1141000   0.79175487   -8.2214467    227.96575  0.016649558  0.016424926            2 
 1142000   0.79663624   -8.2309239    228.05126  0.016641219  0.016411202            4 
 1143000   0.80141689   -8.2458489    227.63645  0.016596416  0.016397519            2 
 1144000   0.79410951   -8.2579447    227.64111  0.016582249  0.016383843            4 
 1145000   0.79305424   -8.2444516    228.54483  0.016633539  0.016370171            1 
 1146000    0.7983485   -8.2320248    228.05625  0.016583497  0.016356523            2 
 1147000   0.81132973   -8.2362595    228.27473  0.016584912  0.016342939            1 
 1148000   0.79795071   -8.2624117    227.87407  0.016541381  0.016329252            2 
 1149000   0.79740753   -8.2472444    228.17512  0.016548819  0.016315579            2 
 1150000   0.79984199   -8.2440351    228.00048  0.016521774  0.016301914            1 
 1151000    0.7905535   -8.2508263    227.98798  0.016506515  0.016288305            5 
 1152000   0.78154755   -8.2497078    228.64048  0.016539386  0.016274716            3 
 1153000    0.7702687    -8.247065    228.63313   0.01652451  0.016261085            3 
 1154000    0.7994855   -8.2121641    228.51245  0.016501476  0.016247518            2 
 1155000   0.80110493   -8.2410867    228.18392  0.016463487  0.016233975            2 
 1156000   0.80456142   -8.2316759    228.67849  0.016484897  0.016220466            3 
 1157000   0.78071165   -8.2261041    228.23877  0.016438978  0.016206943            1 
 1158000   0.79317366   -8.2432945    228.69668  0.016457735  0.016193483            4 
 1159000   0.79307844   -8.2296154     229.4325  0.016496441  0.016180053            3 
 1160000   0.78725651   -8.2589881    228.93067  0.016446169  0.016166575            2 
 1161000   0.79181834   -8.2126335    228.74996  0.016419033  0.016153123            2 
 1162000   0.78819509    -8.249184    228.82794  0.016410495  0.016139657            5 
 1163000   0.76709015   -8.2353845    228.57575  0.016378314  0.016126233            1 
 1164000   0.78247171    -8.261681    228.67392  0.016371272  0.016112728            2 
 1165000   0.80484854   -8.2919674    228.63955  0.016354761  0.016099184            5 
 1166000   0.78542367   -8.2524027    228.60935  0.016338576  0.016085608            2 
 1167000   0.78155466   -8.2808443    228.46465  0.016314242  0.016072057            1 
 1168000   0.78824076   -8.2763828    228.39664  0.016295423  0.016058474            1 
 1169000   0.78463648   -8.2534586    228.60877  0.016296605  0.016044838            2 
 1170000   0.78031041   -8.2973468     228.6494   0.01628557  0.016031287            3 
 1171000   0.79736234   -8.2830257    228.59246   0.01626761  0.016017799            2 
 1172000   0.76507548   -8.2630437     228.5474  0.016250526  0.016004317            2 
 1173000   0.77591511   -8.2588232    228.97578  0.016267105  0.015990915            3 
 1174000    0.7918163   -8.2502367    229.08589  0.016261066  0.015977524            2 
 1175000   0.80016322   -8.2715087    228.59947  0.016212728  0.015964068            2 
 1176000   0.79303761   -8.2388928    229.52499  0.016264526  0.015950653            1 
 1177000   0.78254526    -8.280425    228.96905  0.016211346  0.015937241            5 
 1178000    0.7847354   -8.2582993    229.28189  0.016219715  0.015923832            3 
 1179000   0.79041367   -8.2739889    229.26961   0.01620509  0.015910448            4 
 1180000   0.77423716    -8.222775    229.41542  0.016201654  0.015897099            3 
 1181000   0.79010825   -8.2728482    228.97828   0.01615709  0.015883782            4 
 1182000   0.80552456    -8.271528    229.18922  0.016158293  0.015870443            2 
 1183000   0.78936982   -8.2672874    229.38398  0.016158353  0.015857069            4 
 1184000   0.78245817   -8.2498826    229.80417   0.01617428  0.015843799            2 
 1185000   0.77013794   -8.2480957     229.5785  0.016144761  0.015830553            3 
 1186000   0.78166526   -8.2719048    228.55802  0.016059445  0.015817221            2 
 1187000   0.77475142   -8.3041945    229.17352  0.016089127  0.015803892            4 
 1188000   0.76243421   -8.2629423    229.41765  0.016092708  0.015790526            4 
 1189000   0.76931752   -8.2994283    229.02842  0.016051894  0.015777201            5 
 1190000   0.77573505   -8.2851056    229.17571  0.016048719  0.015763836            3 
 1191000   0.78233762   -8.2874618    228.59416  0.015994554  0.015750457            3 
 1192000   0.79813707   -8.2999625    229.12776   0.01601844  0.015737104            2 
 1193000   0.78130115    -8.278141    229.71184  0.016045812  0.015723752            2 
 1194000   0.78817452   -8.2614941    229.79683  0.016038305  0.015710519            1 
 1195000   0.77460112   -8.2882158    229.66967  0.016016016  0.015697251            3 
 1196000   0.78630696   -8.3058117    229.71337   0.01600567  0.015683944            2 
 1197000   0.79054401   -8.2823315     229.2827  0.015962316  0.015670669            1 
 1198000   0.78047014   -8.2922059    229.40584  0.015957557  0.015657387            2 
 1199000   0.77542161   -8.3255972    229.19845  0.015929834  0.015644092            1 
 1200000   0.78497397    -8.344226    229.03156  0.015904969  0.015630763            3 
 1201000   0.78040292   -8.3101245    229.21842  0.015904692  0.015617457            4 
 1202000   0.78011411   -8.3071199    229.29994  0.015897112  0.015604156            2 
 1203000   0.77323293   -8.2942392    229.59249  0.015904163  0.015590843            3 
 1204000   0.78368113   -8.3032627    229.16983  0.015861699  0.015577548            1 
 1205000   0.78155659   -8.3184292    229.41799  0.015865698  0.015564197            3 
 1206000   0.77957628    -8.323135    229.40507   0.01585165  0.015550877            2 
 1207000   0.75845709   -8.3105802    229.46765  0.015842837   0.01553759            1 
 1208000   0.75811834   -8.3160203     229.1891  0.015810506  0.015524262            2 
 1209000   0.77477084   -8.2946304    229.35685  0.015808992  0.015510947            2 
 1210000   0.77070342   -8.2974564    229.22847  0.015787085  0.015497659            1 
 1211000   0.76474031   -8.3086342    229.09492  0.015764858  0.015484404            4 
 1212000   0.77883541   -8.3165742    229.62589  0.015788358  0.015471165            4 
 1213000      0.76785   -8.2901764    229.31913  0.015754268  0.015457929            2 
 1214000    0.7745524   -8.3089882    229.86633  0.015778853  0.015444622            2 
 1215000   0.76633261   -8.3417925     229.6248  0.015749301  0.015431294            1 
 1216000   0.74304843   -8.3019939    229.25935  0.015711304  0.015418004            2 
 1217000    0.7681893   -8.3144232    229.39082  0.015707396  0.015404763            2 
 1218000    0.7749234   -8.3046304    229.28471  0.015687241  0.015391525            2 
 1219000   0.75885553   -8.3295639    229.54138  0.015691918   0.01537831            4 
 1220000   0.77209247   -8.3289118    229.43865  0.015672039   0.01536509            6 
 1221000    0.7724018     -8.33948    229.21596  0.015644005  0.015351866            4 
 1222000   0.76257098   -8.3126515    229.88936  0.015677125  0.015338678            2 
 1223000   0.75231075   -8.3049095    229.78866  0.015657445  0.015325472            6 
 1224000   0.76174841   -8.3250142    229.87967  0.015650849  0.015312287            7 
 1225000    0.7620007   -8.3305814     229.6882  0.015625048  0.015299097            2 
 1226000   0.79064864   -8.3549973    229.66869  0.015610977  0.015285895            2 
 1227000   0.77029102   -8.3465716    229.46012  0.015584089  0.015272695            2 
 1228000   0.77345577   -8.3591771    229.56786  0.015578709  0.015259504            5 
 1229000   0.77094169   -8.3359099     229.3302  0.015549918  0.015246328            2 
 1230000   0.77028811   -8.3473605    229.51587  0.015549856  0.015233152            4 
 1231000   0.77071988   -8.3693511    229.97891   0.01556857  0.015219992            3 
 1232000   0.76249458   -8.3585365     229.7298  0.015539083   0.01520682            2 
 1233000    0.7552265   -8.3582212     229.9645  0.015542342  0.015193646            2 
 1234000    0.7446801   -8.3560006    229.98524  0.015531148  0.015180569            2 
 1235000   0.76219483   -8.3589174    229.41442  0.015480055  0.015167502            1 
 1236000   0.77043882   -8.3531241    229.55352  0.015476909  0.015154405            6 
 1237000   0.76087742   -8.3449802     229.8611  0.015485119  0.015141312            5 
 1238000   0.76139507   -8.3224649    230.01297  0.015482833  0.015128242            4 
 1239000   0.75353558   -8.3313718    229.65832  0.015446484  0.015115193            3 
 1240000   0.75961696   -8.3417835    229.54649  0.015426512  0.015102117            3 
 1241000    0.7558802   -8.3628843    229.34026  0.015400232  0.015089047            3 
 1242000   0.76181806   -8.3578727     229.3246  0.015386782  0.015075929            5 
 1243000   0.74809307   -8.3067231    230.08664  0.015425492  0.015062836            4 
 1244000   0.75133059   -8.3586145    229.30585  0.015360788   0.01504974            2 
 1245000   0.76549099    -8.371144    229.34058  0.015350775  0.015036619            4 
 1246000   0.76585394   -8.3745794    229.87494  0.015374193  0.015023501            4 
 1247000   0.75507033   -8.3521164     229.4535  0.015333701  0.015010387            4 
 1248000   0.74074447   -8.3517079     229.7203  0.015339229  0.014997275            3 
 1249000   0.74776213   -8.3721302    229.47359  0.015310488  0.014984256            2 
 1250000   0.76298442   -8.3246962    229.78484   0.01531899  0.014971198            2 
 1251000   0.73732907   -8.3682299     229.4492  0.015284386  0.014958194            1 
 1252000   0.77589915   -8.3585033    229.93806  0.015304717  0.014945108            2 
 1253000   0.75019269    -8.374423    229.02349  0.015231677  0.014932038            2 
 1254000   0.74935479   -8.3783058    228.48663  0.015183854  0.014918928            2 
 1255000   0.74817576    -8.368501    229.53175  0.015241152  0.014905862            2 
 1256000   0.74165966   -8.3740558    229.45385  0.015223849  0.014892837            2 
 1257000   0.75854406   -8.3808778    229.14883  0.015191516   0.01487982            4 
 1258000   0.75212227   -8.3779396    229.05141  0.015172987  0.014866757            5 
 1259000   0.75614571   -8.4098919    229.60894  0.015197838  0.014853748            4 
 1260000   0.75213898   -8.3853116    229.13755    0.0151546  0.014840741            2 
 1261000   0.77015264   -8.3521636    229.97606  0.015197995  0.014827756            2 
 1262000   0.73591474   -8.3792744    229.76977   0.01517233  0.014814807            3 
 1263000   0.75042569   -8.3674911    229.70353  0.015155947  0.014801824            6 
 1264000   0.74857573   -8.3721927    229.05133  0.015100958  0.014788869            1 
 1265000   0.73685922   -8.3865948    229.95888  0.015148806  0.014775931            3 
 1266000   0.75433628   -8.3828933    229.93407  0.015135207  0.014763029            3 
 1267000   0.76485724   -8.3910393    229.58632   0.01510039   0.01475012            1 
 1268000   0.74201044    -8.387764    229.78614  0.015101613   0.01473723            2 
 1269000   0.74357836   -8.3689234     230.0904  0.015109692  0.014724358            3 
 1270000   0.74301856   -8.3705436    229.75943  0.015076078  0.014711494            2 
 1271000    0.7441043   -8.3740911    229.78707  0.015066029  0.014698641            4 
 1272000   0.73090787   -8.3493542    230.06233  0.015072218  0.014685778            2 
 1273000   0.74649671   -8.3591906    229.78421  0.015042171  0.014672874            4 
 1274000   0.75308861   -8.3908671    229.74077  0.015027523  0.014659995            3 
 1275000   0.75335197    -8.388254    230.09198  0.015038692  0.014647122            6 
 1276000   0.72470682   -8.3853799    229.88693  0.015013514  0.014634266            1 
 1277000   0.74538073   -8.3744136    230.16825  0.015020116  0.014621434            3 
 1278000   0.72347336   -8.3833533    229.84588  0.014987342  0.014608639            4 
 1279000    0.7452264   -8.3771475    229.99626  0.014985422  0.014595816            1 
 1280000   0.73295553   -8.3761733    230.23197  0.014989061  0.014583025            3 
 1281000   0.72899782   -8.3711232    229.95448  0.014959308  0.014570271            2 
 1282000   0.74677874   -8.3790819    230.46348  0.014980726  0.014557523            1 
 1283000   0.73495661   -8.3983507    229.73956  0.014922029  0.014544774            2 
 1284000   0.75803187   -8.3693344    229.92944  0.014922731  0.014532049            4 
 1285000   0.73621855   -8.3804619    230.04579  0.014918663  0.014519322            3 
 1286000   0.72881148   -8.3935898    230.12721  0.014912339  0.014506603            1 
 1287000   0.73522508   -8.3902842    230.04676  0.014895543  0.014493865            3 
 1288000   0.73035338   -8.3934986    229.61935  0.014856325  0.014481127           10 
 1289000   0.73178502   -8.4039404    229.76725   0.01485436  0.014468398            4 
 1290000   0.73851732   -8.3931011    230.22428   0.01487237  0.014455701            3 
 1291000   0.73074608   -8.4285045    229.96151  0.014843888  0.014442965            2 
 1292000   0.72778902   -8.4417052    229.90879  0.014828998  0.014430224            3 
 1293000   0.75454365   -8.4143723    230.20074  0.014836346  0.014417522            4 
 1294000   0.71429216    -8.419358    230.02669  0.014813671  0.014404835            4 
 1295000   0.74329775   -8.4189902    230.32652  0.014821526  0.014392187           10 
 1296000   0.71484222   -8.4062346      230.219  0.014803177  0.014379531            5 
 1297000      0.71843   -8.4096937    229.65709   0.01475566  0.014366864            4 
 1298000   0.73804625   -8.4138261    230.45576  0.014795567  0.014354222            3 
 1299000   0.74735444    -8.424614    230.17878  0.014766409  0.014341596            2 
 1300000   0.74296154   -8.4101119    229.72298  0.014725832  0.014328987            3 
 1301000   0.74074063    -8.408325    230.23712  0.014747445  0.014316371            2 
 1302000   0.73922056   -8.4061571    230.24882  0.014736868   0.01430384            4 
 1303000   0.73823901   -8.4101712    230.14038  0.014718622  0.014291331            4 
 1304000   0.73143748   -8.4434005     230.2272  0.014712883  0.014278796            1 
 1305000   0.73173502    -8.407124    230.43081  0.014714611   0.01426625            3 
 1306000   0.73747442   -8.3942186     229.8288  0.014664931  0.014253716            5 
 1307000   0.72437335   -8.4091709    229.90637  0.014658656  0.014241176            4 
 1308000   0.72876194   -8.4264667     230.3008  0.014672579  0.014228647            2 
 1309000   0.72720326    -8.438484    230.10842  0.014649123   0.01421609            4 
 1310000   0.72370852   -8.4249484    230.22339  0.014645254  0.014203547            2 
 1311000   0.72239397   -8.4138984     230.4771   0.01465021  0.014191031            2 
 1312000   0.71943531   -8.4108352    230.16544  0.014619248  0.014178574            4 
 1313000   0.72293699   -8.4148928    230.44016   0.01462555  0.014166058            3 
 1314000   0.74065629   -8.4256838     230.2552  0.014602689  0.014153552            3 
 1315000   0.72877888   -8.4199201    230.15665  0.014585339  0.014141087            2 
 1316000    0.7164207   -8.4129898    230.32975  0.014585217  0.014128658            5 
 1317000   0.74972318   -8.4108588    229.83707  0.014542968  0.014116213            4 
 1318000    0.7137549   -8.4141886    230.42266  0.014568959  0.014103762            4 
 1319000    0.7382527   -8.4194563       230.47  0.014560905  0.014091347            5 
 1320000   0.74578219   -8.4539027    230.64319  0.014560807   0.01407889           11 
 1321000   0.73053909   -8.4214954    230.44384  0.014537209  0.014066414            4 
 1322000   0.70834509   -8.4398203     230.4151  0.014524401  0.014053997            6 
 1323000   0.70921066   -8.4398137    229.90858  0.014481518  0.014041572            7 
 1324000   0.71549168   -8.4280479    229.88476  0.014469081  0.014029082            2 
 1325000   0.71341656   -8.4339085    229.78131  0.014451655  0.014016615            3 
 1326000    0.7273803   -8.4125505     230.4182  0.014480782  0.014004216            4 
 1327000   0.71026051   -8.4533753    230.13039  0.014451796  0.013991805            1 
 1328000   0.72929843   -8.4412287    230.21973  0.014446519  0.013979422            3 
 1329000   0.72466034   -8.4408244     230.7534  0.014469112  0.013967068            4 
 1330000   0.72272246   -8.4424965    230.70667  0.014455305  0.013954751            5 
 1331000   0.72196828   -8.4488285    230.08122  0.014405285  0.013942442            5 
 1332000   0.71952646   -8.4309548    230.41054  0.014415074  0.013930141            1 
 1333000   0.72803725   -8.4142449    230.10237  0.014384994  0.013917862            2 
 1334000   0.70824592   -8.4352496    230.43636  0.014395075   0.01390555            5 
 1335000   0.72896552   -8.4331236    230.01442  0.014357954  0.013893249            6 
 1336000   0.71196759   -8.4300152    230.17831  0.014357429  0.013880913            4 
 1337000   0.72723431   -8.4457343    230.76924  0.014383523  0.013868624            2 
 1338000   0.73373999   -8.4292052    230.68751  0.014367683  0.013856312            2 
 1339000   0.72837834   -8.4218732    229.91762  0.014309038  0.013844038            8 
 1340000   0.70628232   -8.4411566    229.89211  0.014296773   0.01383172            4 
 1341000   0.72488737    -8.457607    229.78848  0.014279672  0.013819374            3 
 1342000   0.70050131   -8.4426602     230.4752  0.014311674   0.01380709            3 
 1343000   0.72084749   -8.4403755    230.43437  0.014298484  0.013794799            6 
 1344000   0.71519509   -8.4799162    230.00829  0.014261427   0.01378253            5 
 1345000   0.72756631   -8.4539988    229.77826  0.014236571  0.013770267            2 
 1346000   0.72055236   -8.4731608    229.80888   0.01422789  0.013757989            5 
 1347000   0.71177902   -8.4731851    230.07584  0.014233843  0.013745704            6 
 1348000   0.72186386   -8.4525534    230.12512   0.01422633   0.01373345            2 
 1349000   0.71185323   -8.4524448    230.01286   0.01420885  0.013721181            1 
 1350000   0.72691899    -8.486817    230.06769  0.014201709  0.013708935            2 
 1351000   0.72132845   -8.4945302    229.63529  0.014164526  0.013696677            3 
 1352000   0.71962574   -8.4945722    229.84907  0.014167226  0.013684424            2 
 1353000   0.70230362   -8.4637093    229.75507  0.014150965  0.013672225            3 
 1354000   0.71663011   -8.4716799    229.79511  0.014142978  0.013660026            1 
 1355000   0.69803632   -8.4760981    229.76429  0.014130645  0.013647841            2 
 1356000   0.73111091   -8.4602456      230.396  0.014159046  0.013635685            4 
 1357000   0.71117533   -8.4679713     229.8643   0.01411596  0.013623507            5 
 1358000    0.7072095    -8.493368    230.02176  0.014115229  0.013611348            2 
 1359000    0.7118384   -8.4905169     229.9229   0.01409878  0.013599162            3 
 1360000   0.73073475   -8.4725731    229.71726  0.014075813  0.013586985            3 
 1361000   0.74813648   -8.4832893    229.98821   0.01408206  0.013574818            7 
 1362000    0.6952327   -8.5186683    229.47038  0.014040038  0.013562675            2 
 1363000   0.72341663   -8.4832126    229.87756  0.014054632  0.013550509            2 
 1364000   0.71387034   -8.4791646    230.05928   0.01405543  0.013538354            2 
 1365000   0.70228406   -8.4989182    230.12892  0.014049384  0.013526196            4 
 1366000   0.69469748   -8.4837328    230.05653  0.014034683   0.01351408            4 
 1367000   0.70883741   -8.4882724    229.83874   0.01401114  0.013501967            2 
 1368000   0.71183874   -8.4964783    229.98882   0.01401004  0.013489867            2 
 1369000   0.70232811   -8.4968968    229.65058  0.013979217  0.013477749            2 
 1370000   0.70659524   -8.5204341    229.90518    0.0139845  0.013465638            2 
 1371000   0.72375248   -8.5138611    229.73205  0.013963776  0.013453558            3 
 1372000   0.72296126   -8.5227105    230.10861  0.013976471  0.013441478            1 
 1373000   0.70798848    -8.535493    229.96336  0.013957475  0.013429397            1 
 1374000    0.7148775   -8.4885734    229.87489  0.013941951  0.013417309            2 
 1375000   0.69476252   -8.5199733    229.32003  0.013898184  0.013405214            4 
 1376000   0.70394501   -8.5149007    229.66675  0.013909081  0.013393171            1 
 1377000   0.69231722   -8.5025328    229.79115  0.013906509  0.013381104            4 
 1378000   0.70422713    -8.513115    230.03312   0.01391105  0.013369074            4 
 1379000   0.69885518   -8.4967035    230.03127   0.01390085  0.013357049            4 
 1380000   0.71977362    -8.552931     229.4403  0.013855091  0.013345042            3 
 1381000    0.7070001   -8.5081898    229.57199  0.013853004  0.013333005            2 
 1382000   0.69905517   -8.5282538    229.74708  0.013853539  0.013320992            4 
 1383000   0.69640794   -8.5129492    229.88431   0.01385179  0.013309029            5 
 1384000   0.70579928   -8.5103919    229.94099  0.013845194  0.013297058            2 
 1385000   0.69996681   -8.5322843    229.52621  0.013810242  0.013285088            2 
 1386000   0.70664106   -8.5185756    230.04002   0.01383117  0.013273114            2 
 1387000   0.71562704   -8.5141474    229.84576  0.013809526  0.013261176            2 
 1388000   0.69509165   -8.5111441    229.79788  0.013796703  0.013249249            2 
 1389000    0.6918138   -8.5214055    229.85526  0.013790212  0.013237332            3 
 1390000   0.70840214   -8.5315313    230.15728  0.013798398  0.013225448            2 
 1391000   0.69550941   -8.5025071    229.93494  0.013775158  0.013213565            2 
 1392000   0.71063867   -8.5218249    229.82633   0.01375876  0.013201671            1 
 1393000   0.70162331   -8.4989357    229.64305  0.013737919   0.01318978            4 
 1394000   0.68879446   -8.5184408      229.709  0.013732006  0.013177904            5 
 1395000     0.700795   -8.5163586    229.60755  0.013716102  0.013166037            1 
 1396000   0.71846734   -8.5222621    229.53907  0.013702189  0.013154181            2 
 1397000   0.70573683   -8.5189813    229.87082   0.01371217  0.013142328            3 
 1398000    0.7075886    -8.529641    229.56994  0.013684426  0.013130537            3 
 1399000   0.68086786   -8.5302518    229.92728   0.01369593   0.01311873            2 
 1400000   0.71290933   -8.5237317    229.59627  0.013666445  0.013106912            2 
 1401000   0.68405012   -8.5229799    230.02039  0.013681917  0.013095085            2 
 1402000   0.69465573    -8.535459    229.59458  0.013646849  0.013083284            3 
 1403000   0.68977177   -8.5232958    229.82822  0.013650999  0.013071506            3 
 1404000   0.69894978   -8.5059218    229.80631  0.013639976  0.013059736            4 
 1405000   0.67098921   -8.5366705    229.77277  0.013628278  0.013048008            2 
 1406000   0.70266273   -8.5188966    229.90967  0.013626699  0.013036277            6 
 1407000   0.70386078    -8.514537     229.7089  0.013605123  0.013024569            6 
 1408000   0.69372189   -8.5216123    230.08066  0.013617463  0.013012849            1 
 1409000   0.68106944   -8.5249536    230.21068  0.013615489  0.013001178            2 
 1410000   0.69606538   -8.5341367    229.98474  0.013592478  0.012989518            1 
 1411000   0.67889732   -8.5226284    230.04356   0.01358632  0.012977838            2 
 1412000     0.695324   -8.5120746     230.2375  0.013588144  0.012966172            1 
 1413000   0.69176897   -8.5158276    229.81782  0.013553776  0.012954529            2 
 1414000   0.68990516    -8.555645    230.05596  0.013558225  0.012942912            1 
 1415000   0.69233551     -8.54786    229.86479  0.013537385  0.012931317            1 
 1416000    0.7036849   -8.5301131    229.79358  0.013523633  0.012919691            4 
 1417000   0.69466791   -8.5171708    230.10742  0.013532547  0.012908099            2 
 1418000   0.70638741     -8.54717    230.47147  0.013544398  0.012896542            2 
 1419000   0.69858276   -8.5299534    230.17919  0.013517688  0.012884985            3 
 1420000   0.67216607   -8.5432459    229.74495  0.013482685  0.012873434            4 
 1421000   0.68947725   -8.5396529    229.43798  0.013455195  0.012861895            5 
 1422000   0.68416886   -8.5323496    229.95797  0.013476206  0.012850371            3 
 1423000   0.69141515   -8.5556465    229.81657  0.013458455  0.012838854            3 
 1424000   0.69337821   -8.5570253    229.96612  0.013457755  0.012827345            2 
 1425000   0.68749073   -8.5548342     229.9598  0.013447941  0.012815839            2 
 1426000   0.68410128   -8.5309993    230.31505  0.013459271   0.01280436            2 
 1427000   0.66566134   -8.5496342    230.63214  0.013468357  0.012792898            2 
 1428000   0.68066629   -8.5600684    230.34581  0.013442216  0.012781431            2 
 1429000   0.68219408    -8.526022    230.50542  0.013442117  0.012770012            1 
 1430000   0.68647466   -8.5449894    230.67834  0.013442794  0.012758618            1 
 1431000   0.68816409   -8.5261413     230.2036  0.013405753  0.012747212            4 
 1432000   0.67994478   -8.5115679    230.42391  0.013409213  0.012735829            2 
 1433000   0.68163031   -8.5645695    230.48338  0.013403313  0.012724459            2 
 1434000   0.68423014   -8.5482367     230.2652  0.013381288  0.012713099            2 
 1435000   0.68465577    -8.548574    230.39861   0.01337971  0.012701724            5 
 1436000   0.67893817   -8.5709444    229.67115  0.013328177  0.012690355            4 
 1437000   0.68856941   -8.5512809    230.38636  0.013360378  0.012678991            2 
 1438000   0.67458643   -8.5464631    229.94557  0.013325543  0.012667693            3 
 1439000   0.68417114   -8.5525971    230.03216  0.013321297  0.012656391            3 
 1440000   0.68026656   -8.5489188     230.4614  0.013336887  0.012645095            2 
 1441000   0.67421624   -8.5322379    230.50469  0.013330135  0.012633819            5 
 1442000    0.6799864   -8.5536215    230.17549  0.013301866  0.012622543            3 
 1443000   0.67643127   -8.5242915    230.34259  0.013302298  0.012611252            3 
 1444000    0.6841666   -8.5526361    230.15279  0.013282133  0.012599986            1 
 1445000   0.67421833   -8.5508419    230.18627  0.013274871  0.012588725            6 
 1446000    0.6645871   -8.5552796    229.60044   0.01323193   0.01257747            3 
 1447000   0.68733739    -8.557686    230.17088  0.013255637  0.012566239            2 
 1448000   0.67209178   -8.5595794    230.41945  0.013260788   0.01255501            3 
 1449000    0.6840166   -8.5487378    230.42038  0.013251689  0.012543805            5 
 1450000   0.66389553   -8.5494448    229.86436  0.013210596  0.012532573            2 
 1451000     0.680885   -8.5472149    229.94309  0.013206012   0.01252134            1 
 1452000   0.68935075   -8.5601208    230.26887  0.013215615  0.012510147            2 
 1453000   0.66152773   -8.5648741     229.7025  0.013174036   0.01249893            3 
 1454000   0.68130417    -8.571387    230.08602  0.013186957  0.012487718            3 
 1455000   0.67345034   -8.5570115    229.95273  0.013170259  0.012476505            2 
 1456000   0.66138022   -8.5637484    230.07178  0.013168028  0.012465314            1 
 1457000   0.67073353   -8.5478106    230.22934  0.013168002   0.01245417            2 
 1458000   0.65339377   -8.5615467    229.86941  0.013138398  0.012443023            2 
 1459000   0.66771961   -8.5460702    229.62674  0.013115532  0.012431901            4 
 1460000   0.65885783   -8.5581238    229.90027  0.013122162  0.012420755            5 
 1461000   0.68589934   -8.5438453    230.35044  0.013138857  0.012409619            3 
 1462000   0.66669614   -8.5611853    230.31351  0.013127765  0.012398492            2 
 1463000   0.67221603   -8.5677797    230.26525  0.013116043  0.012387411            3 
 1464000   0.64770152   -8.5651931    230.24612  0.013105995  0.012376332            2 
 1465000   0.65380972   -8.5737306    229.60933  0.013060827  0.012365256            2 
 1466000   0.66765128   -8.5611388    230.81153  0.013120255  0.012354171            2 
 1467000   0.66465455   -8.5658318    230.19611  0.013076353  0.012343101            2 
 1468000   0.66164849   -8.5444408    230.05421   0.01305939  0.012332052            2 
 1469000   0.66548169   -8.5638828    230.52942  0.013077457  0.012321028            4 
 1470000   0.65470755   -8.5578774    230.31307  0.013056297  0.012309996            2 
 1471000   0.67950123   -8.5633617    230.40934  0.013052874  0.012298991            3 
 1472000   0.67833029   -8.5769924     229.8796  0.013014017   0.01228798            3 
 1473000   0.66602625   -8.5850669    229.96775  0.013010169  0.012276971            7 
 1474000   0.67313673   -8.5878003     229.9195  0.012998615  0.012265971            5 
 1475000    0.6647376    -8.578212    229.80849  0.012983531  0.012254974            5 
 1476000   0.65478975   -8.5951403    230.16449  0.012994834  0.012244025            3 
 1477000   0.67463411   -8.5623507    230.02849  0.012978362  0.012233062            3 
 1478000   0.67350945   -8.6083122    229.53563  0.012941793  0.012222085            3 
 1479000   0.66314744   -8.5866142    229.82055  0.012949096  0.012211108            8 
 1480000    0.6605592   -8.5931811    229.96834  0.012948668  0.012200155           11 
 1481000   0.66630987   -8.5974959    230.30689  0.012958974  0.012189227           10 
 1482000   0.67773496   -8.6132882    229.25662  0.012891173  0.012178286            4 
 1483000   0.66392635   -8.5904859    229.79359  0.012912654  0.012167366            4 
 1484000   0.67772884   -8.6183899    229.38136  0.012880804  0.012156417            3 
 1485000   0.65712723   -8.5880342      230.035   0.01290881  0.012145521            3 
 1486000   0.66481075    -8.592309    229.78069  0.012885862  0.012134629            2 
 1487000    0.6502076   -8.6023977    229.87804  0.012882652  0.012123738            2 
 1488000   0.66249931   -8.5841063    229.86968  0.012873526  0.012112849            2 
 1489000   0.67768769   -8.5818567    229.72432  0.012856745     0.012102            4 
 1490000   0.65298784   -8.5918818    229.60771  0.012841595   0.01209114            3 
 1491000   0.66755314   -8.5957495    230.57316  0.012886942  0.012080298            1 
 1492000   0.65362124   -8.6227919    230.12372  0.012853202  0.012069468            5 
 1493000   0.65429828   -8.6003382    229.97251  0.012836152  0.012058624            1 
 1494000   0.66725997   -8.6108339    230.24327  0.012842664  0.012047779            6 
 1495000   0.64580301   -8.6020074    230.08005  0.012824975  0.012036971            9 
 1496000   0.65691161   -8.6336414    229.59807  0.012789554  0.012026153            2 
 1497000   0.64208216   -8.5985386    230.12908   0.01281057  0.012015344            5 
 1498000   0.66037834   -8.6340172    229.72986   0.01277981   0.01200454            3 
 1499000   0.64502798   -8.6232453     229.8569  0.012778347  0.011993731            2 
 1500000   0.65941982    -8.606521    229.85072  0.012769485  0.011982923            7 
 1501000   0.63979433   -8.6259142    230.28693  0.012785195  0.011972136            1 
 1502000   0.65977371   -8.6004629    230.17578  0.012770516  0.011961385            2 
 1503000   0.65578159   -8.6176257    229.85899  0.012744455  0.011950664            6 
 1504000   0.64714803   -8.6221726    229.98706  0.012743077  0.011939925            2 
 1505000   0.64839619   -8.6218699    229.54068  0.012709894  0.011929196            4 
 1506000   0.66918369   -8.5968242    229.98757  0.012726183   0.01191849            3 
 1507000   0.66747224   -8.6340038    229.90337  0.012713082  0.011907825            3 
 1508000   0.65154169   -8.6143504    229.85821  0.012702155  0.011897133            2 
 1509000   0.64865378   -8.6172791    229.52505  0.012675339   0.01188644            4 
 1510000   0.64816668   -8.6219683     229.7388  0.012678742  0.011875754            1 
 1511000   0.65530503   -8.6267783    229.35744  0.012649318  0.011865092            5 
 1512000   0.65006814   -8.6264754    229.65025  0.012657091  0.011854445            3 
 1513000   0.65612832   -8.6445035    229.58971  0.012645391  0.011843794            1 
 1514000   0.64624289   -8.6245144    230.08793  0.012664461   0.01183318            1 
 1515000   0.66340854   -8.6085957    230.08773  0.012656091  0.011822567            3 
 1516000   0.65154943   -8.6224524    229.74367   0.01262883  0.011811965            2 
 1517000   0.64035215   -8.6400354    229.76347  0.012621593  0.011801351            1 
 1518000    0.6477114    -8.627035    229.74181  0.012612089  0.011790764            2 
 1519000   0.64045973   -8.6216531      229.373  0.012583553  0.011780178            4 
 1520000   0.63267923   -8.6173757    229.76737  0.012596895  0.011769604            6 
 1521000   0.64316914   -8.6263782    229.37525   0.01256713   0.01175904            2 
 1522000    0.6539367   -8.6186683    229.46714  0.012563904  0.011748478            2 
 1523000   0.64714436   -8.6175437    229.46162  0.012555352  0.011737907            3 
 1524000   0.64104052   -8.6267831    229.35799  0.012541448  0.011727391            5 
 1525000   0.64239942   -8.6449106    229.62238  0.012547671  0.011716852           10 
 1526000   0.64076082   -8.6332998    229.22143  0.012517553  0.011706315            1 
 1527000   0.65551288   -8.6420148    229.29229  0.012513223  0.011695796            1 
 1528000   0.64519452   -8.6597369    229.47505     0.012515  0.011685297            1 
 1529000   0.64421915   -8.6122637    229.73029  0.012520727  0.011674818            3 
 1530000   0.64543536   -8.6412033    229.52045  0.012501114  0.011664332            3 
 1531000    0.6520795   -8.6605905    229.21908  0.012476545  0.011653851            3 
 1532000   0.64002898   -8.6458681    229.35462  0.012475774  0.011643398            3 
 1533000   0.63690001   -8.6508255    229.46511  0.012473641  0.011632929            3 
 1534000    0.6412514    -8.662046    228.95157  0.012437612  0.011622461            2 
 1535000   0.64132132   -8.6570255    229.02291  0.012433383  0.011611999            2 
 1536000   0.63467499    -8.672309    229.00257  0.012424185  0.011601569            6 
 1537000   0.64437191   -8.6432107    229.81503  0.012460151  0.011591135            4 
 1538000   0.63583981   -8.6839734    229.78625   0.01245049  0.011580712            4 
 1539000    0.6324362   -8.6604089     229.7906  0.012442636  0.011570287            2 
 1540000   0.62037908    -8.667786    229.41445  0.012414202  0.011559883            5 
 1541000   0.63907751   -8.6522129     229.1697   0.01239291  0.011549508            7 
 1542000   0.64637048   -8.6656325    229.83079    0.0124206  0.011539142            4 
 1543000   0.64590638   -8.6659139    229.21936  0.012379529  0.011528787            5 
 1544000   0.63725317   -8.6444692    229.72156  0.012398616  0.011518437            3 
 1545000   0.63110793    -8.655304    229.51011  0.012379186  0.011508082            2 
 1546000   0.64454927   -8.6584034    229.22318  0.012355713  0.011497746            4 
 1547000   0.63486484   -8.6581773    229.17024  0.012344874   0.01148744            3 
 1548000   0.63704364   -8.6325686    229.39326  0.012348905   0.01147713            2 
 1549000   0.63988267   -8.6768273    229.32274  0.012337139  0.011466846            4 
 1550000   0.64034677   -8.6596334    229.53592  0.012340641  0.011456573            3 
 1551000   0.61929028   -8.6462855    229.67037  0.012339908  0.011446303            3 
 1552000   0.63006178   -8.6339036    229.67341   0.01233212  0.011436035            1 
 1553000   0.61522696   -8.6601407    229.83328  0.012332758  0.011425806            2 
 1554000    0.6382755   -8.6639859    229.43373  0.012303396  0.011415558            4 
 1555000    0.6262644   -8.6608553    229.10442  0.012277836  0.011405335            3 
 1556000   0.64013506     -8.64996    229.55308  0.012293974  0.011395123            4 
 1557000   0.62361987   -8.6521377    229.60439  0.012288824  0.011384928            5 
 1558000   0.62185385   -8.6682868    229.61874  0.012281704  0.011374748            3 
 1559000   0.63899903   -8.6520524    229.61705  0.012273736  0.011364576            6 
 1560000   0.63830056   -8.6586583    229.77097   0.01227409  0.011354405            2 
 1561000   0.62303097   -8.6555721    229.07932  0.012229304  0.011344235            2 
 1562000   0.62888963   -8.6576415    229.43783  0.012240601  0.011334081            6 
 1563000   0.62513243   -8.6657399     229.6357   0.01224332  0.011323939            6 
 1564000   0.62920933   -8.6745214    229.84222  0.012246495  0.011313816            2 
 1565000   0.63720273    -8.664327    229.40343  0.012215305  0.011303694            2 
 1566000   0.63419661   -8.6691568    229.34862  0.012204588  0.011293573            2 
 1567000   0.63289656   -8.6686742    229.15635  0.012186575  0.011283449            3 
 1568000   0.64181822   -8.6610066    229.26131  0.012184381  0.011273332            2 
 1569000   0.61697522   -8.6740368    229.32503  0.012179999  0.011263236            2 
 1570000   0.62951093   -8.6817001     229.5478  0.012184066  0.011253147            2 
 1571000   0.63708992   -8.6600858    229.39277  0.012168087  0.011243053            4 
 1572000   0.63129183   -8.6607092     229.4376  0.012162722  0.011232972            4 
 1573000   0.62273361   -8.6727932     229.3263  0.012149094    0.0112229            4 
 1574000    0.6179899   -8.6891066    229.14011  0.012131518  0.011212826            2 
 1575000   0.62317578   -8.6742315     229.6385  0.012150185  0.011202757            3 
 1576000   0.62945323   -8.6974088    229.14592   0.01211643  0.011192689            2 
 1577000     0.620275   -8.6835278    228.70715  0.012085561  0.011182633            4 
 1578000   0.63222735   -8.6849258    228.90409  0.012088302  0.011172607            3 
 1579000   0.62114352   -8.6758873     229.5256  0.012113447   0.01116258            5 
 1580000   0.61160725   -8.6937429    229.61975  0.012110746  0.011152567            6 
 1581000   0.62682541   -8.7035835    229.23637  0.012082879  0.011142548            4 
 1582000   0.61660343   -8.6906904    229.12035  0.012069129  0.011132539            5 
 1583000   0.61569437   -8.6914306    229.18978   0.01206516  0.011122558            3 
 1584000   0.61172603   -8.6714812    229.26238  0.012061362  0.011112565            5 
 1585000   0.60365402   -8.6845437    229.53967  0.012068332  0.011102612            4 
 1586000   0.62365434   -8.7015318     228.9989  0.012032309  0.011092651            3 
 1587000   0.59692234    -8.678837    229.42424  0.012047062  0.011082691            3 
 1588000   0.62842476     -8.69603    228.98714  0.012016538  0.011072746            5 
 1589000   0.60282715   -8.6877881    229.41448  0.012031387  0.011062825            2 
 1590000   0.61534402   -8.6927037    229.10515  0.012007608  0.011052895            2 
 1591000   0.62244707   -8.7051307    228.90048   0.01198934  0.011042973            2 
 1592000   0.60913029   -8.6965023    229.07668  0.011991032  0.011033067            4 
 1593000   0.61548142   -8.7056415    228.96273  0.011977544  0.011023154            1 
 1594000   0.64604824   -8.7371494    228.75798  0.011959326  0.011013243            2 
 1595000   0.61558696   -8.6934971    229.17154  0.011973435  0.011003346            1 
 1596000   0.60152904    -8.708036    228.95356  0.011954551  0.010993469            1 
 1597000   0.61679917   -8.7068222    229.07605  0.011953457  0.010983609            3 
 1598000   0.62345437   -8.7106704    228.75977  0.011929483  0.010973733            3 
 1599000   0.60461563   -8.7071711    228.71743  0.011919816  0.010963887            3 
 1600000   0.62996038   -8.7150412    228.58301  0.011905365  0.010954035            3 
 1601000   0.62157806   -8.6952484    229.10893  0.011925304  0.010944199            2 
 1602000   0.61311709    -8.702522    228.86852  0.011905354  0.010934372            3 
 1603000   0.60682899    -8.715945    229.07579  0.011908702  0.010924537            4 
 1604000   0.62426283   -8.7164134    228.76924  0.011885351  0.010914729            1 
 1605000   0.61331184   -8.7075484    228.56995  0.011867598  0.010904913            2 
 1606000   0.61118092   -8.7274984    228.58562  0.011861022  0.010895108            3 
 1607000   0.61547583   -8.7199133    229.19971  0.011885486  0.010885319            1 
 1608000    0.5975901   -8.7255844    228.92289  0.011863748  0.010875531            3 
 1609000   0.61323621   -8.7003093    228.61341  0.011840346  0.010865756            2 
 1610000   0.61138541   -8.7257835    229.00337  0.011853176  0.010855997            1 
 1611000   0.60012299   -8.7043028    228.64776  0.011827424  0.010846252            3 
 1612000   0.61793517   -8.7333217    228.72326   0.01182399  0.010836525            5 
 1613000   0.59612963   -8.7309537    228.54445  0.011807421  0.010826789            5 
 1614000   0.60201121   -8.7189492     228.5289  0.011799303  0.010817057            2 
 1615000   0.60427327   -8.7203788    228.80322  0.011806152  0.010807336            3 
 1616000   0.61313038   -8.7338659    228.67591  0.011792281  0.010797632            1 
 1617000   0.62137813   -8.7349882    228.42078   0.01177184   0.01078796            3 
 1618000   0.59622205   -8.7352651    228.51792  0.011769567   0.01077829            1 
 1619000    0.6080657   -8.7240772     228.4067  0.011756573  0.010768611            4 
 1620000   0.61000743   -8.7514631    228.84088   0.01177165  0.010758951            2 
 1621000   0.59291004   -8.7238738    228.26631   0.01173485  0.010749294            3 
 1622000   0.61243001   -8.7261836    228.78801  0.011754419  0.010739646            5 
 1623000   0.60534347   -8.7148539     228.5667  0.011735813  0.010730003            2 
 1624000   0.60303796   -8.7470259    228.22094  0.011710844  0.010720353            4 
 1625000   0.59945117   -8.7213477    228.81144   0.01173392  0.010710729            4 
 1626000   0.59423653   -8.7407323    228.69402  0.011720686  0.010701114            6 
 1627000   0.59789222   -8.7383134     228.7442  0.011716052  0.010691503            6 
 1628000   0.62335762   -8.7219948    228.88305  0.011715963  0.010681907            5 
 1629000   0.59740665   -8.7376694    228.88057  0.011708644  0.010672324            5 
 1630000   0.60445933   -8.7155174    228.37494  0.011675611  0.010662733            3 
 1631000   0.59663931   -8.7279965     228.5515  0.011677473   0.01065316            2 
 1632000   0.61034179   -8.7452223    228.80715  0.011683372  0.010643608            3 
 1633000   0.60885934   -8.7455114    228.69406  0.011670446  0.010634048            3 
 1634000   0.59963587   -8.7221285     228.4948  0.011653142  0.010624498            1 
 1635000   0.60930963   -8.7392551    228.72486   0.01165774   0.01061496            3 
 1636000   0.60768473   -8.7306372    227.91719  0.011609474  0.010605434            4 
 1637000   0.60347178   -8.7329055    228.12154  0.011612785  0.010595898            4 
 1638000   0.59778957   -8.7440749    228.45952   0.01162289  0.010586371            3 
 1639000   0.59216775    -8.752256    227.91681  0.011588205  0.010576879            5 
 1640000    0.6003784   -8.7458226    228.60534  0.011616125  0.010567387            1 
 1641000   0.60026256   -8.7684027     228.3341  0.011595272  0.010557904            2 
 1642000   0.59710881   -8.7575618    228.62355    0.0116029  0.010548448            4 
 1643000   0.60497426   -8.7417906    228.31451  0.011580164  0.010539001            2 
 1644000   0.60700352   -8.7392666    228.59049  0.011587109  0.010529546            2 
 1645000   0.59689495   -8.7474112    228.39108  0.011569963  0.010520109            3 
 1646000   0.57598355   -8.7333591    228.24252  0.011555413  0.010510682            5 
 1647000   0.60364068   -8.7690857    228.02339   0.01153731  0.010501254            6 
 1648000   0.59502788   -8.7428451    228.10564  0.011534468  0.010491834            3 
 1649000   0.59629114   -8.7520875    228.42345  0.011543534  0.010482439            4 
 1650000   0.60117033   -8.7588197    228.33913  0.011532279  0.010473046            3 
 1651000   0.59390015   -8.7518359    228.27458  0.011522036  0.010463663            2 
 1652000   0.60065602   -8.7603974    228.51999  0.011527441  0.010454285            4 
 1653000   0.59159168   -8.7474017    227.97246  0.011492864  0.010444903            1 
 1654000   0.59150124   -8.7637405    228.10473   0.01149258  0.010435545            3 
 1655000   0.58311743   -8.7771092    228.10157  0.011485477  0.010426189            4 
 1656000    0.5938078   -8.7734381    228.43505  0.011495323   0.01041684            4 
 1657000   0.59989298   -8.7572804    228.02608  0.011467817  0.010407505            4 
 1658000   0.59281319   -8.7535243    228.30658  0.011474999   0.01039818            2 
 1659000   0.58733478    -8.750331    228.05108  0.011455248  0.010388872            8 
 1660000   0.60018044   -8.7666465    228.27126  0.011459401  0.010379582            3 
 1661000   0.58249878   -8.7766991    227.91162  0.011434458   0.01037029            8 
 1662000   0.59550386   -8.7699263    228.51415  0.011457789  0.010361003            3 
 1663000   0.59464124   -8.7606463    228.67471  0.011458945  0.010351725            2 
 1664000   0.57085944   -8.7566401    228.16696  0.011426631  0.010342474            4 
 1665000   0.58973664   -8.7567121    228.46931    0.0114349  0.010333227            6 
 1666000   0.58109636   -8.7537693    228.38252  0.011423695   0.01032398            4 
 1667000   0.58456754   -8.7658942    228.52177  0.011423804  0.010314741            7 
 1668000   0.57404658     -8.78301    228.06194  0.011393982  0.010305512            7 
 1669000   0.58470474   -8.7653901     228.2272  0.011395406  0.010296282            2 
 1670000   0.60102021   -8.7647363    227.92563  0.011373535  0.010287072            2 
 1671000   0.57638299   -8.7512718    228.24125  0.011382468  0.010277871            5 
 1672000   0.58144193   -8.7753501     228.2469  0.011375942  0.010268676            3 
 1673000   0.58836607   -8.7498395    228.29631  0.011371603  0.010259483            5 
 1674000   0.58650971   -8.7854904     228.0797  0.011354027  0.010250315            1 
 1675000   0.58683962   -8.7690759    227.98084   0.01134233  0.010241162            4 
 1676000   0.58710572   -8.7941789    228.16688  0.011344813  0.010231999            2 
 1677000   0.57885261   -8.7682156    228.04937  0.011332209  0.010222858            2 
 1678000   0.58477786   -8.7830061    228.16195  0.011331046  0.010213711            3 
 1679000   0.57758546   -8.7699827    228.26323  0.011329325  0.010204581            2 
 1680000   0.58105659   -8.7845588    227.60956  0.011290157  0.010195441            3 
 1681000     0.591996   -8.7444035    228.14137  0.011309804  0.010186315            1 
 1682000   0.59300761   -8.7933908    227.97507  0.011294841  0.010177212            2 
 1683000    0.5931363   -8.7664081    228.07264  0.011292961  0.010168103            3 
 1684000   0.58268526   -8.7705896    227.74464  0.011270024  0.010159018            2 
 1685000   0.57709927    -8.761058    227.99958  0.011275944  0.010149946            4 
 1686000   0.58109758   -8.7778738    227.84053  0.011261394  0.010140872            3 
 1687000   0.57937622   -8.7843995    228.12792  0.011268915  0.010131822            3 
 1688000   0.58509897   -8.7929152    228.16457  0.011264048  0.010122768            3 
 1689000   0.58481066   -8.8051003    227.88788  0.011243728  0.010113723            2 
 1690000    0.5810739   -8.7922835     227.9775  0.011241494  0.010104686            5 
 1691000   0.56666964   -8.7623931    227.73459  0.011222875  0.010095658            5 
 1692000   0.57100351   -8.7976291    227.93763  0.011226243  0.010086655            5 
 1693000   0.56833833   -8.7857084    227.55959  0.011201004  0.010077639            2 
 1694000   0.58285156   -8.7923531    227.83425  0.011207903  0.010068633            3 
 1695000   0.58265866   -8.7880208    227.63005  0.011191251  0.010059647            2 
 1696000   0.56745079   -8.7858604    227.79839  0.011192924  0.010050664            3 
 1697000   0.57971961   -8.7879238    228.03811    0.0111981  0.010041698            3 
 1698000    0.5880882    -8.796181    227.94572  0.011186971  0.010032732            3 
 1699000   0.57425981   -8.7932415    228.01634   0.01118385  0.010023764            3 
 1700000    0.5713787   -8.7884225    228.14116   0.01118339  0.010014806            4 
 1701000   0.57987206     -8.80151    227.66298  0.011153389  0.010005867            1 
 1702000   0.57142295    -8.782893    227.74747  0.011150973 0.0099969337            3 
 1703000   0.56985888   -8.8208773    227.70785  0.011142486 0.0099880015            2 
 1704000   0.57103069   -8.7994336    227.32816  0.011117379 0.0099790682            6 
 1705000   0.58896296   -8.8100385    227.16782  0.011103022 0.0099701412            3 
 1706000   0.57600753   -8.8061635    227.58881  0.011117077  0.009961224            2 
 1707000   0.57743154   -8.7940727    227.97134   0.01112924 0.0099523354            4 
 1708000   0.57303574    -8.785585    227.89733  0.011119112 0.0099434479            3 
 1709000   0.56598714   -8.7994645    227.94184  0.011114777 0.0099345692            3 
 1710000   0.57649143   -8.8166268    227.79437   0.01110109 0.0099256923            2 
 1711000   0.57608706   -8.7904642    227.75126  0.011092502 0.0099168279            3 
 1712000   0.56745396   -8.7991858    227.90718  0.011093613 0.0099079801            2 
 1713000   0.56574636   -8.8163806    227.59056  0.011071734 0.0098991312            3 
 1714000   0.56354909   -8.8105334    227.73965  0.011072523 0.0098903007            2 
 1715000   0.57658768   -8.8199608     227.6428  0.011061361 0.0098814683            3 
 1716000   0.57486459   -8.8120635    227.34421  0.011040414 0.0098726495            3 
 1717000   0.55896406   -8.8171623    227.57174  0.011045027 0.0098638349            4 
 1718000   0.56556313   -8.7993918    227.38107   0.01102935 0.0098550385            4 
 1719000   0.56827962   -8.7995971    227.46045  0.011026781 0.0098462499            3 
 1720000    0.5730144   -8.7987341    227.47678  0.011021162 0.0098374714            4 
 1721000   0.56480935   -8.8062236    227.78708  0.011029783 0.0098287126            4 
 1722000   0.57131764   -8.7968173    227.76966  0.011022535 0.0098199601            2 
 1723000   0.57284149   -8.8267482     228.0526  0.011029822 0.0098112208            3 
 1724000   0.56863865   -8.8156871    227.57284  0.011000234 0.0098024787            6 
 1725000   0.56497276   -8.8295108     227.7158  0.011000763 0.0097937718            5 
 1726000   0.56602654   -8.8241527    227.64291  0.010990871 0.0097850573            2 
 1727000   0.56299602   -8.8297464    227.37869  0.010971757 0.0097763506            5 
 1728000   0.56529181    -8.820926    227.47678  0.010970138 0.0097676337            3 
 1729000   0.56449984   -8.8286117     227.4149  0.010960811 0.0097589485            4 
 1730000   0.56722394   -8.8131428    227.72512  0.010969418 0.0097502663            2 
 1731000   0.56473614   -8.8246542    227.87777   0.01097043 0.0097416022            4 
 1732000   0.56142886   -8.8235502    227.38928  0.010940593   0.00973294            4 
 1733000   0.55770145   -8.8182312    227.83759  0.010955837 0.0097242933            2 
 1734000   0.56611419   -8.8276462    227.71452  0.010943604 0.0097156544            4 
 1735000   0.57141288   -8.8200457    227.52688  0.010928284 0.0097070185            2 
 1736000   0.56058137   -8.8162812    227.11877  0.010902399  0.009698399            1 
 1737000   0.55649794   -8.8134657    227.76483  0.010927117  0.009689785            2 
 1738000   0.56747595   -8.8255726    227.71143  0.010918269 0.0096811877            5 
 1739000   0.56195477   -8.8159075    227.82558  0.010917461 0.0096725941            3 
 1740000   0.55629019   -8.8219019    227.23164  0.010882741 0.0096640089            4 
 1741000   0.54169182   -8.7986085    227.45479  0.010887172  0.009655428            3 
 1742000   0.55239945   -8.8352085    227.36251  0.010876507  0.009646859            4 
 1743000   0.56963878   -8.8336258    227.62941  0.010883028 0.0096382998            3 
 1744000   0.56556688   -8.8510668    227.02559  0.010847935 0.0096297442            5 
 1745000   0.55098687   -8.8242743    226.97883  0.010839486 0.0096211928            3 
 1746000   0.55077623   -8.8287447    227.17418  0.010842601 0.0096126412            7 
 1747000   0.55396436   -8.8262177     227.2333  0.010839215  0.009604115            2 
 1748000   0.55465863   -8.8283116    227.48231  0.010844885 0.0095955865            4 
 1749000   0.55838033   -8.8445849     227.4365  0.010836502 0.0095870732            4 
 1750000   0.54739696   -8.8415666     227.5526  0.010835838 0.0095785686            5 
 1751000   0.54992541   -8.8359176    227.37405  0.010821152 0.0095700779            2 
 1752000   0.53935352   -8.8267913    227.35582  0.010814109 0.0095615966            3 
 1753000   0.56450336   -8.8399749    227.80453   0.01082927 0.0095531337            5 
 1754000   0.54492566   -8.8280268    227.69776  0.010818024 0.0095446726            4 
 1755000   0.55313011   -8.8323459    227.07221  0.010782156 0.0095362208            3 
 1756000   0.54752715   -8.8426685    227.09284  0.010776995 0.0095277743            6 
 1757000   0.55606765   -8.8344191    227.55063  0.010792574 0.0095193431            5 
 1758000   0.55567391   -8.8300209    227.51317  0.010784659 0.0095109164            2 
 1759000    0.5526864   -8.8601205    227.26482  0.010766762 0.0095024984            6 
 1760000   0.55020718   -8.8367284    227.38067   0.01076613 0.0094940821            8 
 1761000   0.55242249   -8.8524983    227.34427  0.010758294 0.0094856818            4 
 1762000   0.55116131   -8.8122757    227.38465  0.010754098 0.0094772947            6 
 1763000   0.55278064   -8.8510484     227.1191  0.010735446 0.0094689077            5 
 1764000   0.55075513   -8.8309111     227.5313  0.010748833 0.0094605435            2 
 1765000   0.54201816    -8.820063    227.43463  0.010738179 0.0094521845            5 
 1766000   0.53955742   -8.8391142    227.55233  0.010737653 0.0094438283            4 
 1767000   0.54178489   -8.8500239    227.43196  0.010725899 0.0094354872            3 
 1768000   0.55929958   -8.8266166    227.22815  0.010710226 0.0094271497            3 
 1769000   0.54947446    -8.830736    227.38668   0.01071164 0.0094188345            3 
 1770000   0.55264308   -8.8603828    227.56879  0.010714162 0.0094105172            2 
 1771000   0.54954993   -8.8390545    227.57564  0.010708434 0.0094022059            2 
 1772000   0.54382193   -8.8413743     227.2623  0.010687655 0.0093939092            4 
 1773000   0.53885457   -8.8440831    226.93068  0.010666041 0.0093856179            3 
 1774000   0.54791674   -8.8392765    227.34015  0.010679263 0.0093773369           10 
 1775000   0.54408042   -8.8638795    226.94232  0.010654569 0.0093690626            4 
 1776000   0.55133001   -8.8464148    227.29268  0.010665009  0.009360802            4 
 1777000   0.54668141   -8.8509167     227.4235  0.010665143 0.0093525437            3 
 1778000   0.54625981   -8.8561272    227.30233  0.010653465 0.0093442916            2 
 1779000   0.53768136   -8.8571622    227.41929  0.010652955 0.0093360518            3 
 1780000   0.53205982   -8.8632374     227.3321  0.010642889 0.0093278277            2 
 1781000   0.55043768   -8.8488113    227.09986  0.010626046 0.0093196009            3 
 1782000   0.54169231   -8.8615634    227.40387    0.0106343 0.0093113896            3 
 1783000   0.54702001   -8.8379334    227.09503  0.010613901 0.0093031869            4 
 1784000   0.55409131   -8.8445492    226.88369   0.01059808 0.0092949926            2 
 1785000   0.53834959   -8.8524914    226.85545  0.010590824 0.0092868089            2 
 1786000   0.54423618   -8.8482997    227.37295   0.01060904 0.0092786344            2 
 1787000   0.53453626   -8.8530872    227.14265  0.010592364 0.0092704597            4 
 1788000   0.52603797   -8.8589931    227.46988  0.010601691 0.0092622891            3 
 1789000   0.53690569   -8.8438164     227.1958  0.010582998 0.0092541365            4 
 1790000   0.54292723    -8.850121    227.15691  0.010575275  0.009245991            5 
 1791000   0.54306171   -8.8494317    227.18617  0.010570732  0.009237847            4 
 1792000   0.54055608   -8.8556192    226.89222  0.010551164 0.0092297263            3 
 1793000   0.53910374   -8.8649177    227.31932  0.010565129 0.0092216102            3 
 1794000   0.52729502   -8.8784703    227.24522  0.010555798 0.0092134977            3 
 1795000   0.53477338   -8.8563959    227.14409  0.010545222 0.0092053953            5 
 1796000   0.54241306   -8.8579503    227.03433  0.010534258 0.0091973063            4 
 1797000   0.54912941   -8.8656342    227.06778  0.010529947 0.0091892226            6 
 1798000   0.53568392   -8.8553292    226.78113  0.010510805 0.0091811555            7 
 1799000   0.53278078   -8.8625816    227.36906  0.010532197 0.0091730845            2 
 1800000   0.53914091   -8.8611358    227.22975  0.010519896 0.0091650238            5 
 1801000   0.53797185   -8.8597849    227.22657  0.010513908 0.0091569828            3 
 1802000   0.53570946    -8.861739    227.00376  0.010497769  0.009148954            3 
 1803000   0.53220506   -8.8634459    226.46854  0.010467209 0.0091409248            4 
 1804000   0.52102774   -8.8566241    226.92294  0.010482397 0.0091329053            3 
 1805000   0.53719662   -8.8673454    226.93482  0.010477138 0.0091248921            5 
 1806000   0.54282583   -8.8631491    226.63716  0.010457603 0.0091168856            3 
 1807000   0.52778828   -8.8678535    227.30543  0.010482634 0.0091088885            2 
 1808000   0.53427266    -8.864375    227.16271  0.010470258 0.0091009001            3 
 1809000   0.52227571   -8.8537653     227.2097  0.010466635 0.0090929287            3 
 1810000   0.53921153   -8.8585946    227.18137  0.010459547 0.0090849614            2 
 1811000   0.52772733   -8.8543783    226.95859  0.010443521  0.009077009            3 
 1812000    0.5160583   -8.8773568    226.51094   0.01041717 0.0090690563            4 
 1813000   0.52310781   -8.8622512    226.96175  0.010432145 0.0090611137            3 
 1814000   0.53090925   -8.8765258    227.01624  0.010428897 0.0090531779            3 
 1815000   0.50967908   -8.8758594    226.82335  0.010414295 0.0090452447            3 
 1816000    0.5296084   -8.8778737    226.93721  0.010413785 0.0090373247            6 
 1817000   0.52835993   -8.8698464    226.94744  0.010408523 0.0090294112            3 
 1818000   0.53167604   -8.8863413    227.17603  0.010413276  0.009021516            5 
 1819000   0.52748932   -8.8760439    227.20427  0.010408845 0.0090136289            6 
 1820000   0.52259402   -8.8928152    226.79813   0.01038453 0.0090057503            2 
 1821000   0.54307326   -8.8739502    227.08341  0.010391882 0.0089978813            2 
 1822000   0.53451378   -8.8635604    226.76275  0.010371512 0.0089900209            1 
 1823000   0.53051224   -8.8842209    226.70815  0.010363327 0.0089821554            2 
 1824000   0.53899588   -8.8822071    226.78012  0.010360934 0.0089742975            4 
 1825000   0.52331465   -8.8860493    227.17959  0.010373497 0.0089664452            3 
 1826000   0.53075269   -8.8740289    226.85004  0.010352777 0.0089586034            4 
 1827000   0.52329182   -8.8864386    226.53088  0.010332552 0.0089507738            3 
 1828000   0.52207057   -8.8939617    226.57757  0.010329029 0.0089429599            3 
 1829000   0.52211441   -8.8781538    226.70257  0.010329076 0.0089351516            4 
 1830000   0.52691614   -8.8892668    226.98216  0.010336164 0.0089273543            3 
 1831000   0.52812145    -8.891698    226.82987  0.010323588 0.0089195627            3 
 1832000   0.52533917   -8.8933119    226.83347  0.010318116 0.0089117759            1 
 1833000   0.53105564   -8.8991351    226.58244  0.010301075 0.0089039932            3 
 1834000   0.52048031   -8.8989131    226.44231  0.010289091  0.008896227            4 
 1835000   0.52677092   -8.8892937    226.90915  0.010304684 0.0088884594            3 
 1836000   0.52140268   -8.8924797    226.43906  0.010277735  0.008880709            6 
 1837000   0.52779868   -8.8743115    227.07487  0.010300983 0.0088729613            4 
 1838000   0.51975056   -8.8989296    226.71913  0.010279249 0.0088652375            4 
 1839000   0.52260096   -8.8852067    226.44585  0.010261277 0.0088575089            2 
 1840000   0.50864276   -8.9016429    226.74038  0.010269039 0.0088497964            4 
 1841000   0.51614498   -8.8742803     226.7443  0.010263638 0.0088420863            3 
 1842000   0.51427893   -8.8936694    226.40539  0.010242734 0.0088343745            2 
 1843000   0.52155175   -8.8900534    226.63746  0.010247669 0.0088266784            6 
 1844000    0.5166661   -8.9016403    226.75415  0.010247386 0.0088189864            1 
 1845000   0.51843208   -8.9077713    226.71807  0.010240202 0.0088113084            3 
 1846000   0.51990693   -8.8971205     226.4896  0.010224341 0.0088036346            9 
 1847000   0.51848224   -8.9126378    226.73668  0.010229953 0.0087959746            4 
 1848000   0.51179795   -8.8783322    226.36054  0.010207456 0.0087883218            3 
 1849000   0.52265845   -8.9309044    226.34299  0.010201144 0.0087806751            4 
 1850000   0.51787754   -8.9040749    226.43457  0.010199755 0.0087730356            5 
 1851000   0.52437264   -8.8933424    226.79777  0.010210597   0.00876541            7 
 1852000   0.52284667   -8.8948168    226.75257  0.010203049  0.008757788            4 
 1853000   0.52171574   -8.8870254    226.71398  0.010195808 0.0087501773            4 
 1854000   0.49851866   -8.8836441    226.52917  0.010182001 0.0087425736            4 
 1855000    0.5061141   -8.9015522     226.6557  0.010182197 0.0087349782            2 
 1856000   0.51583484    -8.902787     226.3632  0.010163578 0.0087273897            2 
 1857000    0.5083666    -8.891216    226.69296  0.010172902 0.0087198059            1 
 1858000    0.4988604   -8.8988439    226.51284  0.010159349 0.0087122289            4 
 1859000   0.51463338      -8.8902    226.28819  0.010143813 0.0087046553            3 
 1860000   0.51811462   -8.9175837    226.63336  0.010153824 0.0086970885            3 
 1861000   0.51100143   -8.9072124    226.41257  0.010138482 0.0086895314            4 
 1862000   0.51863236   -8.9004418    226.83616  0.010151994 0.0086819765            3 
 1863000   0.51051672   -8.8965372    226.14934  0.010115823 0.0086744302            3 
 1864000   0.50727713   -8.9021789    226.34203  0.010119011 0.0086668938            3 
 1865000    0.5170222   -8.9162716    226.21091  0.010107726 0.0086593649            4 
 1866000   0.50690828    -8.897294    225.95314  0.010090798 0.0086518455            3 
 1867000   0.49563348   -8.8982765    226.71274  0.010119297 0.0086443294            4 
 1868000   0.51519888   -8.8988209    226.66276  0.010111651  0.008636837            4 
 1869000   0.50065515   -8.8913358    226.50327  0.010099129 0.0086293484            3 
 1870000   0.52024067   -8.9084691    226.04174  0.010073161  0.008621869            2 
 1871000   0.51185332   -8.9088124    226.56041  0.010090879 0.0086143969            7 
 1872000   0.50709776   -8.9062112    226.42916  0.010079646 0.0086069257            6 
 1873000   0.50418249   -8.9170848    226.25093  0.010066334 0.0085994652            5 
 1874000   0.50560317   -8.9052057    226.38629  0.010066982 0.0085920163            3 
 1875000   0.51363139    -8.909261    226.51962  0.010067538 0.0085845669            3 
 1876000   0.50118424   -8.9159613    226.13055  0.010044889 0.0085771332            2 
 1877000   0.50577262   -8.9057373     226.4602  0.010054173 0.0085697042            2 
 1878000   0.49787776   -8.9129228     226.4799  0.010049694 0.0085622901            2 
 1879000   0.50594069   -8.9007613    226.37184  0.010039553 0.0085548879            3 
 1880000   0.50530301    -8.918764    226.67567  0.010047681 0.0085474881            2 
 1881000   0.50214935   -8.9178851    226.24011  0.010023042 0.0085400908            2 
 1882000   0.50711465    -8.913358    226.59955  0.010033632  0.008532709            5 
 1883000   0.50245376   -8.9046085    226.35763  0.010017597  0.008525344            2 
 1884000   0.50563885   -8.9147998    226.47313  0.010017389   0.00851798            3 
 1885000   0.49777405   -8.9236163    225.81921 0.0099831659 0.0085106189            4 
 1886000   0.50341434   -8.9172538    226.31769 0.0099998978 0.0085032739            3 
 1887000    0.4975715   -8.9112428    226.51625  0.010003367 0.0084959415            3 
 1888000    0.5028258   -8.9149521     226.2291 0.0099853948 0.0084886077            3 
 1889000   0.49270014   -8.9159592    226.44645 0.0099896968 0.0084812858            3 
 1890000   0.50647549   -8.9094586    226.64455 0.0099931458 0.0084739705            2 
 1891000   0.49793515   -8.9175728    226.55879 0.0099840819 0.0084666727            3 
 1892000   0.49434065   -8.9228971    226.22156 0.0099639515 0.0084593775            3 
 1893000   0.49667209   -8.9138381    226.54834 0.0099730734 0.0084520878            3 
 1894000   0.49677399   -8.9400336    226.17695 0.0099514674 0.0084448077            4 
 1895000   0.48835549   -8.8933217    226.24885 0.0099493778  0.008437531            4 
 1896000   0.50287355   -8.9391081    226.42315  0.009951791 0.0084302623            2 
 1897000   0.49827322   -8.9278537    226.21282 0.0099373054 0.0084230028            3 
 1898000     0.500144   -8.9253463     226.0804 0.0099262559 0.0084157552            3 
 1899000    0.4960937   -8.9172424    226.06726  0.009920452 0.0084085149            4 
 1900000   0.48798592   -8.9312659    226.38291 0.0099290748  0.008401276            1 
 1901000   0.48516558   -8.9368552    226.30366 0.0099203777 0.0083940449            2 
 1902000   0.47943325   -8.9255139    226.13813 0.0099079097 0.0083868224            5 
 1903000    0.5006033   -8.9244481    226.40057 0.0099141955 0.0083796096            7 
 1904000   0.49595934   -8.9321127    226.14347 0.0098977358 0.0083724172            4 
 1905000   0.49702043   -8.9324999    226.37017 0.0099024573  0.008365226            2 
 1906000   0.48882797   -8.9241568    226.33283 0.0098956293 0.0083580388            2 
 1907000   0.48932667   -8.9186337    226.16638 0.0098831663  0.008350863            3 
 1908000   0.48743403   -8.9268593    226.25529 0.0098818697 0.0083437042            3 
 1909000   0.48252051   -8.9356273    226.27094 0.0098773765 0.0083365461            2 
 1910000   0.49317137   -8.9322125    226.44548 0.0098798202 0.0083293924            2 
 1911000   0.48407088    -8.933942    226.01477 0.0098558684 0.0083222449            3 
 1912000   0.49129424   -8.9538773    226.03653 0.0098516621 0.0083151078            2 
 1913000   0.49070644   -8.9263115    226.54604  0.009868707 0.0083079802            3 
 1914000   0.49686356   -8.9369635    225.99927 0.0098397453 0.0083008597            2 
 1915000   0.48205155   -8.9174548    226.38603 0.0098514375 0.0082937434            2 
 1916000   0.48815431    -8.934199    225.81602 0.0098215041  0.008286631            2 
 1917000   0.48531368    -8.944408    225.86103 0.0098183371 0.0082795197            2 
 1918000   0.49324003   -8.9302589    226.02496 0.0098203405 0.0082724187            3 
 1919000   0.49386222   -8.9459517     225.9781 0.0098131883 0.0082653269            3 
 1920000   0.49314796   -8.9200318    225.95639 0.0098071351 0.0082582472            2 
 1921000   0.49170753   -8.9544908    225.87674 0.0097985745 0.0082511679            3 
 1922000   0.49418965   -8.9286063    226.17715 0.0098065014 0.0082440977            1 
 1923000   0.48455584     -8.93916    226.00113  0.009793774 0.0082370379            2 
 1924000   0.48847915   -8.9398376    225.68728 0.0097750903 0.0082299894            8 
 1925000   0.47866391   -8.9458945    226.13944  0.009789586 0.0082229456            4 
 1926000   0.47935775   -8.9467336    226.11505 0.0097834481 0.0082159076            5 
 1927000   0.48951557   -8.9263198    225.74138 0.0097622117  0.008208877            3 
 1928000   0.49252021   -8.9500873    226.13287 0.0097740696 0.0082018668            4 
 1929000   0.47723732   -8.9378541     225.8981 0.0097588604 0.0081948546            2 
 1930000   0.47100417   -8.9609465    226.03418 0.0097596797 0.0081878465            1 
 1931000   0.47385333    -8.956439    225.71415 0.0097408142  0.008180845            5 
 1932000   0.47783027    -8.919814    226.23919 0.0097584192 0.0081738601            2 
 1933000   0.46990578    -8.944958    226.10409 0.0097475465 0.0081668728            2 
 1934000   0.48744932   -8.9408997    226.23862 0.0097483033 0.0081598939            2 
 1935000    0.4868859   -8.9532219    226.13795 0.0097389299 0.0081529239            2 
 1936000   0.46465076   -8.9593595    225.90668 0.0097239446 0.0081459601            2 
 1937000   0.48298955   -8.9420193    226.27933 0.0097349566 0.0081390075            3 
 1938000   0.48760543   -8.9550013    225.93922 0.0097153088 0.0081320616            1 
 1939000   0.48384954   -8.9715694    226.18105 0.0097206916 0.0081251247            4 
 1940000   0.47220297   -8.9471275    225.92255 0.0097045768 0.0081181974            1 
 1941000   0.47988487   -8.9678185    225.71502  0.009690667 0.0081112787            2 
 1942000   0.48333775   -8.9532487    225.81997 0.0096901808 0.0081043619            2 
 1943000   0.47589617   -8.9599658    226.01613 0.0096936066 0.0080974547            2 
 1944000   0.48583149   -8.9422292    225.77549 0.0096783044 0.0080905554            2 
 1945000   0.47654772    -8.959911    226.17091 0.0096902705  0.008083663            3 
 1946000   0.48418708   -8.9433127    225.71145 0.0096656152 0.0080767767            3 
 1947000   0.47855704   -8.9587905    226.08603 0.0096766835 0.0080698986            2 
 1948000   0.46839839   -8.9579933    225.68365 0.0096545026 0.0080630313            3 
 1949000   0.47861178   -8.9559706    225.98596 0.0096624749 0.0080561603            1 
 1950000   0.47692239   -8.9451958    225.89498 0.0096536318 0.0080493004            3 
 1951000   0.47988098   -8.9533311    225.81232  0.009645153 0.0080424524            2 
 1952000   0.48239671   -8.9637748    225.95353 0.0096462403   0.00803561            3 
 1953000   0.46412361   -8.9632692    225.91768 0.0096397712  0.008028776            2 
 1954000   0.47305659   -8.9525337    226.21385 0.0096474689 0.0080219455            2 
 1955000   0.47857985   -8.9474994    225.82805 0.0096260889 0.0080151173            3 
 1956000   0.46769249   -8.9661465    225.52838 0.0096084008 0.0080083011            3 
 1957000    0.4697315   -8.9704432    226.03833 0.0096252057 0.0080014919            2 
 1958000   0.46829762   -8.9736399    225.65508 0.0096039787   0.00799469            4 
 1959000   0.47715079   -8.9688745     225.5272 0.0095936364 0.0079878982            1 
 1960000   0.45735547   -8.9524336    225.98884 0.0096083692 0.0079811111            4 
 1961000   0.46899759   -8.9719864    225.61344 0.0095875166 0.0079743382            2 
 1962000   0.46863203   -8.9488031    225.70414 0.0095864823 0.0079675693            8 
 1963000   0.47016398   -8.9779906    225.65459 0.0095794952 0.0079608078            1 
 1964000   0.47013732   -8.9550162    225.71705 0.0095772679 0.0079540536            7 
 1965000   0.46579928   -8.9513683    225.78774 0.0095753917 0.0079473036            4 
 1966000   0.46751551    -8.986603    226.07199 0.0095825699 0.0079405603            2 
 1967000   0.48128644   -8.9614748    225.71989 0.0095627811 0.0079338291            5 
 1968000   0.46618784   -8.9705246    225.51424 0.0095492139 0.0079271002            2 
 1969000   0.46822051   -8.9851358    225.81823 0.0095572299 0.0079203738            2 
 1970000   0.47799833   -8.9592403    225.74382 0.0095492308 0.0079136619            3 
 1971000   0.45557706   -8.9840416    226.07232 0.0095582749 0.0079069528            3 
 1972000   0.44961619   -8.9674421    225.73796 0.0095392986 0.0079002529            4 
 1973000   0.46519095   -8.9712963    225.80774  0.009537411 0.0078935622            5 
 1974000   0.46353899   -8.9741399    225.34447  0.009513022 0.0078868831            3 
 1975000   0.46831051    -8.970669    225.62895 0.0095202088 0.0078802012            3 
 1976000   0.46001682   -8.9651939    226.00161 0.0095311072 0.0078735287            3 
 1977000   0.45930822   -8.9735121    225.67592 0.0095125578 0.0078668665            4 
 1978000    0.4751708   -8.9818526    225.42111 0.0094970135 0.0078602088            2 
 1979000   0.46806569     -8.98199    226.20944   0.00952541 0.0078535559            4 
 1980000   0.45793454   -8.9649278    225.76207 0.0095017708 0.0078469155            3 
 1981000   0.46498426   -8.9792435     225.4138 0.0094823237 0.0078402767            2 
 1982000   0.45394437   -8.9749295    225.35785 0.0094751871 0.0078336477            2 
 1983000   0.47304679   -8.9784239    225.76686 0.0094875971 0.0078270261            3 
 1984000   0.46885033   -8.9738828    225.74948  0.009482085 0.0078204189            2 
 1985000   0.45562187   -8.9693427    225.48809 0.0094663347 0.0078138146            3 
 1986000   0.45686423    -8.987416    225.42108 0.0094587562 0.0078072174            2 
 1987000   0.45253409   -8.9772222     225.6692 0.0094644018 0.0078006303            3 
 1988000   0.45987259      -8.9707    225.77765 0.0094641874 0.0077940496            2 
 1989000   0.44547605   -8.9818611    225.31673 0.0094401178 0.0077874814            6 
 1990000   0.46575488   -8.9858333    225.51458  0.009443659  0.007780913            3 
 1991000   0.46483636   -8.9764643    225.63913 0.0094441288 0.0077743502            5 
 1992000   0.46160179   -8.9704551    225.40822 0.0094297281 0.0077677957            2 
 1993000   0.46517123   -8.9816863    225.90212 0.0094456482 0.0077612543            1 
 1994000   0.47200231   -9.0090047    225.38488 0.0094192945 0.0077547141            3 
 1995000   0.46504864   -8.9918079    225.58092 0.0094227617 0.0077481814            2 
 1996000   0.46339828    -8.985311    225.59918 0.0094188034 0.0077416584            5 
 1997000   0.45267682   -8.9789576    225.55306 0.0094121623 0.0077351388            2 
 1998000   0.44788145     -8.97109    225.51321 0.0094057896 0.0077286208            3 
 1999000   0.45014278   -8.9995755    225.13862 0.0093854686 0.0077221109            4 
 2000000   0.45440971   -8.9902016     225.5416 0.0093975669 0.0077156102            4 
 2001000   0.45492079   -8.9954983    225.19855 0.0093785836 0.0077091132            4 
 2002000   0.45028876   -8.9835089    225.62737 0.0093917487 0.0077026276            2 
 2003000   0.45342287   -8.9846714    225.71549  0.009390726 0.0076961476            3 
 2004000   0.45775268   -8.9897697    225.52334 0.0093780498 0.0076896786            3 
 2005000   0.45715991   -9.0000775    225.37085 0.0093670345 0.0076832187            4 
 2006000   0.44756317   -8.9907812    225.48798 0.0093672308 0.0076767595            2 
 2007000   0.44692012   -8.9963297    225.52412 0.0093640639 0.0076703071            3 
 2008000   0.44305055   -8.9863296    225.50186 0.0093584768 0.0076638631            5 
 2009000   0.45271566   -8.9911189    225.44052 0.0093512741 0.0076574307            3 
 2010000   0.44393961   -8.9955528    225.66599 0.0093559696 0.0076510027            2 
 2011000   0.45178464   -8.9930192    225.60244 0.0093486839 0.0076445877            3 
 2012000    0.4457073   -8.9968405    225.29688 0.0093313818  0.007638173            5 
Loop time of 4885.79 on 48 procs for 2000000 steps with 4000 atoms

Performance: 70735.683 tau/day, 409.350 timesteps/s
99.4% CPU use with 48 MPI tasks x no OpenMP threads

MPI task timing breakdown:
Section |  min time  |  avg time  |  max time  |%varavg| %total
---------------------------------------------------------------
Pair    | 324.56     | 342.75     | 367.33     |  58.5 |  7.02
Neigh   | 32.706     | 33.904     | 35.098     |  11.6 |  0.69
Comm    | 308.62     | 332.39     | 352.79     |  63.8 |  6.80
Output  | 4.1768     | 4.1789     | 4.2122     |   0.2 |  0.09
Modify  | 4114.9     | 4129.9     | 4138.8     |   7.8 | 84.53
Other   |            | 42.64      |            |       |  0.87

Nlocal:        83.3333 ave          89 max          76 min
Histogram: 1 1 4 6 8 5 11 5 3 4
Nghost:        2182.19 ave        2205 max        2147 min
Histogram: 1 1 2 1 8 7 14 6 7 1
Neighs:        14505.2 ave       16172 max       12725 min
Histogram: 1 1 5 7 9 7 10 5 2 1
FullNghs:      29011.0 ave       31290 max       26477 min
Histogram: 1 4 3 8 7 4 9 7 3 2

Total # of neighbors = 1392527
Ave neighs/atom = 348.13175
Neighbor list builds = 106801
Dangerous builds = 0

#clear
#
#next RN
#
#jump SELF
Total wall time: 1:21:29
