
units lj                  # Use reduced LJ style units
atom_style atomic         # Uncharged point particles
atom_modify map hash      # Needed for indexing of clusters etc
                          # Used to be able to find where atoms are in relation to each other.

lattice fcc 1.0 spacing 1 1 1
Lattice spacing in x,y,z = 1.5874011 1.5874011 1.5874011
region box block 0 10 0 10 0 10 units lattice
create_box 2 box
Created orthogonal box = (0.0000000 0.0000000 0.0000000) to (15.874011 15.874011 15.874011)
  3 by 4 by 4 MPI processor grid
create_atoms 1 box
Created 4000 atoms
  using lattice units in orthogonal box = (0.0000000 0.0000000 0.0000000) to (15.874011 15.874011 15.874011)
  create_atoms CPU = 0.003 seconds
set type 1 type/fraction 2 0.46 78393
Setting atom values ...
  1843 settings made for type/fraction
mass 1 1.0
mass 2 1.0
pair_style lj/cut  3.5
pair_modify tail  yes
pair_coeff 1  1  1.0  1.0   # Intearaction between 1 and 1 set with epsilon = 1 and sigma = 1
pair_coeff 1  2  1.5  0.8
pair_coeff 2  2  0.5  0.88

write_data data.0
System init for write_data ...
Neighbor list info ...
  update every 1 steps, delay 10 steps, check yes
  max neighbors/atom: 2000, page size: 100000
  master list distance cutoff = 3.8
  ghost atom cutoff = 3.8
  binsize = 1.9, bins = 9 9 9
  1 neighbor lists, perpetual/occasional/extra = 1 0 0
  (1) pair lj/cut, perpetual
      attributes: half, newton on
      pair build: half/bin/atomonly/newton
      stencil: half/bin/3d
      bin: standard
WARNING: Not all mixed pair coeffs generated from mixing. Use write_data with 'pair ij' option to store all pair coeffs. (../write_data.cpp:312)


#############################
#   M E L T   S Y S T E M   #
#############################

velocity all create 2.4 1741580 mom yes dist gaussian # Assign velocities
                                                    # Temperature 2.4, random number seed, zero linear momentum
                                                                                # Gaussian distribution

timestep 0.002   # simulation timestep
thermo 1000       # output thermodynamic data every 1000 steps bf 100

# Define a fix  in this case with index 1 applied to all
# particles in the simulation. This fix is for simulations
# in the anisotropic NPT ensemble. Note that we use the MTK
# correction.
fix 1 all npt temp 2.4 2.4 0.1 iso 5.68 5.68 0.5 mtk yes tchain 5 pchain 5 # Use NPT ensemble
                                                                         # Set temperature and pressure and damping
                                                                         # Numbers of thermostats in chain and in barostat
run 10000          # run for 10000 steps
Per MPI rank memory allocation (min/avg/max) = 3.642 | 3.644 | 3.648 Mbytes
Step Temp E_pair E_mol TotEng Press Volume 
       0          2.4   -5.5244938            0   -1.9253938   -4.2019961         4000 
    1000    2.4096723   -5.0715864            0   -1.4579816    5.6788244    3718.5668 
    2000    2.3827068   -5.0228705            0   -1.4497038    5.6333793    3742.8201 
    3000    2.3741151   -5.0780019            0   -1.5177196    5.3733526    3736.9331 
    4000    2.4005206   -4.9172222            0   -1.3173415    5.8294715    3780.4178 
    5000     2.369677    -5.009178            0   -1.4555511    5.6168814    3747.5021 
    6000    2.4675373   -4.9855496            0   -1.2851689    6.1298861    3731.8675 
    7000    2.3955655   -4.9184016            0   -1.3259517    5.6501169    3790.1418 
    8000    2.4707595   -4.9491058            0   -1.2438931    5.7166588    3784.0458 
    9000     2.361567   -4.9103974            0   -1.3689325    5.5854695    3800.3136 
   10000    2.3547882   -4.9959572            0   -1.4646579    5.7163264    3744.6613 
Loop time of 2.64065 on 48 procs for 10000 steps with 4000 atoms

Performance: 654384.578 tau/day, 3786.948 timesteps/s
99.6% CPU use with 48 MPI tasks x no OpenMP threads

MPI task timing breakdown:
Section |  min time  |  avg time  |  max time  |%varavg| %total
---------------------------------------------------------------
Pair    | 1.183      | 1.2404     | 1.3946     |   3.2 | 46.97
Neigh   | 0.21454    | 0.22164    | 0.24419    |   1.1 |  8.39
Comm    | 0.78244    | 0.8997     | 0.99252    |   4.1 | 34.07
Output  | 0.00027272 | 0.00027798 | 0.00034284 |   0.0 |  0.01
Modify  | 0.19753    | 0.26259    | 0.31268    |   7.2 |  9.94
Other   |            | 0.01601    |            |       |  0.61

Nlocal:        83.3333 ave          92 max          73 min
Histogram: 1 1 3 9 6 8 11 3 4 2
Nghost:        1713.81 ave        1740 max        1688 min
Histogram: 4 2 10 2 6 6 5 5 5 3
Neighs:        10189.5 ave       11806 max        8269 min
Histogram: 1 0 1 9 7 13 9 5 2 1

Total # of neighbors = 489098
Ave neighs/atom = 122.27450
Neighbor list builds = 903
Dangerous builds = 193

# Equilibrate just above the melting temperature to avoid step fn in T

fix 1 all npt temp 1.25 1.25 0.1 iso 5.68 5.68 0.5 mtk yes tchain 5 pchain 5
run 2000
Per MPI rank memory allocation (min/avg/max) = 3.644 | 3.645 | 3.649 Mbytes
Step Temp E_pair E_mol TotEng Press Volume 
   10000    2.3547882   -4.9959572            0   -1.4646579    5.7163264    3744.6613 
   11000    1.2584167   -7.0453915            0   -5.1582384    5.5912748    2962.7211 
   12000    1.2466766   -7.0948953            0   -5.2253479    5.9740296    2935.7253 
Loop time of 0.634651 on 48 procs for 2000 steps with 4000 atoms

Performance: 544551.165 tau/day, 3151.338 timesteps/s
99.6% CPU use with 48 MPI tasks x no OpenMP threads

MPI task timing breakdown:
Section |  min time  |  avg time  |  max time  |%varavg| %total
---------------------------------------------------------------
Pair    | 0.28396    | 0.31228    | 0.33191    |   2.1 | 49.21
Neigh   | 0.040424   | 0.042929   | 0.044961   |   0.5 |  6.76
Comm    | 0.20783    | 0.22907    | 0.26048    |   2.7 | 36.09
Output  | 5.2446e-05 | 5.3499e-05 | 7.0147e-05 |   0.0 |  0.01
Modify  | 0.041943   | 0.045337   | 0.048889   |   1.0 |  7.14
Other   |            | 0.004982   |            |       |  0.79

Nlocal:        83.3333 ave          92 max          74 min
Histogram: 1 1 6 7 6 7 9 8 2 1
Nghost:        2029.75 ave        2056 max        2012 min
Histogram: 4 3 9 11 7 6 4 3 0 1
Neighs:        13009.2 ave       14315 max       11509 min
Histogram: 4 2 3 5 4 7 12 5 2 4

Total # of neighbors = 624444
Ave neighs/atom = 156.11100
Neighbor list builds = 142
Dangerous builds = 10

#############################
# L I N E A R  Q U E N C H  #
#############################

# Define solid atoms. This closely follows ten Wolde  Ruiz-Montero and Frenkel  Faraday Discuss  1996  104  93-110
# Compute components of the per-atom q6 vector
compute q6 all orientorder/atom degrees 1 6 components 6 nnn NULL cutoff 1.3 # compute the Q6 parameter.
                                                                             # Use all neighbours within 1.3 unit cell.

# get number of connections
compute coord_number all coord/atom orientorder q6 0.5

# An atom is solid if it has 8 or more connections (of a possible 14)
variable is_solid atom c_coord_number>=8
group solid dynamic all var is_solid    # Must be dynamic to update
dynamic group solid defined

# do clustering
compute cluster solid cluster/atom 1.3 # Create a cluster where all atoms within are solid and max 1.3 units from another member

# define chunks one chunk per cluster
compute clus_chunks solid chunk/atom c_cluster nchunk every compress yes  # Says which atoms are in which chunk

# count the size of each chunk
compute size_chunks solid property/chunk clus_chunks count


# Find the maximum entry in the vector of chunk sizes
variable max_n equal max(c_size_chunks)


# Thermo style which includes this variable
# thermo_style custom step temp pe vol v_max_n

thermo ${N}  # Print the thermo information every 100 steps
thermo 1000  

# Reset the npt fix at a lower temperature (below freezing)
fix 1  all npt temp  ${temp} ${temp}  0.1  iso  5.68  5.68  0.5  mtk yes tchain  5  pchain  5
fix 1  all npt temp  0.45 ${temp}  0.1  iso  5.68  5.68  0.5  mtk yes tchain  5  pchain  5
fix 1  all npt temp  0.45 0.45  0.1  iso  5.68  5.68  0.5  mtk yes tchain  5  pchain  5

dump dmp2 all dcd ${N} traj.dcd
dump dmp2 all dcd 1000 traj.dcd


compute msd all msd com yes
variable twopoint equal c_msd[4]/6/(step*dt+1.0e-6)
fix 9 all vector 10 c_msd[4]
variable fit equal slope(f_9)/6/(10*dt)
thermo_style custom step temp pe c_msd[4] v_twopoint v_fit v_max_n

fix 1 all npt temp 1.25 ${temp} 0.1 iso 5.68 5.68 0.5 mtk yes tchain 5 pchain 5
fix 1 all npt temp 1.25 0.45 0.1 iso 5.68 5.68 0.5 mtk yes tchain 5 pchain 5
run 500000 # 5000000  # Run for this many steps
Neighbor list info ...
  update every 1 steps, delay 10 steps, check yes
  max neighbors/atom: 2000, page size: 100000
  master list distance cutoff = 3.8
  ghost atom cutoff = 3.8
  binsize = 1.9, bins = 8 8 8
  4 neighbor lists, perpetual/occasional/extra = 1 3 0
  (1) pair lj/cut, perpetual
      attributes: half, newton on
      pair build: half/bin/atomonly/newton
      stencil: half/bin/3d
      bin: standard
  (2) compute orientorder/atom, occasional
      attributes: full, newton on
      pair build: full/bin/atomonly
      stencil: full/bin/3d
      bin: standard
  (3) compute coord/atom, occasional
      attributes: full, newton on
      pair build: full/bin/atomonly
      stencil: full/bin/3d
      bin: standard
  (4) compute cluster/atom, occasional
      attributes: full, newton on
      pair build: full/bin/atomonly
      stencil: full/bin/3d
      bin: standard
Per MPI rank memory allocation (min/avg/max) = 9.834 | 9.839 | 9.844 Mbytes
Step Temp PotEng c_msd[4] v_twopoint v_fit v_max_n 
   12000    1.2466766   -7.0948953 9.7858195e-31 6.7957077e-33 8.3333333e+20            1 
   13000    1.2526719   -7.1651593   0.45682969 0.0029283954  0.037357424            3 
   14000    1.2510623   -7.1255425   0.90234821 0.0053711201  0.036878409            1 
   15000    1.2431047   -7.1196005    1.3317636 0.0073986867  0.036478011            3 
   16000    1.2640328   -7.1420929    1.7484386  0.009106451   0.03584912            3 
   17000    1.2880233   -7.1539142    2.1553557  0.010565469  0.035535514            2 
   18000    1.2437769    -7.152383    2.5592159  0.011848222  0.035244326            3 
   19000    1.2668529   -7.1493302    2.9728485  0.013038809   0.03516335            2 
   20000    1.2563861   -7.1434193     3.436659  0.014319412  0.035096632            2 
   21000    1.2692249   -7.1513597    3.7929959  0.015051571  0.034945546            4 
   22000    1.2192132   -7.1515639    4.1721004   0.01580341  0.034666362            2 
   23000    1.2498994   -7.1595926    4.5394665  0.016447342  0.034386967            4 
   24000    1.2254527   -7.1882173    4.8500981  0.016840618   0.03404394            1 
   25000    1.2281235   -7.2089712    5.2575088  0.017525029  0.033636498            2 
   26000    1.2491373   -7.1696863    5.6507851   0.01811149  0.033398013            2 
   27000    1.2466573   -7.1733475    6.0904963  0.018797828   0.03327754            1 
   28000    1.2215667   -7.1439479    6.5096111  0.019373842  0.033277687            1 
   29000    1.2196376   -7.2194905    6.8294099  0.019624741  0.033202187            3 
   30000    1.2564802    -7.194182    7.3668802  0.020463556  0.033196994            3 
   31000    1.2117668   -7.1657239     7.692689  0.020679271  0.033242855            2 
   32000    1.1952364   -7.1876613    8.1453103  0.021211745  0.033270606            2 
   33000    1.2073136    -7.257502    8.6240142  0.021777813  0.033334115            2 
   34000    1.2013595   -7.1942994    9.0295495  0.022131249  0.033434866            2 
   35000    1.2177617   -7.2040755    9.3918464  0.022361539  0.033466871            2 
   36000    1.2009427   -7.2353408     9.745475   0.02255897  0.033470115            1 
   37000    1.1847004   -7.2378757    10.136073  0.022828993  0.033453522            2 
   38000     1.218769    -7.232952    10.407603  0.022823691  0.033402974            1 
   39000    1.1953048   -7.2199303    10.664492  0.022787376  0.033263914            1 
   40000    1.2070122   -7.2479766    11.026166  0.022971178  0.033088057            2 
   41000    1.2105224    -7.193508    11.401486  0.023173751  0.032903917            2 
   42000    1.2281826   -7.2710989    11.689854  0.023194155  0.032745416            2 
   43000    1.2208515   -7.2670427    11.961544  0.023181286  0.032580856            2 
   44000    1.1752492   -7.2688602    12.340698  0.023372534  0.032404229            2 
   45000    1.2160929   -7.2942379    12.647765  0.023421787  0.032234301            1 
   46000    1.1956378   -7.2931233    12.948297  0.023457059  0.032069184            1 
   47000    1.1871998   -7.2411404    13.247616   0.02348868  0.031879998            2 
   48000    1.1760414    -7.268101    13.551937  0.023527669  0.031688859            1 
   49000    1.1843105   -7.3203843    14.012172  0.023830224  0.031540768            2 
   50000    1.2064185   -7.3093818    14.350759  0.023917932  0.031437779            3 
   51000    1.2005078   -7.2966857    14.684957  0.023995027  0.031325806            5 
   52000    1.2078079   -7.2857215    15.062126  0.024138022   0.03122857            2 
   53000    1.1741251   -7.2908807    15.387457  0.024194114   0.03112809            4 
   54000    1.1758983   -7.3082699    15.687437  0.024209007   0.03102114            3 
   55000    1.2119872   -7.3139456    15.987441  0.024223395  0.030909742            2 
   56000    1.1839693   -7.3127729    16.279235  0.024225052  0.030802934            1 
   57000    1.1798345   -7.3127959    16.691483  0.024402753    0.0306926            1 
   58000    1.1934944   -7.3162721    17.111873  0.024586024  0.030604787            2 
   59000    1.1608932   -7.3499205    17.433045  0.024622945  0.030534739            2 
   60000    1.1731671   -7.3821995    17.695893   0.02457763  0.030457214            1 
   61000    1.1506607   -7.3597343    18.089576  0.024712535  0.030378766            3 
   62000    1.1907449     -7.33274    18.288257  0.024580991  0.030296409            2 
   63000     1.160333   -7.3846724    18.587733  0.024586948  0.030214786            1 
   64000    1.1636589   -7.3389199    18.976024  0.024708364  0.030129879            2 
   65000    1.1544699   -7.3574455    19.279333  0.024717094  0.030051369            1 
   66000    1.1723386   -7.3712508    19.485871  0.024603372  0.029956863            1 
   67000    1.1362425   -7.3407682    19.851731  0.024691208   0.02987001            1 
   68000    1.1635489    -7.393767    20.185826  0.024737532  0.029784911            4 
   69000    1.1448834   -7.3399974    20.682999  0.024979467  0.029714934            3 
   70000    1.1666035   -7.3675296    21.016631  0.025019798   0.02965978            2 
   71000    1.1367023    -7.355783    21.258426  0.024951204  0.029610751            2 
   72000    1.1482524   -7.3810239    21.696235  0.025111383   0.02955651            2 
   73000    1.1532693   -7.3580386    21.863082  0.024957856  0.029493863            4 
   74000    1.1272609    -7.414917     22.10225  0.024889921  0.029428539            2 
   75000    1.1621487   -7.3949953    22.500932  0.025001036  0.029367217            3 
   76000    1.1430978   -7.3847168     22.72527  0.024918059  0.029300677            4 
   77000    1.1442706   -7.4034228    22.923611  0.024809103  0.029220914            2 
   78000    1.1725697   -7.3577066    23.252447  0.024842357  0.029134709            2 
   79000     1.150932   -7.4141821    23.350699  0.024631539  0.029044068            4 
   80000    1.1725155   -7.4331103    23.560494  0.024542181   0.02894551            3 
   81000    1.1389042   -7.4216412    23.773707  0.024458546  0.028837783            3 
   82000    1.1343227   -7.4460006    24.156135  0.024548917  0.028742086            2 
   83000    1.1365773    -7.423538    24.562439  0.024661083  0.028655068            2 
   84000    1.1476311   -7.4188429    24.830757  0.024633687  0.028572192            1 
   85000     1.132277   -7.4159635    25.181208  0.024687458  0.028498128            1 
   86000    1.1352008    -7.474598    25.305764  0.024521089  0.028418027            2 
   87000     1.123519   -7.4291283    25.574407  0.024496559  0.028334293            2 
   88000    1.1326233   -7.4278348    25.836173  0.024466072   0.02824976            1 
   89000    1.1505939   -7.4567774    25.986299  0.024331741  0.028158206            1 
   90000     1.119346   -7.3840236    26.412014  0.024455568   0.02807155            2 
   91000    1.1239841   -7.4778987     26.70788  0.024457765  0.027991703            2 
   92000    1.1404159   -7.4460965     26.98646  0.024444257  0.027908935            4 
   93000    1.1162067   -7.4165035    27.121931  0.024302805  0.027826677            1 
   94000    1.1234498   -7.4407345     27.32387  0.024223289  0.027738531            2 
   95000    1.1374964   -7.4327454    27.522211   0.02414229    0.0276387            1 
   96000    1.1077253   -7.4803694    27.755453  0.024093275  0.027543402            5 
   97000    1.1263465   -7.4609459    28.027278  0.024078418  0.027449226            3 
   98000    1.1001018    -7.481748    28.286964  0.024053541  0.027356596            1 
   99000    1.1010287   -7.4970322    28.575947  0.024053827  0.027272083            2 
  100000    1.0891761   -7.5001796    28.871864  0.024059887  0.027188151            1 
  101000    1.1029472   -7.5147735    29.078916  0.023992505  0.027103683            3 
  102000    1.1166453   -7.4913234    29.379695  0.024003018  0.027019957            2 
  103000    1.1197041   -7.4951186    29.584059  0.023935323  0.026936327            2 
  104000    1.0807914   -7.5035084    29.722511  0.023816114  0.026848858            3 
  105000    1.0877482   -7.5333396    29.804357  0.023654251  0.026756527            1 
  106000    1.0933771    -7.486006    30.053273  0.023626786  0.026661002            3 
  107000    1.1082464   -7.5396142    30.142795  0.023475697  0.026565486            2 
  108000    1.1003953    -7.550192     30.51802  0.023547855  0.026471907            2 
  109000    1.0819984   -7.5171725    30.837914  0.023576386  0.026381874            1 
  110000    1.0859579   -7.5630404    30.940772  0.023439979  0.026289764            3 
  111000    1.0827778   -7.5599513    31.254128   0.02346406  0.026201418            3 
  112000    1.0720195    -7.540372    31.486062  0.023427129  0.026116441            6 
  113000    1.0982749   -7.5397924    31.685269  0.023366718  0.026032072            4 
  114000    1.0903374   -7.5196089    31.763685  0.023219068   0.02594379            4 
  115000    1.0749933   -7.5755261    32.020116  0.023202983  0.025855927            5 
  116000    1.0903124   -7.5176492     32.26824  0.023181207   0.02576741            3 
  117000    1.0672513   -7.5740046    32.461092  0.023120436  0.025678636            1 
  118000    1.0906491   -7.5446608    32.575618   0.02300538  0.025591577            4 
  119000    1.0873357   -7.5454457    32.817946  0.022981755  0.025501452            4 
  120000    1.0997456   -7.5713746      32.8744  0.022829445  0.025409268            1 
  121000    1.0648555   -7.5918578    33.037252  0.022752928  0.025311666            1 
  122000    1.0606285   -7.5860428    33.323451   0.02276192  0.025218243            2 
  123000    1.0781041   -7.6087754    33.345264  0.022591642  0.025124613            2 
  124000    1.0782835   -7.5998155    33.538814  0.022539525  0.025030433            1 
  125000    1.0578271   -7.5834673    33.711376   0.02247425  0.024936189            2 
  126000    1.0648784   -7.5710825    33.948291  0.022452573  0.024842522           10 
  127000    1.0582462   -7.6455949      33.9997  0.022309514  0.024748592            1 
  128000    1.0713264   -7.5895318    34.259808  0.022304563  0.024651529            2 
  129000    1.0834828   -7.6056703    34.520899  0.022300322  0.024557353            3 
  130000    1.0727226   -7.6059496    34.595387   0.02217653  0.024462503            3 
  131000    1.0719887   -7.6096261    34.651176  0.022042733  0.024366766            4 
  132000    1.0434015   -7.6212436    35.001438  0.022096867  0.024274598            1 
  133000    1.0702726   -7.6420188    35.115209  0.022002011  0.024181768            2 
  134000    1.0554855   -7.5814549    35.321096  0.021965856  0.024089339            2 
  135000    1.0433043   -7.6708884    35.424948  0.021867252  0.024000775            1 
  136000    1.0343964   -7.6284868    35.665973   0.02185415  0.023912265            2 
  137000     1.044861   -7.6384539    36.019657  0.021909767  0.023824463            2 
  138000    1.0704863   -7.6698327     36.20362  0.021862089  0.023739229            3 
  139000    1.0711878   -7.6841479      36.2117  0.021709652  0.023654807            7 
  140000    1.0505535   -7.6551082    36.468316  0.021707331  0.023569437            2 
  141000    1.0151399   -7.6660677    36.390808   0.02150757   0.02348224            3 
  142000    1.0546999   -7.6615864    36.790651  0.021590758  0.023397348            2 
  143000    1.0380487   -7.6552536    37.106665   0.02162393  0.023317217            3 
  144000    1.0427008   -7.6839754    37.218931  0.021538733  0.023240808            1 
  145000     1.044817   -7.6452434    37.603493  0.021611203  0.023164688            2 
  146000    1.0184563   -7.6786619    37.672204  0.021502399  0.023090517            5 
  147000    1.0220634   -7.6756854    38.049168  0.021569823  0.023018393            4 
  148000    1.0552827   -7.6863508    38.298336  0.021564378  0.022948455            1 
  149000    1.0365265   -7.7217632    38.266911  0.021402075  0.022878626            2 
  150000    1.0217959   -7.7294801    38.440737  0.021355965  0.022807329            2 
  151000    1.0328738    -7.727693    38.535243   0.02126669  0.022734475            2 
  152000    1.0239128   -7.7093643    38.826168  0.021286276  0.022663148            6 
  153000    1.0622767    -7.737734    39.129253  0.021312229  0.022595736            2 
  154000    1.0388586   -7.7008997    39.288966  0.021260263  0.022529128            4 
  155000    1.0252181    -7.692635    39.542288  0.021259295  0.022464049            1 
  156000    1.0014803   -7.7321507    39.554555   0.02112957  0.022397358            2 
  157000    1.0357471   -7.7214199    39.728873  0.021087512  0.022329546            3 
  158000    1.0111414     -7.75355    39.769598  0.020975526  0.022261839            2 
  159000   0.99962448   -7.7276442    40.070653  0.021001391  0.022195152            2 
  160000    1.0269458   -7.7375928    40.161347  0.020917368  0.022128627            2 
  161000    1.0322963   -7.6897856    40.432731  0.020927915  0.022061625            2 
  162000    1.0332389   -7.7746404    40.375322  0.020769198  0.021993647            3 
  163000    1.0182645   -7.7506303    40.550809  0.020731498  0.021924368            7 
  164000    1.0000096   -7.7498458    40.688362   0.02067498  0.021856076            5 
  165000    1.0114119   -7.7712767    40.873241  0.020643051  0.021787702            3 
  166000   0.99497131   -7.7825778     40.96601  0.020565266  0.021720751            9 
  167000   0.99499574   -7.8142881     41.08543  0.020501712  0.021653329            3 
  168000   0.98919522   -7.8048489     41.33003  0.020501007  0.021587627            1 
  169000   0.98952884    -7.740455    41.654836   0.02053986  0.021523634            3 
  170000    1.0015596   -7.7905917    41.596249  0.020390318  0.021460202            1 
  171000   0.97720988   -7.8234722    41.681163  0.020312457  0.021394304            1 
  172000    1.0001386   -7.8431624    41.692259  0.020199738  0.021326329            5 
  173000   0.98715568    -7.896845    41.828002  0.020148363  0.021258271            4 
  174000    1.0084288   -7.8422901    41.952079  0.020091992  0.021189796            2 
  175000   0.95661716   -7.8079938    42.190764   0.02009084  0.021121142            1 
  176000   0.99890658   -7.8263286    42.334785  0.020044879  0.021054828            3 
  177000   0.98652195   -7.7960236    42.575776  0.020045092  0.020988295            1 
  178000    1.0002353   -7.8432064    42.558785  0.019924525  0.020921387            4 
  179000   0.99041333   -7.8318009    42.634351  0.019848394  0.020854113            1 
  180000   0.96427744   -7.8457323    42.840408  0.019833522  0.020788721            4 
  181000    0.9951843    -7.834126    42.917178   0.01975929  0.020724322            2 
  182000   0.97858954   -7.8213859    43.090777  0.019730209  0.020658373            5 
  183000   0.97638222   -7.8006682    43.333244  0.019732807  0.020594654            4 
  184000   0.94770356   -7.8249497    43.323334  0.019621075  0.020531715            2 
  185000   0.95705484   -7.8148328    43.610534  0.019644385   0.02046812            5 
  186000   0.96479587   -7.8778931    43.756497  0.019604165  0.020405742            2 
  187000   0.97585652   -7.8514013    43.709654  0.019478455   0.02034232            2 
  188000   0.96909374   -7.8788379    44.040367  0.019521439  0.020280781            2 
  189000   0.97925696    -7.871588     44.10439   0.01944638  0.020219379            4 
  190000    0.9503145   -7.8681144    44.275844   0.01941923  0.020157578            2 
  191000   0.94193361   -7.8596379    44.342752   0.01934675  0.020096391            2 
  192000   0.95772249   -7.8913874    44.215284  0.019190661  0.020034214            3 
  193000   0.94567804   -7.8628799    44.516923  0.019221469  0.019971089            3 
  194000   0.95808416    -7.888065    44.487911  0.019109927  0.019908667            3 
  195000   0.96767641   -7.9271175     44.68071   0.01909432  0.019845889            2 
  196000   0.94377071   -7.9026472    44.887866  0.019084977  0.019783291            3 
  197000   0.96490007   -7.8895472    44.861955  0.018977138  0.019721628            4 
  198000   0.95759315   -7.9061971    45.086924  0.018975978  0.019660058            1 
  199000   0.92038133   -7.8992042    45.147916  0.018906162  0.019599212            5 
  200000   0.93685941   -7.9017001    45.380014  0.018908339   0.01953801            7 
  201000    0.9528881   -7.9353076    45.417422  0.018829777  0.019476264            3 
  202000   0.95690007   -7.9178019    45.428374  0.018741079   0.01941479            2 
  203000   0.95705107    -7.899476    45.817621  0.018808547  0.019354382            2 
  204000   0.94103666   -7.9193248     45.77134  0.018697443  0.019296075            2 
  205000   0.93237671   -7.9286069    45.929647  0.018670588   0.01923763            4 
  206000    0.9454324   -7.8981848    46.130718  0.018661294  0.019179467            5 
  207000   0.93834595   -7.9644424    46.047791  0.018537758  0.019121308            3 
  208000   0.93690698   -7.9465905     46.28769  0.018544748   0.01906309            2 
  209000   0.92679811   -7.9225035    46.434802  0.018514674  0.019006078            2 
  210000   0.92217393   -7.9765161    46.389372  0.018408481  0.018948568            2 
  211000   0.94812566   -7.9782676    46.577178   0.01839541  0.018891011            2 
  212000    0.9328529   -7.9182246    46.709661  0.018360716  0.018834416            2 
  213000   0.93737333   -7.9742687    46.676752   0.01826164  0.018777639            3 
  214000   0.91783255   -7.9586493    46.908674  0.018266618  0.018720594            3 
  215000   0.94230286   -7.9741675    47.008868  0.018220491  0.018664553            3 
  216000   0.92267777   -7.9490762    47.314535  0.018254064  0.018608722            2 
  217000   0.91539235   -7.9335249    47.432889  0.018215395  0.018553438            1 
  218000   0.92330061   -7.9680092     47.52214  0.018165956   0.01849931            4 
  219000   0.94529048   -8.0023964    47.651886  0.018132377  0.018445137            4 
  220000   0.89606038   -8.0392453    47.615627  0.018036222  0.018390686            2 
  221000   0.91476996   -8.0141866    47.644075  0.017965337   0.01833619            3 
  222000   0.90566468   -7.9928405       47.839  0.017957583  0.018281559            4 
  223000   0.90923787   -7.9998853    48.074769   0.01796516    0.0182274            2 
  224000   0.89779327   -7.9991724    47.991613  0.017854023  0.018174226           12 
  225000   0.88527287   -8.0144929    48.122591  0.017823182  0.018120668            6 
  226000   0.89555835   -8.0379023    48.082523  0.017729544  0.018066274            4 
  227000   0.93026257   -8.0202255    48.215938  0.017700418  0.018012066            4 
  228000   0.92111461   -8.0193248    48.429248  0.017700749  0.017958352            3 
  229000   0.88367753   -8.0499311    48.488507  0.017645017  0.017904962            5 
  230000   0.91882108    -8.046235    48.466006  0.017560147  0.017851857            3 
  231000   0.90495486   -8.0776658     48.43566  0.017473182  0.017797453            3 
  232000    0.9023652   -8.0591024    48.761984   0.01751508  0.017743961            3 
  233000   0.90439072    -8.056564    48.764421   0.01744078  0.017691226            4 
  234000   0.89784031   -8.0487629    48.924133  0.017423124  0.017638263            5 
  235000   0.88910452   -8.1225761    48.878919   0.01733295  0.017585409            5 
  236000   0.88098518   -8.0958954     48.99756  0.017301398  0.017532728            6 
  237000   0.90366206   -8.0616968    49.020473  0.017236453  0.017480173            4 
  238000   0.90429901   -8.1020356    49.103103  0.017192963  0.017426939            4 
  239000    0.8741507   -8.0719128    49.360124  0.017210643  0.017375276            2 
  240000   0.90116859   -8.0830681    49.391498  0.017149826  0.017323936            4 
  241000   0.88259477    -8.095684    49.224637  0.017020967   0.01727197            2 
  242000   0.89183805   -8.1074286    49.322194  0.016984227  0.017219648            2 
  243000   0.88903107   -8.1141725    49.442383   0.01695555  0.017166582            8 
  244000   0.87514228   -8.0849116    49.528321   0.01691541  0.017113811            5 
  245000   0.87123454   -8.0866301    49.668839  0.016894163    0.0170617            3 
  246000    0.8737016   -8.0664109     49.61323   0.01680665  0.017009491            3 
  247000   0.87626565   -8.1314802    49.764618  0.016789682  0.016956964            3 
  248000   0.86538751   -8.1232034    49.712351  0.016704419  0.016904126            1 
  249000   0.88035985   -8.1184078    49.788621  0.016662858  0.016851529            2 
  250000   0.87686216   -8.1412202    49.662277  0.016554092   0.01679868            4 
  251000   0.88160993   -8.1042414     49.84348    0.0165483  0.016744866            6 
  252000   0.86076058   -8.1175939    50.028694   0.01654388  0.016691588            1 
  253000   0.87629298   -8.1437297    49.764316  0.016391408  0.016638142            3 
  254000   0.86321251   -8.1627151    49.799245  0.016338335  0.016584398            4 
  255000   0.86791249   -8.1815535    50.116979  0.016378098  0.016531328            6 
  256000   0.85748003    -8.162685    50.081636  0.016302616  0.016477903            6 
  257000   0.85652706   -8.2060491    50.018223   0.01621862  0.016424327            2 
  258000    0.8443715   -8.1702028    50.271675  0.016237621  0.016370889            4 
  259000   0.85594077   -8.1791531    50.299446  0.016183863  0.016318008            3 
  260000   0.85149711   -8.1903979    50.262222  0.016109687  0.016265206            7 
  261000   0.85088985   -8.1979305    50.187021  0.016023953  0.016211718            9 
  262000    0.8598124   -8.2181925    50.249458  0.015982652   0.01615783            4 
  263000   0.84600458   -8.1946794    50.244755  0.015920391  0.016103764            4 
  264000    0.8342756   -8.2123628    50.231692  0.015855963  0.016049679            3 
  265000   0.85098163   -8.2171143    50.357295  0.015835627  0.015996108            7 
  266000   0.83819635   -8.2116445    50.414225   0.01579393  0.015942697            9 
  267000   0.86485149   -8.2012554    50.487312  0.015757588  0.015889533            5 
  268000   0.83835543   -8.1720845    50.620181  0.015740106  0.015836722            4 
  269000   0.83868767   -8.2217669    50.618756  0.015681151   0.01578345            4 
  270000   0.82900494   -8.2121125    50.500469  0.015586564  0.015729517           12 
  271000   0.82672515   -8.2391467      50.3734  0.015489975  0.015675279            5 
  272000   0.83630282   -8.2151638    50.503352  0.015472841  0.015621622            3 
  273000   0.82606706   -8.2480833    50.483863  0.015410215  0.015568168            3 
  274000   0.84090092   -8.1998265    50.587072  0.015385362  0.015514391            7 
  275000   0.81646187   -8.2537977    50.588251  0.015329773  0.015460535            5 
  276000   0.82508012   -8.2591161    50.556555   0.01526466  0.015407102           13 
  277000   0.81378857   -8.2647045    50.547015  0.015206683  0.015353759            5 
  278000   0.80526863    -8.232854    50.640191  0.015179913  0.015300363           11 
  279000   0.81870898   -8.2565235    50.683707  0.015138503  0.015246944            9 
  280000   0.80676551   -8.2386279    50.763681  0.015108238  0.015194254            4 
  281000   0.81525155   -8.2786865    50.727259  0.015043671  0.015141595            7 
  282000   0.80288868   -8.2685211    50.902954  0.015042244  0.015089195            6 
  283000   0.82484333    -8.309427    50.791124  0.014956161  0.015036723            4 
  284000   0.82741104   -8.2841931     50.88875  0.014932145  0.014984904            9 
  285000   0.81740775   -8.3134762    51.040991  0.014924266   0.01493321            9 
  286000   0.81188984   -8.3029281    51.171083  0.014909989  0.014882475            4 
  287000   0.80765289   -8.3147524    51.073315   0.01482965  0.014832002            4 
  288000   0.80440383   -8.3432558    51.051134   0.01477174  0.014781404           11 
  289000   0.79814299   -8.3017345    51.179019  0.014757503   0.01473076            4 
  290000   0.81040502   -8.2949371    51.218358  0.014717919  0.014680372            4 
  291000   0.80337594   -8.2876173    51.297438  0.014689988  0.014630197           10 
  292000     0.796671   -8.3366515    51.300715  0.014640615  0.014579439            5 
  293000   0.79363172   -8.3366572    51.094665  0.014532044  0.014528688           10 
  294000   0.79291154   -8.3245538    51.301442  0.014541225  0.014478358            5 
  295000   0.78452684   -8.3338813    51.315357  0.014495864  0.014428083            9 
  296000   0.79442831   -8.3661981     51.22341  0.014421005  0.014377999            8 
  297000   0.79465297    -8.359984    51.347712  0.014407327  0.014328065            9 
  298000   0.79665699   -8.3611878    51.377476  0.014367303  0.014278437            8 
  299000   0.78315383   -8.3515594    51.429215  0.014333672  0.014228659            6 
  300000   0.80081353   -8.3693168    51.450067  0.014291685  0.014179055            8 
  301000   0.79126343   -8.3889027    51.393286  0.014228485  0.014129886            5 
  302000   0.78369163    -8.394272    51.316455   0.01416017  0.014080751            8 
  303000   0.78234158   -8.3926066    51.515987  0.014168313  0.014031644            7 
  304000   0.79000671   -8.3981596    51.462562  0.014107062  0.013982705            6 
  305000   0.79080483   -8.4139667    51.579956  0.014092884  0.013934165            1 
  306000   0.79111178   -8.4048746    51.701075  0.014079814  0.013885766            6 
  307000    0.7639313   -8.3713564     51.68679  0.014030073   0.01383751            6 
  308000   0.76425238   -8.3981334    51.405032  0.013908288  0.013788873            5 
  309000   0.76597843   -8.4433861    51.450885  0.013875643  0.013740024            5 
  310000   0.78470151   -8.4013813    51.672696   0.01389051  0.013691413            7 
  311000   0.78610656   -8.4402772    51.639458  0.013836939  0.013643061            7 
  312000   0.75677276   -8.3916813    51.654712  0.013796665  0.013595009           10 
  313000   0.77874875   -8.4202594    51.459839  0.013700703   0.01354674            4 
  314000   0.77234205   -8.4517853    51.547635   0.01368037  0.013498796            4 
  315000   0.77115224   -8.4349172    51.669292  0.013669125  0.013450996            3 
  316000   0.75291835   -8.4301765    51.674163  0.013627153  0.013403342            5 
  317000   0.75809791    -8.411692    51.729824  0.013598797  0.013356181            5 
  318000   0.74575473    -8.420675    51.697561  0.013547579  0.013309051            3 
  319000   0.75630115   -8.4535287    51.703852  0.013506753  0.013262357            4 
  320000   0.74246126   -8.4445619    51.671163  0.013456032  0.013215587            5 
  321000   0.76333044   -8.4551477    51.681349  0.013416757  0.013168859            6 
  322000   0.74906318    -8.442489    51.763071   0.01339624   0.01312225            6 
  323000   0.75005161   -8.4600313    51.698762  0.013338174  0.013075784            5 
  324000   0.74716876   -8.4640586    51.792424  0.013321097  0.013029514            2 
  325000   0.75253694   -8.4897905    51.600585  0.013230919  0.012983624            3 
  326000   0.74700311   -8.4642713    51.810372   0.01324396   0.01293754            3 
  327000   0.74575416   -8.4842532    51.682402  0.013170847  0.012891463            5 
  328000   0.74503519   -8.4945356    51.630052  0.013117391  0.012845358            5 
  329000   0.73503944   -8.5042959    51.767097  0.013112233  0.012799291            3 
  330000   0.73041519   -8.5008091    51.805332  0.013082155  0.012753246            6 
  331000   0.74757102   -8.5291288    51.647087  0.013002791  0.012707341            6 
  332000   0.74262326   -8.5168026    51.607506  0.012953691  0.012661566            5 
  333000   0.73868832   -8.5220877    51.774152  0.012956495  0.012615863            7 
  334000   0.74680864   -8.5517609    51.631136   0.01288202   0.01257022           10 
  335000   0.73921945   -8.5447541    51.697317  0.012860029  0.012524769            8 
  336000   0.74266956   -8.5047493    51.683096  0.012818228   0.01247963            6 
  337000   0.72999215   -8.5143798    51.645409  0.012770873  0.012434468            4 
  338000   0.74542429   -8.5599721    51.735003  0.012755178  0.012389485            5 
  339000   0.74468861   -8.5280488    51.744116  0.012719792  0.012344777            4 
  340000   0.73077199   -8.5507775    51.738438   0.01268099  0.012300164            4 
  341000   0.72591875   -8.5730404    51.617467  0.012614239  0.012255574            3 
  342000   0.73074797   -8.5325384     51.68092  0.012592817  0.012211008            4 
  343000   0.72729755   -8.5518173    51.711279  0.012563479  0.012166638            6 
  344000   0.70124637   -8.5477726    51.677295  0.012518724  0.012122303           18 
  345000   0.72970529   -8.5595647    51.683317  0.012483893  0.012078266            3 
  346000   0.71341163   -8.5610047    51.804644  0.012477034  0.012034467            6 
  347000    0.7235968   -8.5475087    51.706356  0.012417473  0.011990788           11 
  348000   0.71936686   -8.5440939     51.83359  0.012412258  0.011947015            5 
  349000   0.70696033   -8.5198014    51.899019  0.012392316  0.011903784           10 
  350000   0.70156432   -8.5716159    51.703447  0.012310344  0.011860516            4 
  351000   0.70886982   -8.5718462    51.773344  0.012291867  0.011817207            5 
  352000   0.69736539   -8.6039895    51.566299  0.012207931  0.011774028            8 
  353000   0.69676125   -8.5835181    51.622499  0.012186615  0.011730961            2 
  354000   0.70432699   -8.5925486    51.766241  0.012186026   0.01168796            4 
  355000   0.69048143   -8.5648839    51.710482  0.012138611  0.011645206            2 
  356000   0.69738262   -8.6110501    51.733095  0.012109807  0.011602617            6 
  357000   0.69708532    -8.607546    51.757195  0.012081511  0.011560055            6 
  358000   0.68607456   -8.6246817     51.66496  0.012026294  0.011517609           11 
  359000     0.684145   -8.6242888    51.615661  0.011981351  0.011475399            4 
  360000   0.68827286   -8.6158791     51.66968  0.011960574  0.011433187            9 
  361000   0.70542257   -8.6351892    51.632536  0.011918868  0.011391072            5 
  362000   0.68177184   -8.6606668    51.597124  0.011877791  0.011349268            9 
  363000   0.68804053   -8.6321184    51.675135  0.011862979  0.011307502            9 
  364000     0.682471   -8.6507123    51.653643  0.011825468  0.011265925            3 
  365000   0.68752911   -8.6256961    51.675356  0.011798026  0.011224549            7 
  366000   0.68527046   -8.6820106    51.590065  0.011746372  0.011183205            5 
  367000   0.65549253   -8.6528802    51.594821  0.011715445  0.011141975            4 
  368000   0.67609051   -8.6615578    51.632643  0.011692174  0.011101018            7 
  369000   0.68370299   -8.6433718    51.642345   0.01166268  0.011060314            5 
  370000   0.67030957   -8.6538074    51.628855   0.01162812  0.011019722            9 
  371000   0.69378176   -8.6551501    51.609952  0.011592532  0.010979331            5 
  372000   0.67170205   -8.6569872    51.644678  0.011569148  0.010939054            7 
  373000   0.68106675    -8.680295    51.594126  0.011526838  0.010898888            7 
  374000   0.67186952   -8.6855197    51.689803  0.011517336  0.010858813           12 
  375000   0.67220917   -8.6710193    51.482451  0.011440545  0.010819014            5 
  376000   0.67307072   -8.6735838    51.656617  0.011448718  0.010779338           14 
  377000     0.660758   -8.7028851    51.611099  0.011408289  0.010739668            2 
  378000     0.653841   -8.6883062     51.60908  0.011377663  0.010700122           10 
  379000    0.6764609   -8.6903904    51.534186  0.011331175  0.010660877           17 
  380000    0.6635952   -8.7081255    51.500408  0.011293949  0.010621804           23 
  381000   0.66645459   -8.7012636    51.551845  0.011275557  0.010582793           18 
  382000    0.6614255   -8.7142545       51.517  0.011238438  0.010543896            9 
  383000   0.65066315   -8.7247472    51.571278  0.011220905  0.010505096           17 
  384000   0.64955142   -8.7123754    51.656605  0.011210201  0.010466603           16 
  385000   0.65422202   -8.7090673    51.557814    0.0111597  0.010428117           16 
  386000   0.64383401   -8.7018003    51.587829  0.011137269  0.010389869           16 
  387000   0.64383218   -8.7230092    51.500603  0.011089708  0.010351714           10 
  388000   0.65307378   -8.7368507    51.549932  0.011071721  0.010313772           28 
  389000   0.65423453   -8.7300178    51.591464  0.011052156  0.010275961           30 
  390000   0.64235124   -8.7361706    51.552079  0.011015402  0.010238282           16 
  391000   0.64353427   -8.7359506     51.50679  0.010977577  0.010200745           18 
  392000   0.64154842   -8.7371292    51.543801  0.010957441  0.010163303           24 
  393000   0.64586508   -8.7347946    51.504047  0.010921129   0.01012602           19 
  394000    0.6448645    -8.722483    51.527354   0.01089834  0.010088933           13 
  395000   0.64019758   -8.7679985    51.465267  0.010857651  0.010052023           15 
  396000   0.63414555   -8.7835544    51.503105  0.010838196  0.010015214           15 
  397000   0.63117966    -8.779219    51.463224  0.010802524 0.0099785417           14 
  398000   0.63531064   -8.7514419    51.420869  0.010766514 0.0099419892            7 
  399000   0.63919021    -8.797995    51.444473   0.01074446 0.0099053575           12 
  400000   0.62109101   -8.7529838    51.477331  0.010724444 0.0098690024           14 
  401000   0.62621187    -8.750852    51.483018  0.010698881 0.0098327459           20 
  402000   0.63196343   -8.7962531    51.441344  0.010663628 0.0097965152           24 
  403000   0.63866784   -8.7807817    51.337044    0.0106156 0.0097604803           24 
  404000   0.62025804   -8.7683974    51.400656  0.010602446  0.009724722           26 
  405000   0.62471768   -8.7951672    51.452565  0.010586947 0.0096892305           25 
  406000   0.62296947   -8.7916959    51.341682  0.010538112 0.0096537415           22 
  407000   0.60993757   -8.8054007    51.300213  0.010503729  0.009618314           13 
  408000   0.61852198   -8.8272251    51.248355  0.010467393 0.0095830588           22 
  409000   0.63115568   -8.8083704    51.263602  0.010444907 0.0095479057           16 
  410000   0.60499546   -8.8056894    51.308846  0.010428627 0.0095129165           10 
  411000   0.61291592   -8.8162243    51.405202   0.01042279 0.0094781159           20 
  412000   0.60339572   -8.8077116     51.37299  0.010390977 0.0094435115           14 
  413000   0.61226654   -8.7968448    51.328546  0.010356849 0.0094090739           25 
  414000    0.6087977   -8.8114584    51.295165  0.010325114 0.0093746684           19 
  415000   0.60494566   -8.8283799    51.357885  0.010312828  0.009340485           22 
  416000   0.59957176   -8.8128724    51.262635  0.010268957 0.0093064634           24 
  417000   0.60178969   -8.8038937    51.413234  0.010274427 0.0092726335           22 
  418000   0.61060046   -8.8337437    51.381716  0.010243564 0.0092389033           17 
  419000     0.605778   -8.8385457    51.321929  0.010207225 0.0092053231           16 
  420000   0.59699469   -8.8543555    51.232011  0.010165081 0.0091718983           25 
  421000   0.60231239   -8.8292689      51.3959  0.010173377 0.0091386083           14 
  422000   0.59240346   -8.8533331    51.239026  0.010118291 0.0091054314           22 
  423000   0.59838487    -8.832942    51.215438  0.010089724 0.0090722411           25 
  424000   0.57731146   -8.8560944    51.248722  0.010072469  0.009039145           19 
  425000   0.60572141    -8.833301    51.196781  0.010038585 0.0090062683           18 
  426000   0.58005187   -8.8453122    51.139218  0.010003759 0.0089734913           18 
  427000   0.58577122   -8.8511951    51.301948   0.01001209 0.0089409083           19 
  428000   0.56979455   -8.8673399    51.193812 0.0099676425 0.0089084834           28 
  429000   0.58349093    -8.843572     51.21109 0.0099477642 0.0088761879           17 
  430000   0.57205796   -8.8776267    51.157209 0.0099141878 0.0088439923           20 
  431000   0.57872884   -8.8938801    51.099734 0.0098800723 0.0088118621           29 
  432000   0.57992589   -8.8896876    51.150309 0.0098669578 0.0087799044           26 
  433000   0.57312331    -8.865848    51.162207 0.0098464602 0.0087480923           22 
  434000   0.56363704     -8.87595    51.139345 0.0098193827 0.0087163831           28 
  435000   0.56672646   -8.8860954    51.098534 0.0097889911   0.00868488           18 
  436000   0.58476224   -8.8669513    51.092854 0.0097654538 0.0086534663           23 
  437000    0.5593024   -8.8869958    51.118697 0.0097480354 0.0086222249           19 
  438000   0.56030291   -8.8568432    51.168612 0.0097352762 0.0085910997           22 
  439000   0.57339077   -8.9055236    51.106451 0.0097013004 0.0085601546           21 
  440000   0.57423195   -8.8797335    51.115504 0.0096809666 0.0085292693           28 
  441000   0.55360263   -8.8808939    51.100471 0.0096561737 0.0084985931           16 
  442000    0.5624278   -8.8996578    51.273739 0.0096669945 0.0084681278           14 
  443000   0.54470805   -8.9046643    51.035877 0.0096004284 0.0084376725           23 
  444000   0.56267503   -8.9038277    51.110235 0.0095927619 0.0084074494           21 
  445000   0.56369847   -8.8981876     51.13998 0.0095767752 0.0083773773           19 
  446000   0.56075706   -8.8921195    51.056198 0.0095396484 0.0083473453           19 
  447000   0.54538324   -8.9209376    51.134062  0.009532823 0.0083174717           22 
  448000   0.53863763   -8.9006084    51.036468 0.0094933906 0.0082877261           18 
  449000    0.5440801   -8.9141947    51.130327 0.0094896672 0.0082580719           17 
  450000   0.54586762    -8.940168    51.023953 0.0094488801 0.0082285899           24 
  451000   0.54280188   -8.9274567     51.10359 0.0094426442 0.0081992443           23 
  452000   0.53813963   -8.9237505    51.035191 0.0094091428 0.0081700109           19 
  453000   0.55611466   -8.9310394    51.091851 0.0093987952 0.0081409822           15 
  454000    0.5355689   -8.9326378    51.005128 0.0093621747 0.0081120191           15 
  455000   0.55027645   -8.9283131    50.984179 0.0093377617 0.0080832345           20 
  456000   0.54004049   -8.9416054    51.066203 0.0093322739  0.008054567           18 
  457000   0.54008114   -8.9560322    50.918579 0.0092849341 0.0080260022           13 
  458000   0.52786309   -8.9389489    51.011654 0.0092815964 0.0079975966           18 
  459000   0.53023726   -8.9477321    51.037892 0.0092661387 0.0079692517           19 
  460000   0.52004991     -8.94768    50.999125  0.009238972 0.0079410717           18 
  461000   0.52922787   -8.9482819    51.001125 0.0092192923 0.0079129981           19 
  462000   0.52888615    -8.972217    50.969328 0.0091936017 0.0078851144           14 
  463000   0.52628051   -8.9528933    50.979777 0.0091756258 0.0078572879           15 
  464000   0.51868157   -8.9473097    51.005567 0.0091604826 0.0078295975           23 
  465000    0.5245626   -8.9543857    51.079175 0.0091539741 0.0078020997           16 
  466000   0.53235086   -8.9606841    50.999356 0.0091200566 0.0077747116           11 
  467000   0.53007396   -8.9705077    50.932838 0.0090886578 0.0077474209           14 
  468000    0.5243638   -8.9732433    50.954198 0.0090730409 0.0077202497           18 
  469000   0.52191703   -8.9538693    51.000636 0.0090619467 0.0076931473            9 
  470000   0.51640936   -8.9795195    51.015619 0.0090453225 0.0076662534            8 
  471000   0.50868623   -8.9700826    50.931278 0.0090111957 0.0076394157           18 
  472000   0.51203608   -8.9910043    50.941345 0.0089938815 0.0076127154           15 
  473000   0.52266848   -8.9838773    50.899844 0.0089675553 0.0075860957           17 
  474000   0.51817705   -9.0034761    50.909676 0.0089503649 0.0075595765           23 
  475000   0.52647428   -8.9808716    50.950613 0.0089387041 0.0075331895           20 
  476000   0.51553022   -8.9920926    50.944352 0.0089188292 0.0075069895           16 
  477000     0.512815   -8.9927896    50.957322 0.0089023973 0.0074808564           22 
  478000   0.49631552   -8.9703258    50.891633 0.0088723209 0.0074548266           19 
  479000   0.51518596   -8.9856922    50.948931 0.0088637667 0.0074289251           26 
  480000    0.4949277   -8.9965489    50.849973 0.0088281203  0.007403124           25 
  481000    0.4871065   -8.9917193    50.938422 0.0088250905 0.0073774278           16 
  482000   0.49742237   -9.0014298    50.954089 0.0088094897 0.0073518548           20 
  483000   0.49615912   -9.0046092    50.923513 0.0087859754 0.0073264358           24 
  484000   0.49876148   -9.0162476     51.03377  0.008786806 0.0073011759           24 
  485000   0.49815552   -9.0094771    50.924927 0.0087499875 0.0072760287           15 
  486000   0.49810383   -9.0260114    50.825862 0.0087149969 0.0072509333           27 
  487000   0.47978699   -9.0286205    50.884394 0.0087071174 0.0072259827           23 
  488000   0.49704937   -9.0223701    50.869004 0.0086866469 0.0072011344           33 
  489000   0.48035882   -9.0270389    50.803161 0.0086576621 0.0071763709           21 
  490000   0.48302345   -9.0146215    50.890719 0.0086548842 0.0071517288           18 
  491000   0.48073233   -9.0406014    50.818252 0.0086249579 0.0071271818           26 
  492000   0.48504398   -9.0464744    50.799991 0.0086043346  0.007102744           17 
  493000   0.48155609   -9.0396104    50.773536 0.0085824098 0.0070783783           15 
  494000   0.49145835   -9.0412685    50.818882  0.008572686 0.0070541545           12 
  495000   0.47293113   -9.0315354    50.781825 0.0085491288 0.0070300326           11 
  496000   0.47826062   -9.0548217    50.795077 0.0085341191 0.0070060169           19 
  497000   0.47884426    -9.030481    50.801537 0.0085180311 0.0069820879           10 
  498000   0.47616971   -9.0449741     50.85118 0.0085092337 0.0069582563           12 
  499000   0.46592727   -9.0396094    50.797356 0.0084831923 0.0069345472           13 
  500000    0.4736427   -9.0538026    50.741534 0.0084569223 0.0069109484           15 
  501000   0.46115674   -9.0521619    50.835142 0.0084556125 0.0068874571           14 
  502000   0.46130191   -9.0438228    50.737177 0.0084225062 0.0068641002           14 
  503000   0.45948751   -9.0473853    50.802087 0.0084165154  0.006840792           15 
  504000    0.4691784   -9.0752298    50.743511 0.0083901308 0.0068176152           23 
  505000   0.46269886   -9.0674977    50.785878 0.0083805079  0.006794532           22 
  506000   0.45936071   -9.0646704    50.690396 0.0083482206  0.006771593           22 
  507000   0.45198956   -9.0802895    50.726945 0.0083377622 0.0067487358           15 
  508000   0.46025759   -9.0885001    50.782633 0.0083304844 0.0067259613           18 
  509000   0.46528889    -9.079425    50.779267 0.0083135669 0.0067033067           20 
  510000   0.45068376   -9.0687338    50.776424 0.0082968012  0.006680758           15 
  511000   0.45412565   -9.0768729    50.703508 0.0082686738 0.0066582721           14 
  512000   0.45588847    -9.084311    50.742689 0.0082589012  0.006635912           17 
Loop time of 1267.86 on 48 procs for 500000 steps with 4000 atoms

Performance: 68146.143 tau/day, 394.364 timesteps/s
99.4% CPU use with 48 MPI tasks x no OpenMP threads

MPI task timing breakdown:
Section |  min time  |  avg time  |  max time  |%varavg| %total
---------------------------------------------------------------
Pair    | 87.486     | 92.901     | 97.863     |  27.5 |  7.33
Neigh   | 8.3111     | 8.7805     | 9.1748     |   7.3 |  0.69
Comm    | 81.742     | 87.503     | 94.062     |  33.2 |  6.90
Output  | 0.87448    | 0.87531    | 0.90073    |   0.4 |  0.07
Modify  | 1062.5     | 1066.4     | 1070.7     |   4.6 | 84.11
Other   |            | 11.43      |            |       |  0.90

Nlocal:        83.3333 ave          90 max          76 min
Histogram: 1 0 10 4 5 12 3 9 1 3
Nghost:        2258.83 ave        2283 max        2243 min
Histogram: 3 7 7 6 8 9 3 2 2 1
Neighs:        15267.6 ave       16752 max       13870 min
Histogram: 3 4 5 9 5 7 3 4 4 4
FullNghs:      30534.5 ave       33129 max       27774 min
Histogram: 1 0 10 6 5 10 4 6 4 2

Total # of neighbors = 1465658
Ave neighs/atom = 366.41450
Neighbor list builds = 26647
Dangerous builds = 0

#clear
#
#next RN
#
#jump SELF
Total wall time: 0:21:11
