
units lj                  # Use reduced LJ style units
atom_style atomic         # Uncharged point particles
atom_modify map hash      # Needed for indexing of clusters etc
                          # Used to be able to find where atoms are in relation to each other.

lattice fcc 1.0 spacing 1 1 1
Lattice spacing in x,y,z = 1.5874011 1.5874011 1.5874011
region box block 0 10 0 10 0 10 units lattice
create_box 2 box
Created orthogonal box = (0.0000000 0.0000000 0.0000000) to (15.874011 15.874011 15.874011)
  3 by 4 by 4 MPI processor grid
create_atoms 1 box
Created 4000 atoms
  using lattice units in orthogonal box = (0.0000000 0.0000000 0.0000000) to (15.874011 15.874011 15.874011)
  create_atoms CPU = 0.003 seconds
set type 1 type/fraction 2 0.44 78393
Setting atom values ...
  1760 settings made for type/fraction
mass 1 1.0
mass 2 1.0
pair_style lj/cut  3.5
pair_modify tail  yes
pair_coeff 1  1  1.0  1.0   # Intearaction between 1 and 1 set with epsilon = 1 and sigma = 1
pair_coeff 1  2  1.5  0.8
pair_coeff 2  2  0.5  0.88

write_data data.0
System init for write_data ...
Neighbor list info ...
  update every 1 steps, delay 10 steps, check yes
  max neighbors/atom: 2000, page size: 100000
  master list distance cutoff = 3.8
  ghost atom cutoff = 3.8
  binsize = 1.9, bins = 9 9 9
  1 neighbor lists, perpetual/occasional/extra = 1 0 0
  (1) pair lj/cut, perpetual
      attributes: half, newton on
      pair build: half/bin/atomonly/newton
      stencil: half/bin/3d
      bin: standard
WARNING: Not all mixed pair coeffs generated from mixing. Use write_data with 'pair ij' option to store all pair coeffs. (../write_data.cpp:312)


#############################
#   M E L T   S Y S T E M   #
#############################

velocity all create 2.4 5300450 mom yes dist gaussian # Assign velocities
                                                    # Temperature 2.4, random number seed, zero linear momentum
                                                                                # Gaussian distribution

timestep 0.002   # simulation timestep
thermo 1000       # output thermodynamic data every 1000 steps bf 100

# Define a fix  in this case with index 1 applied to all
# particles in the simulation. This fix is for simulations
# in the anisotropic NPT ensemble. Note that we use the MTK
# correction.
fix 1 all npt temp 2.4 2.4 0.1 iso 5.68 5.68 0.5 mtk yes tchain 5 pchain 5 # Use NPT ensemble
                                                                         # Set temperature and pressure and damping
                                                                         # Numbers of thermostats in chain and in barostat
run 10000          # run for 10000 steps
Per MPI rank memory allocation (min/avg/max) = 3.642 | 3.644 | 3.648 Mbytes
Step Temp E_pair E_mol TotEng Press Volume 
       0          2.4   -5.6445478            0   -2.0454478   -4.2010474         4000 
    1000    2.3959777   -4.9817511            0    -1.388683    5.8277112     3807.184 
    2000    2.4314286   -5.0378957            0   -1.3916646    5.4202853    3819.5704 
    3000      2.41886   -5.0514607            0   -1.4240778    5.0681694    3841.4072 
    4000    2.3913832    -5.006332            0   -1.4201539    5.6012152    3821.8996 
    5000    2.4139918   -4.9873673            0   -1.3672849    5.7602208    3814.7146 
    6000     2.388289    -4.985301            0   -1.4037631    5.5423766    3826.4513 
    7000    2.4077354   -5.0190014            0   -1.4083012    5.7048096     3800.942 
    8000    2.3570516   -4.9700808            0   -1.4353874     5.824025    3813.3754 
    9000    2.3594829   -4.9670491            0   -1.4287095    5.6700736    3825.7734 
   10000    2.4064079   -5.0306736            0   -1.4219642    5.7512666    3787.1056 
Loop time of 2.57402 on 48 procs for 10000 steps with 4000 atoms

Performance: 671324.132 tau/day, 3884.978 timesteps/s
99.6% CPU use with 48 MPI tasks x no OpenMP threads

MPI task timing breakdown:
Section |  min time  |  avg time  |  max time  |%varavg| %total
---------------------------------------------------------------
Pair    | 1.1366     | 1.2059     | 1.3887     |   3.8 | 46.85
Neigh   | 0.20908    | 0.21825    | 0.25189    |   1.3 |  8.48
Comm    | 0.70535    | 0.87193    | 0.99437    |   6.0 | 33.87
Output  | 0.00023546 | 0.00024211 | 0.00029863 |   0.0 |  0.01
Modify  | 0.21172    | 0.2624     | 0.33236    |   6.5 | 10.19
Other   |            | 0.01524    |            |       |  0.59

Nlocal:        83.3333 ave          91 max          72 min
Histogram: 1 1 2 3 8 8 11 7 4 3
Nghost:        1699.83 ave        1734 max        1673 min
Histogram: 4 3 4 10 7 11 5 3 0 1
Neighs:        10069.8 ave       11385 max        8259 min
Histogram: 1 0 3 5 7 8 11 6 6 1

Total # of neighbors = 483352
Ave neighs/atom = 120.83800
Neighbor list builds = 905
Dangerous builds = 194

# Equilibrate just above the melting temperature to avoid step fn in T

fix 1 all npt temp 1.25 1.25 0.1 iso 5.68 5.68 0.5 mtk yes tchain 5 pchain 5
run 2000
Per MPI rank memory allocation (min/avg/max) = 3.643 | 3.645 | 3.649 Mbytes
Step Temp E_pair E_mol TotEng Press Volume 
   10000    2.4064079   -5.0306736            0   -1.4219642    5.7512666    3787.1056 
   11000    1.2631226   -7.0454488            0   -5.1512386    5.8064073    2996.7405 
   12000    1.2555736   -7.1250355            0   -5.2421461    5.1927866    3002.0955 
Loop time of 0.608629 on 48 procs for 2000 steps with 4000 atoms

Performance: 567833.607 tau/day, 3286.074 timesteps/s
99.6% CPU use with 48 MPI tasks x no OpenMP threads

MPI task timing breakdown:
Section |  min time  |  avg time  |  max time  |%varavg| %total
---------------------------------------------------------------
Pair    | 0.26165    | 0.2988     | 0.31848    |   2.3 | 49.09
Neigh   | 0.038611   | 0.04141    | 0.043824   |   0.7 |  6.80
Comm    | 0.20072    | 0.22143    | 0.26519    |   3.1 | 36.38
Output  | 5.3606e-05 | 5.4572e-05 | 6.8893e-05 |   0.0 |  0.01
Modify  | 0.038186   | 0.042237   | 0.04578    |   1.0 |  6.94
Other   |            | 0.004697   |            |       |  0.77

Nlocal:        83.3333 ave          92 max          77 min
Histogram: 5 3 4 5 13 6 8 2 1 1
Nghost:        1988.40 ave        2013 max        1969 min
Histogram: 4 7 8 3 6 5 7 3 2 3
Neighs:        12708.6 ave       14240 max       11232 min
Histogram: 4 1 6 7 8 3 7 7 3 2

Total # of neighbors = 610015
Ave neighs/atom = 152.50375
Neighbor list builds = 141
Dangerous builds = 6

#############################
# L I N E A R  Q U E N C H  #
#############################

# Define solid atoms. This closely follows ten Wolde  Ruiz-Montero and Frenkel  Faraday Discuss  1996  104  93-110
# Compute components of the per-atom q6 vector
compute q6 all orientorder/atom degrees 1 6 components 6 nnn NULL cutoff 1.3 # compute the Q6 parameter.
                                                                             # Use all neighbours within 1.3 unit cell.

# get number of connections
compute coord_number all coord/atom orientorder q6 0.5

# An atom is solid if it has 8 or more connections (of a possible 14)
variable is_solid atom c_coord_number>=8
group solid dynamic all var is_solid    # Must be dynamic to update
dynamic group solid defined

# do clustering
compute cluster solid cluster/atom 1.3 # Create a cluster where all atoms within are solid and max 1.3 units from another member

# define chunks one chunk per cluster
compute clus_chunks solid chunk/atom c_cluster nchunk every compress yes  # Says which atoms are in which chunk

# count the size of each chunk
compute size_chunks solid property/chunk clus_chunks count


# Find the maximum entry in the vector of chunk sizes
variable max_n equal max(c_size_chunks)


# Thermo style which includes this variable
# thermo_style custom step temp pe vol v_max_n

thermo ${N}  # Print the thermo information every 100 steps
thermo 1000  

# Reset the npt fix at a lower temperature (below freezing)
fix 1  all npt temp  ${temp} ${temp}  0.1  iso  5.68  5.68  0.5  mtk yes tchain  5  pchain  5
fix 1  all npt temp  0.45 ${temp}  0.1  iso  5.68  5.68  0.5  mtk yes tchain  5  pchain  5
fix 1  all npt temp  0.45 0.45  0.1  iso  5.68  5.68  0.5  mtk yes tchain  5  pchain  5

dump dmp2 all dcd ${N} traj.dcd
dump dmp2 all dcd 1000 traj.dcd


compute msd all msd com yes
variable twopoint equal c_msd[4]/6/(step*dt+1.0e-6)
fix 9 all vector 10 c_msd[4]
variable fit equal slope(f_9)/6/(10*dt)
thermo_style custom step temp pe c_msd[4] v_twopoint v_fit v_max_n

fix 1 all npt temp 1.25 ${temp} 0.1 iso 5.68 5.68 0.5 mtk yes tchain 5 pchain 5
fix 1 all npt temp 1.25 0.45 0.1 iso 5.68 5.68 0.5 mtk yes tchain 5 pchain 5
run 5000000 # 5000000  # Run for this many steps
Neighbor list info ...
  update every 1 steps, delay 10 steps, check yes
  max neighbors/atom: 2000, page size: 100000
  master list distance cutoff = 3.8
  ghost atom cutoff = 3.8
  binsize = 1.9, bins = 8 8 8
  4 neighbor lists, perpetual/occasional/extra = 1 3 0
  (1) pair lj/cut, perpetual
      attributes: half, newton on
      pair build: half/bin/atomonly/newton
      stencil: half/bin/3d
      bin: standard
  (2) compute orientorder/atom, occasional
      attributes: full, newton on
      pair build: full/bin/atomonly
      stencil: full/bin/3d
      bin: standard
  (3) compute coord/atom, occasional
      attributes: full, newton on
      pair build: full/bin/atomonly
      stencil: full/bin/3d
      bin: standard
  (4) compute cluster/atom, occasional
      attributes: full, newton on
      pair build: full/bin/atomonly
      stencil: full/bin/3d
      bin: standard
Per MPI rank memory allocation (min/avg/max) = 9.828 | 9.834 | 9.838 Mbytes
Step Temp PotEng c_msd[4] v_twopoint v_fit v_max_n 
   12000    1.2555736   -7.1250355 1.0590458e-30 7.3544842e-33 8.3333333e+20            4 
   13000    1.2488777   -7.1642528   0.45392162 0.0029097539  0.036995583            2 
   14000    1.2509736   -7.1287313   0.89368466 0.0053195514  0.035941852            1 
   15000    1.2649722   -7.1425923    1.3017522 0.0072319565  0.035951135            1 
   16000    1.2515243   -7.1400477    1.7490253 0.0091095063  0.035780289            1 
   17000     1.266604   -7.1728969    2.1418967  0.010499493  0.035618669            2 
   18000    1.2338503   -7.1471079    2.5956001  0.012016667  0.035419841            1 
   19000    1.2464095   -7.1540537    2.9921391  0.013123417  0.035292893            2 
   20000    1.2766967   -7.1564046     3.382819  0.014095079  0.035258586            1 
   21000    1.2365113   -7.1319606    3.7316785  0.014808248  0.034828844            1 
   22000     1.235386   -7.1479677     4.110245  0.015569109  0.034403808            1 
   23000    1.2383253   -7.2025989    4.4724284   0.01620445  0.033932676            2 
   24000    1.2604555    -7.151797    4.8958716  0.016999554  0.033704032            1 
   25000    1.2470747   -7.1731675    5.3448111  0.017816037   0.03360207            1 
   26000     1.232323    -7.171128    5.7448752  0.018413061  0.033553284            1 
   27000    1.2573798   -7.1260095    6.1634717  0.019023061  0.033536795            3 
   28000    1.2704269    -7.146771    6.5163738  0.019393969  0.033529395            2 
   29000    1.2544079   -7.1252835    6.9646528   0.02001337  0.033510351            2 
   30000    1.2307043   -7.1626519    7.3389711   0.02038603    0.0335225            1 
   31000    1.2542435   -7.1430522    7.6864441  0.020662484  0.033477532            1 
   32000    1.2711815   -7.1544717    8.1493923  0.021222375  0.033455024            3 
   33000     1.266282   -7.1584925    8.5696512  0.021640533  0.033497295            2 
   34000    1.2523538   -7.1719901     9.090109  0.022279679  0.033595938            2 
   35000     1.243505   -7.1043779    9.5863846  0.022824725  0.033759433            3 
   36000    1.2682688   -7.1834438    10.041376  0.023243925  0.033927725            3 
   37000    1.2275032   -7.2048863    10.416963  0.023461629   0.03407143            4 
   38000    1.2301834   -7.2056272     10.87437  0.023847302  0.034195373            4 
   39000    1.2540194   -7.1511119    11.358742  0.024270815    0.0343346            2 
   40000    1.2408759   -7.1227473    11.659439  0.024290497   0.03439526            1 
   41000    1.2562847   -7.1131848    12.162723  0.024720981  0.034472897            3 
   42000    1.2508366   -7.1870353    12.514496  0.024830349  0.034539508            1 
   43000    1.2699168    -7.189563    12.943519   0.02508434  0.034602802            2 
   44000    1.2476642   -7.1800538    13.390984  0.025361711  0.034645133            1 
   45000     1.234806   -7.1554699    13.781681  0.025521632  0.034690596            1 
   46000     1.232189   -7.1576168    14.309728   0.02592342  0.034740862            1 
   47000    1.2404847    -7.138694    14.753193  0.026158143    0.0347942            2 
   48000    1.2298546   -7.1702939    15.198285  0.026385911  0.034862735            4 
   49000    1.2620497   -7.1313254    15.708826   0.02671569  0.034945925            1 
   50000    1.2479524   -7.1213229    16.186923  0.026978205  0.035031316            4 
   51000    1.2466843   -7.1833638    16.514953  0.026985217  0.035123236            2 
   52000    1.2687395   -7.2039591    17.141653  0.027470598  0.035213187            1 
   53000    1.2310785   -7.1781629    17.397186  0.027354066  0.035290286            3 
   54000    1.2780279   -7.1098596    17.905396  0.027631784  0.035346098            4 
   55000    1.2803426   -7.1349167     18.31815  0.027754773  0.035398724            2 
   56000    1.2535492   -7.1676159    18.519806  0.027559235  0.035410795            2 
   57000    1.2500537   -7.1582984    18.979914  0.027748412  0.035393254            3 
   58000    1.2321471   -7.1782951    19.343781  0.027792788  0.035374821            1 
   59000    1.2257324   -7.1662965    19.777555  0.027934399  0.035371831            1 
   60000    1.2236335   -7.1191114     20.28308  0.028170944  0.035375295            3 
   61000    1.2341937   -7.1644078    20.772256  0.028377398   0.03538689            1 
   62000    1.2488658   -7.1723411    21.149876  0.028427252  0.035389147            2 
   63000    1.2501477    -7.119234    21.575991  0.028539671  0.035383965            2 
   64000    1.2317964   -7.1396519    21.794829  0.028378683  0.035372402            1 
   65000    1.1992268   -7.2332981    21.992973   0.02819612  0.035328816            3 
   66000    1.2313227   -7.1939027    22.364792  0.028238374  0.035270029            2 
   67000    1.2400808   -7.1534308    22.621298  0.028135943  0.035195121            2 
   68000    1.2384152   -7.2256665     23.03383  0.028227733  0.035110523            3 
   69000    1.2592013   -7.1533233    23.437761  0.028306474    0.0350307            4 
   70000    1.2474692   -7.1735533    23.912448    0.0284672  0.034956491            6 
   71000    1.2565142   -7.1637956    24.497719  0.028753191  0.034910377            2 
   72000    1.2300995   -7.1343618    24.932466   0.02885702  0.034877422            1 
   73000    1.2259538   -7.1758414    25.409425  0.029006193  0.034861261            1 
   74000    1.2336028   -7.1798413    25.890794    0.0291563  0.034856397            2 
   75000    1.2283397   -7.1294359    26.344324  0.029271471   0.03486081            1 
   76000    1.2600618   -7.1660072    26.813269  0.029400514  0.034867294            2 
   77000    1.2195961   -7.2167356    27.286304  0.029530632  0.034880429            3 
   78000    1.2324656   -7.1498262    27.779962  0.029679447  0.034897529            1 
   79000    1.2275301   -7.1716451    28.144514  0.029688306  0.034908191            3 
   80000     1.226274   -7.1578758    28.700819  0.029896686   0.03492625            2 
   81000    1.2506921   -7.1121942    29.277054  0.030120426  0.034950221            2 
   82000    1.2408289   -7.1488038    29.727383  0.030210755  0.034992358            3 
   83000     1.239557   -7.1138227    30.432082  0.030554299  0.035044595            4 
   84000    1.2340374   -7.1305115     30.84293  0.030598144   0.03509644            2 
   85000    1.2289623   -7.1779946    31.081256  0.030471819  0.035144397            2 
   86000    1.2425702   -7.0674154     31.52182  0.030544399  0.035177926            2 
   87000    1.2372438   -7.1391172    31.914981  0.030569905   0.03521283            1 
   88000     1.263992      -7.1748    32.344383  0.030629151  0.035244986            1 
   89000    1.2400688   -7.1454976    32.563501  0.030490169  0.035265085            2 
   90000    1.2715045   -7.1116516    32.880396   0.03044481  0.035271389            2 
   91000    1.2475275   -7.1262148    33.390516  0.030577396  0.035269129            1 
   92000    1.2492836   -7.1590421     33.67947  0.030506767  0.035268218            1 
   93000    1.2376771   -7.2174663    33.975076  0.030443617  0.035258844            3 
   94000    1.2475542   -7.2020012    34.323393   0.03042854  0.035249706            2 
   95000    1.2598687   -7.1970664    34.891491  0.030606571  0.035234609            3 
   96000    1.2259693   -7.1294945    35.418849  0.030745528   0.03522804            2 
   97000     1.223058   -7.2055285    35.580071  0.030567071  0.035218491            2 
   98000    1.2329259   -7.1776605     36.17188  0.030758402  0.035215486            3 
   99000    1.2320791   -7.1628296    36.727902  0.030915743  0.035212507            1 
  100000    1.2287239   -7.1421508    37.228953  0.031024127   0.03521326            2 
  101000    1.2140932   -7.1995047     37.44767  0.030897418  0.035211095            2 
  102000    1.2259131   -7.1963421    37.935607  0.030993143  0.035209603            2 
  103000    1.2178911   -7.1901109    38.515717  0.031161583  0.035212923            2 
  104000    1.2345304   -7.1739892    38.982999  0.031236377  0.035222301            1 
  105000    1.2220114    -7.189348    39.309711  0.031198183  0.035230506            1 
  106000    1.2351075   -7.1522622    39.615425  0.031144202  0.035231934            3 
  107000     1.238573   -7.1431566    40.144303  0.031265033  0.035234877            2 
  108000    1.2373959   -7.1755226    40.618036  0.031341077  0.035241923            3 
  109000    1.1872123   -7.1737456    41.030156  0.031368621  0.035250134            2 
  110000    1.2519333   -7.2048942    41.465882  0.031413547  0.035260489            1 
  111000     1.240675   -7.1895652    41.875701  0.031438214  0.035269322            2 
  112000    1.2437465   -7.1147147    42.313385  0.031483173  0.035275226            1 
  113000    1.2333994   -7.1723592    42.426368  0.031287882  0.035271013            2 
  114000    1.2145425   -7.1639239    42.887335  0.031350391  0.035264294            2 
  115000    1.2671616   -7.2019786    43.404651  0.031452646  0.035256051            1 
  116000    1.2078562   -7.1761513    43.599493  0.031321475  0.035245659            3 
  117000    1.2218179   -7.1724614    44.101027  0.031410988  0.035236445            1 
  118000    1.2385558    -7.174669    44.652499   0.03153425  0.035227962            2 
  119000    1.2153862   -7.1590652     45.02946  0.031533235  0.035221016            2 
  120000    1.2585873   -7.1716401    45.461212  0.031570286  0.035216215            4 
  121000    1.2378355   -7.1858769     45.93786  0.031637644   0.03521534            1 
  122000    1.2222318   -7.1547623    46.518358  0.031774834  0.035210692            1 
  123000    1.2464621   -7.1854167    46.721069   0.03165384  0.035208606            2 
  124000    1.2261028   -7.1529073    47.502864  0.031923968  0.035213348            1 
  125000     1.218552   -7.1344376    47.861353  0.031907568  0.035222691            1 
  126000    1.2415727   -7.1795984    48.357345  0.031982371  0.035235423            1 
  127000    1.2455551   -7.1963463    48.738803  0.031980842  0.035242963            3 
  128000    1.2361773   -7.1890491    49.012671  0.031909291  0.035250689            1 
  129000    1.2344565   -7.1511367    49.725652  0.032122514  0.035259017            1 
  130000    1.2277165   -7.1612858    50.312292  0.032251469  0.035272801            1 
  131000    1.2263795   -7.1927523    50.805522  0.032319034  0.035290832            1 
  132000    1.2264331    -7.184377    51.444796  0.032477775  0.035310818            1 
  133000    1.2478547   -7.1461477    51.641886  0.032357071  0.035335412            1 
  134000    1.2183768   -7.2278208    52.122577  0.032414538  0.035352938            1 
  135000    1.1918551   -7.2035263    52.484428  0.032397795  0.035365663            1 
  136000    1.2431605   -7.1349874     53.00203  0.032476734   0.03538108            1 
  137000    1.2574362   -7.1989358    53.293715  0.032417102  0.035394299            1 
  138000    1.2535952   -7.1475278    53.526103  0.032322526  0.035408063            1 
  139000    1.2396978   -7.1973146    53.692062  0.032189485  0.035411029            1 
  140000    1.1990293   -7.2209298    54.184535  0.032252699  0.035408401            4 
  141000    1.2381101    -7.224583    54.658641  0.032304161  0.035408383            2 
  142000    1.2701263   -7.1860511    55.390873  0.032506381  0.035414082            2 
  143000    1.1916364   -7.1746059    55.843813  0.032543015  0.035421626            1 
  144000    1.2081944   -7.2192493    56.146761  0.032492338  0.035429275            2 
  145000    1.2002713   -7.2291236    56.434357  0.032433538  0.035434237            2 
  146000    1.2410277   -7.1808133    57.091048  0.032586215  0.035440275            1 
  147000    1.2168997   -7.1773343    57.445048   0.03256522  0.035446037            3 
  148000    1.2088032   -7.2179761    57.606268  0.032435961   0.03545042            3 
  149000    1.2329275   -7.1831119    58.106461   0.03249802  0.035455327            1 
  150000    1.2173717   -7.1662194    58.660705   0.03258928  0.035459192            2 
  151000    1.2458786    -7.170621    58.912484  0.032512408  0.035460478            2 
  152000    1.2254379   -7.2125601    58.972274   0.03233129  0.035455383            1 
  153000    1.2322946   -7.1417706    59.475233  0.032393918   0.03544799            3 
  154000    1.2121771   -7.2191728    59.994032  0.032464303  0.035444969            1 
  155000    1.2231411   -7.2462561    60.393357  0.032469547  0.035442643            2 
  156000    1.2357936   -7.1830759    60.920455  0.032542978  0.035439187            1 
  157000    1.2296283   -7.1838587    61.387957  0.032583841  0.035436066            2 
  158000    1.2109162   -7.1682596    61.683696  0.032533595  0.035433721            1 
  159000    1.2281632    -7.246285    62.043194  0.032517397   0.03542686            4 
  160000    1.2104964    -7.164452    62.415312  0.032507975   0.03541751            1 
  161000    1.2366312   -7.1825625    62.405456   0.03230096  0.035409165            4 
  162000    1.2257162   -7.2390655    62.871874  0.032341499  0.035397578            1 
  163000    1.2308782   -7.1974622    63.232455  0.032327431  0.035384731            1 
  164000    1.2071147   -7.2069953    63.854736  0.032446512  0.035372659            4 
  165000    1.2253092   -7.1861371    64.098614  0.032373037   0.03535972            1 
  166000    1.2124643   -7.1801216     64.64619  0.032452906   0.03534399            4 
  167000    1.2033324   -7.2223801    64.662471  0.032266702  0.035329974            1 
  168000    1.2181265   -7.1819461    65.125239  0.032304186  0.035314595            2 
  169000     1.271882   -7.2437041    65.416144  0.032256481  0.035295511            1 
  170000    1.1981154   -7.1833108    65.936694  0.032321909  0.035279098            2 
  171000     1.226619   -7.2214395    66.267141  0.032293928  0.035261589            2 
  172000    1.1975143   -7.1427024     66.73977   0.03233516  0.035245123            1 
  173000    1.2347718   -7.2498141    67.014911  0.032280786  0.035227097            1 
  174000    1.2475629   -7.2160576    67.324171  0.032243377  0.035208713            2 
  175000    1.2421273   -7.2025783    67.814362  0.032292553  0.035190658            2 
  176000    1.2168601   -7.1845105    68.358778  0.032366845  0.035175564            1 
  177000     1.208138   -7.2152816    68.689256  0.032339574  0.035160011            2 
  178000    1.1987294    -7.195883    69.174294  0.032384969  0.035144139            2 
  179000    1.2300652   -7.2030364    69.528065  0.032368745  0.035127209            3 
  180000    1.2229441   -7.2572994    69.776078   0.03230374  0.035109675            3 
  181000    1.2224391   -7.2158074    70.320135  0.032375753  0.035092494            2 
  182000    1.2399871   -7.1782297    70.587759  0.032320403  0.035077419            2 
  183000    1.2103519    -7.192814    71.216581  0.032430137  0.035063806            1 
  184000    1.2250354   -7.2240034    71.612758  0.032433314   0.03504871            2 
  185000    1.2361064   -7.2211499     71.77544  0.032331279  0.035032254            3 
  186000    1.2167115   -7.1921274    72.376335  0.032426673  0.035017572            3 
  187000    1.1947459   -7.2257078    72.420437  0.032272922  0.035001707            1 
  188000    1.2139318   -7.2238403    72.761083  0.032252253  0.034984794            2 
  189000    1.2320782   -7.1956916    73.366315  0.032348463  0.034968474            1 
  190000    1.2418256    -7.176869    73.582251  0.032272917  0.034950611            2 
  191000    1.2015353   -7.2310632    73.727488  0.032167316  0.034931561            1 
  192000    1.1929828   -7.1895066    74.021047   0.03212719  0.034910519            1 
  193000    1.2137629   -7.2110539    74.582858  0.032203306  0.034890447            3 
  194000     1.225886   -7.2345749    74.873251   0.03216205  0.034869056            1 
  195000    1.2395294   -7.2080687    75.463075  0.032249177  0.034848056            2 
  196000    1.2203571   -7.2627649    75.660083  0.032168403  0.034831745            1 
  197000    1.2004322   -7.2054306     76.44063  0.032335292  0.034813553            2 
  198000    1.2111185   -7.2558826    76.419698  0.032163172  0.034795724            2 
  199000    1.2038988   -7.2320535    76.703189  0.032120263  0.034778337            3 
  200000    1.2127267    -7.226658    77.325814  0.032219089  0.034758889            1 
  201000    1.2317588   -7.1966926    77.499967  0.032130998  0.034740382            2 
  202000    1.2423723   -7.1939411    78.504417  0.032386311  0.034722595            1 
  203000    1.2287549   -7.2198276    78.485406  0.032218968  0.034706904            2 
  204000    1.2085077   -7.2397328     78.84307  0.032207136  0.034689389            2 
  205000    1.2192259   -7.1983418    79.570678  0.032345804  0.034674125            5 
  206000    1.2391811   -7.2123056    80.094233   0.03240058  0.034660775            1 
  207000    1.2131484   -7.2030149    80.450745  0.032387578   0.03464701            1 
  208000    1.2274871   -7.2409881    80.697395  0.032330687  0.034633642            2 
  209000    1.2313665   -7.1977792    81.695847  0.032574101  0.034622185            1 
  210000    1.2127379   -7.2114331    81.846608  0.032478813  0.034610732            3 
  211000    1.2211508   -7.1965865    81.975571  0.032375818  0.034599236            2 
  212000    1.1988322   -7.1910682    82.483113  0.032422607  0.034586648            2 
  213000    1.1951954   -7.1676993    83.146394  0.032529888   0.03457411            1 
  214000    1.2003149   -7.2071715    83.204333  0.032400441  0.034563649            2 
  215000    1.2281741   -7.2470332    83.501732  0.032365012  0.034550624            1 
  216000    1.2130673   -7.2482747       83.649  0.032271991  0.034535846            2 
  217000    1.2079818    -7.199666    84.301664  0.032373911  0.034522368            1 
  218000    1.2143246   -7.2232535    84.415042  0.032268747  0.034508373            1 
  219000    1.2481623   -7.2519404    85.116351  0.032388261  0.034494425            1 
  220000    1.2160351   -7.2198525    85.524453  0.032395626  0.034481112            2 
  221000    1.2061178   -7.2223083    85.812718  0.032357737  0.034466576            3 
  222000    1.2047016   -7.2072175      86.1862  0.032352177  0.034453343            1 
  223000    1.2396225   -7.2023805    86.549149  0.032342731    0.0344392            2 
  224000    1.2134709   -7.2346441     86.92123  0.032336767  0.034425115            2 
  225000    1.2149297   -7.2366709    86.979572  0.032214656   0.03441091            2 
  226000    1.2098314   -7.2101704    87.421769  0.032235166  0.034395624            1 
  227000    1.2172434   -7.2243231    87.573854  0.032148992  0.034377314            1 
  228000    1.2439007    -7.229515    87.923446  0.032135762  0.034360384            1 
  229000    1.2496916   -7.2463886    88.605551   0.03224365  0.034342973            2 
  230000    1.2131404   -7.2232214    88.901221  0.032210587   0.03432884            1 
  231000    1.2227637   -7.2389433    89.144746  0.032158999  0.034314024            2 
  232000    1.2080819    -7.195305    90.033944  0.032339779  0.034300123            3 
  233000    1.2110982   -7.2288048    90.031823  0.032200223   0.03428606            2 
  234000    1.2259357   -7.2027825    90.473978  0.032220078  0.034271414            2 
  235000    1.1890378   -7.2397516    90.717782  0.032169426  0.034254991            1 
  236000    1.2355539   -7.2211597    91.284223   0.03223313  0.034239631            3 
  237000    1.2190144   -7.2553865    91.828764  0.032288595  0.034226288            1 
  238000    1.1885453   -7.2264532    92.275085  0.032309203  0.034212997            1 
  239000    1.2163933   -7.2043282     92.40529  0.032219418  0.034200552            2 
  240000    1.1888383   -7.2184821    93.052367   0.03230985  0.034189153            4 
  241000    1.2347144    -7.216421    93.582192  0.032358988  0.034178479            2 
  242000     1.223882   -7.2020995    93.547338  0.032213271  0.034165943            2 
  243000     1.227263   -7.2262321    93.656292   0.03211807  0.034152492            2 
  244000    1.2317137   -7.2681652     94.23875  0.032185365  0.034137683            1 
  245000     1.208103    -7.243769    94.541248  0.032156887  0.034122271            1 
  246000    1.1857799   -7.1880455    95.213828  0.032254007  0.034107758            1 
  247000     1.215292   -7.2162004    95.291468  0.032149618  0.034093588            3 
  248000    1.2065452   -7.2485501    95.962047  0.032245311  0.034080133            1 
  249000    1.2136983   -7.2587381    95.801335  0.032062026  0.034065465            4 
  250000     1.209957   -7.2768914     96.14273  0.032047577  0.034049369            3 
  251000    1.2118221   -7.2459046    96.814293   0.03214286  0.034036247            1 
  252000    1.2037561   -7.2344736    97.392548   0.03220653  0.034022964            1 
  253000    1.2149817   -7.2129624    97.649206   0.03216377  0.034009551            1 
  254000    1.1976832   -7.2359668     98.47492  0.032308045  0.033996566            2 
  255000    1.2228949    -7.266073    98.315918  0.032129385  0.033983748            1 
  256000    1.2268489   -7.2530341    98.762885  0.032149377  0.033971293            1 
  257000    1.2148181   -7.2495119     99.16922  0.032156038  0.033958148            1 
  258000    1.1900179   -7.2117361    99.616845  0.032175983  0.033944985            1 
  259000    1.2094828   -7.2361558    100.20573  0.032241226  0.033931853            1 
  260000    1.2104416   -7.2385537    100.27394  0.032139084  0.033920013            3 
  261000      1.21929   -7.2040025     101.3053  0.032345244  0.033910269            3 
  262000    1.2043715   -7.2251469    101.25978  0.032207308  0.033900512            1 
  263000     1.218155   -7.2123699     101.8723  0.032278928  0.033889633            1 
  264000    1.2392113   -7.2287424     101.8957  0.032164046  0.033878003            2 
  265000    1.1907488   -7.2047676    103.00392  0.032391169  0.033866776            1 
  266000    1.2153999   -7.2514467    103.02022  0.032274505  0.033857856            1 
  267000    1.2226829   -7.2100633    103.13915  0.032190746  0.033846317            1 
  268000    1.2414237   -7.2385854    103.42398  0.032159199  0.033835181            2 
  269000    1.2202638   -7.2103411    103.58737  0.032090263  0.033822973            3 
  270000    1.2284469   -7.1911803    104.05996   0.03211727  0.033811627            1 
  271000    1.1923629   -7.2253932    104.52718  0.032142429  0.033800261            2 
  272000      1.24062   -7.2354397    104.93506  0.032149221  0.033788588            2 
  273000    1.2281623   -7.1851892    105.63594  0.032245403  0.033776838            3 
  274000    1.1930339   -7.2679029    105.38821  0.032052376  0.033764392            2 
  275000     1.190204   -7.2703171    105.79429  0.032058876  0.033753035            3 
  276000     1.205706   -7.2146201    106.87035  0.032267616  0.033741857            1 
  277000    1.2245984    -7.205965    107.01269  0.032193951  0.033731681            2 
  278000    1.1977222   -7.2356336    107.12724  0.032112483  0.033720657            1 
  279000    1.1905956    -7.237934    107.38224   0.03207355  0.033709142            1 
  280000    1.1632396   -7.2374643    107.82368  0.032090382  0.033696724            1 
  281000    1.2172538   -7.2407177    108.67041  0.032227285  0.033684989            1 
  282000    1.2298252   -7.2322172    108.95967  0.032198484  0.033674989            1 
  283000     1.216424   -7.2230167    109.00082  0.032096824  0.033665419            2 
  284000    1.1956741   -7.2581296     109.5428   0.03214284  0.033654937            4 
  285000    1.2218381   -7.2294818    109.50962  0.032020358  0.033644723            4 
  286000      1.21058   -7.2911312     109.8896  0.032019115  0.033633096            3 
  287000    1.1890401   -7.2417754    110.61167  0.032117209  0.033621591            1 
  288000    1.1816496   -7.2434429    111.05942   0.03213525  0.033611747            1 
  289000    1.2001978   -7.2491855     111.1012  0.032036101  0.033601429            1 
  290000    1.1917959   -7.2176004    111.47388  0.032032725  0.033589584            2 
  291000    1.2064981   -7.2590885    111.98195   0.03206814  0.033577227            2 
  292000    1.2225441    -7.193717    112.42837  0.032085721   0.03356503            1 
  293000    1.1988901   -7.2431619    112.55671  0.032012715  0.033551752            2 
  294000    1.2003363    -7.231698    112.49145  0.031885333   0.03353667            1 
  295000    1.1976045   -7.2700505    112.56751  0.031798731  0.033520046            1 
  296000    1.1790578   -7.2721379    112.81848  0.031761958  0.033503431            3 
  297000    1.2318616   -7.2213426    113.33689  0.031800473  0.033486746            1 
  298000    1.1898848   -7.2278119    113.62188  0.031773456   0.03346936            1 
  299000    1.1982166   -7.2623304    113.57221  0.031653346  0.033450842            2 
  300000    1.1888481   -7.2432063     114.1459  0.031707195  0.033433779            2 
  301000    1.2246724   -7.2295742    115.27079  0.031913286  0.033418055            1 
  302000    1.2051579   -7.2769103    115.18149  0.031782971  0.033401636            2 
  303000    1.2038941   -7.2364605    115.68171  0.031815653  0.033385548            2 
  304000    1.1859559   -7.1956712    115.95408  0.031785657  0.033369168            1 
  305000    1.2157081   -7.2663076    116.30241  0.031776614  0.033353708            1 
  306000    1.2014195   -7.2662596    117.09807  0.031889453  0.033339015            3 
  307000    1.2098374   -7.2212357    117.38245  0.031862772  0.033325032            3 
  308000    1.2139642   -7.2387596    117.57405   0.03181116  0.033311713            1 
  309000    1.1964427   -7.2693239    117.91767  0.031800882  0.033298701            1 
  310000    1.2120494   -7.2498042    118.35866  0.031816844  0.033285026            1 
  311000    1.1784812   -7.2295104    118.89865  0.031859231  0.033272135            2 
  312000     1.182751   -7.2656627    118.51674  0.031655111   0.03325841            2 
  313000    1.1936481   -7.2206495    119.28979  0.031759796  0.033243487            1 
  314000      1.23625   -7.2708342    119.16641  0.031625904  0.033228744            2 
  315000    1.1974646   -7.2833379    119.45411  0.031601618  0.033213095            1 
  316000    1.2209032   -7.2259127    120.23018  0.031706272  0.033197598            4 
  317000    1.1749296   -7.2126576    120.50814  0.031679321  0.033182301            6 
  318000    1.2077179   -7.2682823    120.82307  0.031662229  0.033166038            2 
  319000    1.2176946   -7.2550206     120.9615  0.031599138  0.033149192            3 
  320000    1.1765588   -7.2962773    120.68926  0.031429494  0.033131456            1 
  321000    1.2257217   -7.2638327    121.33198  0.031498438   0.03311402            4 
  322000    1.2028088   -7.2371061    121.90485  0.031548874  0.033097135            1 
  323000    1.1754561   -7.2528403    122.61711  0.031634961  0.033079597            1 
  324000    1.1735377   -7.2154755    122.85127  0.031597549  0.033063669            2 
  325000    1.1925123   -7.2423914    122.87869  0.031507356  0.033046512            1 
  326000    1.1993086   -7.2803938    122.62146  0.031344954  0.033028112            4 
  327000    1.2021597   -7.2457724    122.81095  0.031297388  0.033009439            1 
  328000     1.187345   -7.2592626    123.41298  0.031354924  0.032989944            1 
  329000    1.1883203   -7.2676297    123.80733  0.031359507  0.032970757            1 
  330000    1.1971917   -7.2684245    124.34585  0.031400466  0.032952805            3 
  331000    1.1854871    -7.249749    124.77413  0.031413427  0.032934798            1 
  332000     1.217769   -7.2457624    125.32688  0.031457551  0.032917945            5 
  333000    1.1991802    -7.285445    125.25903  0.031346104   0.03290114            3 
  334000    1.1785071   -7.2468901    125.81594  0.031391202  0.032883424            2 
  335000    1.1970695   -7.2978926    126.04042  0.031353339  0.032866343            1 
  336000    1.1822144   -7.2751674     126.5301  0.031381473  0.032849533            1 
  337000      1.21216   -7.2457977    126.75412  0.031343749  0.032833338            1 
  338000    1.1973472   -7.2783175    126.98908  0.031308944  0.032817143            2 
  339000    1.2172416   -7.2631743     127.1502  0.031256195  0.032800453            1 
  340000    1.2296391   -7.2168789    128.07976  0.031392098  0.032784111            3 
  341000    1.1991108   -7.2404814    128.67478  0.031445448  0.032768806            2 
  342000    1.1945084   -7.2875767    128.69239  0.031357794  0.032752851            1 
  343000    1.2041598    -7.273623    129.16579  0.031381388  0.032738023            2 
  344000    1.2005513   -7.2534493    129.34227  0.031332914  0.032722838            2 
  345000     1.197484   -7.2734932    130.01501  0.031404591  0.032707548            2 
  346000    1.1858303   -7.2508673     130.4055  0.031407875  0.032692839            3 
  347000     1.203333    -7.250464    130.23346  0.031276047  0.032677686            1 
  348000    1.1949735    -7.274614    130.46273  0.031241076  0.032661352            1 
  349000    1.1931654   -7.2468781    131.09008  0.031301356  0.032645062            1 
  350000    1.2113437   -7.2873669    131.30414   0.03126289  0.032629073            2 
  351000    1.2134054   -7.2268504     132.0784  0.031357644  0.032613453            1 
  352000    1.2052743   -7.2687176    132.36956  0.031337489  0.032599484            3 
  353000    1.1840721   -7.2944632    132.98775  0.031394654  0.032585246            3 
  354000    1.1813157   -7.2481434    133.48829  0.031423798  0.032570773            1 
  355000    1.1726764   -7.2404685    134.23238  0.031509948  0.032557037            1 
  356000    1.2354014   -7.2863132    133.73445  0.031304882  0.032543159            2 
  357000    1.1756759   -7.2872627    134.02943  0.031286049  0.032529643            3 
  358000    1.2207718   -7.2104777    134.86357  0.031392824  0.032516496            2 
  359000    1.2478631   -7.2495759    134.93561    0.0313221  0.032503019            2 
  360000    1.1935286   -7.3063679    134.82355  0.031209155  0.032489498            1 
  361000    1.1976207   -7.2950837    135.56816  0.031294589  0.032475855            2 
  362000    1.1847085   -7.2677078    136.32552  0.031382487  0.032463024            1 
  363000    1.1605285   -7.2661744    135.80412  0.031176335  0.032450688            2 
  364000    1.2036169   -7.3030197     136.7154  0.031299314  0.032438108            2 
  365000    1.2032087   -7.3140589    136.97271  0.031272309  0.032425703            1 
  366000    1.1713468   -7.2156495    137.68638  0.031349358  0.032413408            1 
  367000     1.180643   -7.2344443    137.33028  0.031183079  0.032399712            2 
  368000    1.2177917     -7.24834    138.31936  0.031322318  0.032385708            2 
  369000    1.1707436   -7.3124732    137.71407  0.031100738  0.032371577            2 
  370000    1.1863877   -7.2626944    138.73379  0.031246349  0.032357498            3 
  371000    1.1685974   -7.3054239    138.70052  0.031154653  0.032343405            2 
  372000    1.2018773   -7.2691206    139.21999  0.031187274  0.032329954            1 
  373000    1.1968524   -7.2398017    139.76906  0.031226331  0.032315381            2 
  374000    1.1893389   -7.2558889    140.05894  0.031207428  0.032301597            1 
  375000    1.1674762   -7.2515861     140.4952  0.031221156  0.032289424            4 
  376000    1.1720388   -7.2711736    141.16385  0.031286315  0.032277374            1 
  377000    1.2071824   -7.3221774    140.73692  0.031108956  0.032265509            3 
  378000    1.2171948   -7.2992121    142.00864  0.031307018  0.032254205            3 
  379000    1.1923528    -7.281126    142.19038  0.031264376  0.032242388            3 
  380000    1.2260884   -7.3008398    142.24559  0.031194208  0.032231376            3 
  381000    1.1819292   -7.2671692    142.59753  0.031189311  0.032220024            2 
  382000    1.2004445   -7.2422354    143.34807  0.031271394  0.032209115            1 
  383000    1.2078057   -7.2980914    142.65813  0.031039628  0.032197142            1 
  384000    1.1807808   -7.2617406    143.69991  0.031184876  0.032185592            2 
  385000    1.1976696    -7.272408    144.48852  0.031274571   0.03217387            3 
  386000    1.1662115   -7.2905075    144.22161  0.031135925  0.032161814            3 
  387000    1.1979251   -7.2783365     144.6058  0.031138199  0.032150122            2 
  388000    1.1845715   -7.2632655    144.73757  0.031086248  0.032138185            2 
  389000    1.2128535   -7.2952945    144.97323   0.03105682  0.032125369            2 
  390000    1.1967144   -7.2670717    145.53058  0.031096278   0.03211271            2 
  391000    1.1745984   -7.2657162    146.24371  0.031168735  0.032100333            1 
  392000    1.1913687   -7.3144072     145.5859  0.030949384  0.032087788            2 
  393000    1.1826417   -7.3023315    146.23647  0.031008581  0.032074474            2 
  394000    1.1932998    -7.274804    146.37934  0.030960098  0.032060249            2 
  395000    1.1995604   -7.2412053    146.60323  0.030928952  0.032046384            2 
  396000    1.2055546   -7.3345323    146.94583  0.030922943  0.032032999            1 
  397000    1.1865082   -7.3228433    146.96825  0.030849758  0.032017589            1 
  398000     1.167486   -7.2863987    147.36224  0.030854739  0.032003522            2 
  399000     1.184447   -7.2594425    148.51458  0.031018082  0.031989517            2 
  400000    1.1818945   -7.2979865    147.88907  0.030810222  0.031976211            4 
  401000    1.1673636   -7.2767619    148.50174   0.03086071  0.031962438            2 
  402000    1.1924573   -7.2523371    149.02217  0.030891826  0.031948566            2 
  403000    1.1699847   -7.2869631    149.15103  0.030841818   0.03193515            2 
  404000    1.1705269   -7.3007277    149.28636  0.030793392  0.031921876            2 
  405000    1.1881962   -7.3253044    149.37397  0.030735385  0.031907752            3 
  406000    1.2167278   -7.2552654    150.08593  0.030805814  0.031893448            1 
  407000    1.1710677    -7.290763    150.38049  0.030790436  0.031879391            4 
  408000    1.1753573   -7.2599759    150.97409  0.030836211  0.031865359            3 
  409000    1.1726253   -7.2993798    151.24815  0.030816656  0.031851791            4 
  410000    1.2252219   -7.2982894    151.33775  0.030759705  0.031839051            1 
  411000    1.1841821   -7.2761424    151.29748  0.030676698  0.031825805            3 
  412000    1.2118007   -7.3051829    151.75681  0.030695147  0.031811993            3 
  413000    1.2066272   -7.2830588    152.57216  0.030785342  0.031797974            2 
  414000    1.1608325   -7.3344931    152.40851  0.030678042  0.031783866            1 
  415000     1.170637   -7.2471724     152.7978  0.030682288  0.031769922            1 
  416000    1.2069879   -7.2441552    153.14417  0.030677919  0.031756024            1 
  417000    1.1935771   -7.2550962     154.0919  0.030793744  0.031741988            2 
  418000    1.1928092   -7.3265148    153.29361  0.030560928  0.031727365            2 
  419000    1.1817372   -7.3082108    153.51457  0.030531936  0.031712324            1 
  420000    1.1903275   -7.2581025    154.54918  0.030664519  0.031697106            3 
  421000    1.1833212   -7.2502356    154.97617  0.030676201  0.031682181            1 
  422000    1.1897161   -7.3189823    155.00831  0.030609856  0.031667923            2 
  423000    1.1662671   -7.3122079    155.48442  0.030631288   0.03165404            1 
  424000    1.1904232   -7.3180261    155.64927  0.030591445  0.031640367            3 
  425000    1.1964441   -7.3501419    155.59836  0.030509482  0.031626124            3 
  426000    1.1786076    -7.272653    156.23636  0.030562668  0.031611206            1 
  427000    1.1969686   -7.3154932    156.01535   0.03044796  0.031595366            2 
  428000     1.179238   -7.3074322    156.80821  0.030531194   0.03158075            1 
  429000    1.1835036   -7.2907106     157.1284  0.030522221  0.031566327            1 
  430000    1.1866745   -7.2764992    157.50446  0.030524121  0.031551969            3 
  431000     1.190246   -7.3116824     157.6171  0.030475078  0.031537845            3 
  432000    1.1972179   -7.3263588    157.80451  0.030440684  0.031522784            2 
  433000    1.1854131   -7.3398164    158.01065  0.030410056  0.031507834            3 
  434000    1.1883055   -7.3171302     158.6133  0.030455702  0.031492964            2 
  435000    1.1784617   -7.3120552    159.47341  0.030550462  0.031478543            4 
  436000    1.1656254   -7.3285224    159.50978  0.030487344  0.031464996            2 
  437000     1.185397   -7.2668842    160.18984  0.030547262  0.031450884            1 
  438000    1.1919466   -7.3141525    160.44372  0.030525822  0.031437457            2 
  439000     1.191985   -7.3088253    160.53186  0.030473018  0.031423764            2 
  440000    1.1758389   -7.2964418    160.73911  0.030443013   0.03141032            2 
  441000    1.1808957   -7.2810474    161.25923  0.030472266  0.031396305            1 
  442000    1.1738446   -7.2980699    161.11871  0.030376831  0.031383094            2 
  443000    1.1705851   -7.2918259    161.91027  0.030457161  0.031369173            3 
  444000    1.1706542    -7.315289    162.06562  0.030417722  0.031355979            3 
  445000     1.191094   -7.3488371    162.10557  0.030356848  0.031342175            2 
  446000    1.1821318   -7.3488251    162.86833  0.030431302  0.031328866            1 
  447000    1.1555732   -7.3203178    163.04264   0.03039572  0.031315761            1 
  448000    1.1982121   -7.2961548     163.0878  0.030336272  0.031302911            1 
  449000    1.2063866   -7.3088946    164.05414  0.030448059  0.031290547            3 
  450000     1.178591   -7.3191457    164.49256  0.030461585  0.031278976            1 
  451000    1.1836304   -7.3442937    164.93308   0.03047544  0.031267616            2 
  452000     1.186705   -7.2893087    164.99311  0.030419084  0.031257024            2 
  453000    1.1651802   -7.2739498    166.23463  0.030580321  0.031246098            1 
  454000    1.1899287   -7.3360414    166.04781  0.030478674  0.031235234            3 
  455000    1.1496181    -7.337562    165.87346  0.030379754  0.031223536            3 
  456000     1.187908   -7.2441415    167.19349  0.030554365  0.031211753            1 
  457000    1.1852976   -7.3134828    167.04526  0.030460477  0.031201252            3 
  458000    1.1778706   -7.3320598    167.00726  0.030387057  0.031189608            2 
  459000    1.1634322   -7.3680921    166.88282   0.03029826  0.031177412            4 
  460000    1.1810181   -7.3106955    167.60399  0.030363041   0.03116538            1 
  461000    1.1616862   -7.2888078    167.86514  0.030344386  0.031153558            1 
  462000    1.1852728   -7.3108669    168.08244  0.030317901  0.031142193            3 
  463000    1.1841031   -7.3514737     168.4657  0.030321401  0.031130994            2 
  464000    1.1845347   -7.3147601     169.5072  0.030443103   0.03112005            1 
  465000    1.1607197   -7.3007185    169.69395  0.030411102  0.031109174            1 
  466000    1.1768206   -7.2972127    169.72445  0.030351296  0.031098063            3 
  467000    1.1560259   -7.3298829    170.06732  0.030347487  0.031086879            2 
  468000    1.1756145   -7.3771252    169.64135  0.030206793  0.031075277            1 
  469000    1.1597151    -7.276118    171.02406   0.03038807  0.031064164            3 
  470000    1.1676074   -7.2887143    171.47457  0.030403293  0.031053494            1 
  471000    1.1558836   -7.2796024    171.92685  0.030418763  0.031042651            2 
  472000    1.1960857   -7.3067469    171.89593  0.030348857  0.031032058            2 
  473000    1.1727199   -7.2996352    172.32988  0.030361149  0.031021269            3 
  474000    1.1904254   -7.3223157     172.6302  0.030349894   0.03101089            2 
  475000    1.1727963   -7.3103691    172.80214  0.030316165  0.031000752            4 
  476000    1.1586754   -7.3192536    173.41308  0.030359433  0.030990297            3 
  477000    1.2085038   -7.3564039     173.4045  0.030294287  0.030980284            3 
  478000    1.1913682   -7.3139852    174.60322  0.030439892  0.030971267            3 
  479000    1.1639174   -7.3038612    174.95692  0.030437878  0.030962647            1 
  480000    1.1552906   -7.3593449    174.30315  0.030260963  0.030953938            3 
  481000     1.165354   -7.3007356    175.36659  0.030382292  0.030944905            1 
  482000     1.157776   -7.3149963    175.75501  0.030386412  0.030935837            1 
  483000    1.1729933   -7.3001253    175.99926  0.030365641  0.030926512            1 
  484000    1.1859532   -7.3501953    175.82225  0.030272425  0.030917997            1 
  485000    1.1727992   -7.2966973     177.5224  0.030502131   0.03090987            1 
  486000    1.2021708   -7.3090036     177.4601  0.030428686  0.030901109            1 
  487000    1.1623266   -7.3318023    177.59377  0.030389077  0.030892765            2 
  488000    1.1499162   -7.3393967    177.67724  0.030341059  0.030883895            3 
  489000    1.1890832   -7.3446586    178.22301  0.030372019  0.030875198            3 
  490000    1.1431769    -7.303594    178.95346  0.030434262  0.030867231            1 
  491000    1.1975404   -7.3549515    178.48644  0.030293014  0.030858884            2 
  492000    1.1739451   -7.3757182    178.14533  0.030173666  0.030849915            3 
  493000    1.1599575    -7.321785    179.29965  0.030307581  0.030840037            1 
  494000    1.1769348   -7.3513232    179.13618  0.030218653  0.030830488            2 
  495000    1.1942761   -7.3915482    178.86649  0.030112204  0.030820736            2 
  496000    1.1933563    -7.328739    179.21794  0.030110541  0.030810474            2 
  497000    1.1704319   -7.3583031    180.24142  0.030221567  0.030800516            2 
  498000    1.1649566   -7.3366893    180.35488  0.030179867   0.03079089            1 
  499000    1.1851708    -7.299525    181.34818  0.030285267  0.030781735            2 
  500000    1.1739715   -7.3074739    181.44075  0.030240126  0.030772615            7 
  501000    1.1523371    -7.290507    181.66417  0.030216927  0.030763268            1 
  502000    1.1701833   -7.3066061    182.20599  0.030246678  0.030754615            1 
  503000     1.181729   -7.3125398    182.11601  0.030171638  0.030746203            1 
  504000    1.1608269   -7.2945765    182.75989  0.030218236    0.0307372            1 
  505000    1.1858098   -7.3290195    182.87464  0.030177334   0.03072824            1 
  506000    1.1696319   -7.3558413    182.88767   0.03011984  0.030718929            2 
  507000    1.1716119    -7.333709    183.49161    0.0301597  0.030709451            1 
  508000    1.1949204    -7.352875    183.47196  0.030097106  0.030700116            2 
  509000    1.1540893   -7.3698361    183.49133  0.030041147  0.030690272            2 
  510000    1.1680855   -7.2754244    185.37993  0.030290838  0.030680864            2 
  511000    1.1578568   -7.3221543    184.39028  0.030070169  0.030671304            5 
  512000    1.1594691   -7.3400843    185.07682  0.030123181  0.030661553            2 
  513000      1.14383   -7.3387311    185.15892  0.030077797  0.030652343            1 
  514000    1.1667293   -7.3433416    185.71511  0.030109454  0.030643324            2 
  515000    1.1573455   -7.2773119    187.21768  0.030294123  0.030634582            2 
  516000    1.1644988   -7.3520943     186.3943  0.030102438  0.030625894            2 
  517000    1.1725267   -7.3633063    186.52855  0.030065853  0.030616561            2 
  518000    1.1459888   -7.3080583    186.33245  0.029976263  0.030606866            2 
  519000    1.1945004   -7.3309326    187.32501  0.030077876   0.03059724            2 
  520000    1.1555518   -7.3266851    187.51952  0.030051206  0.030587774            2 
  521000     1.165711    -7.344588    188.30563  0.030119263  0.030578633            2 
  522000    1.1713408   -7.3247312    188.59966  0.030108503  0.030569618            2 
  523000    1.1600673   -7.3393174    189.12164  0.030134105  0.030560587            1 
  524000    1.1778537   -7.3351388    188.89737  0.030040931  0.030551665            3 
  525000     1.173292   -7.3445404    188.74412  0.029959385  0.030542283            2 
  526000    1.1729963   -7.3409983    189.88876  0.030083771  0.030533347            1 
  527000    1.1702042   -7.3509486    189.73997  0.030003158  0.030524349            3 
  528000    1.1692286    -7.360117    189.73326  0.029945275  0.030514658            3 
  529000    1.1592696   -7.3577598    190.03399  0.029936042  0.030505464            1 
  530000    1.1737107   -7.3453751    190.40824  0.029938402  0.030496085            1 
  531000    1.1346009   -7.3905645    190.64946  0.029919877  0.030486862            1 
  532000    1.1726408   -7.3500403    191.72428  0.030031999  0.030477676            1 
  533000    1.1770101   -7.3471307    191.52539  0.029944557  0.030468306            4 
  534000    1.1647334   -7.3591353    191.79671  0.029930822  0.030458825            2 
  535000     1.153146   -7.3913897    191.49487  0.029827862  0.030448951            2 
  536000    1.1695713    -7.350673     192.7659  0.029969823  0.030439171            1 
  537000    1.1666883   -7.3516286    192.73387  0.029909042  0.030429514            2 
  538000    1.1503048   -7.3330837    192.76956  0.029858978  0.030419928            2 
  539000    1.1562912   -7.3192968    193.62571  0.029935947  0.030409935            3 
  540000    1.1517121   -7.3017986    194.36409  0.029994458  0.030399962            4 
  541000    1.1692376   -7.2921344    194.55678  0.029968697  0.030390386            1 
  542000    1.1609579   -7.3106361    194.00346  0.029828331  0.030381127            1 
  543000    1.1623045   -7.3595668    194.37072  0.029829761  0.030371241            3 
  544000    1.1602826    -7.384423    193.97131  0.029713742  0.030361876            2 
  545000    1.1826179   -7.3196099    195.08661  0.029829756  0.030352307            3 
  546000    1.1505334   -7.3508481    195.31932  0.029810641  0.030343212            2 
  547000     1.166778   -7.2785658    196.64146  0.029957566   0.03033437            2 
  548000    1.1455107   -7.3309361    196.29978   0.02985094  0.030325688            3 
  549000    1.1437056   -7.3454334    197.02158   0.02990613   0.03031674            1 
  550000    1.1737258   -7.3708395    196.58611  0.029785774  0.030307395            4 
  551000    1.1695357   -7.3400802    197.46113  0.029864054  0.030297356            2 
  552000     1.169654   -7.3477581     197.5748  0.029827114  0.030287473            2 
  553000    1.1631412   -7.3414798    198.01171  0.029839016  0.030278112            2 
  554000    1.1649113   -7.3215189    198.24473  0.029820207  0.030269017            3 
  555000    1.1406907   -7.3191443    198.66955  0.029830263  0.030259514            1 
  556000    1.1716534   -7.3635307    198.07121  0.029686932  0.030250309            3 
  557000    1.1469186   -7.3799812      198.231   0.02965754  0.030240852            2 
  558000    1.1458679   -7.3130778    199.78948  0.029837139  0.030231705            3 
  559000    1.1531141   -7.3778052    200.10834  0.029831297  0.030222964            1 
  560000    1.1701233   -7.3087444    200.39002  0.029819944  0.030214301            2 
  561000    1.1719273   -7.3529696    200.57949  0.029794933  0.030205668            2 
  562000    1.1771577    -7.319748    201.34341  0.029855192  0.030197289            2 
  563000    1.1631722   -7.3290826    201.72487  0.029858625  0.030189062            1 
  564000    1.1572694   -7.3717289    201.39719  0.029757268  0.030180736            4 
  565000    1.1635199   -7.3438627    201.43857  0.029710704  0.030172385            4 
  566000    1.1739037   -7.3765923    202.36992  0.029795336  0.030163887            1 
  567000    1.1692461   -7.3705681    201.99575  0.029687794  0.030155445            3 
  568000    1.1591092   -7.3470767    202.74388  0.029745287  0.030146265            1 
  569000     1.161901   -7.3375154    202.90145  0.029716088  0.030138057            3 
  570000    1.1742247   -7.3967595    203.09772  0.029692649  0.030129049            2 
  571000    1.1631673   -7.3547362    203.93709  0.029763148  0.030120354            2 
  572000    1.1540471   -7.3805715    203.26938  0.029613838  0.030111335            1 
  573000     1.160558   -7.3892323    204.13082  0.029687437  0.030102346            1 
  574000    1.1766062   -7.3535889    204.64365  0.029710169    0.0300938            4 
  575000    1.1569583   -7.3339299    205.06613  0.029719728  0.030085854            1 
  576000    1.1666904   -7.3494973     204.7558  0.029623234  0.030077431            3 
  577000    1.1430903   -7.3282349    205.63334  0.029698634  0.030069307            2 
  578000    1.1767341   -7.3227802     205.4512  0.029620991  0.030061192            2 
  579000    1.1372813   -7.3556746    206.48326  0.029718374  0.030052867            3 
  580000    1.1669876   -7.3604803     205.8744  0.029579655  0.030044522            2 
  581000    1.1616322   -7.3529059    206.74865  0.029654138  0.030035667            2 
  582000    1.1601499   -7.3288582    207.10849  0.029654709  0.030026801            2 
  583000    1.1526951   -7.3814054    206.87525  0.029570505  0.030018242            1 
  584000    1.1218307   -7.3543703    208.20542  0.029709677  0.030009732            1 
  585000    1.1426138   -7.3593557    208.38978  0.029685154  0.030001498            1 
  586000    1.1648865   -7.3630236    208.63021  0.029668687  0.029993176            4 
  587000    1.1578283   -7.3639233    208.10754  0.029543943  0.029984375            3 
  588000    1.1664893    -7.391378    207.99011  0.029477056  0.029975484            1 
  589000    1.1749958   -7.3244054     208.6905  0.029526103  0.029966329            2 
  590000    1.1616293   -7.3871655    208.68588  0.029475406  0.029956745            3 
  591000    1.1398109   -7.3836799     209.2243  0.029501452  0.029947163            2 
  592000    1.1554837   -7.3367844    209.97315  0.029557032  0.029938021            1 
  593000    1.1508784   -7.3384022    209.97284  0.029507144  0.029928828            2 
  594000    1.1697304   -7.3717025    209.41147  0.029378714  0.029918776            3 
  595000    1.1692817   -7.3790256    209.49964  0.029341686  0.029908715            2 
  596000    1.1813452   -7.3562269    210.00851  0.029363605  0.029898699            2 
  597000    1.1584213   -7.3314877     210.3628  0.029363876  0.029888588            2 
  598000    1.1439903   -7.3384709    210.26597  0.029301277  0.029878346            1 
  599000    1.1602884   -7.3605564    210.53109  0.029289245  0.029867953            2 
  600000    1.1585977   -7.3888384    210.84695  0.029284299  0.029857331            4 
  601000    1.1390461   -7.3806472    210.86012  0.029237398  0.029846544            1 
  602000    1.1394956   -7.3796163    210.77804  0.029177469  0.029835397            1 
  603000    1.1458791   -7.3748657    211.63588  0.029247634  0.029824841            3 
  604000    1.1852134   -7.3615444    211.26041  0.029147407  0.029814317            3 
  605000    1.1568621    -7.355459    212.16767  0.029224197   0.02980361            1 
  606000    1.1545819   -7.3998023    211.65216  0.029105082  0.029792842            4 
  607000    1.1340331   -7.3501969    212.34511  0.029152267  0.029782343            4 
  608000    1.1611638   -7.3191091    213.17453     0.029218  0.029772014            2 
  609000     1.163878   -7.3683745    213.73532   0.02924676  0.029761587            3 
  610000    1.1532806   -7.3556926    213.61798  0.029182784  0.029750917            1 
  611000    1.1209818   -7.3635945    214.58341  0.029266696  0.029740928            2 
  612000    1.1771791    -7.393891    215.22726  0.029306543  0.029731091            3 
  613000    1.1429211   -7.3712463    215.21097  0.029256521  0.029721644            3 
  614000    1.1411841   -7.3337712    216.15757  0.029337347  0.029712536            2 
  615000    1.1496087   -7.3142617    217.80435  0.029512785  0.029704077            1 
  616000    1.1662186   -7.3314287    216.87585  0.029339265  0.029695812            2 
  617000    1.1546216   -7.4101055    216.43269  0.029231859  0.029687359            2 
  618000    1.1792503   -7.3848523    217.23036   0.02929212  0.029678498            2 
  619000    1.1788475   -7.3762015    217.45633  0.029275219  0.029669735            2 
  620000    1.1363846   -7.3676178    217.92042  0.029290378   0.02966087            3 
  621000    1.1468274   -7.3414564    218.46456  0.029316232  0.029652366            1 
  622000    1.1513305   -7.4210756    217.68203  0.029164259  0.029643663            1 
  623000    1.1665574   -7.3649823    218.42351  0.029216628  0.029634705            3 
  624000    1.1497319   -7.3433484    219.98992  0.029378995  0.029626342            2 
  625000    1.1786127   -7.3809671    219.78955  0.029305273  0.029617982            2 
  626000    1.1622197   -7.3696909    220.04704  0.029292736  0.029609854            1 
  627000    1.1279966   -7.3935967    220.00982  0.029241071  0.029601411            2 
  628000     1.124464   -7.3432235    220.53316  0.029263955  0.029593081            2 
  629000    1.1500613   -7.3895916    221.07912  0.029289762  0.029585004            3 
  630000    1.1489942   -7.3534845    220.94245  0.029225192  0.029576606            1 
  631000    1.1523633   -7.4286512     220.3777  0.029104292  0.029567851            1 
  632000    1.1666656   -7.4260345    220.80555  0.029114656  0.029558816       -1e+20 
  633000    1.1532663   -7.3251688     221.9526  0.029219669  0.029550014            2 
  634000    1.1490327   -7.3774596    222.08167  0.029190545   0.02954128            3 
  635000    1.1364145   -7.3919696    221.75348  0.029101506  0.029532459            2 
  636000    1.1846016   -7.3902315    222.00918  0.029089253  0.029523535            3 
  637000    1.1529012   -7.3922931    222.40027   0.02909475  0.029514196       -1e+20 
  638000    1.1501881   -7.3733799    222.71096  0.029089729  0.029505323            1 
  639000    1.1596794   -7.3215105    223.93331  0.029203614  0.029496431            5 
  640000     1.155411   -7.3835122     222.6534  0.028991327  0.029487538            2 
  641000    1.1476649   -7.3569702    223.74604  0.029088148  0.029478433            1 
  642000    1.1379861   -7.3936594    224.03856  0.029080811  0.029469858            2 
  643000     1.150139   -7.4326191    224.03177  0.029034704  0.029460919            1 
  644000    1.1559386   -7.3470236    224.97719  0.029111956  0.029452395            1 
  645000    1.1556653     -7.40639    225.77521  0.029169923  0.029443993            3 
  646000     1.151612   -7.3785367    225.66962  0.029111148   0.02943538            2 
  647000    1.1263815   -7.3925381    226.55427  0.029180097     0.029427            2 
  648000    1.1403128    -7.349141    225.91007  0.029052221  0.029418721            1 
  649000    1.1399052   -7.3924499    226.60511  0.029096701  0.029409816            2 
  650000    1.1341371   -7.3708697    226.43043  0.029029543    0.0294009            1 
  651000    1.1329377   -7.3786268    226.31343  0.028969973   0.02939208            2 
  652000    1.1406512   -7.3572384    227.30406  0.029052155  0.029383124            2 
  653000    1.1602301   -7.4074498     227.0618  0.028976748  0.029373892            1 
  654000    1.1296866   -7.3787438    227.80388  0.029026998  0.029365173            2 
  655000    1.1518685   -7.3590894    227.72545  0.028972704  0.029356173            2 
  656000     1.147869   -7.4187501    227.42235  0.028890035  0.029346754            1 
  657000    1.1709948   -7.4021102     227.8039  0.028894457  0.029336809            2 
  658000    1.1453633   -7.4179662    227.56236  0.028819954  0.029326691            1 
  659000    1.1476559   -7.3782753    227.83226  0.028810352  0.029316659            2 
  660000    1.1668442   -7.4082317    227.86805  0.028771218  0.029306573            2 
  661000    1.1367013   -7.3672644    228.25699  0.028776726   0.02929611            2 
  662000    1.1631812    -7.411549    228.92734   0.02881764  0.029285312            1 
  663000    1.1219851    -7.391967    228.45936  0.028715354  0.029274703            1 
  664000    1.0984046   -7.4147313    228.47492  0.028674061  0.029263761            2 
  665000     1.125021    -7.396844    229.26103  0.028729452  0.029253026            1 
  666000    1.1284177   -7.3484194    229.77653  0.028750817  0.029242622            2 
  667000    1.1587799   -7.3996557    229.90211  0.028723402  0.029232003            2 
  668000    1.1509942   -7.3769303    229.68838   0.02865374  0.029221256            2 
  669000     1.178765   -7.4310293    229.68628  0.028610648  0.029210781            1 
  670000    1.1595307   -7.3742419     231.2464   0.02876199  0.029200396            2 
  671000    1.1385301    -7.351664    230.65261  0.028645381  0.029190271            1 
  672000    1.1277954   -7.3971464    230.88972  0.028632158  0.029179815            3 
  673000    1.1225857   -7.3839192    231.36507  0.028648473  0.029169458            2 
  674000    1.1368269   -7.4123005    231.50378  0.028623118  0.029159285            4 
  675000    1.1301946   -7.3893372    232.17288  0.028663318  0.029148702            4 
  676000    1.1381751   -7.4069325    232.15877  0.028619178  0.029138057            1 
  677000     1.143658   -7.3793335    232.36823  0.028602687  0.029126982            2 
  678000    1.1435069   -7.4084153    232.15915  0.028534802   0.02911608            2 
  679000    1.1383285    -7.401764    233.34822  0.028638712  0.029105409            4 
  680000    1.1623013   -7.4078404    232.89194  0.028540678  0.029095028            1 
  681000     1.174473   -7.3869955    234.01833  0.028636604  0.029084895            2 
  682000    1.1085471   -7.4071164     233.0258  0.028473339   0.02907451            3 
  683000    1.1506546   -7.3908616    234.32147  0.028589735  0.029064253            3 
  684000    1.1236535   -7.4315806    234.33437  0.028549509  0.029053861            2 
  685000    1.1317049   -7.4004104    234.54342  0.028533263  0.029043336            3 
  686000    1.1190967   -7.3816773     235.2368  0.028575899  0.029033397            5 
  687000    1.1447566   -7.4202791    235.71303  0.028592071   0.02902352            2 
  688000    1.1504631   -7.4240214    235.72974  0.028552537    0.0290134            3 
  689000    1.1556418   -7.4394603    235.33685  0.028463577  0.029003102            4 
  690000    1.1323766   -7.3894606    236.78404  0.028597107  0.028992899            1 
  691000    1.1692959   -7.4290165    236.20089  0.028485394   0.02898277            1 
  692000    1.1334122   -7.3654129    237.12788  0.028555862  0.028972303            2 
  693000    1.1384193   -7.4131294    237.36394  0.028543042  0.028961961            4 
  694000    1.1329686   -7.3900195    236.09701  0.028349785  0.028951677            6 
  695000    1.1002659   -7.3981406      237.288  0.028451798  0.028940955            1 
  696000    1.1550751   -7.4891631    236.54147  0.028321536   0.02893028            2 
  697000    1.1190027   -7.4310176    238.45387  0.028509549    0.0289197            3 
  698000    1.1307335    -7.355482    238.73288  0.028502016  0.028909638            1 
  699000    1.1311015   -7.4071489      239.183  0.028514902  0.028900272            1 
  700000    1.1501912   -7.4185243    238.71626  0.028418602  0.028890298            2 
  701000    1.1300093   -7.4494633    238.51886  0.028354595   0.02887995            1 
  702000    1.1446906   -7.3989032    239.27616  0.028404103  0.028869624            3 
  703000    1.1476141   -7.4388177    240.17542  0.028470297   0.02885932            2 
  704000    1.1452149   -7.3964766    239.97162  0.028405731  0.028849152            3 
  705000    1.1237117   -7.4119963    239.94945  0.028362819  0.028839358            2 
  706000      1.11511   -7.4158403    240.39865  0.028375667  0.028829598            1 
  707000    1.1396947   -7.4244258    241.07256  0.028414965  0.028819928            2 
  708000    1.1458425   -7.3832224    241.36443  0.028409184  0.028810306            2 
  709000    1.1657062   -7.4288632    242.07793  0.028452977   0.02880026            5 
  710000    1.1763716   -7.3993393    241.52753  0.028348302  0.028789935            2 
  711000    1.1172351   -7.4153285    242.23554  0.028391413  0.028779858            2 
  712000    1.1318898   -7.4439307    241.57472  0.028274194   0.02876956            1 
  713000    1.1265063   -7.4240998    241.48611  0.028224183  0.028758935            2 
  714000    1.1559352   -7.4608638    242.35307  0.028285839  0.028748618            2 
  715000    1.1218626   -7.3850812    242.80705   0.02829919  0.028738668            2 
  716000    1.1185556   -7.4260164    243.08419  0.028291922  0.028728709            2 
  717000    1.1348882    -7.438892    243.12409    0.0282571  0.028718643            2 
  718000    1.1322002   -7.4020368    244.05737  0.028326064  0.028708624            2 
  719000    1.1526714   -7.4289193    243.82874  0.028260169  0.028698632            3 
  720000     1.138677   -7.4545765    243.93431  0.028233137  0.028688672            1 
  721000    1.1158699   -7.4367009    244.23654  0.028228912  0.028678621            2 
  722000    1.1564885   -7.4305071    245.55118  0.028341549  0.028668527            1 
  723000    1.1569519   -7.4192023    245.69089  0.028318452  0.028659018            2 
  724000    1.1599541   -7.4041611    245.96123  0.028310455  0.028649531            1 
  725000    1.1311503   -7.4145808    246.52345  0.028336028  0.028640414            1 
  726000    1.1266308   -7.4308421    246.08189  0.028246315  0.028631356            2 
  727000    1.1267012   -7.4292671    247.19819  0.028335419  0.028622235            2 
  728000    1.1282153   -7.4091939     247.8546  0.028371635  0.028613473            3 
  729000    1.1529126   -7.4391914    247.96471  0.028345303  0.028604525            2 
  730000    1.1144027   -7.4532594    247.90237  0.028299357  0.028595422            1 
  731000    1.1472528   -7.4310259    248.30714  0.028306788  0.028586489            2 
  732000     1.119685   -7.4080399    249.73944  0.028431174  0.028577826            2 
  733000    1.1177895   -7.4101655    249.07957  0.028317368  0.028569275            2 
  734000    1.1292537   -7.4429773    249.32861  0.028307063  0.028560486            2 
  735000    1.1130382   -7.4281269    248.95182   0.02822583  0.028551563            2 
  736000    1.1213227   -7.4662719     249.4781  0.028247068   0.02854262            1 
  737000    1.1645491    -7.415529    250.37285  0.028309911  0.028533612            2 
  738000      1.13561   -7.4306836     249.6443  0.028189284  0.028524708            2 
  739000    1.1107317   -7.4231397    249.86228   0.02817572  0.028515581            2 
  740000    1.1578114   -7.4229949    250.60089  0.028220821  0.028506106            1 
  741000    1.1295457   -7.3925118    251.76292  0.028313418  0.028497226            3 
  742000    1.1278843   -7.4677012    250.00517  0.028077849  0.028488047            2 
  743000    1.1502343   -7.4496914    251.12125  0.028165237  0.028478571            4 
  744000    1.1431695   -7.4316347    251.39548  0.028158096    0.0284692            2 
  745000    1.1048891   -7.3844784    251.75424   0.02816043  0.028460023            2 
  746000    1.1211199   -7.3896196    252.32974  0.028186969   0.02845094            2 
  747000    1.1595488   -7.4027886    251.87917   0.02809897  0.028441532            2 
  748000    1.1243426   -7.3610823    252.51245  0.028131957  0.028432451            2 
  749000    1.1294511   -7.3806601    252.23783  0.028063845  0.028423189            1 
  750000    1.1402218   -7.4118427    253.31325  0.028145916  0.028414122            7 
  751000    1.1108254   -7.4112851    253.25928   0.02810245  0.028405071            6 
  752000    1.1221017   -7.4631785    252.46035  0.027976546  0.028395722            1 
  753000    1.1768521   -7.3828273    254.08381  0.028119058  0.028386462            4 
  754000    1.1242808   -7.4378807    253.35352  0.028001052   0.02837689            2 
  755000    1.1104349   -7.4155267    253.88087  0.028022171  0.028367213            1 
  756000    1.1216254   -7.4050026    253.95191  0.027992936  0.028357587            2 
  757000    1.1284753   -7.4794015     254.4628  0.028012197  0.028347969            3 
  758000    1.1136149   -7.4260756    254.76864  0.028008866  0.028338553            2 
  759000    1.1479172   -7.4515026    255.25984  0.028025893  0.028329402            2 
  760000    1.1362989   -7.4272096    256.66605  0.028143208  0.028320539            3 
  761000    1.1334652   -7.4306351    256.02628  0.028036168  0.028311433            3 
  762000    1.1480185   -7.4569276    255.62768  0.027955783  0.028302342            2 
  763000    1.1597988   -7.4209317    257.33617  0.028105742  0.028293624            1 
  764000    1.1430727   -7.4132917    256.35521  0.027961956  0.028285072            1 
  765000    1.1047016   -7.4242208    258.27481  0.028134511  0.028276961            1 
  766000    1.1202167   -7.4215577    258.88466  0.028164127  0.028269009            4 
  767000    1.1326395   -7.4656173     258.2042  0.028053476  0.028260861            1 
  768000    1.1262657   -7.3884894    258.70089  0.028070843  0.028252331            2 
  769000    1.0993358   -7.4236459    258.38456  0.028000061  0.028243832            2 
  770000    1.1439893   -7.4299868    258.43534  0.027969193  0.028235488            2 
  771000    1.1182562   -7.4254094    259.00053  0.027994004  0.028227072            2 
  772000      1.14331   -7.4212898    259.88789  0.028053529  0.028218305            1 
  773000    1.1165389   -7.4682464    258.77245  0.027896986  0.028209529            1 
  774000    1.1206835   -7.4476614    259.67954  0.027958607  0.028201125            2 
  775000    1.1221524   -7.4151196    260.17678  0.027975997  0.028192631            1 
  776000    1.1441229   -7.4528509    259.64599  0.027882945  0.028184082            2 
  777000    1.1014474   -7.4335294    260.88384  0.027979819   0.02817524            1 
  778000    1.1353616   -7.4599719    259.98619  0.027847707  0.028166359            1 
  779000    1.1450972   -7.4762158    259.84578  0.027796939  0.028157272            3 
  780000    1.1183681    -7.463387    260.97035  0.027881448  0.028148306            1 
  781000    1.1102409   -7.4304412    261.75496  0.027929467  0.028139524            3 
  782000    1.0975641   -7.4095138    262.29164  0.027950942  0.028130949            1 
  783000    1.1155666   -7.4791338    261.54546  0.027835831  0.028122567            1 
  784000    1.1506253   -7.4500685    261.75849  0.027822969  0.028113879            1 
  785000    1.1164951   -7.4421004     262.5503  0.027871582  0.028105235            3 
  786000    1.1502863    -7.432831    263.43087  0.027929482  0.028096881            1 
  787000    1.1249932   -7.4422954     262.9883   0.02784713  0.028088409            4 
  788000    1.1185653   -7.4697438    262.96398   0.02780922  0.028079493            4 
  789000    1.1219732   -7.4856684    263.54004  0.027834816  0.028070787            2 
  790000      1.14465   -7.4766991    263.70154  0.027816618  0.028062441            2 
  791000     1.107299   -7.4350666    264.97516   0.02791563  0.028053902            3 
  792000    1.1200316   -7.4325873    264.56882  0.027837628  0.028045559            2 
  793000    1.1160795   -7.4490726    265.89614  0.027942007  0.028037128            2 
  794000    1.1141895   -7.4368659    265.70398  0.027886648  0.028029178            2 
  795000     1.127773   -7.4706422    266.51583   0.02793667  0.028020958            2 
  796000    1.1051166   -7.4748708    265.25058  0.027769115  0.028012709            1 
  797000     1.117977   -7.4482133     266.5987   0.02787523  0.028004334            4 
  798000    1.1252219   -7.4907967    266.09451  0.027787647  0.027996405            2 
  799000    1.1317781   -7.4495982    267.10778   0.02785855   0.02798832            1 
  800000    1.1215091    -7.409173    268.15267   0.02793257  0.027980408            4 
  801000    1.1427766   -7.4153267    268.42348  0.027925871  0.027972478            1 
  802000    1.1062156   -7.4712461    268.94198  0.027944927  0.027964776            1 
  803000    1.1278623    -7.390637    269.67309  0.027985999  0.027957298            5 
  804000    1.1260531    -7.486163    267.61084  0.027737442  0.027949627            4 
  805000    1.1331292   -7.4481923    268.91491  0.027837982  0.027941989            1 
  806000    1.0979404   -7.4954186    269.01404  0.027813693  0.027934103            2 
  807000    1.1321949   -7.4381972    269.52052  0.027831529  0.027926624            5 
  808000    1.1505136   -7.4518247    269.90947  0.027837198  0.027919266            2 
  809000    1.1118236   -7.4415412    270.15652  0.027828236  0.027911784            8 
  810000    1.1095409   -7.4277387    270.58299  0.027837757  0.027904559            1 
  811000    1.1414347   -7.4281127      270.789  0.027824599  0.027897309            4 
  812000    1.1126838   -7.4228817     271.2141   0.02783396  0.027890081            4 
  813000    1.1322678   -7.4402824    271.15371  0.027793534  0.027882873            4 
  814000     1.124981   -7.4758397      271.844  0.027830058  0.027875791            4 
  815000    1.1234986   -7.4820497     271.6897  0.027780133  0.027868399            1 
  816000    1.1391822   -7.4688409    273.42017  0.027922811  0.027861296            1 
  817000    1.1463665   -7.4239706    273.85768   0.02793326  0.027854384            2 
  818000     1.136873   -7.4112215    273.69281  0.027882316  0.027847468            4 
  819000    1.1240126   -7.4270566    273.71297  0.027850322  0.027840414            1 
  820000     1.127732   -7.4847785    273.43048   0.02778765  0.027833074            3 
  821000    1.1162774   -7.4561519    273.87648  0.027799074  0.027825765            3 
  822000    1.1246771   -7.4425977     273.5911  0.027736324  0.027818205            2 
  823000     1.119229   -7.4348758    274.39508   0.02778403  0.027810853            1 
  824000    1.1440619    -7.453468     273.7247  0.027682514  0.027803388            1 
  825000    1.1402305   -7.4558352    274.16137  0.027693068  0.027795734            2 
  826000    1.1236455   -7.4568824    274.51599  0.027695318  0.027788081            1 
  827000    1.1284013    -7.474694    273.90502  0.027600264  0.027780165            2 
  828000    1.1170799   -7.4595686    274.59461  0.027636334  0.027772287            1 
  829000    1.1300052   -7.4285566     275.7863  0.027722789  0.027764511            1 
  830000    1.1072361   -7.4498453    276.39603  0.027750606   0.02775672            5 
  831000    1.1338542   -7.4211206    276.71825  0.027749524  0.027748982            1 
  832000    1.1326286   -7.4556927    275.89791  0.027634005  0.027741538            1 
  833000     1.095526   -7.4220717    276.46099  0.027657162  0.027734124            4 
  834000    1.1172711    -7.443839    276.16931  0.027594855  0.027726546            2 
  835000    1.1137642   -7.4467145     277.7789  0.027722445  0.027719104            2 
  836000     1.117287    -7.516284    277.00821  0.027612461  0.027711427            1 
  837000    1.1112966   -7.4742099    277.73725  0.027652056  0.027703513            2 
  838000    1.1223886   -7.4556285    277.75303  0.027620627  0.027695841            2 
  839000    1.1261047   -7.4613239    277.83834   0.02759618  0.027688203            1 
  840000    1.1295462   -7.4540255    278.11471  0.027590745  0.027680434            1 
  841000    1.0992383   -7.4599448    278.04659  0.027551188  0.027672606            1 
  842000     1.103532   -7.4238356    279.44962  0.027657326  0.027664974            1 
  843000    1.1099708   -7.4733805    279.10132  0.027590087  0.027657877            1 
  844000    1.1165437   -7.4380074    280.07942  0.027653971  0.027650752            4 
  845000    1.1095478   -7.4988438    279.06689   0.02752139  0.027643676            4 
  846000    1.1206933   -7.4593955    280.60874  0.027640735  0.027636656            4 
  847000     1.103547   -7.4610175    280.07079  0.027555174  0.027629566            4 
  848000    1.1289703   -7.5109691    280.73536  0.027587987  0.027622425            1 
  849000    1.1227634   -7.4381138    281.81559  0.027661522  0.027615504            2 
  850000    1.1280004   -7.4520506    281.85465  0.027632808  0.027608626            3 
  851000    1.1356965   -7.4542831     282.8596  0.027698746  0.027601892            1 
  852000     1.111446   -7.5044516    281.55187  0.027538328  0.027595131            3 
  853000    1.1153857   -7.4838686    281.39587  0.027490804  0.027587614            3 
  854000    1.1307592   -7.4418733    283.27529  0.027642007  0.027580295       -1e+20 
  855000     1.109548   -7.4263008    282.59935  0.027543796  0.027573439            1 
  856000    1.1133887   -7.4142816    284.66454   0.02771267  0.027566306            4 
  857000    1.1242885   -7.4975694    282.40371  0.027460493  0.027559253            3 
  858000    1.1448259   -7.4906147    283.49758   0.02753473  0.027552134            2 
  859000    1.1120878   -7.4925924    282.95251  0.027449797  0.027544889            1 
  860000    1.1327645    -7.489114    282.25379  0.027350173  0.027537349            1 
  861000    1.0994266   -7.4382617    284.27183  0.027513727  0.027529721            2 
  862000     1.087699   -7.4896396    284.03615  0.027459025  0.027521942            1 
  863000    1.1167386   -7.5123197    283.60328  0.027385407  0.027514214            2 
  864000    1.1141536   -7.4740478    284.25752  0.027416813  0.027506607            2 
  865000    1.1220962   -7.4426252    285.86581  0.027540058  0.027499303            2 
  866000    1.1013103   -7.4757892    285.41128  0.027464519  0.027491793            3 
  867000    1.1322258   -7.4443288     285.5546  0.027446617   0.02748441            2 
  868000    1.1139717   -7.4234742    286.59234  0.027514625  0.027476825            2 
  869000    1.1026634   -7.4395866    285.69565  0.027396975  0.027469428            4 
  870000     1.118567   -7.4964176    285.93947  0.027388838   0.02746189            1 
  871000    1.1177718   -7.4006748    287.62644  0.027518794  0.027454564            2 
  872000    1.0948606   -7.5170394    286.32998  0.027363339  0.027446969            4 
  873000    1.0886461   -7.4855944    285.66752  0.027268759  0.027439123            1 
  874000    1.1160735   -7.4592069    286.22075  0.027290308  0.027431347            1 
  875000    1.1179908   -7.4388632    286.33366  0.027269873  0.027423504            2 
  876000    1.1238739   -7.4866921    286.43118  0.027248019  0.027415365            1 
  877000    1.1122054    -7.488942    286.55945  0.027229138  0.027407423            2 
  878000    1.1203086   -7.4631696    287.77494  0.027313491  0.027399417            1 
  879000    1.1422418   -7.4776907    288.28155  0.027330447  0.027391458            3 
  880000    1.1170388   -7.5008342    287.97575  0.027270431  0.027383709            2 
  881000    1.0997814   -7.5358862    288.15104  0.027256058  0.027375984            2 
  882000    1.1027591   -7.4895074    289.55825  0.027358111  0.027368407            1 
  883000    1.0876618    -7.454977    289.25559  0.027298564  0.027361053            2 
  884000    1.0968244   -7.4561751    289.26524  0.027268593  0.027353686            1 
  885000    1.0761491   -7.4982105    288.71023  0.027185521   0.02734609            2 
  886000    1.1405514   -7.5384905    289.37155  0.027217038  0.027338506            7 
  887000    1.0751624   -7.4937449    291.05646  0.027344651  0.027331339            2 
  888000    1.1058531   -7.4766204    291.72506  0.027376601  0.027324126            4 
  889000     1.100607   -7.5188061    291.25551  0.027301791  0.027317095            1 
  890000    1.1082689   -7.5348985    290.43058  0.027193874  0.027309754            2 
  891000    1.1241947   -7.4871969    292.03809  0.027313701  0.027302352            3 
  892000    1.0890999   -7.4913094    291.77124  0.027258151  0.027295016            2 
  893000    1.1467937   -7.4485868    292.30889  0.027277798  0.027287865            3 
  894000    1.1268246   -7.4981185    292.34119  0.027250297  0.027280333            1 
  895000    1.1168177   -7.4758365     292.4651  0.027231387  0.027272969            2 
  896000    1.1244637   -7.4805861    292.30137  0.027185767  0.027265549            2 
  897000    1.1096427   -7.5117901    293.09065  0.027228786  0.027258093            4 
  898000    1.1348571   -7.4839555    293.09987   0.02719932   0.02725074            2 
  899000    1.1280492   -7.4996309    293.79187   0.02723321  0.027243443            2 
  900000    1.1228922   -7.4853575    293.25984  0.027153689  0.027236058            2 
  901000    1.0833944   -7.4795693    293.87972  0.027180884   0.02722851            1 
  902000    1.1179104   -7.4628889    294.44399  0.027202882  0.027221129            2 
  903000    1.1086663   -7.4825402    294.22929  0.027152943   0.02721399            2 
  904000    1.0845619   -7.4957337    294.82672   0.02717798  0.027206515            2 
  905000    1.1345889   -7.4251574    296.20233  0.027274616  0.027199283            3 
  906000    1.1139835   -7.4587377    296.99089  0.027317043  0.027192426            4 
  907000    1.0915172   -7.5158039    295.75422  0.027173302  0.027185707            2 
  908000    1.1143377   -7.4701899    296.44533  0.027206803  0.027178508            1 
  909000    1.1250321   -7.4630688    296.44903  0.027177212  0.027171351            2 
  910000    1.1159813   -7.4858642    297.08581   0.02720566  0.027164302            1 
  911000    1.1088117   -7.5273572    296.51602  0.027123675  0.027157351            1 
  912000    1.1117196   -7.4504064    297.48986  0.027182919  0.027150173            2 
  913000    1.0892085   -7.4953571    296.66995  0.027078309  0.027142981            1 
  914000    1.0959708   -7.4902178     298.2332   0.02719121  0.027135787            2 
  915000    1.0946547   -7.5095513    299.00203  0.027231514  0.027129146            2 
  916000    1.0865943   -7.4992993    298.61491  0.027166568  0.027122637            1 
  917000    1.1061394   -7.4737859    299.87772  0.027251701  0.027116198            3 
  918000    1.1178032   -7.5392177    300.11772  0.027243801  0.027110067            3 
  919000    1.1293825   -7.5444933    299.56194   0.02716376  0.027103756            3 
  920000    1.1322444   -7.4929115    300.08681  0.027181776  0.027097312            1 
  921000    1.1179151   -7.4980509    301.00719   0.02723554  0.027090973            7 
  922000    1.0876958   -7.4908641    301.41654  0.027242999  0.027084624            1 
  923000    1.1066442   -7.4576489    301.73059  0.027241837   0.02707829            2 
  924000    1.1147852   -7.5018486    301.12436   0.02715768  0.027071919            2 
  925000    1.0846262   -7.5236302    302.15114  0.027220823  0.027065352            2 
  926000    1.1225474    -7.461315    302.41268  0.027214964  0.027058888            2 
  927000    1.0895935   -7.4827785    302.12568  0.027159806  0.027052758            1 
  928000    1.1127561    -7.503899    302.60297  0.027173399   0.02704658            2 
  929000    1.1022737   -7.5376649    302.85181  0.027166471  0.027040233            2 
  930000    1.0989787   -7.5068972    302.89361  0.027141005   0.02703399            2 
  931000    1.1247362   -7.4763055    302.91157  0.027113459  0.027027587            1 
  932000    1.1172596   -7.5150587    303.12769  0.027103692  0.027021046            3 
  933000    1.1171952   -7.5104391    303.25887  0.027086358  0.027014453            4 
  934000    1.0899755   -7.5100528    303.86595  0.027111523  0.027007998            2 
  935000    1.1079689   -7.4721172    304.06993  0.027100707  0.027001672            2 
  936000    1.0978611   -7.4809483    304.22767  0.027085797  0.026995054            3 
  937000    1.0876319   -7.4934075     303.8889   0.02702676  0.026988551            1 
  938000    1.1194891   -7.5290644    304.08615  0.027015471  0.026982094            1 
  939000    1.1035093   -7.4746865     305.2298  0.027088196  0.026975467            2 
  940000    1.0875875   -7.5179942    305.00649  0.027039583   0.02696881            2 
  941000    1.1163323   -7.4997199    305.91339  0.027091161  0.026962225            2 
  942000    1.1071962   -7.5103461    306.20932  0.027088581  0.026955739            2 
  943000    1.1044881   -7.5068778    306.50447  0.027085938  0.026949532            2 
  944000    1.1204967   -7.5068463    306.47093  0.027054284  0.026943593            1 
  945000    1.1305476   -7.5170184    305.99944  0.026984078  0.026937291            1 
  946000    1.0832452   -7.5304024    306.16197  0.026969871  0.026930869            1 
  947000     1.109004   -7.5136419    306.86202  0.027002993   0.02692438            2 
  948000    1.1379094   -7.5029893    307.58463   0.02703803  0.026918199            2 
  949000    1.1062965   -7.5067841    307.50334  0.027002401  0.026911805            3 
  950000    1.1146307   -7.5435713    307.57502  0.026980265  0.026905586            3 
  951000    1.1115047   -7.5345238      308.836   0.02706239  0.026899309            2 
  952000    1.0971749   -7.5275357    308.75713   0.02702706   0.02689305            2 
  953000    1.0813292   -7.5013707    309.40667  0.027055497  0.026887037            2 
  954000    1.1100164   -7.5091558    309.97924  0.027077153  0.026880993            1 
  955000     1.108023      -7.4931    310.45462  0.027090281  0.026874952            3 
  956000    1.0902848    -7.543531    310.48882  0.027064925  0.026869001            1 
  957000    1.0899835   -7.5124718    311.14363  0.027093664  0.026863082            2 
  958000    1.1148746   -7.5305689     310.7642  0.027032377  0.026857306            3 
  959000    1.0964287   -7.4930546    310.87309  0.027013651  0.026851344            1 
  960000    1.0883373   -7.4935356     311.7935  0.027065408  0.026845447            2 
  961000    1.1030572   -7.5198863    311.41122  0.027004095   0.02683942            2 
  962000    1.0969931    -7.569235      310.251   0.02687552  0.026833216            5 
  963000    1.0964935   -7.5388005    311.47052  0.026953143  0.026827027            4 
  964000    1.0958012   -7.4632267    313.06394  0.027062927  0.026821108            3 
  965000     1.109442   -7.5174273    312.73561  0.027006529   0.02681545            4 
  966000    1.0615607   -7.5009422    313.37285  0.027033545  0.026809793            2 
  967000    1.1042876   -7.5039246    313.87545  0.027048901  0.026804201            4 
  968000    1.0804875   -7.5117232    313.62997  0.026999826  0.026798849            1 
  969000    1.1197329   -7.5364755    314.36643  0.027035296  0.026793366            2 
  970000    1.0946285   -7.4833875    315.26509   0.02708463   0.02678779            1 
  971000    1.0956723   -7.4717351    315.21807  0.027052701  0.026782357            2 
  972000    1.1063869   -7.5163711    315.63111   0.02706028  0.026777006            2 
  973000    1.1059208   -7.5379881    315.62234  0.027031718  0.026771388            1 
  974000    1.0910733   -7.5273176    315.65338   0.02700662  0.026765885            3 
  975000    1.1037349   -7.5359818    316.27097  0.027031707  0.026760588            3 
  976000    1.0587493   -7.5572824    316.36158  0.027011747  0.026755192            2 
  977000    1.1166455   -7.5209395    315.56114  0.026915825  0.026749677            2 
  978000    1.1109243    -7.516376    317.51023  0.027054382  0.026744321            3 
  979000    1.0851737   -7.5175212    316.43937  0.026935595  0.026738756            3 
  980000    1.1175278   -7.5061912     318.1482  0.027053419  0.026733302            2 
  981000    1.1129718   -7.5107638    318.16174  0.027026991  0.026728215            2 
  982000    1.1025581   -7.4900115    318.41991  0.027021377  0.026723067            2 
  983000    1.0847364   -7.5359023    317.74727  0.026936866  0.026717947            2 
  984000    1.0854533   -7.4989892    319.75563  0.027079575  0.026712814            1 
  985000    1.0718654   -7.5151173    319.42874  0.027024428  0.026707818            1 
  986000    1.0954963   -7.5522698    319.46219  0.026999847   0.02670252            1 
  987000    1.0964356   -7.5271855    319.99312  0.027017318  0.026697463            5 
  988000    1.1044031   -7.5601392    320.19188  0.027006738  0.026692385            1 
  989000    1.0799857   -7.5220658     320.4582  0.027001871  0.026687442            2 
  990000    1.1036857     -7.49243    320.19569  0.026952499  0.026682433            2 
  991000    1.0931729   -7.5061889    320.91166  0.026985508  0.026677565            2 
  992000    1.1250752   -7.4989368    321.87565  0.027039285  0.026672801            1 
  993000    1.0853202    -7.478879    322.23791  0.027042456  0.026668128            4 
  994000    1.1079718   -7.5449352    322.34364  0.027024115  0.026663348            3 
  995000    1.0932001   -7.5311473    322.54802  0.027014072  0.026658361            1 
  996000    1.1077299   -7.4752965    322.27672  0.026964251  0.026653521            2 
  997000     1.076238   -7.4968993    322.21991  0.026932456  0.026648474            4 
  998000     1.070503   -7.5364253    323.38375  0.027002651  0.026643292            1 
  999000    1.0845622   -7.5179568    323.35115  0.026972902  0.026638142            1 
 1000000    1.0771547   -7.5327198    323.05816  0.026921513  0.026633103            2 
 1001000    1.1079941   -7.5152403    323.50296  0.026931649  0.026627908            2 
 1002000    1.0856733   -7.5306814    323.56704  0.026910099  0.026622642            3 
 1003000     1.100616   -7.4911693    324.56776  0.026966414  0.026617598            3 
 1004000    1.0928202   -7.5543476    323.18107  0.026824458  0.026612233            2 
 1005000    1.0895853   -7.5224994    323.85294  0.026853477  0.026606881            3 
 1006000     1.099005   -7.5184916    325.00638  0.026922331  0.026601531            2 
 1007000    1.1020006   -7.5174987    324.86486  0.026883884   0.02659625            4 
 1008000    1.1225161   -7.5352435    324.75995  0.026848541  0.026591087            1 
 1009000    1.0952083   -7.5383413    325.03271  0.026844459  0.026586044            2 
 1010000    1.0697372   -7.5603663    326.66563   0.02695261  0.026580901            1 
 1011000    1.1052972   -7.5029411    326.46825  0.026909681  0.026575856            2 
 1012000    1.0813883    -7.526985    326.67785   0.02690035  0.026570962            3 
 1013000    1.0674544   -7.5553838    326.07429  0.026824144  0.026565716            4 
 1014000    1.0872267   -7.5262178     327.8476  0.026943426  0.026560682            3 
 1015000    1.0918658   -7.5061484    327.86786  0.026918543  0.026555727            2 
 1016000    1.0904589    -7.518702    328.30905  0.026928236  0.026550676            4 
 1017000    1.1069779   -7.5015723    327.61942  0.026845249  0.026545872            1 
 1018000    1.1051618   -7.5560711    327.95877  0.026846658  0.026540708            1 
 1019000    1.1021164   -7.5262912    328.53435  0.026867382  0.026535667            1 
 1020000    1.0847436   -7.5773392    327.64135  0.026768084  0.026530405            2 
 1021000    1.0564723    -7.558799    328.19165  0.026786782  0.026525234            4 
 1022000    1.0838486   -7.5109807    330.04615  0.026911786  0.026520452            3 
 1023000    1.0889817    -7.537619    329.71072  0.026858156  0.026515503            3 
 1024000    1.0881413   -7.5195829    329.50545  0.026815222  0.026510576            3 
 1025000    1.1028874   -7.5758353    329.68034   0.02680328  0.026505567            2 
 1026000    1.0894498   -7.5182105    330.56723   0.02684919  0.026500787            1 
 1027000     1.089308   -7.5308925    331.00734  0.026858758  0.026496062            2 
 1028000    1.0957495   -7.4870287     332.1525  0.026925462  0.026491146            4 
 1029000     1.093019   -7.5658058    330.90133   0.02679797  0.026486243            2 
 1030000     1.070761   -7.5351516    331.03747  0.026782967  0.026481193            2 
 1031000    1.0824247   -7.4807702    331.99264  0.026834193  0.026476292            2 
 1032000     1.111249   -7.5584598     331.8428  0.026796092  0.026471502            3 
 1033000    1.1158413    -7.531408    331.80624  0.026767202  0.026466639            4 
 1034000    1.0849861   -7.5406964    331.69162  0.026732078  0.026461699            2 
 1035000    1.1084625   -7.5395657    332.74188  0.026790811  0.026456884            4 
 1036000    1.0847013   -7.5272524    333.09018  0.026792968  0.026452131            1 
 1037000     1.090242   -7.5701526    332.73708  0.026738756  0.026447463            3 
 1038000    1.0793294   -7.5434829    334.42575  0.026848567  0.026442713            2 
 1039000    1.0894589   -7.5428835    334.37111  0.026818344  0.026437968            2 
 1040000    1.0831096    -7.545488    333.93261  0.026757421  0.026432988            2 
 1041000    1.0976183   -7.5033269    335.71655  0.026874524  0.026428206            3 
 1042000    1.0998799   -7.5349984    334.65882  0.026764141  0.026423533            3 
 1043000    1.1012992    -7.538836     334.4348  0.026720581   0.02641864            2 
 1044000    1.1138309   -7.5583495    334.68904  0.026715281   0.02641371            3 
 1045000    1.0601403   -7.5230765    335.84361  0.026781787  0.026408827            1 
 1046000    1.1113933   -7.5088589    335.54482  0.026732379  0.026403941            1 
 1047000    1.1004251   -7.5629181    334.68362  0.026638301  0.026399029            2 
 1048000    1.0928975   -7.5039267    335.75943  0.026698428  0.026393938            2 
 1049000    1.1216077   -7.4892042    336.65703  0.026744283  0.026388981            2 
 1050000    1.0958074   -7.5717569    336.40521  0.026698826  0.026383936            3 
 1051000    1.0855744   -7.5555853    336.07287  0.026647071  0.026378835            2 
 1052000    1.0797498   -7.5996616    335.41466  0.026569602  0.026373729            1 
 1053000    1.0881053   -7.5727721    336.01176  0.026591624  0.026368472            4 
 1054000    1.0922672   -7.5395294    337.34339  0.026671679  0.026363254            2 
 1055000    1.0940149   -7.5529586    337.66341  0.026671675  0.026358198            3 
 1056000       1.0859   -7.5587806    337.14831  0.026605769   0.02635298            5 
 1057000     1.071108   -7.5644333    335.99532  0.026489697  0.026347704            1 
 1058000    1.0675411   -7.5565603    337.50699  0.026583726  0.026342367            3 
 1059000    1.1064262   -7.5370775    338.13851  0.026608318  0.026337112            2 
 1060000    1.0857364   -7.5252335    337.69668  0.026548481  0.026331585            2 
 1061000    1.0826625   -7.5650314    337.16789  0.026481926  0.026326065            4 
 1062000    1.0711894   -7.5856742    338.32327  0.026547652  0.026320482            1 
 1063000    1.0770907   -7.5296828    338.09599  0.026504859  0.026314851            3 
 1064000    1.0839907   -7.5334312    338.63779  0.026522383  0.026309423            2 
 1065000    1.0623495   -7.5329331    339.56985  0.026570411   0.02630371            1 
 1066000     1.082449   -7.5224406    339.84373  0.026566896  0.026298169            4 
 1067000    1.0849312   -7.5586441     337.9731    0.0263959  0.026292676            3 
 1068000    1.0809706    -7.596581    338.63646  0.026422945  0.026286823            1 
 1069000     1.071379     -7.57078    339.32088  0.026451581  0.026280765            3 
 1070000    1.0553396   -7.5261462     338.9923  0.026401269  0.026274755            2 
 1071000    1.0678068   -7.5473605    340.36732  0.026483607  0.026268835            2 
 1072000     1.066498   -7.5941901     339.9153  0.026423764  0.026262819            1 
 1073000    1.0802101   -7.5832419    339.80913  0.026390892  0.026256731            2 
 1074000    1.1029874    -7.514979    341.05697  0.026463142  0.026250722            3 
 1075000    1.0913675   -7.5588903    340.27616  0.026377997  0.026244873            1 
 1076000    1.0716704   -7.5203708    341.33241  0.026435286  0.026239014            2 
 1077000    1.0844902   -7.5671002    339.92328  0.026301708  0.026233077            4 
 1078000    1.0485505   -7.5658871    340.35009  0.026310304  0.026227191            2 
 1079000    1.0779861   -7.5398255    341.62016   0.02638401  0.026221337            2 
 1080000    1.0627758   -7.5023449    341.97444  0.026386917  0.026215389            1 
 1081000    1.0696533    -7.599216    340.77428  0.026269988  0.026209578            2 
 1082000    1.0656855   -7.5272328    341.57066  0.026307044  0.026203412            1 
 1083000    1.0887884   -7.5578331    341.66952   0.02629036  0.026197266            2 
 1084000    1.0706214   -7.5669583    342.51114  0.026330807  0.026191023            4 
 1085000    1.0602019    -7.563517    340.96754  0.026187983  0.026184926            3 
 1086000    1.0861872   -7.6373197    340.67985  0.026141794  0.026178405            3 
 1087000    1.0741628   -7.5637105    342.34569  0.026245453  0.026171842            3 
 1088000    1.0761409   -7.5867949    341.80619  0.026180009  0.026165404            2 
 1089000    1.0739017   -7.5408092    342.89926  0.026239613  0.026159028            2 
 1090000    1.0621734    -7.530347    343.46048  0.026258446  0.026152668            2 
 1091000    1.0913392    -7.564801    343.73371  0.026255248  0.026146342            2 
 1092000    1.0853687   -7.4971008    344.05012  0.026255351  0.026140072            3 
 1093000    1.0694579   -7.5666756    343.36049   0.02617875  0.026133896            2 
 1094000    1.0662648   -7.5664268    344.14607  0.026214661  0.026127658            2 
 1095000    1.0902979   -7.5523008    343.48447  0.026140371  0.026121362            4 
 1096000    1.0758161   -7.5598473    343.75362  0.026136984  0.026114799            1 
 1097000    1.0831441   -7.5932705    343.23468  0.026073737  0.026108086            1 
 1098000    1.0728756   -7.6035651    342.93325  0.026027113  0.026101338            6 
 1099000    1.0580271    -7.550294    345.01236  0.026161083  0.026094862            1 
 1100000    1.0685813    -7.557328    344.59555  0.026105724  0.026088337            2 
 1101000    1.0931121   -7.5934365    344.75662  0.026094204  0.026081863            2 
 1102000    1.0708479   -7.5637817    345.13247  0.026098946  0.026075174            3 
 1103000    1.0578328   -7.5475869    345.79518  0.026125353  0.026068474            5 
 1104000    1.0638271   -7.5383319    345.71239   0.02609544  0.026062011            1 
 1105000    1.0874538   -7.5370128    346.41433  0.026124761  0.026055429            1 
 1106000    1.0788655   -7.5747595    345.78973  0.026054078  0.026048859            2 
 1107000    1.0972815   -7.5663235    345.56992  0.026013995  0.026042213            2 
 1108000    1.0714557   -7.5336183    345.80854  0.026008464  0.026035459            3 
 1109000    1.0749205   -7.5749217    346.32927  0.026024141  0.026028829            1 
 1110000     1.095013    -7.564952    346.74956  0.026032249  0.026022312            4 
 1111000    1.0529768   -7.5696366    347.43012  0.026059865  0.026015843            2 
 1112000    1.0584904   -7.5651746    346.49555  0.025966393  0.026009172            1 
 1113000    1.0529147   -7.5721119    347.78035  0.026039259  0.026002691            2 
 1114000    1.0852379   -7.5917449    347.01658  0.025958751  0.025995905            3 
 1115000    1.0669986   -7.5636929    347.69953  0.025986512  0.025989094            3 
 1116000    1.0927334   -7.5476856    348.31524  0.026009202  0.025982259            1 
 1117000    1.0609895   -7.5512616    349.21139  0.026052774  0.025975567            1 
 1118000     1.065863   -7.5507463    348.50632  0.025976917  0.025969056            3 
 1119000     1.065379   -7.5779911    348.83359  0.025978075  0.025962384            3 
 1120000    1.0666805   -7.5372938    349.72857  0.026021471  0.025955622            2 
 1121000    1.0820153   -7.5791716    348.22352  0.025886375  0.025948802            3 
 1122000    1.0632408   -7.5412471    349.59364  0.025965065  0.025942065            3 
 1123000    1.0968329   -7.5509464    349.20705  0.025913257  0.025935176            2 
 1124000    1.0720679   -7.5461882    349.53318  0.025914382  0.025928315            1 
 1125000    1.0705992   -7.6017765    348.43533  0.025810025  0.025921166            2 
 1126000    1.0654689   -7.5937803    349.25204  0.025847546  0.025913813            3 
 1127000     1.079684   -7.5681943    349.69839  0.025857615  0.025906503            1 
 1128000    1.0519514   -7.5816193    349.20539   0.02579827  0.025899321            3 
 1129000    1.0564145   -7.5551268    349.68324  0.025810691  0.025892305            3 
 1130000    1.0526189   -7.5724796    349.86174  0.025801014  0.025885187            1 
 1131000    1.0753843   -7.5672837    349.11644  0.025723286  0.025878047            1 
 1132000    1.0766761   -7.5515165    350.62713  0.025811774  0.025870795            2 
 1133000    1.0604792   -7.5558362    350.90272  0.025809262  0.025863535            3 
 1134000    1.0873296   -7.5908253    350.26569  0.025739689   0.02585611            3 
 1135000    1.0571033   -7.5737233    350.38502  0.025725773  0.025848732            1 
 1136000     1.063189    -7.559836    351.05831  0.025752517  0.025841222            3 
 1137000     1.050386   -7.5490711    351.26263  0.025744842  0.025833744            2 
 1138000    1.0765706    -7.622653    349.70949  0.025608486  0.025826029            3 
 1139000    1.0734389   -7.6329054    350.77133  0.025663691  0.025818495            2 
 1140000    1.0761258   -7.5512962    351.47507  0.025692622  0.025810982            1 
 1141000    1.0782073   -7.5721843    351.12169  0.025644295  0.025803544            3 
 1142000    1.0816875      -7.5681    351.25713  0.025631723    0.0257959            2 
 1143000    1.0641083   -7.6150776    351.25334  0.025609021  0.025788349            2 
 1144000    1.0529566   -7.5643588     351.8063  0.025626916   0.02578053            1 
 1145000    1.0645291   -7.5851595    352.24837  0.025636708  0.025772803            3 
 1146000    1.0828473   -7.5532209    351.65784  0.025571396  0.025765033            3 
 1147000    1.0927065   -7.5880185    352.38592  0.025601999  0.025757396            4 
 1148000    1.0858724   -7.6213875    351.45355  0.025512017  0.025749541            2 
 1149000    1.0607798   -7.5820321    351.78843  0.025514101  0.025741845            2 
 1150000    1.0544072   -7.6181412    353.34212  0.025604501  0.025733955            4 
 1151000    1.0853453   -7.6124141    352.70412  0.025536064   0.02572614            1 
 1152000     1.050075   -7.6045151    353.16565  0.025547284   0.02571834            2 
 1153000    1.0541402   -7.5885743    352.89185  0.025505338  0.025710517            2 
 1154000     1.067018   -7.6140193    353.31796  0.025514007  0.025702682            3 
 1155000    1.0873891   -7.6037835    352.18031  0.025409835   0.02569495            2 
 1156000    1.0583725   -7.5698762    354.86502  0.025581388  0.025687195            2 
 1157000    1.0469632      -7.6171    353.43207  0.025456069  0.025679409            1 
 1158000    1.0568577   -7.5682576    355.87542  0.025609918  0.025671778            7 
 1159000    1.0498412   -7.6093524     353.7313  0.025433657  0.025664142            2 
 1160000    1.0608433   -7.5936076    354.39967  0.025459746  0.025656388            7 
 1161000    1.0908231   -7.6049963    354.39562  0.025437526  0.025648656            5 
 1162000    1.0641593   -7.5778037    355.37871  0.025486138  0.025640852            4 
 1163000    1.0483628   -7.5801826    354.97855  0.025435551  0.025633402            1 
 1164000       1.0533   -7.6261952    355.65198  0.025461911  0.025625834            6 
 1165000    1.0707988   -7.6196117    354.80503  0.025379473  0.025618021            1 
 1166000    1.0507515   -7.5850093    355.44284   0.02540329  0.025610507            2 
 1167000    1.0256165   -7.6086976    355.68027  0.025398477  0.025602921            1 
 1168000    1.0467435   -7.5988205    355.85306  0.025389059  0.025595161            1 
 1169000    1.0623597   -7.6006021    356.16254  0.025389403  0.025587343            3 
 1170000    1.0620532   -7.5753872    357.19208  0.025441032  0.025579588            2 
 1171000    1.0586792   -7.6160683     356.5716  0.025375149  0.025571798            1 
 1172000    1.0467872   -7.5898436    358.04459  0.025458233  0.025564127            4 
 1173000    1.0829891   -7.5860813    357.41031  0.025391469  0.025556452            2 
 1174000    1.0536194   -7.6026778    357.87028   0.02540249   0.02554872            1 
 1175000    1.0924232   -7.6200214     357.5473  0.025357964  0.025540858            1 
 1176000    1.0756354    -7.635269    357.05876  0.025301783  0.025532757            1 
 1177000    1.0620119   -7.5478034    360.14421  0.025498741   0.02552512            1 
 1178000    1.0607734   -7.5781485    358.34762  0.025350002  0.025517473            4 
 1179000    1.0646243   -7.5523554    359.44121  0.025405797  0.025509956            4 
 1180000    1.0767419   -7.5906206    359.03452  0.025355545  0.025502525            4 
 1181000    1.0618486    -7.620434     359.4561  0.025363823  0.025495171            4 
 1182000    1.0667667   -7.5999841    359.89605  0.025373382  0.025487707            3 
 1183000    1.0478694   -7.5944233    359.39389   0.02531656  0.025480414            3 
 1184000    1.0778326   -7.5946728    360.52285  0.025374637  0.025473107            3 
 1185000    1.0415884   -7.6002251    361.13251  0.025396098  0.025465729            5 
 1186000    1.0689527   -7.5797077    361.43881  0.025396206  0.025458414            2 
 1187000    1.0723908   -7.6351875     361.4927  0.025378595  0.025451149            4 
 1188000    1.0658672   -7.6182069     361.0409   0.02532554  0.025443695            1 
 1189000     1.072855   -7.5604955    362.12997   0.02538057  0.025436404            2 
 1190000    1.0362618   -7.6028435    362.10315  0.025357363   0.02542915            3 
 1191000    1.0579721   -7.6157069    362.36865   0.02535465   0.02542181            1 
 1192000    1.0674501   -7.5726631    362.84315  0.025366551  0.025414642            2 
 1193000    1.0825053   -7.5799999    362.70202   0.02533543  0.025407348            1 
 1194000     1.063867   -7.5576257    364.46749   0.02543743  0.025400258            2 
 1195000    1.0415161   -7.6003464    363.46907  0.025346518  0.025393173            3 
 1196000    1.0736989   -7.6389978    362.78985  0.025277999    0.0253859            4 
 1197000      1.06399    -7.607785     362.7605  0.025254839  0.025378579            2 
 1198000    1.0733343   -7.6562499       362.28  0.025200334  0.025371171            2 
 1199000    1.0941293   -7.6415794    362.72439  0.025210202   0.02536372            3 
 1200000    1.0464562   -7.5935754    364.26587  0.025296241  0.025356322            3 
 1201000    1.0647691   -7.6173891     363.6183  0.025230246  0.025349156            1 
 1202000    1.0581216   -7.5968822    364.17562  0.025247894  0.025342066            1 
 1203000    1.0723862   -7.6292635    364.14826  0.025225011  0.025334863            1 
 1204000    1.0555149   -7.6090015    365.08847  0.025269136  0.025327668            2 
 1205000    1.0670309   -7.6511268    364.54581  0.025210637  0.025320413            3 
 1206000    1.0601961   -7.5898613    364.39495  0.025179308  0.025313222            5 
 1207000    1.0687959   -7.6108335    364.72694  0.025181369  0.025306061            1 
 1208000    1.0907186   -7.6252852    367.44739  0.025348192  0.025299056            3 
 1209000    1.0463392   -7.6503768    365.84714  0.025216924  0.025291846            3 
 1210000    1.0705072   -7.6280692    366.57736  0.025246375  0.025284739            1 
 1211000    1.0358787   -7.5613469    367.71738  0.025303976  0.025277895            2 
 1212000    1.0658892   -7.5893735    366.65883  0.025210315  0.025270979            1 
 1213000    1.0374052   -7.5872312    367.49144  0.025246733  0.025264084            4 
 1214000    1.0582177   -7.6011008    368.04668   0.02526405  0.025257194            2 
 1215000    1.0480333   -7.6034935    367.84738  0.025229587  0.025250295            5 
 1216000    1.0550509   -7.5769714    368.19099  0.025232387  0.025243416            2 
 1217000     1.092337    -7.612311    368.52214  0.025234329  0.025236713            2 
 1218000    1.0518405   -7.5873091    368.63572  0.025221382  0.025229833            1 
 1219000    1.0530656   -7.6151841    369.02828  0.025227528  0.025222772            2 
 1220000    1.0603758   -7.6355717    369.02385  0.025206547  0.025215852            1 
 1221000    1.0363765   -7.6428734    369.38574  0.025210602    0.0252089            2 
 1222000    1.0413739   -7.6044304    369.81065  0.025218948  0.025202065            4 
 1223000    1.0635879   -7.6083996    371.94688  0.025343887  0.025195346           13 
 1224000    1.0555996   -7.5927904    370.87412  0.025250144  0.025188867            1 
 1225000     1.035496   -7.6017017    371.11937  0.025246216  0.025182131            2 
 1226000    1.0794414   -7.5977404    371.46242  0.025248941  0.025175582            4 
 1227000    1.0755531   -7.6242538    369.51754  0.025096274  0.025168843            2 
 1228000    1.0529165   -7.6252053    371.06876  0.025181105  0.025162164            1 
 1229000       1.0357   -7.5676674    370.86656  0.025146905  0.025155537            2 
 1230000    1.0559505   -7.6299683    370.82336  0.025123534  0.025148932            2 
 1231000    1.0556239   -7.5950807    373.09206  0.025256706  0.025142377            2 
 1232000    1.0476448   -7.5820234    371.81544  0.025149854  0.025135763            1 
 1233000    1.0527054   -7.6178744     372.3673  0.025166755  0.025129105            2 
 1234000    1.0548345   -7.6048609    372.45744  0.025152447  0.025122287            5 
 1235000    1.0432795   -7.6513415    372.21108  0.025115458  0.025115464            2 
 1236000    1.0839741   -7.6103756    372.36052  0.025105213  0.025108564            2 
 1237000    1.0443441   -7.6094916     372.3274  0.025082687  0.025101709            2 
 1238000    1.0374471   -7.6344296    372.65564  0.025084521  0.025094871            2 
 1239000    1.0610388   -7.6035004    372.20512  0.025033974   0.02508809            2 
 1240000    1.0688318   -7.6159439     372.9781  0.025065732  0.025081264            3 
 1241000    1.0565027    -7.612703    373.25058  0.025063832  0.025074495            3 
 1242000    1.0504442   -7.5991578    373.37958  0.025052307  0.025067717            2 
 1243000    1.0503463   -7.6338333    373.17007  0.025018106  0.025060786            3 
 1244000    1.0555662   -7.6070826    373.35708  0.025010523  0.025053861            3 
 1245000     1.064064   -7.6107918    373.98105  0.025032199   0.02504676            4 
 1246000    1.0464047   -7.5779584    374.68982  0.025059512  0.025039941            2 
 1247000    1.0532012   -7.6342817    374.31723  0.025014517  0.025033008            1 
 1248000     1.059875    -7.597434    375.51512  0.025074461  0.025026237            2 
 1249000    1.0163845   -7.6203111    374.28673  0.024972427  0.025019327            1 
 1250000     1.047257   -7.6312911     375.3984   0.02502656  0.025012454            3 
 1251000    1.0248714   -7.6262412    375.43419  0.025008939  0.025005553            2 
 1252000    1.0644082   -7.6103426    375.42653  0.024988454  0.024998784            1 
 1253000    1.0507064   -7.6186281    376.47626  0.025038326  0.024991981            5 
 1254000    1.0403126    -7.631551    376.25442  0.025003616  0.024985158            3 
 1255000    1.0374214    -7.624006    376.04026  0.024969473  0.024978409            3 
 1256000    1.0741805   -7.6261175    376.30156   0.02496693   0.02497149            1 
 1257000    1.0647576   -7.6311512    377.00169  0.024993483  0.024964704            2 
 1258000    1.0308753   -7.6473331    376.12723  0.024915688  0.024957711            3 
 1259000    1.0512122   -7.6407414    376.06826  0.024891995  0.024950697            1 
 1260000    1.0684317   -7.6623228    375.91227  0.024861923  0.024943771            3 
 1261000    1.0522157   -7.6224555    377.49642  0.024946896  0.024936818            1 
 1262000    1.0646422    -7.597067    378.78453  0.025012185  0.024929994            2 
 1263000    1.0519075   -7.6545989    377.26389  0.024892048  0.024923225            2 
 1264000    1.0811335   -7.6624303    379.08877  0.024992667  0.024916299            1 
 1265000    1.0440218   -7.6421541    377.66846  0.024879345  0.024909468            2 
 1266000    1.0521652   -7.6361622    378.74027  0.024930244  0.024902702            5 
 1267000    1.0657912   -7.6083821    380.33408  0.025015396   0.02489603            2 
 1268000    1.0619394   -7.5868842     380.5947  0.025012795  0.024889448            5 
 1269000    1.0680092   -7.6214109    379.45728  0.024918393  0.024882775            1 
 1270000    1.0438955   -7.6320301    378.98859  0.024868018  0.024875966            6 
 1271000    1.0577536   -7.5946325     379.2509   0.02486565  0.024869189            1 
 1272000    1.0454079   -7.6865546     378.4783  0.024795486  0.024862358            1 
 1273000    1.0369569   -7.6752688    379.54139  0.024845601  0.024855436            2 
 1274000    1.0512597   -7.6529468    378.72202  0.024772502  0.024848615            2 
 1275000    1.0527444   -7.6812606    379.07595  0.024776206  0.024841632            2 
 1276000      1.06847   -7.6302577     381.3511  0.024905375  0.024834728            2 
 1277000    1.0375673   -7.6369025    381.32348   0.02488407  0.024827951            2 
 1278000    1.0474712   -7.5988886    380.02246  0.024779764  0.024821187            4 
 1279000    1.0549052    -7.674346    380.60416   0.02479829   0.02481421            1 
 1280000    1.0355643   -7.6432935    381.45184  0.024834104  0.024807242            3 
 1281000    1.0579185   -7.6409377    380.96035  0.024782745  0.024800305            3 
 1282000     1.051283   -7.6102012    380.82205  0.024754423  0.024793551            4 
 1283000    1.0692348   -7.6508557    382.41551  0.024838627  0.024786913            3 
 1284000    1.0436996   -7.6507447    382.03856  0.024794818  0.024780129            3 
 1285000    1.0256945   -7.6646704    382.48946  0.024804764  0.024773299            3 
 1286000    1.0542632   -7.6717501    383.45502  0.024848044  0.024766482            2 
 1287000    1.0417816   -7.6654708    382.88056  0.024791541  0.024759733            5 
 1288000    1.0493591   -7.6149627    384.77431  0.024894818  0.024753079            6 
 1289000    1.0370831   -7.6606425    382.48842  0.024727723  0.024746356            2 
 1290000    1.0526631   -7.6465627    383.25494  0.024758071    0.0247395            1 
 1291000    1.0501899   -7.6428413    384.58268  0.024824599  0.024732684            4 
 1292000    1.0462739   -7.6603536    383.03595  0.024705621  0.024725922            2 
 1293000    1.0706221   -7.6446849    383.93328  0.024744347  0.024719284            4 
 1294000    1.0488954   -7.6437369    384.73087  0.024776589   0.02471259            1 
 1295000    1.0172424   -7.6721678    384.70845  0.024756014  0.024705886            1 
 1296000    1.0143192   -7.6117526    385.36404  0.024779066  0.024699284            1 
 1297000    1.0457731   -7.6428936    384.77842  0.024722335  0.024692605            4 
 1298000    1.0590241   -7.6530837    384.58421   0.02469082  0.024686056            2 
 1299000    1.0284903   -7.6824414    385.71444  0.024744319  0.024679616            4 
 1300000    1.0541308   -7.6565916     385.8335  0.024732917  0.024673015            4 
 1301000    1.0493736   -7.6414064    386.39199  0.024749679   0.02466654            3 
 1302000    1.0217733   -7.6297058    385.95456  0.024702673  0.024659939            1 
 1303000    1.0394148   -7.6653949    385.95801  0.024683935  0.024653386            2 
 1304000     1.036834   -7.6686981    385.51579  0.024636745  0.024646742            1 
 1305000    1.0648871   -7.6183722    387.24354  0.024728195  0.024640113            3 
 1306000    1.0445072   -7.6095723    388.11241  0.024764702  0.024633516            2 
 1307000    1.0369416   -7.6678234    386.73177  0.024657725  0.024626948            1 
 1308000    1.0359829   -7.6799547      386.669  0.024634875  0.024620267            5 
 1309000    1.0211566   -7.6811556    387.08014   0.02464223  0.024613596            2 
 1310000    1.0336238   -7.6773017    386.57076  0.024591015  0.024606786            1 
 1311000    1.0556753   -7.6120196    387.92629  0.024658422  0.024600164            2 
 1312000    1.0489931   -7.6405268    387.12521  0.024588746  0.024593421            4 
 1313000    1.0078987   -7.6687632    387.89287   0.02461874   0.02458652            2 
 1314000    1.0466776   -7.6727509    387.49098  0.024574517  0.024579745            4 
 1315000    1.0444139   -7.6802202    388.29947  0.024607064  0.024572948            3 
 1316000    1.0667084   -7.6532221    387.60068  0.024544116  0.024566117            4 
 1317000    1.0420927   -7.6887218    387.85415  0.024541518  0.024559259            1 
 1318000     1.051256    -7.644907    387.93699  0.024528135  0.024552451            2 
 1319000    1.0409881   -7.6418821    389.57737  0.024613177  0.024545809            4 
 1320000    1.0351071   -7.6173777    389.16141  0.024568271   0.02453903            3 
 1321000    1.0489327   -7.6759807    387.84897  0.024466879  0.024532251            3 
 1322000    1.0270949   -7.6577003    389.49344  0.024552032  0.024525447            3 
 1323000    1.0505721   -7.6471104    390.73712  0.024611811  0.024518712            3 
 1324000    1.0464632   -7.6491342    389.59066  0.024521064  0.024511931            2 
 1325000    1.0316007   -7.6710607    388.67028  0.024444672   0.02450503            2 
 1326000    1.0164929   -7.6476842    389.61946  0.024485889  0.024498049            1 
 1327000    1.0575468   -7.6433061    391.09883  0.024560338  0.024491336            5 
 1328000    1.0401096   -7.6382659    390.28234  0.024490609  0.024484546            2 
 1329000    1.0313396   -7.6569721    391.43476  0.024544442  0.024477674            1 
 1330000    1.0240886   -7.6756609    391.19273  0.024510823  0.024470858            2 
 1331000    1.0523185   -7.6682737    391.07446  0.024485002  0.024464055            3 
 1332000    1.0378773   -7.6703502    390.65373  0.024440299  0.024457178            2 
 1333000    1.0497435   -7.6440941    392.15083  0.024515555  0.024450353            1 
 1334000    1.0292384   -7.6510756    390.68297  0.024405483  0.024443506            2 
 1335000    1.0407622   -7.6747393    390.58557  0.024381122  0.024436742            3 
 1336000    1.0517851   -7.6758341    391.41317  0.024414494  0.024429832            3 
 1337000    1.0408754   -7.6864032    391.76301  0.024418039  0.024422814            4 
 1338000    1.0461778   -7.7008801    392.65502  0.024455345  0.024415858            3 
 1339000     1.056418   -7.7152949    391.51074  0.024365866  0.024408921            3 
 1340000    1.0315688   -7.6877333    393.23171  0.024454708  0.024402023            2 
 1341000    1.0386887   -7.6506025    392.24087  0.024374899  0.024395182            2 
 1342000    1.0684077   -7.6917049    391.27026  0.024296464  0.024388313            4 
 1343000     1.040247   -7.6983355    392.05468  0.024327046  0.024381404            2 
 1344000     1.026118   -7.6462706    392.42496  0.024331905  0.024374484            3 
 1345000    1.0277582   -7.7117188    393.53418  0.024382539  0.024367545            1 
 1346000    1.0659122   -7.6712007    394.24597  0.024408493  0.024360721            2 
 1347000    1.0474073   -7.6582808    393.66329  0.024354324  0.024353964            2 
 1348000    1.0439588   -7.6732562    393.01367  0.024296097  0.024347081            2 
 1349000    1.0471696   -7.6700883    393.84947  0.024329718  0.024340173            2 
 1350000    1.0374948   -7.6695786    394.88642  0.024375705  0.024333374            4 
 1351000    1.0315939   -7.6757618    394.12853  0.024310914  0.024326504            1 
 1352000    1.0383197   -7.6482953    394.94903  0.024343505  0.024319548            2 
 1353000    1.0634033   -7.6729411    395.34547  0.024349931  0.024312559            4 
 1354000    1.0360381   -7.6733616    395.42342  0.024336744  0.024305601            3 
 1355000    1.0370275   -7.6354383    395.32394  0.024312665  0.024298718            2 
 1356000    1.0327246   -7.6592086    395.49542  0.024305274  0.024291797            3 
 1357000     1.056571   -7.6459149    395.41422  0.024282376  0.024285037            2 
 1358000    1.0503614   -7.6331123    395.32034  0.024258734  0.024278182            3 
 1359000    1.0285452   -7.6256738    396.89482  0.024337431  0.024271407            1 
 1360000    1.0477395   -7.6639828    394.99635  0.024203208  0.024264489            1 
 1361000    1.0242627   -7.6883759    395.58488   0.02422146    0.0242576            3 
 1362000     1.021301   -7.6443763    396.65766  0.024269313  0.024250634            3 
 1363000    1.0219704   -7.6629775    396.79451  0.024259875  0.024243694            3 
 1364000    1.0256052   -7.6936121    395.89583  0.024187184   0.02423667            1 
 1365000    1.0309775   -7.6776444    395.77536   0.02416211  0.024229552            2 
 1366000    1.0451607   -7.6667974    396.54433  0.024191333  0.024222516            2 
 1367000    1.0191158   -7.6747096    397.23978  0.024216031  0.024215372            5 
 1368000    1.0218771   -7.6810411    396.22908  0.024136762  0.024208257            1 
 1369000    1.0452591   -7.6804796    397.20253  0.024178386  0.024201084            2 
 1370000    1.0299707   -7.6849302     397.8468  0.024199927  0.024194047            4 
 1371000    1.0420468   -7.7103798    397.91465    0.0241864  0.024186867            1 
 1372000    1.0177515   -7.7047317    396.67354  0.024093388  0.024179832            2 
 1373000    1.0506298   -7.6511558    397.40223  0.024120068  0.024172745            2 
 1374000     1.036337   -7.6741776    397.32611  0.024097896  0.024165585            2 
 1375000    1.0530445   -7.6805938    397.90481  0.024115443    0.0241585            3 
 1376000    1.0312165   -7.6721461    398.70752  0.024146531  0.024151483            2 
 1377000    1.0160014   -7.6395969    398.38752   0.02410963  0.024144513            2 
 1378000   0.99726396   -7.6816575    398.21883  0.024081932  0.024137296            2 
 1379000    1.0387136   -7.6681388    398.02847  0.024052965  0.024130219            2 
 1380000    1.0284162   -7.7219009    398.40313   0.02405816  0.024123083            3 
 1381000    1.0512247   -7.6615313    398.23934  0.024030856  0.024116071            2 
 1382000    1.0133658   -7.7105382    400.44702  0.024146588  0.024108967            3 
 1383000     1.038252   -7.6657485    400.38503  0.024125393  0.024102001            2 
 1384000    1.0362335   -7.6864691    399.23486  0.024038708  0.024095013            4 
 1385000    1.0389672   -7.6821727    399.43168  0.024033193  0.024087895            3 
 1386000    1.0576245   -7.6754309    400.38302  0.024073053  0.024080843            2 
 1387000    1.0293087   -7.7242753    399.44078  0.023999086  0.024073751            2 
 1388000    1.0397285   -7.6836446    399.77309  0.024001747  0.024066688            3 
 1389000    1.0182773   -7.6647897    400.69762  0.024039934   0.02405965            6 
 1390000    1.0170872   -7.7040663    400.68781  0.024022051  0.024052527            3 
 1391000    1.0512152   -7.7136219    399.15864   0.02391317  0.024045367            2 
 1392000    1.0422824   -7.6972725    400.26995  0.023962521  0.024038225            2 
 1393000    1.0358264   -7.6872904    400.91156  0.023983702  0.024031108            2 
 1394000    1.0435319   -7.7157276    400.04352  0.023914606  0.024023943            3 
 1395000    1.0156713   -7.6951627    400.67426  0.023935141  0.024016696            3 
 1396000    1.0307696   -7.6890209    400.02112  0.023879007  0.024009414            2 
 1397000    1.0191659   -7.6751045    402.23865  0.023994193  0.024002103            2 
 1398000    1.0249629   -7.6735887    400.88111  0.023896108  0.023994936            3 
 1399000     1.004331   -7.6758727     401.2094  0.023898582   0.02398766            3 
 1400000    1.0342701   -7.6673722    403.28203  0.024004883  0.023980444            6 
 1401000    1.0362029   -7.6581109    403.21282  0.023983632  0.023973303            2 
 1402000    1.0290177   -7.6922344      401.643  0.023873217   0.02396617            4 
 1403000    1.0276053   -7.6864653    402.53586  0.023909234  0.023959019            3 
 1404000     1.016938   -7.6972893    402.23473  0.023874331  0.023951741            3 
 1405000    1.0103522   -7.6827571    403.13353  0.023910648  0.023944492            2 
 1406000    1.0226583   -7.7047327    401.98339  0.023825474  0.023937267            2 
 1407000    1.0476177   -7.7110301    402.37195  0.023831553  0.023929998            2 
 1408000    1.0021571   -7.7130109     402.5503  0.023825183  0.023922627            2 
 1409000    1.0417645   -7.6860737    403.40235  0.023858668  0.023915313            2 
 1410000    1.0505465   -7.7145466     403.1057  0.023824214     0.023908            1 
 1411000    1.0160029   -7.6730366    402.87553  0.023793735  0.023900643            5 
 1412000    1.0128098   -7.6285717    404.01921  0.023844382  0.023893454            1 
 1413000     1.031566   -7.7084454    402.16872  0.023718372  0.023886274            3 
 1414000    1.0443819   -7.6951043    404.44081  0.023835503  0.023879022            3 
 1415000    1.0462109   -7.6878011    404.65199  0.023831095  0.023871896            4 
 1416000    1.0270708   -7.6987192    403.81073  0.023764756  0.023864626            3 
 1417000    1.0328658   -7.6651515    403.94369  0.023755804  0.023857292            2 
 1418000    1.0271689   -7.6468678    405.61811  0.023837453  0.023850091            2 
 1419000     1.024718   -7.7054558    404.86467  0.023776407  0.023842747            2 
 1420000    1.0159379   -7.6788812     405.3488  0.023788075  0.023835282            3 
 1421000    1.0216981   -7.6860198    404.50071  0.023721599  0.023827914            2 
 1422000    1.0248264    -7.699114    406.24585  0.023807188  0.023820474            3 
 1423000    1.0175737   -7.7455642    403.81515  0.023648111  0.023813094            3 
 1424000    1.0520704   -7.7280002    405.03023  0.023702612  0.023805649            2 
 1425000    1.0195375   -7.7492361    405.05754  0.023687575  0.023798302            3 
 1426000     1.005204   -7.7081985    405.06528  0.023671416  0.023791121            2 
 1427000    1.0094631   -7.7259342    406.33332  0.023728879  0.023783985            2 
 1428000    1.0115935   -7.7207258    405.66673  0.023673362  0.023776789            3 
 1429000    1.0128279   -7.7023895    405.97249  0.023674626  0.023769645            1 
 1430000    1.0189534   -7.7004318     407.2703  0.023733701  0.023762649            1 
 1431000    1.0006571   -7.6704981    407.92446   0.02375521  0.023755727            2 
 1432000   0.99663664   -7.7107514    406.97273  0.023683236  0.023748642            1 
 1433000    1.0019024   -7.7229582    407.50734  0.023697798  0.023741436            4 
 1434000    1.0104467   -7.6755079    407.18281  0.023662413  0.023734313            3 
 1435000    1.0122876   -7.6947435    407.98551  0.023692538  0.023727264            3 
 1436000    1.0085838   -7.7139248    407.56947  0.023651896  0.023720176            3 
 1437000    1.0288581   -7.7145044    408.41509  0.023684475  0.023713031            4 
 1438000    1.0012705   -7.6828473    408.80433  0.023690562  0.023705791            3 
 1439000    0.9944319   -7.7264123    408.39823  0.023650581  0.023698529            5 
 1440000    1.0154051   -7.7483387    407.82579   0.02360103  0.023691267            2 
 1441000    1.0540404   -7.6922653    409.27956  0.023668723  0.023684087            2 
 1442000    1.0375757   -7.7035715     408.5982  0.023612933  0.023676921            2 
 1443000    1.0012939       -7.689    409.93664  0.023673864  0.023669666            4 
 1444000    1.0311355   -7.7281262    409.30772  0.023621175  0.023662316            3 
 1445000    1.0174204   -7.7013202    409.44478  0.023612733  0.023654978            2 
 1446000    1.0292503   -7.7200435    408.60095  0.023547773  0.023647552            4 
 1447000    1.0219338   -7.7108644    407.19964  0.023450797  0.023640208            3 
 1448000    1.0206738   -7.7572113    409.06656  0.023542044  0.023632943            2 
 1449000    1.0205073    -7.738157    409.09989  0.023527714  0.023625647            8 
 1450000    1.0336345   -7.7096786    409.29323  0.023522599  0.023618443            2 
 1451000    1.0079244   -7.7331763    410.13353  0.023554648  0.023611281            2 
 1452000    1.0178696    -7.692165    410.83541  0.023578708   0.02360402            5 
 1453000    1.0045173   -7.7088342     410.8297  0.023562153  0.023596762            1 
 1454000    1.0243317    -7.739798    410.45512  0.023524479  0.023589576            1 
 1455000    1.0152024   -7.7194726    410.73892  0.023524566  0.023582369            3 
 1456000    1.0155774   -7.7228723    412.29327  0.023597371   0.02357537            2 
 1457000     1.031485   -7.7610828    410.62667  0.023485854  0.023568252            3 
 1458000     1.019937    -7.768431     410.5136  0.023463283  0.023561178            5 
 1459000    1.0206133   -7.7112704    412.15176  0.023540768  0.023554067            3 
 1460000    1.0164892   -7.7634541    411.12939  0.023466289  0.023546968            2 
 1461000    1.0105654   -7.7107417    413.54276  0.023587882  0.023539869            3 
 1462000    1.0031757   -7.7109138    413.11882  0.023547584  0.023532963            2 
 1463000    1.0331781   -7.7443201    412.35267  0.023487848   0.02352604            3 
 1464000    1.0045057   -7.7410117    413.11609   0.02351526  0.023518971            2 
 1465000    1.0269464     -7.74832     412.1415  0.023443771  0.023511946            2 
 1466000    1.0382335   -7.7212511    413.72571  0.023517832  0.023505002            2 
 1467000    1.0259974   -7.7254621    413.29157   0.02347714  0.023497982            2 
 1468000    1.0187964   -7.7305939    414.22018  0.023513861  0.023491041            2 
 1469000    1.0347219   -7.7255584    414.41208  0.023508741  0.023484149            4 
 1470000    1.0192058   -7.7030742    413.51437  0.023441858   0.02347733            2 
 1471000    1.0013682   -7.7283449    415.22444  0.023522798  0.023470412            3 
 1472000    1.0262548   -7.7504374    413.84954  0.023428982  0.023463479            5 
 1473000   0.99863517   -7.7321506    414.54703  0.023452536   0.02345659            3 
 1474000   0.99143485   -7.6868738    416.25939  0.023533435  0.023449759            2 
 1475000    1.0429116   -7.7200593    415.52562  0.023476024  0.023443039            2 
 1476000    1.0038999   -7.7192577    415.35457  0.023450461  0.023436169            6 
 1477000    1.0244418   -7.7233802    415.91574  0.023466246  0.023429338            3 
 1478000    1.0230833   -7.7363884    415.69908  0.023438153  0.023422555            3 
 1479000   0.99573998   -7.7429981    416.46571  0.023465501  0.023415773            2 
 1480000    1.0159764   -7.7257362    416.32117  0.023441507  0.023409119            2 
 1481000    1.0051417   -7.7246193    416.86919  0.023456515  0.023402491            3 
 1482000    1.0240729   -7.7422445    416.23378  0.023404958  0.023395697            3 
 1483000    1.0060587   -7.7555921    416.30966   0.02339344  0.023388963            2 
 1484000    1.0210197    -7.720034    418.77119  0.023515902  0.023382287            2 
 1485000    1.0314141    -7.737149    417.90312  0.023451353  0.023375733            2 
 1486000    1.0207142   -7.6976604     419.0009  0.023497134  0.023369007            2 
 1487000    1.0250317   -7.7607309    417.87103  0.023418013  0.023362307            6 
 1488000   0.99063757   -7.8059757      416.783  0.023341342  0.023355558            3 
 1489000     1.010084   -7.7167417    418.58544  0.023426542  0.023348835            3 
 1490000    1.0039404   -7.7523504    419.65154  0.023470444  0.023342323            2 
 1491000    1.0093234   -7.7293149    420.65203  0.023510621  0.023335855            5 
 1492000    1.0325485   -7.7301937    419.66265  0.023439603  0.023329318            2 
 1493000     1.022123   -7.7311567    420.17861  0.023452702   0.02332278            1 
 1494000    1.0061073   -7.7111185    421.49214  0.023510271  0.023316356            3 
 1495000   0.99727106   -7.7129138    421.14027  0.023474932  0.023310073            2 
 1496000     1.028468   -7.7314062    420.53504  0.023425526  0.023303658            5 
 1497000    1.0081531   -7.6999573    422.12602  0.023498443  0.023297301            3 
 1498000    1.0244646   -7.7407099    419.92119  0.023360102  0.023290975            1 
 1499000    1.0152636   -7.7884503    420.67303  0.023386315  0.023284654            2 
 1500000    1.0138064   -7.7112757    420.79688  0.023377604  0.023278153            3 
 1501000    1.0227869   -7.7128927    422.09749  0.023434238  0.023271724            1 
 1502000    1.0287983   -7.7292577    421.79185  0.023401678  0.023265323            1 
 1503000   0.99678202   -7.7366996    421.20393  0.023353511  0.023258763            4 
 1504000   0.99618297   -7.7351587     420.9657  0.023324784  0.023252168            3 
 1505000   0.99969064    -7.721034    422.63177  0.023401538  0.023245747            2 
 1506000    1.0088333   -7.7177234    422.66784  0.023387995  0.023239491            3 
 1507000    1.0110959   -7.7148013    422.95747  0.023388491   0.02323328            2 
 1508000    1.0323236   -7.7024661     422.3623  0.023340092  0.023226923            1 
 1509000    1.0037539     -7.76891    422.22053  0.023316795  0.023220534            1 
 1510000   0.99266722   -7.7316477    422.24143  0.023302507   0.02321409            1 
 1511000   0.99580597   -7.7266204    423.50259   0.02335664  0.023207698            2 
 1512000    1.0114025     -7.73354    423.64983  0.023349307   0.02320131            5 
 1513000    1.0054122   -7.7595663     423.0039  0.023298298  0.023194841            1 
 1514000    1.0364883   -7.7324815    424.61914  0.023371815  0.023188411            1 
 1515000    1.0067398   -7.7423891    424.15252  0.023330721  0.023182055            3 
 1516000    1.0228737   -7.7696231     422.9186  0.023247504  0.023175605            2 
 1517000    1.0112991   -7.7596052    423.28111  0.023252093  0.023169058            2 
 1518000    1.0159476   -7.7257349    423.59926  0.023254241  0.023162564            2 
 1519000    1.0230938   -7.7308808    425.61176  0.023349339  0.023156048            1 
 1520000    1.0249671   -7.7441798    424.98475  0.023299602    0.0231496            3 
 1521000    1.0178738   -7.7501482     423.7817  0.023218371  0.023143182            1 
 1522000   0.99914848   -7.7378042    424.40517  0.023237252  0.023136635            3 
 1523000    1.0029085   -7.7028981    424.69211  0.023237695  0.023130126            3 
 1524000     1.018708    -7.731413    425.36736   0.02325937  0.023123606            1 
 1525000    1.0274552   -7.7653082      423.829  0.023160055  0.023117014            2 
 1526000   0.99351011   -7.7435609     426.4408  0.023287506  0.023110387            2 
 1527000    1.0339169   -7.7505435    425.99939  0.023248166  0.023103879            3 
 1528000    1.0096878   -7.7318494    426.04773  0.023235588  0.023097276            1 
 1529000    1.0093978   -7.7632961     425.1929  0.023173801  0.023090692            2 
 1530000    1.0075339   -7.7702418    425.38066  0.023168881  0.023084055            2 
 1531000    1.0173518   -7.7277228    425.05164  0.023135839  0.023077594            3 
 1532000   0.99283887   -7.7264577     425.6748  0.023154634  0.023071128            2 
 1533000   0.99535473   -7.7619664    426.36264  0.023176921  0.023064532            5 
 1534000   0.99880981   -7.7633368    425.30258  0.023104225  0.023058002            1 
 1535000    1.0009027    -7.733892    426.14543  0.023134931  0.023051572            1 
 1536000   0.98111146   -7.7072056    428.47753  0.023246394  0.023045045            3 
 1537000   0.99285595   -7.7223324    427.40669   0.02317321  0.023038587            1 
 1538000     1.003581   -7.7773641    426.34283    0.0231005  0.023032044            2 
 1539000     1.005898   -7.7298722    426.92106    0.0231168  0.023025467            2 
 1540000    1.0161984   -7.7236835    428.00827  0.023160621   0.02301893            2 
 1541000    1.0018943   -7.7465403    427.24974  0.023104572  0.023012407            2 
 1542000   0.97677532   -7.7363227    428.33824  0.023148413  0.023005965            4 
 1543000    1.0034662   -7.7508137    429.62816  0.023203076  0.022999543            4 
 1544000   0.98915899   -7.7796641    427.88466  0.023093947  0.022993169            2 
 1545000   0.97870827   -7.7202809     429.6388  0.023173614  0.022986874            4 
 1546000    1.0216452   -7.7185602    428.75732   0.02311111  0.022980661            2 
 1547000    1.0215416   -7.7862111    428.58305  0.023086783  0.022974362            1 
 1548000    1.0379759   -7.7932781     429.1473  0.023102245  0.022968033            2 
 1549000     1.004975   -7.7427983    430.53545   0.02316201  0.022961735            2 
 1550000    1.0098865   -7.7824454    429.49921  0.023091356  0.022955415            1 
 1551000    1.0013403   -7.7521765    429.58759  0.023081216  0.022949111            5 
 1552000   0.98279815   -7.7360868     430.4178  0.023110921  0.022942804            1 
 1553000     1.002152   -7.7675551    429.29694  0.023035895  0.022936448            1 
 1554000   0.97495406   -7.7752758    430.06251  0.023062125  0.022930161            2 
 1555000    1.0124835   -7.7580846    430.24885   0.02305728  0.022923784            5 
 1556000   0.99410619   -7.7614081    431.36838   0.02310242  0.022917364            2 
 1557000    1.0026684   -7.7227271    431.31092  0.023084506  0.022911015            3 
 1558000    1.0011251   -7.7704648    431.23113  0.023065422  0.022904681            2 
 1559000   0.99712563   -7.7854636    431.09026  0.023043097  0.022898247            4 
 1560000    1.0261721   -7.7560135    431.93042  0.023073206  0.022891926            2 
 1561000    1.0048144   -7.7555499    432.49082  0.023088342  0.022885517            2 
 1562000   0.98517469   -7.7866153    430.79801  0.022983248  0.022879166            5 
 1563000    1.0129314   -7.7215505    432.61196  0.023065257  0.022872863            3 
 1564000    1.0004241    -7.792572    431.46158  0.022989215  0.022866451            1 
 1565000    1.0013248    -7.738872    432.39075  0.023024001  0.022860013            2 
 1566000    1.0078219   -7.7274358    433.64712  0.023076156  0.022853659            2 
 1567000   0.98598587   -7.7232268    432.24631  0.022986934  0.022847253            2 
 1568000   0.99843746   -7.7493722    432.28772  0.022974475   0.02284086            2 
 1569000    1.0092901   -7.7280114    433.11522  0.023003783   0.02283444            2 
 1570000   0.99095692   -7.7423266    432.89673  0.022977533  0.022827976            1 
 1571000    1.0074663   -7.7516321    432.82662  0.022959188  0.022821499            2 
 1572000   0.99220606   -7.7588626    431.86331  0.022893517  0.022814917            2 
 1573000   0.99698885   -7.7579788    431.57124   0.02286349   0.02280833            4 
 1574000   0.99073899    -7.785556    432.37574  0.022891558   0.02280171            2 
 1575000    1.0130577   -7.7637695    433.31514  0.022926727   0.02279518            3 
 1576000   0.98424344   -7.7946933    432.66959  0.022878045  0.022788457            1 
 1577000    1.0121979   -7.8038942    431.53339  0.022803498   0.02278176            2 
 1578000   0.98500009   -7.7871271    431.99807  0.022813586  0.022774955            1 
 1579000    1.0240321   -7.7600533    432.66166   0.02283416   0.02276827            2 
 1580000    0.9915803   -7.8036199    432.20528  0.022795637  0.022761595            2 
 1581000    1.0106972   -7.7731672    432.44065  0.022793625  0.022754916            4 
 1582000    1.0003487   -7.7783546    433.83085  0.022852447  0.022748247            2 
 1583000     1.005478   -7.7848622    433.05785  0.022797318  0.022741566            2 
 1584000    1.0150365   -7.7797499    432.96743  0.022778169  0.022734788            1 
 1585000    1.0010672   -7.7800279    433.89151  0.022812382  0.022728053            2 
 1586000   0.99341221   -7.7177002    433.89043  0.022797942  0.022721332            2 
 1587000    1.0106766   -7.7618782    432.75799  0.022724112  0.022714555            1 
 1588000   0.99707159   -7.7191634    433.94168  0.022771919  0.022707817            1 
 1589000    1.0096923   -7.8028712    433.75049  0.022747561  0.022701097            3 
 1590000    1.0060462   -7.7657701    434.34628   0.02276448  0.022694311            3 
 1591000    0.9812547   -7.8099794    432.36569  0.022646433  0.022687554            3 
 1592000   0.98997362   -7.7695811    435.43095  0.022792659  0.022680777            4 
 1593000    1.0076115   -7.7481661    435.25252  0.022769017  0.022674107            3 
 1594000   0.97743518   -7.7707843    434.15463  0.022697335  0.022667421            1 
 1595000   0.99078317   -7.7718421     434.3777   0.02269476   0.02266074            2 
 1596000    1.0039624   -7.7405198    435.34877  0.022731243  0.022654011            2 
 1597000   0.98890879   -7.7706793     436.0656  0.022754415  0.022647299            3 
 1598000     1.005231   -7.7514194    435.05893  0.022687679  0.022640616            3 
 1599000   0.98834802    -7.734508    434.97156  0.022668937  0.022633923            2 
 1600000   0.99412567   -7.7783434    434.62269  0.022636598  0.022627211            2 
 1601000   0.99282283   -7.7744922    435.89794  0.022688837  0.022620369            2 
 1602000   0.99586356   -7.7871655    435.14278  0.022635392  0.022613597            1 
 1603000   0.98196031   -7.7733381    435.22213  0.022625396  0.022606811            2 
 1604000    1.0121027   -7.7982296    434.37024  0.022567032  0.022600007            7 
 1605000    1.0137679   -7.7621831    436.35689  0.022656121  0.022593147            4 
 1606000    1.0048465   -7.7743024    436.56424  0.022652773  0.022586382            1 
 1607000    1.0084183   -7.7898438    435.27746  0.022571949  0.022579598            2 
 1608000   0.98265861   -7.7928634    436.22225  0.022606874  0.022572851            2 
 1609000   0.97863329   -7.7822387    437.13004   0.02263984  0.022566081            2 
 1610000   0.99156813    -7.772742      437.077  0.022623033  0.022559326            1 
 1611000   0.99929313   -7.7658719    437.74927  0.022643765  0.022552559            2 
 1612000   0.97538643   -7.7684765    437.16197  0.022599357  0.022545709            2 
 1613000   0.99688488   -7.8004707    435.50259  0.022499617  0.022538915            1 
 1614000   0.98262855    -7.767783    438.01916  0.022615611  0.022532025            2 
 1615000    1.0116399   -7.7601361     437.8719  0.022594009  0.022525229            4 
 1616000    0.9960071   -7.8019567     436.5139  0.022509999  0.022518432            1 
 1617000   0.99779124   -7.7515004    437.72905  0.022558702  0.022511588            2 
 1618000   0.99341937   -7.7894634    436.95617  0.022504953  0.022504794            3 
 1619000    0.9883972   -7.7893756    437.38692  0.022513224  0.022497917            3 
 1620000    1.0035661   -7.7674912    437.91982   0.02252674   0.02249106            4 
 1621000   0.98313883    -7.730644    437.96973  0.022515409   0.02248424            2 
 1622000    1.0067086   -7.7933743    438.12451   0.02250948  0.022477352            2 
 1623000     1.007987   -7.7691771    438.35823  0.022507611  0.022470546            2 
 1624000    1.0075879   -7.7698606    438.94166   0.02252369  0.022463764            2 
 1625000   0.98692479   -7.7843417    437.77564  0.022450033  0.022456947            3 
 1626000   0.99480705   -7.7914734     439.5113  0.022525179  0.022450141            3 
 1627000   0.99458839   -7.7966792    438.40644  0.022454745   0.02244322            2 
 1628000    1.0040804   -7.7994326     438.6033  0.022451029  0.022436333            2 
 1629000   0.99065196   -7.8050446    437.27631  0.022369363  0.022429332            2 
 1630000    1.0122594   -7.7977963    437.95848  0.022390515  0.022422322            2 
 1631000   0.99385368   -7.8024956    439.12061  0.022436164  0.022415372            3 
 1632000   0.99362645   -7.8199189    437.87707  0.022358919  0.022408393            3 
 1633000   0.99173293   -7.7849368    440.07169   0.02245722  0.022401514            2 
 1634000   0.98927519   -7.7880072    439.50394  0.022414522  0.022394667            2 
 1635000   0.98142213    -7.816976    438.25768  0.022337293   0.02238778            3 
 1636000   0.99562452   -7.8298665    439.14944  0.022369063  0.022380782            4 
 1637000   0.99548755   -7.8013327    439.17195  0.022356544  0.022373793            4 
 1638000   0.98552588   -7.8216346    439.57081  0.022363187  0.022366863            3 
 1639000   0.98184188   -7.7854661       439.96  0.022369331  0.022359894            2 
 1640000   0.99486487   -7.7707421    441.48414  0.022433137  0.022352941            3 
 1641000   0.99403996   -7.8152192    438.76254  0.022281258  0.022345994            7 
 1642000    1.0133144    -7.810366    438.73316  0.022266198  0.022339024            2 
 1643000   0.99540685    -7.828556    440.22008  0.022328062  0.022331958            3 
 1644000     1.015086   -7.8225078    439.73657  0.022289972  0.022324867            4 
 1645000     1.002144    -7.831093    439.67307  0.022273205  0.022317866            4 
 1646000   0.99933111   -7.7782602    441.43145  0.022348696  0.022310905            7 
 1647000   0.98724329   -7.8037678    440.67759  0.022296984  0.022303971            1 
 1648000   0.97444135   -7.7687133    442.33007  0.022367014  0.022297147            2 
 1649000    1.0092796   -7.7906036    441.08289  0.022290423  0.022290229            2 
 1650000   0.98922519   -7.7847092    440.60926  0.022252993   0.02228335            3 
 1651000   0.99348881    -7.796134    440.76195  0.022247221  0.022276375            4 
 1652000    1.0020764     -7.77706     441.7669  0.022284448  0.022269438            2 
 1653000    1.0030901   -7.7681539    443.53909  0.022360309  0.022262581            2 
 1654000    1.0006358   -7.7845328    442.35258   0.02228701  0.022255749            2 
 1655000    1.0056287   -7.7867905    443.53934    0.0223333  0.022248804            4 
 1656000   0.97832857   -7.8053036    442.31229  0.022258066  0.022241932            6 
 1657000   0.97014614   -7.8218477    442.76153  0.022267226  0.022235079            1 
 1658000   0.99507194   -7.8301886    442.30194  0.022230697  0.022228257            3 
 1659000   0.97260203   -7.8008035     443.9688  0.022301025   0.02222152            4 
 1660000   0.99719512   -7.8052084    443.74402  0.022276306  0.022214886            1 
 1661000    0.9943316   -7.7925693    444.44585  0.022298106  0.022208288            6 
 1662000    0.9728678    -7.810103    444.45514  0.022285155  0.022201647            3 
 1663000   0.97720657   -7.8096894    444.95257  0.022296681  0.022195067            1 
 1664000   0.98924783   -7.8089102    444.46645  0.022258937  0.022188524            2 
 1665000   0.98631826   -7.7716118    445.51431  0.022298014  0.022181947            1 
 1666000   0.96947173   -7.8376623     444.2386  0.022220818  0.022175321            6 
 1667000   0.99642436   -7.7688961    444.01271  0.022196196   0.02216865            2 
 1668000   0.97853868   -7.8145302    445.86425  0.022275392  0.022161973            2 
 1669000   0.99486557   -7.7855134    446.40503  0.022289047  0.022155432            3 
 1670000    0.9716975   -7.7699836    445.97218  0.022254101  0.022148927            3 
 1671000   0.99689046   -7.8085731    445.75944  0.022230174   0.02214235            1 
 1672000    1.0015402   -7.7998212    447.37679  0.022297487  0.022135852            2 
 1673000   0.97393591   -7.7626192    446.74266  0.022252573  0.022129302            1 
 1674000   0.97762016   -7.8056939     445.8395   0.02219432  0.022122736            2 
 1675000    0.9813918   -7.8091485     446.6055  0.022219179  0.022116102            1 
 1676000   0.98027477   -7.8172592    446.22736   0.02218712  0.022109578            1 
 1677000   0.96522946   -7.7937132    447.38923  0.022231626  0.022103014            2 
 1678000   0.99646599   -7.8249823    445.93721  0.022146266  0.022096495            2 
 1679000   0.99291839   -7.8265067     446.7368  0.022172762  0.022089989            1 
 1680000   0.98211981    -7.819484    447.71558  0.022208114  0.022083392            3 
 1681000   0.97583185   -7.8012768    448.59495  0.022238497  0.022076855            2 
 1682000   0.98440543   -7.8228734    446.32907  0.022113014  0.022070292            4 
 1683000    0.9857775   -7.7930295    447.61385   0.02216349  0.022063717            1 
 1684000   0.98551699   -7.7946867    448.99146    0.0222185   0.02205716            1 
 1685000   0.97160416   -7.8088429    447.36011  0.022124634  0.022050598            5 
 1686000    0.9782906   -7.8042046    448.67614  0.022176559  0.022044033            4 
 1687000   0.97226447   -7.8364459    447.66007  0.022113222  0.022037383            1 
 1688000   0.98601219   -7.8354932    447.49731  0.022092087  0.022030797            3 
 1689000   0.98648717   -7.8178022    448.96812  0.022151575  0.022024245            7 
 1690000   0.97388208   -7.7952018    449.37487  0.022158524  0.022017669            2 
 1691000   0.99060328   -7.8437158    448.68782  0.022111562  0.022011156            2 
 1692000   0.98966828   -7.7866872    450.26897  0.022176368  0.022004611            2 
 1693000   0.98367404   -7.8133356    449.51545  0.022126179    0.0219981            2 
 1694000   0.97828731   -7.8060497    450.53379  0.022163213  0.021991704            2 
 1695000    0.9826338   -7.7771438    450.86239  0.022166292  0.021985334            3 
 1696000   0.98900173   -7.8218308    449.35024  0.022078923  0.021978889            4 
 1697000   0.98932147   -7.7944746    450.42454  0.022118667  0.021972412            4 
 1698000    1.0006653   -7.8300006    449.17312  0.022044225  0.021965878            3 
 1699000   0.97196265    -7.807057     449.6895  0.022056578  0.021959385           10 
 1700000   0.97445883   -7.8243358    450.42005  0.022079414  0.021952881            3 
 1701000   0.98111566   -7.8267923    450.07515  0.022049537  0.021946343            3 
 1702000   0.95613316   -7.8068766    451.05371  0.022084494  0.021939791            4 
 1703000   0.97497163   -7.8474463    451.07777  0.022072703  0.021933184            6 
 1704000   0.98084296   -7.8256338    450.03754  0.022008878  0.021926548            2 
 1705000   0.96341312   -7.8821779    450.03046  0.021995624  0.021919907            4 
 1706000   0.97767095   -7.7866555    452.02561  0.022080188  0.021913305            3 
 1707000    0.9937129   -7.8674068    450.55724  0.021995569  0.021906796            2 
 1708000   0.98964895   -7.8254399    450.95676  0.022002184  0.021900263            2 
 1709000   0.95313096    -7.818003    451.28657  0.022005392  0.021893762            3 
 1710000   0.99146905    -7.827482    451.08915  0.021982902  0.021887171            2 
 1711000   0.96716976    -7.868489      450.515  0.021942091  0.021880576            4 
 1712000   0.98379632   -7.8192042    451.20268  0.021962747  0.021873945            6 
 1713000   0.96038046   -7.8442813    451.38895  0.021958988  0.021867364            3 
 1714000   0.99007886   -7.8304642    452.25239  0.021988156  0.021860851            3 
 1715000    0.9881312   -7.8546111    450.93741  0.021911439  0.021854286            1 
 1716000   0.97380222    -7.781861    452.67167   0.02198289  0.021847711            7 
 1717000    1.0060799   -7.8235757    452.39691  0.021956752  0.021841206            3 
 1718000   0.98498043   -7.7922669    452.55464  0.021951622  0.021834654            2 
 1719000   0.96893198   -7.8246722    451.54525  0.021889919  0.021828117            4 
 1720000   0.99200834   -7.8131823    451.87628  0.021893231  0.021821515            2 
 1721000    0.9680433   -7.7946887    452.42032  0.021906853  0.021814922            1 
 1722000   0.96663434   -7.8602007    451.97027  0.021872352  0.021808295            6 
 1723000   0.97202852   -7.8559264     452.3436  0.021877713  0.021801672            4 
 1724000   0.96025514   -7.8238986    452.71187  0.021882824  0.021795023            3 
 1725000   0.97771319   -7.8153757    453.90297   0.02192768  0.021788453            1 
 1726000   0.96559382   -7.8289125     452.4511  0.021844878  0.021781922            1 
 1727000   0.96351221   -7.7651651    454.53073  0.021932577  0.021775488            3 
 1728000   0.97826912   -7.8330236    452.27682  0.021811189  0.021768917            3 
 1729000   0.97792196   -7.8243592    453.76716  0.021870405  0.021762306            1 
 1730000   0.94453911   -7.8354497    452.74714  0.021808629  0.021755627            2 
 1731000   0.96559566    -7.829642    453.09013  0.021812542  0.021748946            3 
 1732000   0.97535749   -7.8294525    452.92116  0.021791818  0.021742216            3 
 1733000   0.97491364    -7.823009    454.25919  0.021843585  0.021735544            3 
 1734000   0.97501692   -7.8713738    453.11349  0.021775927  0.021728825            2 
 1735000   0.95784046   -7.8011887    453.37246  0.021775814   0.02172218            2 
 1736000   0.96473356    -7.804028    455.07788  0.021845136  0.021715539            2 
 1737000   0.94985908   -7.8466449    453.30873  0.021747684  0.021708859            7 
 1738000    0.9790372   -7.8220786    454.41659  0.021788291  0.021702223            2 
 1739000   0.96395394   -7.8517392    453.82653  0.021747486  0.021695613            2 
 1740000   0.97496144   -7.8509977    454.35455  0.021760275  0.021689005            2 
 1741000   0.97441793    -7.807371    456.37577  0.021844523  0.021682351            5 
 1742000   0.97340641   -7.8457177    454.45584  0.021740138  0.021675804            1 
 1743000   0.95730166   -7.8511446     454.1302  0.021712096  0.021669265            1 
 1744000   0.97935784   -7.8396247    454.93813  0.021738251  0.021662657            2 
 1745000   0.98267677   -7.8299859    455.08342  0.021732733  0.021656063            3 
 1746000   0.96887617   -7.8185666    456.31529   0.02177908  0.021649491            1 
 1747000   0.99078899   -7.8427893    456.12317  0.021757449  0.021642948            1 
 1748000   0.97390164   -7.8200449    455.74137  0.021726801  0.021636408            2 
 1749000   0.99177298   -7.8479429    456.37536  0.021744585  0.021629767            1 
 1750000   0.98621479   -7.8501853    455.17807  0.021675146  0.021623182            3 
 1751000   0.98554619   -7.8488396    455.15992  0.021661904  0.021616683            3 
 1752000   0.98563227   -7.8136102    456.23585  0.021700716   0.02161015            1 
 1753000   0.95933037   -7.8601362    455.27451  0.021642637  0.021603574            4 
 1754000   0.97575487   -7.8085701    457.29152  0.021726127  0.021597062            3 
 1755000   0.98210405    -7.823566    457.54621  0.021725841  0.021590664            4 
 1756000   0.96880618   -7.8342253    457.50232  0.021711386  0.021584004            7 
 1757000    0.9710543   -7.8233644    457.53237  0.021700454  0.021577384            5 
 1758000   0.95553885   -7.8389458    457.07837  0.021666589   0.02157074            2 
 1759000   0.96880306   -7.8259438    457.55369   0.02167679  0.021564067            5 
 1760000   0.96239186   -7.8270533    455.81039  0.021581932  0.021557402            2 
 1761000   0.98128319   -7.7856924    458.39242  0.021691861  0.021550868            2 
 1762000   0.96992196   -7.8438071    458.14183  0.021667699  0.021544382            1 
 1763000   0.98112452   -7.8389381    458.10973  0.021653892  0.021537768            3 
 1764000   0.95993123   -7.8658732    455.43747  0.021515376  0.021531172            2 
 1765000   0.98094937   -7.8439191    457.41925  0.021596754  0.021524526            4 
 1766000   0.98061236   -7.8391961    458.65734  0.021642948  0.021517911            2 
 1767000   0.96643352   -7.8162135    458.13102  0.021605877  0.021511283            2 
 1768000   0.95991425   -7.8052142    457.79395  0.021577769  0.021504722            4 
 1769000   0.98593268   -7.8192586    457.74258  0.021563152  0.021498185            3 
 1770000   0.97097759   -7.8178009    458.10875  0.021568208  0.021491592            3 
 1771000   0.96958493   -7.8871578    456.96913  0.021502406  0.021484913            4 
 1772000   0.97956366   -7.8605548    457.44914  0.021512845  0.021478157            2 
 1773000   0.97292322   -7.8653863    457.41916  0.021499302  0.021471326            3 
 1774000     0.947709   -7.8536033    457.68038  0.021499454  0.021464596            5 
 1775000   0.98196414   -7.8648768    456.60292  0.021436757  0.021457743            2 
 1776000   0.96329603   -7.8263356    458.63643  0.021520103   0.02145102            6 
 1777000   0.95949031   -7.7887048    459.33499  0.021540751  0.021444305            3 
 1778000   0.97811241   -7.8111198    459.23891  0.021524133  0.021437614            2 
 1779000   0.96180105   -7.8612642    458.43265  0.021474267  0.021430942            9 
 1780000   0.97307576   -7.8614642    458.57618  0.021468922  0.021424203            5 
 1781000   0.95688886   -7.8957681    457.74889  0.021418159  0.021417451            2 
 1782000   0.96861212   -7.8312186     459.2801  0.021477745  0.021410722            3 
 1783000   0.94579639   -7.8559792    459.72098  0.021486305  0.021404004            7 
 1784000   0.97733225   -7.8544963    459.12189  0.021446277  0.021397191            2 
 1785000      0.96936   -7.8953146    458.18364   0.02139046  0.021390332            2 
 1786000   0.96644144   -7.8399124    458.82438  0.021408379  0.021383525            2 
 1787000   0.97264845   -7.8379894    459.12851  0.021410582  0.021376772            1 
 1788000   0.94892951   -7.7978538    461.79956  0.021523097  0.021370081            2 
 1789000   0.99194337   -7.8492654    460.20689  0.021436878  0.021363453            2 
 1790000   0.98011841   -7.8276129    460.14758  0.021422141   0.02135684            4 
 1791000   0.95577984   -7.8834938     459.8419  0.021395957  0.021350044            2 
 1792000   0.94380309   -7.8739723    459.29971  0.021358803  0.021343242            2 
 1793000   0.96666412    -7.883573    458.34981  0.021302742  0.021336416            2 
 1794000   0.95757276   -7.8560033    459.77367  0.021357008  0.021329684            3 
 1795000   0.95951238   -7.8332051    461.47616  0.021424149  0.021322966            3 
 1796000   0.95250054   -7.8829822    459.45141  0.021318272  0.021316203            3 
 1797000   0.95206294   -7.8811678    460.22471   0.02134227  0.021309454            4 
 1798000   0.95506145   -7.8600189    460.99176  0.021365951  0.021302709            3 
 1799000   0.97425215   -7.8554589    461.20413  0.021363912   0.02129598            2 
 1800000   0.96331493   -7.8749632     460.6153  0.021324782  0.021289289            5 
 1801000   0.97715569   -7.8756834    460.67525  0.021315716  0.021282576            5 
 1802000   0.95655804    -7.830872    462.31863  0.021379885  0.021275874            3 
 1803000   0.96838786    -7.875142    460.48754  0.021283395  0.021269209            4 
 1804000   0.97080425    -7.880694    461.57354  0.021321764  0.021262451            2 
 1805000   0.95251283   -7.8564131    461.30612  0.021297605  0.021255764            3 
 1806000   0.96556349   -7.8524758    462.40443  0.021336491  0.021249081            1 
 1807000   0.97216592   -7.8982713    460.97022  0.021258542  0.021242349            3 
 1808000   0.95750551   -7.9117466    459.84501  0.021194921  0.021235581            2 
 1809000   0.96502303    -7.865738    464.00839  0.021374995  0.021228818            2 
 1810000   0.95412078   -7.8481262    463.98258  0.021361997  0.021222216            2 
 1811000   0.95770296   -7.8507094    463.39835  0.021323318  0.021215645            4 
 1812000   0.97957797     -7.82005    464.46905  0.021360791  0.021209144            1 
 1813000   0.94818497   -7.8330419    464.12498  0.021333195  0.021202644            3 
 1814000   0.96861753   -7.8890512    462.33172  0.021239054  0.021196035            3 
 1815000   0.94202992   -7.8172727    465.16434  0.021357408  0.021189442            4 
 1816000   0.93036836   -7.8375986     464.4005  0.021310596  0.021182853            2 
 1817000   0.97137365   -7.8361367    465.69874  0.021358408  0.021176342            5 
 1818000   0.96620243    -7.854873    463.82738  0.021260881  0.021169783            2 
 1819000   0.94890883   -7.8605552    462.52753  0.021189643  0.021163224            2 
 1820000   0.96888928   -7.8613177    464.33182  0.021260615  0.021156681            3 
 1821000   0.95906503   -7.9061759     464.5007  0.021256667  0.021150135            3 
 1822000   0.95032317   -7.8885997    462.91047  0.021172268   0.02114359            2 
 1823000   0.94180224   -7.8551853    465.34816  0.021272086  0.021137022            1 
 1824000    0.9628402   -7.8765532    463.84724  0.021191851  0.021130487            1 
 1825000   0.95682783   -7.8720227    464.25986   0.02119908   0.02112397            2 
 1826000   0.95353709   -7.8721874    463.92399  0.021172143  0.021117448            3 
 1827000   0.94828675   -7.8824636    463.26351  0.021130428  0.021110816            3 
 1828000   0.98575346   -7.8381543    465.68051  0.021229053  0.021104168            4 
 1829000   0.94908656   -7.8679564    465.33822  0.021201851  0.021097475            4 
 1830000   0.95775983   -7.8523004    465.09243  0.021179072  0.021090824            2 
 1831000   0.95461238   -7.8734942    465.61812  0.021191431  0.021084148            2 
 1832000   0.97206807   -7.8398735    464.71801  0.021138919  0.021077467            3 
 1833000   0.96972697   -7.8841525    463.97722  0.021093709  0.021070842            2 
 1834000   0.95273142   -7.8603038    465.36672  0.021145343  0.021064078            2 
 1835000   0.94255188   -7.8723197    464.56308  0.021097324   0.02105735            3 
 1836000   0.93397533   -7.8875947    464.20798  0.021069716  0.021050637            4 
 1837000   0.95532988    -7.829459     465.7659  0.021128919  0.021043869            3 
 1838000   0.95321048   -7.8637594    465.12302  0.021088276  0.021037103            2 
 1839000   0.94843689   -7.8943298    463.98351  0.021025173  0.021030299            3 
 1840000    0.9667748   -7.8753268     464.0463   0.02101659  0.021023494            2 
 1841000   0.95349846   -7.8690021    464.40623  0.021021466  0.021016668            4 
 1842000   0.96238942   -7.8640541    465.70654  0.021068881  0.021009915            5 
 1843000   0.96285877   -7.8681568    464.00961   0.02098072  0.021003057            4 
 1844000     0.949043   -7.9100476    464.81136  0.021005575  0.020996193            2 
 1845000   0.96325293   -7.8653808    465.07647  0.021006164  0.020989445            1 
 1846000   0.96168284   -7.9006334    464.71252  0.020978355  0.020982672            3 
 1847000    0.9435988   -7.8782312     465.2068  0.020989298  0.020975892            2 
 1848000   0.95245098    -7.889933    464.96344  0.020966966  0.020969087            2 
 1849000   0.95769104   -7.8429987     466.2342  0.021012899  0.020962363            3 
 1850000   0.94229229   -7.8916958    465.73885  0.020979227  0.020955587            5 
 1851000    0.9576322   -7.9024925    465.71465  0.020966804  0.020948788            4 
 1852000   0.98986219   -7.9216551    466.15494  0.020975294  0.020941848            2 
 1853000    0.9412003   -7.9164379    464.83893  0.020904791  0.020934963            3 
 1854000   0.96742224    -7.877168    465.86204  0.020939502  0.020928141            5 
 1855000   0.96196626   -7.8655433     465.7023  0.020921038  0.020921339            2 
 1856000   0.96524573   -7.8249108     468.3663  0.021029378  0.020914596            2 
 1857000   0.96450437   -7.8960197    465.92446  0.020908475  0.020907863            5 
 1858000   0.95811165   -7.8717295    467.85783  0.020983936  0.020901132            2 
 1859000   0.96137095   -7.9095398    466.50647   0.02091207  0.020894338            6 
 1860000    0.9562546    -7.905094    466.91099  0.020918951  0.020887533            1 
 1861000   0.95623192   -7.8893605    467.87217  0.020950751  0.020880778            2 
 1862000    0.9513881   -7.8776033    468.11504  0.020950369   0.02087409            2 
 1863000   0.94896425   -7.8518685    469.12437  0.020984271   0.02086736            2 
 1864000   0.95455149   -7.9009307    467.95735   0.02092084  0.020860678            2 
 1865000   0.95749785   -7.8923029    468.84245  0.020949171  0.020853983            2 
 1866000   0.95218526   -7.8980974    469.12933  0.020950756  0.020847257            1 
 1867000   0.95340315   -7.8846933    468.74415  0.020922342  0.020840583            1 
 1868000   0.94093377    -7.898703    469.68383  0.020953062  0.020833882            1 
 1869000   0.96033806   -7.9016149    468.92451  0.020907995  0.020827119            3 
 1870000   0.96455487    -7.914278    469.40905  0.020918407  0.020820375            2 
 1871000   0.94521631    -7.875124    469.12385  0.020894524  0.020813712            1 
 1872000     0.951082   -7.8800284    469.74194  0.020910877  0.020807086            3 
 1873000    0.9268843   -7.8892034    470.28742  0.020923982  0.020800438            5 
 1874000   0.93988389   -7.8841818    469.45723    0.0208759   0.02079376            1 
 1875000   0.96305499    -7.886063    468.97701  0.020843423  0.020787045            2 
 1876000   0.94930312   -7.8802125    470.25935  0.020889275  0.020780355            3 
 1877000   0.94477648   -7.8582139    469.36176  0.020838295  0.020773719            2 
 1878000   0.92808621   -7.8619512    469.37158  0.020827635  0.020767099            3 
 1879000   0.95287879   -7.8743692    469.88137   0.02083916  0.020760428            3 
 1880000   0.94564524   -7.8954872    470.02293   0.02083435  0.020753711            1 
 1881000   0.95509462   -7.9090625    468.87964  0.020772623  0.020746995            8 
 1882000   0.94678106   -7.9066394    469.27062  0.020778898  0.020740229            3 
 1883000   0.96181448   -7.9029617    469.35626  0.020771652  0.020733452            4 
 1884000   0.95040043   -7.8883195    470.14406  0.020795473  0.020726721            2 
 1885000   0.95771366   -7.9076086    469.45249  0.020753868  0.020720019            2 
 1886000   0.93652051   -7.9317057    468.16446  0.020685952  0.020713204            3 
 1887000   0.94488346   -7.9441702    468.80998  0.020703497  0.020706392            2 
 1888000     0.965926    -7.882439    469.75512  0.020734248  0.020699599           12 
 1889000    0.9381748   -7.8744117    471.51321   0.02080083   0.02069281            4 
 1890000   0.94988391   -7.8801401     469.8319  0.020715692  0.020686031            1 
 1891000   0.93178235   -7.8857874    469.83849  0.020705028  0.020679222            3 
 1892000   0.96387876   -7.8699519    472.11724  0.020794452  0.020672416            1 
 1893000   0.96571041   -7.9412716    468.58439  0.020627944   0.02066559            2 
 1894000   0.97624762   -7.8922164    469.69052  0.020665722  0.020658743            2 
 1895000   0.93348774   -7.9011082    471.21526  0.020721867  0.020651919            2 
 1896000   0.94415994   -7.8846394    471.08398  0.020705168  0.020645102            2 
 1897000   0.93665873   -7.8946976    471.96179  0.020732815  0.020638362            3 
 1898000   0.94342514   -7.8747772    471.16601  0.020686952  0.020631627            3 
 1899000   0.96199272   -7.8972349    470.86687  0.020662931  0.020624858            3 
 1900000   0.94754086   -7.9269638    470.64603   0.02064237  0.020618069            2 
 1901000   0.96637022   -7.9084557    471.72625  0.020678864  0.020611294            2 
 1902000   0.91638653   -7.8896367    471.80513  0.020671448  0.020604569            3 
 1903000   0.94898578   -7.8723135    471.35278  0.020640777  0.020597842            3 
 1904000    0.9477155   -7.9262893    471.68127  0.020644313  0.020591113           11 
 1905000   0.97185444   -7.9161875    470.96383  0.020602092  0.020584355            2 
 1906000   0.94621789   -7.9129529    472.30847  0.020650073  0.020577605            2 
 1907000   0.94375737   -7.9163241    471.39802  0.020599459  0.020570863            3 
 1908000   0.91761726   -7.9223018    470.44898  0.020547212  0.020564067            2 
 1909000   0.95782676   -7.8811622    471.15075  0.020567083  0.020557294            3 
 1910000   0.96135282   -7.9202834    471.31159  0.020563333  0.020550599            3 
 1911000   0.92174478   -7.9280466    472.00568  0.020582839  0.020543852            4 
 1912000   0.94636148   -7.9148593     472.0185  0.020572633  0.020537092            4 
 1913000   0.94088907   -7.9130928    472.62731    0.0205884  0.020530349            1 
 1914000   0.97380826   -7.8961024     473.7936  0.020628422  0.020523589            2 
 1915000   0.94480351   -7.9152575    473.32595    0.0205973  0.020516835            1 
 1916000   0.94452494   -7.9358168    471.70238  0.020515935  0.020509989            2 
 1917000   0.93178377   -7.9115155    473.07184  0.020564764  0.020503163            3 
 1918000   0.95103178   -7.9138048    472.11627  0.020512525  0.020496352            2 
 1919000   0.93042024    -7.905034    472.00812  0.020497139  0.020489534            3 
 1920000   0.92063748    -7.893901     473.4037  0.020547036  0.020482775            3 
 1921000   0.93451107   -7.8684292    474.09655  0.020566395  0.020476072            3 
 1922000   0.91709599   -7.8758864    473.89314  0.020546876  0.020469441            3 
 1923000    0.9513089   -7.9233945     472.6868  0.020483914  0.020462721            2 
 1924000   0.96718715    -7.879539    474.39438  0.020547227   0.02045605            6 
 1925000   0.94091391   -7.8768686    474.40868  0.020537172  0.020449384            2 
 1926000   0.94120177   -7.8907755    473.86937  0.020503175  0.020442729            2 
 1927000   0.93652495   -7.8502029    475.14419  0.020547664  0.020436094            5 
 1928000   0.92709871   -7.9086185    473.38882  0.020461135  0.020429416            2 
 1929000   0.94250432   -7.9085967    474.05137   0.02047915  0.020422652            2 
 1930000   0.93907423   -7.9103031    473.26793  0.020434712  0.020415906            1 
 1931000   0.92924695   -7.9188213    474.70381  0.020486096  0.020409182            2 
 1932000   0.93217083   -7.8912461    475.89894  0.020527042  0.020402504            3 
 1933000   0.93010044   -7.9182054    476.34964  0.020535853  0.020395815            2 
 1934000   0.96306013   -7.9623214    473.76151  0.020413716   0.02038911            2 
 1935000   0.93992874   -7.9059004    474.14487  0.020419676  0.020382399            2 
 1936000   0.93197174   -7.9288612     473.7478  0.020392037   0.02037565            2 
 1937000   0.93470785   -7.9108279    476.41123  0.020496095  0.020369011            1 
 1938000    0.9426212   -7.9520917    474.27335  0.020393591  0.020362381            3 
 1939000   0.95802724   -7.9714484    474.58357  0.020396406  0.020355649            3 
 1940000   0.93667487     -7.91693    474.94449  0.020401395  0.020348924            4 
 1941000   0.96154252   -7.9659342    474.51157  0.020372298  0.020342249            2 
 1942000   0.94833231   -7.8661488    476.52001  0.020447992    0.0203356            3 
 1943000   0.94122596   -7.8800538    478.80971  0.020535671  0.020329005            2 
 1944000    0.9477094   -7.9148231    475.54959  0.020385356  0.020322331            3 
 1945000   0.93936452   -7.9226774    476.56303  0.020418296   0.02031569            3 
 1946000   0.95013624   -7.9372762    475.27973  0.020352849   0.02030905            3 
 1947000   0.96098775   -7.9247442    477.32145  0.020429783  0.020302405            4 
 1948000   0.94502644   -7.9107625    476.53673  0.020385726  0.020295845            2 
 1949000   0.93139067   -7.9249328    476.29989   0.02036514  0.020289294            2 
 1950000   0.93161929   -7.9472979    475.79962  0.020333317  0.020282639            3 
 1951000   0.93938802    -7.927686    476.57238  0.020355902  0.020275952            2 
 1952000   0.95245982   -7.9323622    476.89077  0.020359066  0.020269274            3 
 1953000   0.94270583   -7.9204629     475.8161  0.020302786  0.020262613            4 
 1954000   0.93731372   -7.9262059    477.63994  0.020370178  0.020255907            2 
 1955000    0.9532218   -7.9437306    476.34329  0.020304488  0.020249243            2 
 1956000   0.92829823   -7.9671794    474.94534  0.020234549  0.020242558            2 
 1957000   0.93546709   -7.8996875    478.70163  0.020384161  0.020235848            4 
 1958000   0.93219132   -7.9159629    477.51384  0.020323197  0.020229164            2 
 1959000   0.94872057   -7.8768204    476.64492   0.02027586  0.020222484            2 
 1960000   0.93904261   -7.9782822    475.90786  0.020234178  0.020215821            2 
 1961000   0.96892271    -7.941016    477.19667  0.020278628  0.020209162            2 
 1962000   0.92563963   -7.9227733    477.30437  0.020272867  0.020202495            5 
 1963000   0.94169189   -7.9316852    477.11743  0.020254603  0.020195868            2 
 1964000   0.92980129   -7.9085022     478.0615  0.020284347  0.020189306            2 
 1965000   0.92374317   -7.9465257     478.9802  0.020312986  0.020182778            4 
 1966000   0.94586461   -7.9254636    479.09712  0.020307609  0.020176229            3 
 1967000   0.95164016   -7.9714316     477.5783  0.020232939  0.020169625            3 
 1968000   0.92168388   -7.9319555    477.97093  0.020239284  0.020162989            5 
 1969000    0.9265846   -7.9277794    479.39153  0.020289129  0.020156376            4 
 1970000    0.9416365   -7.9472901    477.43826  0.020196204  0.020149731            3 
 1971000   0.92670456   -7.9259222    478.86302  0.020246196  0.020143119            2 
 1972000   0.94225002   -7.9297824    478.77237  0.020232098  0.020136513            2 
 1973000   0.96360895   -7.9225383    477.84193  0.020182545  0.020129865            3 
 1974000   0.95345958   -7.9339825    478.05662  0.020181384  0.020123208            2 
 1975000   0.93500243   -7.9177407    478.92815  0.020207939  0.020116582            2 
 1976000   0.92058104   -7.9157021    479.25764  0.020211608  0.020109952            2 
 1977000   0.94646166   -7.9340789    478.59238  0.020173343  0.020103322            6 
 1978000   0.93728228   -7.9505511    478.95424  0.020178389  0.020096657            3 
 1979000   0.94914116   -7.9699149    478.39234  0.020144532  0.020090004            3 
 1980000   0.94269026   -7.9546602    479.54884  0.020183032  0.020083292            1 
 1981000   0.93987065    -7.931886    478.77468  0.020140278  0.020076631           10 
 1982000   0.93587944   -7.9566622    478.70264  0.020127087  0.020069927            2 
 1983000   0.90961528   -7.9388441    479.48335  0.020149746  0.020063233            2 
 1984000    0.9206766   -7.9224671    479.43617  0.020137608  0.020056589            9 
 1985000    0.9308688   -7.9390716    479.76199  0.020141142  0.020049921            3 
 1986000   0.94575152   -7.9470064    478.58158   0.02008147  0.020043224            3 
 1987000    0.9598696   -7.9165116    480.08588  0.020134452   0.02003649            4 
 1988000   0.91466141   -7.9740762     479.0904  0.020082596  0.020029741            2 
 1989000    0.9495078    -7.968549    479.48431  0.020089002  0.020023006            3 
 1990000   0.92876673   -7.9308661    479.60445  0.020083938   0.02001637            2 
 1991000   0.94232731   -7.9575049    480.28288  0.020102247  0.020009682            1 
 1992000    0.9291952   -7.9518113    478.91185  0.020034799  0.020003049            2 
 1993000   0.94504585   -7.9258304     479.3758  0.020044146  0.019996393            3 
 1994000   0.94014122   -7.9604674    480.89193  0.020097456  0.019989776            3 
 1995000   0.93999997   -7.9553915    481.53494  0.020114242  0.019983142            5 
 1996000     0.951616   -7.9697291      480.783  0.020072771  0.019976455            2 
 1997000   0.91612174   -7.9558087     481.2714    0.0200831  0.019969797            3 
 1998000   0.96028988   -7.9432795    481.09051  0.020065503   0.01996319            2 
 1999000   0.93020024   -7.8947152    481.86503  0.020087754  0.019956605            4 
 2000000   0.92588574   -7.9451798    481.45906  0.020060794  0.019950041            3 
 2001000   0.91324172   -7.9457798    479.77925  0.019980812  0.019943534            2 
 2002000   0.93946904   -7.9369561    480.48613  0.020000255  0.019936905            2 
 2003000   0.94545266   -7.9621507     481.4131  0.020028836  0.019930281            2 
 2004000    0.9387309   -7.9229799    481.53357  0.020023851  0.019923681            3 
 2005000   0.91560797   -7.9336337    481.72994  0.020022026  0.019917095            4 
 2006000   0.91718247   -7.9303943    479.70582  0.019927959  0.019910539            4 
 2007000   0.92596064   -7.9383063    481.60593  0.019996925  0.019903938            5 
 2008000   0.92183983   -7.9461681    481.62372  0.019987704  0.019897333            4 
 2009000   0.93582572    -7.926308    482.10679  0.019997793  0.019890743            1 
 2010000   0.94592641   -7.9560321    481.45242  0.019960714  0.019884102            2 
 2011000   0.95029061   -7.9953788    480.40999  0.019907591  0.019877445            3 
 2012000   0.93163209   -7.9484578    481.15163  0.019928414  0.019870701            1 
 2013000   0.93676174   -7.9362749    481.56949  0.019935813  0.019864007            4 
 2014000   0.91566953   -7.9541503    482.04787  0.019945708  0.019857336            2 
 2015000   0.93583371    -7.924962    482.83829  0.019968498  0.019850709            5 
 2016000   0.94230548   -7.9846235    481.38499   0.01989852  0.019844057            4 
 2017000   0.91466359   -7.9550236    483.39861  0.019971848  0.019837419            2 
 2018000   0.92147032   -7.9384526    481.86094  0.019898453  0.019830785            1 
 2019000   0.94654061   -7.9364248    482.68596   0.01992265  0.019824186            3 
 2020000   0.94425715   -7.9269975    482.72883  0.019914556  0.019817578            5 
 2021000   0.90779561   -7.9417295    482.38222   0.01989041  0.019810949            1 
 2022000   0.93240586   -7.9763047    482.42752   0.01988244  0.019804291            9 
 2023000   0.93154266   -7.9490492    482.91216  0.019892575   0.01979767            2 
 2024000   0.93555524    -7.992683    481.78083  0.019836167  0.019790961            3 
 2025000   0.92911114   -7.9383193    482.46291  0.019854441  0.019784306            3 
 2026000   0.93096829   -7.9349332    483.92238  0.019904672  0.019777656            2 
 2027000   0.93713609   -7.9448875     484.6468  0.019924634  0.019771055            3 
 2028000    0.9368955   -7.9667202    483.31685   0.01986016  0.019764425            2 
 2029000   0.93994168    -7.941977    483.49597  0.019857728  0.019757859            1 
 2030000   0.93466528   -7.9755381    483.65194  0.019854349  0.019751281            1 
 2031000   0.93155429   -7.9606458     482.5455  0.019799175  0.019744611            2 
 2032000   0.91826804   -7.9654719     484.1616  0.019855709     0.019738            3 
 2033000   0.91900367   -7.9618377    483.77511    0.0198301  0.019731397            4 
 2034000   0.92172383   -7.9653633    483.83053  0.019822621  0.019724815            2 
 2035000    0.9362309   -7.9397773    484.76077  0.019850973  0.019718316            6 
 2036000   0.93033741   -7.9523434    483.55723  0.019791963  0.019711787            3 
 2037000   0.92173185   -7.9153448     484.5382  0.019822378  0.019705213            2 
 2038000   0.92468231    -8.004002    483.28586  0.019761443  0.019698626            2 
 2039000   0.93220615   -7.9401714    484.62481  0.019806474   0.01969204            4 
 2040000   0.93022066   -7.9640084    484.36221  0.019786038   0.01968554            2 
 2041000   0.92280581   -7.9875341    484.08729  0.019765119   0.01967902            2 
 2042000   0.93327003   -7.9727832    484.63373   0.01977774  0.019672441            1 
 2043000   0.93682902   -8.0079144    483.98773  0.019741709  0.019665803            1 
 2044000   0.94482864   -7.9752018    485.22215  0.019782377  0.019659236            2 
 2045000   0.92862803   -7.9155095     486.6546  0.019831076  0.019652681            6 
 2046000   0.91416628   -7.9220419      485.905  0.019790852  0.019646238            3 
 2047000   0.89714604    -7.981363    486.74944  0.019815561  0.019639764            8 
 2048000   0.91801256   -7.9313021    486.28474  0.019786977  0.019633312            3 
 2049000   0.93886811   -7.9446365    487.08281  0.019809777  0.019626888            5 
 2050000   0.93070999   -7.9953716    485.69079  0.019743528  0.019620424            6 
 2051000    0.9203646   -7.9491724    485.54473  0.019727967  0.019613938            4 
 2052000   0.93474066    -7.968066     486.3578  0.019751373  0.019607426            2 
 2053000   0.92190894    -7.984749    486.41693  0.019744152  0.019600831            3 
 2054000   0.93496457   -7.9412126    485.85828  0.019711875   0.01959426            8 
 2055000   0.92753363   -7.9437646      485.656   0.01969408  0.019587752            2 
 2056000   0.94189001   -8.0003822    484.80191  0.019649883  0.019581191            3 
 2057000    0.9328435   -7.9788529    487.16402  0.019736024  0.019574679            3 
 2058000   0.94059204   -7.9640865    486.39623  0.019695345  0.019568185            3 
 2059000   0.91870469   -7.9910356    485.31507  0.019642021  0.019561659            2 
 2060000   0.92162029   -8.0082686    486.49939  0.019680396  0.019555093            3 
 2061000   0.93352141   -7.9770967    486.46606    0.0196695  0.019548564            4 
 2062000   0.97112211   -7.9874707    486.35247   0.01965537  0.019542019            2 
 2063000   0.91449453    -8.002941     486.2375  0.019641198  0.019535434            3 
 2064000   0.91223817   -7.9703281    487.22552  0.019671573  0.019528857            5 
 2065000   0.93239086   -7.9867815    486.00282  0.019612705  0.019522283            4 
 2066000    0.9052539   -7.9953868    487.79738  0.019675596  0.019515775            4 
 2067000   0.94879172   -7.9605692    487.23429  0.019643376  0.019509274            2 
 2068000   0.92747803    -7.965599     488.2259  0.019673835  0.019502784            3 
 2069000   0.91980462   -7.9881402    487.87339  0.019650129  0.019496325            1 
 2070000    0.9206958   -7.9956886    487.66827  0.019632378   0.01948986            4 
 2071000   0.92813735    -7.993466    486.64024  0.019581532  0.019483343            5 
 2072000   0.90201563    -7.951733    488.16206  0.019633288  0.019476835            3 
 2073000   0.90735767   -7.9600238    486.85423  0.019571243  0.019470347            4 
 2074000   0.89846906   -7.9304127    487.88187  0.019603097  0.019463857            2 
 2075000   0.90667241    -7.941611    488.24732  0.019608326  0.019457381            4 
 2076000   0.90307399   -7.9551279    488.63077  0.019614273  0.019450932            3 
 2077000   0.92670158   -7.9814891    486.95198  0.019537473  0.019444434            5 
 2078000    0.9210609   -8.0038054     488.7591  0.019600541  0.019437905            3 
 2079000   0.94093258   -8.0184238     487.5024  0.019540741  0.019431378            2 
 2080000   0.92273248   -8.0076556    487.50594  0.019531488  0.019424816            3 
 2081000   0.90593967   -8.0232718    486.84426  0.019495606  0.019418288            6 
 2082000   0.90335996    -8.028565    486.69304  0.019480189  0.019411688            3 
 2083000   0.92206177   -8.0115888    488.66778  0.019549839  0.019405121            2 
 2084000    0.9211781   -7.9877008    487.73852    0.0195033   0.01939859            3 
 2085000   0.90113937   -7.9802682    488.54154  0.019526041  0.019392003            2 
 2086000   0.91429425   -7.9875496    487.61624  0.019479716  0.019385453            4 
 2087000   0.92510417   -7.9786844    488.13161   0.01949096  0.019378912            2 
 2088000   0.90547611   -7.9795115    488.61895  0.019501076  0.019372384            3 
 2089000   0.89574695   -7.9810293     487.3165  0.019439784  0.019365903            4 
 2090000   0.91480339   -8.0018508    488.85224  0.019491716  0.019359434            2 
 2091000   0.92564211   -7.9953289    488.17375  0.019455354   0.01935292            2 
 2092000   0.91828822   -7.9708647    488.99113  0.019478614  0.019346363            4 
 2093000   0.92093031   -7.9691362     489.2385  0.019479157  0.019339855            3 
 2094000   0.92384491   -7.9792583    488.80258  0.019452506  0.019333371            5 
 2095000   0.91559713   -7.9409655    490.38788   0.01950628  0.019326899            3 
 2096000   0.91400955   -7.9682217    489.51278  0.019462181  0.019320486            2 
 2097000   0.92795237   -8.0131304    488.40792  0.019408994  0.019313994            2 
 2098000   0.91978928   -8.0042184    488.35683  0.019397713  0.019307459            3 
 2099000    0.9309772   -7.9725543     487.6787  0.019361549  0.019300934            3 
 2100000   0.91760537   -7.9730561    489.42453  0.019421608  0.019294439            5 
 2101000   0.93210767   -7.9742123    488.89767  0.019391467  0.019287841            1 
 2102000    0.9309364   -7.9827788    489.93871  0.019423514  0.019281306            2 
 2103000   0.91149514   -8.0065454    489.10242  0.019381139  0.019274795            3 
 2104000   0.91242829   -8.0053592    490.65728  0.019433511  0.019268302            2 
 2105000   0.92208435   -7.9950578    490.45047  0.019416092  0.019261844            5 
 2106000   0.90242451   -8.0287498    488.59146  0.019333312  0.019255292            3 
 2107000   0.92975273   -7.9969998    489.88578  0.019375327  0.019248778            3 
 2108000   0.88985204   -7.9748279    490.90307  0.019406351  0.019242276            3 
 2109000   0.92469971   -7.9966477    490.17648   0.01936844  0.019235793            5 
 2110000   0.92282195   -8.0198555    489.90906  0.019348699  0.019229325            2 
 2111000   0.90612263   -7.9912035    490.81642  0.019375352  0.019222805            2 
 2112000   0.91670604   -7.9715271    491.36722  0.019387911  0.019216289            2 
 2113000   0.92306348   -8.0209113    490.11189  0.019329227  0.019209821            3 
 2114000   0.90857655   -7.9894529    490.12278  0.019320513  0.019203317            5 
 2115000   0.90666633    -8.020737    489.66066   0.01929317  0.019196771            5 
 2116000    0.9072917    -8.024643     489.4471  0.019275642  0.019190197            3 
 2117000   0.93431489   -7.9803732    489.20169  0.019256876  0.019183611            9 
 2118000   0.91097714   -7.9856424    490.06347  0.019281692  0.019177022            3 
 2119000   0.91546905   -8.0028608    490.50584  0.019289989  0.019170447            3 
 2120000   0.89009425   -8.0107133    491.23897  0.019309708  0.019163862            6 
 2121000    0.9238237   -7.9938185    490.19861  0.019259729  0.019157334            2 
 2122000   0.90071074   -7.9920206      490.932  0.019279453  0.019150858            4 
 2123000   0.91772405   -8.0214809    490.94626  0.019270932   0.01914436            3 
 2124000   0.90024676   -8.0053412    490.84435  0.019257861  0.019137835            1 
 2125000   0.90237869   -8.0284021     489.7817  0.019207126  0.019131273            4 
 2126000   0.90197618   -8.0288743     490.0225   0.01920753  0.019124681            3 
 2127000   0.90236819   -8.0336375    490.74264  0.019226714  0.019118124            2 
 2128000   0.90677276   -8.0034489    490.55741  0.019210425  0.019111561            1 
 2129000    0.9045486   -8.0275476    491.47666  0.019237383  0.019104978            2 
 2130000   0.92098453   -7.9965242    490.94609  0.019207593  0.019098406            2 
 2131000   0.90270432   -8.0070649    492.15546  0.019245873  0.019091894            2 
 2132000    0.9076537   -8.0198998    491.07558  0.019194636  0.019085376            1 
 2133000   0.91389665   -8.0213994    490.42796  0.019160336  0.019078842            1 
 2134000   0.92885048   -8.0488252    490.26827  0.019145121  0.019072271            1 
 2135000    0.9223595   -8.0474341    490.71821  0.019153716  0.019065713            2 
 2136000   0.92625654   -8.0300165    491.40944  0.019171717   0.01905915            5 
 2137000   0.89722143   -7.9679499    492.87654  0.019219956  0.019052631            2 
 2138000   0.89414037   -8.0048543    492.71326  0.019204602  0.019046167            3 
 2139000   0.90269306   -7.9646022      492.669  0.019193899  0.019039714            4 
 2140000    0.9074753   -7.9757753    491.67886  0.019146373  0.019033223            3 
 2141000   0.90784794   -7.9858098     492.7634  0.019179644  0.019026803            3 
 2142000   0.91982544   -7.9904913    492.41252  0.019157039  0.019020358            1 
 2143000   0.92680575   -7.9906877    492.86368  0.019165643  0.019013911            2 
 2144000   0.90616585   -8.0037783    492.84194  0.019155859  0.019007486            2 
 2145000   0.91283168   -7.9753358    492.48315   0.01913299   0.01900106            2 
 2146000   0.91401515   -8.0045799    493.16302  0.019150475  0.018994663            4 
 2147000   0.91087266   -8.0164276    492.78416   0.01912685  0.018988209            1 
 2148000   0.92907097   -7.9835202    494.13585  0.019170385  0.018981797            2 
 2149000   0.89046125   -8.0030283    492.78703   0.01910916  0.018975375            2 
 2150000   0.89135989   -8.0113257    493.51449  0.019128469   0.01896893            1 
 2151000   0.91509885   -8.0332742    492.08125  0.019064049  0.018962455            2 
 2152000   0.90537357   -8.0280829     492.5965  0.019075143  0.018955979            2 
 2153000   0.89877802   -8.0239218    492.75553  0.019072439   0.01894951            4 
 2154000   0.91033134    -8.010189    492.87172   0.01906808  0.018943061           11 
 2155000   0.90400029   -7.9984026    492.58091  0.019047986  0.018936611            3 
 2156000   0.87882422   -8.0338917    493.30245   0.01906704  0.018930163            2 
 2157000   0.89540809   -8.0105081     494.2719  0.019095654  0.018923729            7 
 2158000   0.90309997   -8.0061202    494.20267  0.019084132  0.018917324            3 
 2159000   0.90674776    -8.023534     495.0661  0.019108619  0.018910945            4 
 2160000   0.91087141    -7.981818    493.97238  0.019057576  0.018904573            2 
 2161000   0.92170313   -8.0112278    494.45511  0.019067373  0.018898282            3 
 2162000   0.91312806   -8.0206088    493.44906  0.019019776  0.018891914            2 
 2163000   0.89361284   -8.0388762    494.55772  0.019053696  0.018885534            2 
 2164000   0.90508737   -7.9851434    495.08323  0.019065128  0.018879142            3 
 2165000   0.90733057   -8.0074329    494.30106  0.019026215  0.018872751            3 
 2166000   0.89373071   -8.0392346    494.61631  0.019029559  0.018866368            5 
 2167000   0.91793328   -8.0059003    496.42828  0.019090458  0.018860024            2 
 2168000   0.90367175   -8.0349953    494.63119  0.019012576  0.018853703            4 
 2169000   0.92829487   -8.0131712    495.11897  0.019022551  0.018847358            4 
 2170000   0.90680078   -8.0008968    496.35301  0.019061176  0.018841004            4 
 2171000   0.90147176   -8.0143148    495.16975  0.019006977  0.018834724            3 
 2172000   0.90623274   -8.0404765    495.45697  0.019009245  0.018828366            5 
 2173000   0.87999775   -7.9647379    497.43176   0.01907623  0.018822053            4 
 2174000    0.8945729   -8.0220926     494.4663  0.018953783  0.018815723            1 
 2175000   0.90960686    -8.018662     495.7878  0.018995701  0.018809356            3 
 2176000   0.92666834   -8.0474036    495.11508  0.018961208  0.018802971            8 
 2177000   0.90987781   -8.0138019     496.7758   0.01901607  0.018796633            7 
 2178000   0.90339659   -7.9813924     496.0048  0.018977839  0.018790359            2 
 2179000   0.90091423   -8.0026908    496.07626  0.018971862  0.018784046            4 
 2180000   0.91644126   -7.9997189    494.48963  0.018902509  0.018777708            5 
 2181000   0.88676721   -8.0024777    496.11626  0.018955993  0.018771384            3 
 2182000   0.91918514   -8.0329718    495.92271  0.018939914  0.018765081            5 
 2183000   0.87966757   -8.0420277    496.66669  0.018959639  0.018758737            3 
 2184000   0.88426456   -8.0284054    496.46184  0.018943141   0.01875234            2 
 2185000    0.9078891   -8.0402642    497.02717  0.018956032  0.018746018            3 
 2186000   0.88922082   -7.9817402    498.01891  0.018985168  0.018739699            2 
 2187000   0.90503852   -7.9805014    498.02304  0.018976644  0.018733443            1 
 2188000   0.91044594   -8.0439202    495.75918  0.018881748  0.018727165            2 
 2189000   0.90607618   -8.0340287    496.71069  0.018909345   0.01872085            4 
 2190000   0.91611389   -8.0365801    498.02432  0.018950697  0.018714537            4 
 2191000    0.9059143   -8.0194126     497.6659  0.018928416  0.018708267            8 
 2192000   0.88127813   -8.0120368    498.06376  0.018934906  0.018702029            4 
 2193000   0.90656573   -8.0078422    498.03938  0.018925345   0.01869577            3 
 2194000   0.90087738   -8.0054037    497.58835  0.018899588  0.018689534            4 
 2195000   0.89706216   -8.0343228    497.17309  0.018875212  0.018683275            2 
 2196000   0.90159662   -8.0468651    497.81007  0.018890789  0.018677064            4 
 2197000    0.8947376   -8.0371639    498.52033  0.018909131  0.018670873            2 
 2198000   0.88248386   -7.9916691    498.41758  0.018896633   0.01866471            4 
 2199000   0.88588968   -8.0471428    497.91338  0.018868932  0.018658516            2 
 2200000   0.89324491   -8.0351978    497.90981   0.01886022  0.018652316            7 
 2201000   0.89720312   -8.0343793     497.8537  0.018849527  0.018646126            8 
 2202000   0.90806091   -8.0794163     498.2772  0.018856993  0.018639927            4 
 2203000   0.88349366   -8.0313227    498.55527  0.018858952  0.018633725            4 
 2204000   0.89528059   -8.0248045    500.05274  0.018907015   0.01862754            2 
 2205000   0.90828733   -8.0124176    498.07652  0.018823754  0.018621357            2 
 2206000    0.8899564   -8.0245013    498.38424  0.018826845    0.0186151            2 
 2207000   0.90160605   -8.0339362    497.97966  0.018803038   0.01860888            3 
 2208000   0.87792578   -8.0602711    497.97705  0.018794424  0.018602596            2 
 2209000    0.8860857   -7.9896778    499.59329  0.018846887  0.018596341            5 
 2210000   0.91849292   -8.0433669     499.2646  0.018825965  0.018590172            2 
 2211000   0.89815134   -8.0229298    499.00575  0.018807695  0.018584016            2 
 2212000   0.90205395   -8.0114546    498.76321  0.018790054  0.018577831            3 
 2213000   0.89172882   -8.0050088    500.08086  0.018831182  0.018571626            4 
 2214000   0.89310528   -8.0056191    500.17968  0.018826396   0.01856545            2 
 2215000   0.89918967   -8.0212554    497.62107  0.018721635  0.018559238            2 
 2216000    0.8892956   -8.0305241    498.47519  0.018745306  0.018552982            2 
 2217000   0.89422374   -8.0338121     498.3931  0.018733766  0.018546698            2 
 2218000   0.90778167   -8.0086809    498.98048  0.018747388  0.018540429            2 
 2219000    0.8897619    -8.023012    498.67316  0.018727398  0.018534167            3 
 2220000   0.90354192    -8.068298    497.44608  0.018672901  0.018527855            5 
 2221000   0.90134337   -8.0688173    499.29523  0.018733875  0.018521561            4 
 2222000   0.90193362   -8.0341876    500.01741  0.018752528  0.018515197            2 
 2223000   0.90597296   -8.0302875    498.70018  0.018694714   0.01850886            1 
 2224000   0.90279476   -8.0567281    500.11869  0.018739459  0.018502576            2 
 2225000   0.87945039   -8.0455229    498.32177  0.018663737  0.018496222            5 
 2226000   0.88401428   -8.0416978    497.24031  0.018614866  0.018489869            3 
 2227000    0.8932821   -8.0499148    498.25076  0.018644318  0.018483545            2 
 2228000   0.88307603   -8.0087696    499.89693  0.018697521  0.018477246            3 
 2229000   0.90007882   -8.0529011    498.10059  0.018621975  0.018470953            2 
 2230000   0.88197157   -8.0221852    498.77857   0.01863896  0.018464578            3 
 2231000   0.87936683   -8.0591255    498.20414  0.018609149  0.018458219            3 
 2232000    0.8866771   -8.0356823    498.19278  0.018600387  0.018451854            3 
 2233000   0.90784873   -8.0714128    499.33852  0.018634815  0.018445463            6 
 2234000   0.88408696   -8.0365207    499.28721   0.01862456  0.018439091            6 
 2235000   0.90934666   -8.0579216    498.99153  0.018605202  0.018432709            3 
 2236000    0.9038551   -8.0361009     499.6934   0.01862304  0.018426343            3 
 2237000   0.89385388   -8.0664239    500.71844    0.0186529   0.01841996            1 
 2238000   0.89773103   -8.1079203    499.43541  0.018596791  0.018413618            4 
 2239000   0.89814844   -8.0634151    499.14018  0.018577497  0.018407205            2 
 2240000   0.89798907   -8.0755207     498.3156  0.018538527  0.018400834            2 
 2241000   0.89148026    -8.066134    498.94262  0.018553571  0.018394454            3 
 2242000   0.89690983   -8.0307112     499.9464  0.018582605   0.01838808            5 
 2243000   0.89734051   -8.0653845    499.77973  0.018568128  0.018381791            4 
 2244000   0.89405838   -8.0301254     499.3086  0.018542357  0.018375463            2 
 2245000   0.89237789   -8.0445615    500.01869  0.018560456  0.018369141            3 
 2246000   0.90220475   -8.0656049    499.73428   0.01854164    0.0183628            9 
 2247000   0.88992563   -8.0727775    499.26487   0.01851598  0.018356463            4 
 2248000   0.90292468   -8.0377565    500.40026  0.018549832  0.018350139            2 
 2249000   0.89461042   -8.0871103    500.12812    0.0185315  0.018343841            9 
 2250000   0.89320947   -8.0501576    501.01595  0.018556146  0.018337532            4 
 2251000   0.88158318   -8.0577504    499.36946  0.018486949   0.01833123            5 
 2252000   0.88233579   -8.0779732    500.39245  0.018516594  0.018324937            7 
 2253000    0.8936743   -8.0727961    500.67333  0.018518765   0.01831867            1 
 2254000   0.90610763   -8.0210403    501.07131  0.018525263  0.018312426            2 
 2255000   0.90016154   -8.0690202    500.88521   0.01851017  0.018306215            3 
 2256000   0.88432232    -8.061173     500.4385  0.018485465  0.018299975            3 
 2257000   0.90585971   -8.0635831    500.52109  0.018480324  0.018293738            2 
 2258000   0.89134509   -8.0553463    500.28743  0.018463516  0.018287473            5 
 2259000   0.88843475   -8.0397197    502.08409  0.018521621  0.018281227            3 
 2260000   0.88210349   -8.0648371    500.82772  0.018467099  0.018274964            4 
 2261000   0.89481937    -8.093985    499.81311  0.018421536  0.018268698           16 
 2262000   0.91073438   -8.0613463    501.60156  0.018479279  0.018262397            2 
 2263000     0.868147   -8.0904912    499.99765  0.018412051  0.018256186            3 
 2264000   0.88906252   -8.0697803    501.36341  0.018454189   0.01824986            5 
 2265000   0.88312312   -8.1008117    501.21465  0.018440568   0.01824356            4 
 2266000   0.88417398   -8.0500447    502.63527  0.018484675  0.018237347            4 
 2267000   0.87256637   -8.0528435    500.99634  0.018416275  0.018231119            4 
 2268000   0.87137985   -8.0788654    502.32456  0.018456958  0.018224902            3 
 2269000   0.88071848    -8.083576    501.07775  0.018403032  0.018218668            1 
 2270000   0.90519969   -8.0537863    501.73471  0.018419042  0.018212438            1 
 2271000   0.90399646    -8.085631    502.68201  0.018445692    0.0182062            2 
 2272000   0.87502895    -8.068425    504.31053  0.018497305  0.018199975            3 
 2273000   0.89536416    -8.054278    502.98723  0.018440652  0.018193772            2 
 2274000   0.89466404   -8.0867949    501.55538  0.018380071  0.018187586            3 
 2275000   0.88094773    -8.045821     503.4716  0.018442183  0.018181455            1 
 2276000   0.90368268   -8.0344004    503.17949  0.018423385  0.018175313            1 
 2277000   0.88922744   -8.0604571    503.51748  0.018427663  0.018169143            2 
 2278000   0.88300091   -8.0895263    502.55419  0.018384335  0.018162999            2 
 2279000   0.89077667   -8.0825705    503.42341  0.018408052  0.018156841            4 
 2280000   0.88162274   -8.0789621    502.80179  0.018377258  0.018150674            3 
 2281000   0.89993877   -8.0317161    503.71699  0.018402637  0.018144569            1 
 2282000   0.87454612    -8.059332    503.39703  0.018382889  0.018138424            3 
 2283000    0.9139634   -8.0606169    504.13029  0.018401602  0.018132289            2 
 2284000   0.87701995   -8.0794002    502.96524  0.018351038  0.018126173            2 
 2285000    0.8905704   -8.0641341     503.1677   0.01835039  0.018120022            4 
 2286000   0.90003316   -8.0402547    505.61502  0.018431577  0.018113887            2 
 2287000   0.88479333   -8.0346245    503.93574  0.018362328  0.018107712            3 
 2288000   0.88457631   -8.0568669    503.66416  0.018344412  0.018101561            3 
 2289000    0.8866901   -8.0569205    504.30734  0.018359813   0.01809543            2 
 2290000   0.90021924   -8.0960363    505.05754  0.018379095  0.018089321            5 
 2291000   0.87160214   -8.0941966    504.18126  0.018339199  0.018083161            3 
 2292000   0.87732363   -8.0709949    502.67542  0.018276448  0.018076997            5 
 2293000   0.89236479   -8.0559097    505.75627  0.018380443  0.018070861            2 
 2294000   0.87957693   -8.1118913    504.47818  0.018326002  0.018064754            9 
 2295000   0.88334088   -8.0473579     504.7136  0.018326565  0.018058674            4 
 2296000   0.85015119   -8.0607227    505.06214  0.018331233  0.018052589            4 
 2297000   0.88924669   -8.0458037    505.80758  0.018350297  0.018046516            6 
 2298000   0.89502594   -8.0884104    503.73827  0.018267271  0.018040429            4 
 2299000   0.89225627   -8.0739685    505.54474  0.018324806  0.018034407            3 
 2300000   0.86258019   -8.0727019    505.41892   0.01831228  0.018028355            2 
 2301000   0.88218435   -8.0857648     504.9419  0.018287045  0.018022297            2 
 2302000   0.86926563    -8.090552    505.76546  0.018308915  0.018016254            3 
 2303000   0.88498773   -8.0539735    505.54333  0.018292927   0.01801018            4 
 2304000   0.87167391   -8.1017698    504.02187  0.018229958   0.01800409            7 
 2305000   0.86548815   -8.1028479    506.12403  0.018298049   0.01799798            3 
 2306000   0.87462036   -8.0873086     505.7659  0.018277172  0.017991881            3 
 2307000   0.87919866   -8.1023902    505.35189  0.018254295    0.0179858            3 
 2308000   0.89243129   -8.1091967    504.42055  0.018212758  0.017979668            4 
 2309000   0.88334562   -8.0916783    505.07252  0.018228401  0.017973532            4 
 2310000   0.89802546   -8.1378388    504.18497  0.018188491  0.017967394            2 
 2311000   0.90046685   -8.1091844    504.83497  0.018204059  0.017961223            3 
 2312000   0.88462683   -8.1113395    505.09029  0.018205388  0.017955059            3 
 2313000   0.89164541   -8.0997491    504.89341  0.018190424  0.017948901            7 
 2314000   0.87839698   -8.0643696    505.03457  0.018187647  0.017942795            3 
 2315000   0.88603872   -8.0781149    505.79988  0.018207339  0.017936675            4 
 2316000    0.8894045   -8.0985113    504.63306  0.018157493  0.017930552            2 
 2317000   0.88035345   -8.1049667    504.14918  0.018132253   0.01792441            4 
 2318000   0.88348233   -8.0512669     507.6825  0.018251456  0.017918313            2 
 2319000   0.87863187   -8.0470392    506.92426  0.018216338  0.017912263            5 
 2320000   0.87456924   -8.0979485    505.43454  0.018154976  0.017906197            2 
 2321000   0.87908334   -8.0989102    506.58153  0.018188336  0.017900084            6 
 2322000   0.89208712   -8.1006818    504.85754  0.018118631  0.017893966            9 
 2323000   0.89836918   -8.1071294    506.14841  0.018157139  0.017887857            2 
 2324000   0.88287006   -8.0678082    506.08006  0.018146875   0.01788176            5 
 2325000    0.8671723   -8.0888915      506.521  0.018154875   0.01787565            4 
 2326000    0.8890156   -8.0807893    506.01659  0.018128998  0.017869542            1 
 2327000    0.8699309   -8.0899959    508.24089  0.018200863  0.017863534            8 
 2328000   0.87144757   -8.0775212    507.05526  0.018150604  0.017857495            5 
 2329000    0.9023614   -8.0809862    506.30178   0.01811585  0.017851445            8 
 2330000   0.89006697   -8.0913343    506.96097  0.018131651  0.017845336            3 
 2331000   0.89829176   -8.0839763    507.56515  0.018145472  0.017839282            3 
 2332000   0.87840981    -8.094136    505.76304  0.018073293  0.017833248            2 
 2333000   0.88288023   -8.0905198    506.13207  0.018078728  0.017827193            3 
 2334000   0.86426455   -8.0586074    507.40956  0.018116594  0.017821139            4 
 2335000   0.87545866   -8.0951202    505.94163  0.018056446  0.017815101            4 
 2336000   0.87607903   -8.0935876    506.27023  0.018060439  0.017809079            2 
 2337000   0.87162934   -8.0634192    507.60066  0.018100152  0.017803034            2 
 2338000   0.87866723   -8.1271144     507.6941  0.018095741  0.017796978            2 
 2339000   0.86925936   -8.0962939    506.34898   0.01804008  0.017790896            4 
 2340000   0.88596316   -8.1118037    506.56909   0.01804021   0.01778479            2 
 2341000    0.8717917    -8.102254    507.37526  0.018061201  0.017778732            2 
 2342000   0.88041141   -8.0978024    507.59106  0.018061168  0.017772694            1 
 2343000   0.90342895   -8.0908195     507.0016  0.018032494  0.017766623            2 
 2344000   0.87097071    -8.085276    507.12658  0.018029244  0.017760547            5 
 2345000    0.8855447   -8.1085016    506.11706  0.017985681   0.01775449            3 
 2346000   0.87603028   -8.0851065    506.89272  0.018005567   0.01774842            3 
 2347000   0.87095591   -8.0989019    506.65498  0.017989454  0.017742372            3 
 2348000   0.87760888   -8.1351063     507.1852   0.01800061  0.017736304            7 
 2349000   0.87370657   -8.0828138    508.01698  0.018022456  0.017730267            2 
 2350000     0.897789   -8.0912898     507.8192  0.018007773  0.017724223            2 
 2351000    0.8770155   -8.1197749      508.311  0.018017546  0.017718152            4 
 2352000   0.87726996   -8.0935345    507.61089   0.01798508  0.017712049            2 
 2353000   0.88272925   -8.1564014    506.70609  0.017945392  0.017705982           10 
 2354000   0.87573739   -8.0973542    508.25491  0.017992598  0.017699949            2 
 2355000   0.87264739   -8.1351309    508.05473  0.017977875  0.017693904            8 
 2356000   0.89458907   -8.0921915    507.72623  0.017958624  0.017687857            4 
 2357000   0.87680029   -8.1355788    507.24264  0.017933908  0.017681835            6 
 2358000   0.85496969     -8.12953    507.63932  0.017940321  0.017675765            3 
 2359000   0.86449467   -8.1342841    507.94765  0.017943608  0.017669674            2 
 2360000   0.88550959    -8.075415    507.43402  0.017917868  0.017663633            2 
 2361000    0.8854342    -8.079376    508.88513  0.017961497  0.017657586            5 
 2362000   0.86655465   -8.1280433    508.68578  0.017946859  0.017651532            4 
 2363000   0.87181887   -8.1083503    507.88822  0.017911138  0.017645444            2 
 2364000   0.88524478    -8.139357    507.76976  0.017899385  0.017639354            3 
 2365000   0.89021349   -8.1243473    507.49971  0.017882301  0.017633283            6 
 2366000   0.87423378    -8.078329    508.86967  0.017922995   0.01762721            5 
 2367000   0.87116228   -8.0464753    509.12722   0.01792449  0.017621208            3 
 2368000   0.86846773   -8.1162515    507.45489  0.017858069  0.017615181            4 
 2369000   0.87360681   -8.1163306    508.71517  0.017894863  0.017609143            2 
 2370000   0.87879109   -8.1428782    509.11682  0.017901435   0.01760307            8 
 2371000   0.85409432   -8.0914128    510.00004  0.017924928   0.01759705            4 
 2372000   0.86746586    -8.136601    509.81321  0.017910807  0.017591063            4 
 2373000   0.87670087   -8.1318136    508.89493  0.017871012  0.017585095            6 
 2374000   0.86340082   -8.1114633    509.69497  0.017891567    0.0175791            6 
 2375000   0.87828486   -8.1200929    509.12277  0.017863957   0.01757307            2 
 2376000   0.88960202   -8.1242897    508.32815  0.017828569  0.017567034            3 
 2377000   0.87558498   -8.0892821    509.83363  0.017873848  0.017561028            2 
 2378000   0.86614538   -8.1625871    508.64701  0.017824748  0.017555012            2 
 2379000   0.86564519   -8.1131522     508.7964  0.017822489  0.017548999            4 
 2380000   0.87828105   -8.1010453    508.84063  0.017816549  0.017542975            4 
 2381000   0.84737387   -8.1232765    508.20308  0.017786752  0.017536936            2 
 2382000   0.85294629    -8.138252    508.20844  0.017779472  0.017530875            3 
 2383000   0.87110187   -8.1205693    509.35626  0.017812151  0.017524861            2 
 2384000   0.85581284   -8.1224814     507.3223  0.017733581   0.01751885            2 
 2385000   0.86961802   -8.1611127    508.69676   0.01777417  0.017512812            2 
 2386000   0.88080894   -8.1419146    509.72515  0.017802639  0.017506743            2 
 2387000   0.86332005   -8.1392598    507.89307   0.01773122  0.017500676            3 
 2388000   0.87479203   -8.1514103    508.75879  0.017754006   0.01749459            4 
 2389000   0.87107919   -8.1180578    509.22863  0.017762963   0.01748855            2 
 2390000   0.84735082   -8.1243433    509.39304  0.017761264  0.017482517            1 
 2391000   0.85785042   -8.1563629    508.62157  0.017726947  0.017476486            4 
 2392000   0.89292477   -8.1243542    508.61628  0.017719352   0.01747047            4 
 2393000   0.87810655   -8.1223236    510.21277  0.017767543  0.017464484            5 
 2394000   0.87263571   -8.1210108    510.41517  0.017767167  0.017458495            4 
 2395000   0.85569448    -8.101796    509.04613  0.017712113  0.017452537            2 
 2396000   0.85405171   -8.1121737    511.20411  0.017779776   0.01744655            3 
 2397000   0.89188746   -8.1128949    510.22508  0.017738321  0.017440569            3 
 2398000   0.87155246   -8.1191845    510.17188  0.017729076  0.017434603            2 
 2399000   0.89098496   -8.1344646    510.14952  0.017720909    0.0174286            2 
 2400000   0.87644547     -8.14085    510.51891  0.017726351  0.017422601            4 
 2401000   0.86976306   -8.1735009    509.51541  0.017684139   0.01741656            3 
 2402000   0.88660745   -8.1692487    510.82465  0.017722199  0.017410541            5 
 2403000   0.87134544   -8.1661045    509.71687  0.017676407  0.017404507            6 
 2404000     0.880561   -8.1663353    509.47296  0.017660599  0.017398478            5 
 2405000   0.84597158    -8.138358    509.96833   0.01767042  0.017392482            2 
 2406000   0.87628143   -8.0870033     512.1536  0.017738764  0.017386491            3 
 2407000   0.87267741   -8.1614341     511.1824   0.01769777    0.0173805            1 
 2408000   0.86549665   -8.1250075    509.88729  0.017645601  0.017374536            3 
 2409000    0.8384234   -8.1122456    510.49061  0.017659147  0.017368597            6 
 2410000   0.86411868   -8.1004256    510.43986  0.017650064   0.01736266            6 
 2411000   0.87388287   -8.1186414    512.00376  0.017696798  0.017356722            4 
 2412000   0.86499079   -8.1064512    510.75147  0.017646195  0.017350767            1 
 2413000    0.8771434   -8.1167115    510.89538  0.017643852  0.017344802            4 
 2414000   0.87891469   -8.1391569    510.63144  0.017627431  0.017338804            4 
 2415000   0.85682391   -8.1450527    510.03203  0.017599449  0.017332796            2 
 2416000   0.85457583   -8.1142286    512.32371   0.01767121  0.017326834            1 
 2417000   0.86115664   -8.1299977    511.41718  0.017632643  0.017320921            5 
 2418000   0.86622604   -8.0992935    512.57683  0.017665317  0.017314976            3 
 2419000   0.87309028   -8.1420445    512.52427  0.017656203  0.017309065            5 
 2420000   0.85798803   -8.1495466    511.36408  0.017608956   0.01730311            1 
 2421000    0.8665423   -8.1485168    511.12589  0.017593484  0.017297139            3 
 2422000   0.87315585    -8.118278    509.92375  0.017544858  0.017291167            4 
 2423000   0.86368729   -8.1162108    512.46343  0.017624963   0.01728521            2 
 2424000   0.85477476   -8.1358484    511.39775  0.017581056  0.017279238            4 
 2425000    0.8611623   -8.1413309    511.14543  0.017565135  0.017273293            2 
 2426000   0.87758976   -8.1193718     512.8497  0.017616437  0.017267381            3 
 2427000   0.86367515   -8.1473291    510.77804  0.017538046  0.017261466            3 
 2428000   0.87034906   -8.1632275    511.34311  0.017550217  0.017255527            2 
 2429000   0.86363137   -8.1404649    512.50446  0.017582835  0.017249591            3 
 2430000   0.85177116   -8.1148269    512.71131  0.017582692  0.017243719            3 
 2431000     0.868247   -8.1459611    512.40369  0.017564915  0.017237834            3 
 2432000   0.86722294   -8.1353017    513.11306  0.017581999  0.017231911            6 
 2433000      0.85981   -8.1313623     511.8168  0.017530374  0.017225971            3 
 2434000   0.88241993   -8.1650437    512.17407  0.017535404  0.017220053            4 
 2435000   0.88594496   -8.1346477    512.76495  0.017548424  0.017214119            2 
 2436000   0.88127099   -8.1421229    512.27529   0.01752447  0.017208181            3 
 2437000   0.86551181   -8.1496202    511.39695  0.017487243  0.017202185            1 
 2438000   0.86384986   -8.1079337    511.67442  0.017489555   0.01719622            1 
 2439000   0.84710806   -8.1205839     512.0384   0.01749482  0.017190282            2 
 2440000   0.86970597    -8.168668    511.05602  0.017454099   0.01718436            1 
 2441000   0.87668372   -8.1142039     512.8272  0.017507415   0.01717841            1 
 2442000   0.86535455   -8.1570039    510.98283  0.017437306  0.017172461            3 
 2443000   0.86556655   -8.1334079    510.97452  0.017429885  0.017166496            4 
 2444000   0.83975209   -8.1376593    513.40383  0.017505586  0.017160544            1 
 2445000   0.85245193    -8.159609    511.73694  0.017441613  0.017154621            3 
 2446000   0.88182718   -8.1188128     512.5538  0.017462312  0.017148685            6 
 2447000   0.84235173    -8.148847     513.0439  0.017471867   0.01714277            4 
 2448000   0.85533836   -8.1616533    511.90232  0.017425869  0.017136848            1 
 2449000   0.84127311   -8.1490648    512.66201  0.017444604  0.017130928            4 
 2450000   0.85167699   -8.1474448    512.98555  0.017448488  0.017125017            2 
 2451000   0.85619727   -8.1237505     513.4896  0.017458507  0.017119107            2 
 2452000   0.86431128   -8.1215816     513.5312    0.0174528   0.01711323            7 
 2453000   0.85508208   -8.1213937    513.08442  0.017430508  0.017107326            2 
 2454000   0.87006883   -8.1314524    513.05755  0.017422492  0.017101406            2 
 2455000   0.84959481   -8.1697501    512.75723  0.017405201  0.017095445            7 
 2456000   0.85325208   -8.1208659     513.4573  0.017421868  0.017089521            2 
 2457000   0.85791738   -8.1488868    513.78866  0.017426016  0.017083599            2 
 2458000    0.8510274   -8.1625534    513.89802  0.017422634  0.017077667            2 
 2459000   0.86413315   -8.1409452    513.47607   0.01740125  0.017071765            4 
 2460000   0.83613111   -8.1367429    514.04271  0.017413371  0.017065908            4 
 2461000   0.84690875   -8.1100723    514.59588  0.017425026  0.017060067            6 
 2462000   0.85936328   -8.1317382     513.7257  0.017388495   0.01705421            4 
 2463000   0.87339752   -8.1070387    514.31078  0.017401231  0.017048389            4 
 2464000    0.8698062   -8.1143471    514.63494  0.017405132   0.01704259            2 
 2465000   0.84756452   -8.1270553    514.42284  0.017390901  0.017036723            3 
 2466000   0.85615852   -8.1577737    514.78779  0.017396181  0.017030884            3 
 2467000   0.84336415    -8.183646    512.29367   0.01730488  0.017025029            5 
 2468000    0.8538901   -8.1877976    514.02601  0.017356362  0.017019126            3 
 2469000   0.84869021   -8.2094366    512.76055   0.01730662  0.017013208            3 
 2470000   0.84410345   -8.1583747    514.91886  0.017372431  0.017007329            2 
 2471000   0.84030886    -8.170844    514.18434  0.017340629  0.017001496            2 
 2472000   0.86280637   -8.1563004    513.83492  0.017321835  0.016995613            1 
 2473000    0.8647516   -8.1812273    513.40415  0.017300315  0.016989735            1 
 2474000   0.84904731   -8.1875022    513.57137  0.017298955   0.01698384            3 
 2475000   0.84087124   -8.1390555    513.88198  0.017302424  0.016977954            8 
 2476000   0.86836501   -8.1257444    516.12236  0.017370839  0.016972094            3 
 2477000   0.86488552    -8.166726    514.82832  0.017320291  0.016966222            3 
 2478000   0.85565056   -8.1402713     515.2266  0.017326695  0.016960347            4 
 2479000   0.85056266   -8.1257167    515.14968   0.01731712  0.016954468            2 
 2480000   0.86862199   -8.1818434    515.12821  0.017309416  0.016948586            2 
 2481000   0.85486834   -8.1767435    514.36764  0.017276893  0.016942692            5 
 2482000    0.8361694   -8.1783226      513.296  0.017233951  0.016936797            2 
 2483000   0.83941215   -8.1475356    515.21688  0.017291478  0.016930916            4 
 2484000   0.85070582   -8.1291706    514.66876  0.017266128  0.016925042           10 
 2485000   0.84619923   -8.1711396    514.36937   0.01724914  0.016919186            5 
 2486000   0.85701048   -8.1761669     514.5782  0.017249202  0.016913273            2 
 2487000   0.87179531   -8.1558206     514.9391  0.017254359   0.01690737            3 
 2488000   0.85592109   -8.1865476    514.65331  0.017237852  0.016901466            3 
 2489000    0.8423247   -8.1707745    514.44772  0.017224043  0.016895563            3 
 2490000   0.86932221   -8.1918553    514.26124  0.017210885  0.016889634            4 
 2491000   0.85620993   -8.1700787    514.27002  0.017204269  0.016883769            3 
 2492000   0.86624705   -8.1213953    515.44399  0.017236624  0.016877943            4 
 2493000   0.86084178   -8.1325212    514.91895  0.017212159   0.01687212           10 
 2494000   0.83811899   -8.1481271    514.58655  0.017194151  0.016866285           10 
 2495000   0.84806873    -8.141135    514.95561  0.017199586   0.01686042            6 
 2496000   0.83454039   -8.1638114    514.69469  0.017183984  0.016854589            4 
 2497000   0.85592058   -8.1715008    514.42392  0.017168066  0.016848707            4 
 2498000   0.84260196   -8.1920954    514.60771  0.017167324  0.016842817            9 
 2499000    0.8427197   -8.1812106    514.63559  0.017161384  0.016836918            5 
 2500000   0.84121032    -8.177142    514.47288  0.017149096  0.016831012            4 
 2501000   0.85794424   -8.1501223     514.0901  0.017129485  0.016825118            2 
 2502000   0.86084844   -8.1817726    514.99298   0.01715271  0.016819247            2 
 2503000   0.87666862   -8.1555741    514.82954  0.017140416  0.016813362            4 
 2504000   0.85067387   -8.1794615    515.64635  0.017160755  0.016807496            6 
 2505000   0.86132608   -8.1798108    514.83792   0.01712701  0.016801627            3 
 2506000   0.83457423   -8.1654152    516.20505  0.017165638  0.016795746            4 
 2507000   0.85111222    -8.162707    515.92112  0.017149353  0.016789888            4 
 2508000   0.86738897   -8.1768565     514.5054  0.017095475  0.016784007            3 
 2509000   0.84276283   -8.1732285    515.78279  0.017131088  0.016778142            2 
 2510000    0.8412953   -8.1840041    514.38875   0.01707798  0.016772263            3 
 2511000   0.85042275   -8.1865258    515.25008  0.017099764   0.01676638            4 
 2512000   0.85534744   -8.1919453    515.70798  0.017108147  0.016760515            6 
 2513000   0.85258067   -8.1927117    514.26674  0.017053546  0.016754617            7 
 2514000   0.86777381   -8.2069361    513.74494  0.017029466  0.016748713           10 
 2515000   0.87512683   -8.1959941    514.80689  0.017057882  0.016742788            4 
 2516000   0.84486396   -8.1986036    514.58832  0.017043863  0.016736867            3 
 2517000   0.84952823   -8.2232489    513.99165  0.017017337  0.016730914            9 
 2518000   0.86355743   -8.1886694    515.31192  0.017054273  0.016725009            5 
 2519000    0.8669982   -8.2029171    514.50027  0.017020652  0.016719102            7 
 2520000   0.83590988   -8.2137362    514.53954  0.017015196  0.016713183            2 
 2521000   0.83755073   -8.1818437    514.86491  0.017019202  0.016707288            7 
 2522000   0.84447989   -8.1645951    516.85898  0.017078343  0.016701431            2 
 2523000   0.83187962   -8.1809615    517.46693  0.017091654  0.016695586            5 
 2524000   0.83853815   -8.2063304     514.6882  0.016993139  0.016689687            6 
 2525000   0.85811821   -8.1885238     516.0736  0.017032132  0.016683765           11 
 2526000   0.83208416   -8.2088461    515.40215  0.017003238  0.016677881            2 
 2527000   0.86677511   -8.1780285    516.50061  0.017032733   0.01667198            5 
 2528000   0.83406665   -8.2041998     515.5039   0.01699314  0.016666087            7 
 2529000   0.84166014   -8.1815754      515.354  0.016981482  0.016660209            6 
 2530000   0.85980462   -8.1757992    515.13903  0.016967689  0.016654362            5 
 2531000   0.85524108   -8.1664572    516.45546  0.017004328  0.016648548            5 
 2532000   0.82845774   -8.1784831    516.67816  0.017004942  0.016642713            2 
 2533000   0.84808086   -8.1783578    515.41414  0.016956644  0.016636873            2 
 2534000   0.85255039   -8.1879265     515.7798  0.016961977  0.016631018            6 
 2535000   0.83793851   -8.2362478    514.97647  0.016928878   0.01662517            6 
 2536000   0.84313496    -8.217755    516.27784  0.016964966  0.016619306            3 
 2537000   0.85923064   -8.2049538    516.11683   0.01695299  0.016613438            3 
 2538000   0.84348757    -8.223869    514.98399  0.016909114  0.016607586            2 
 2539000   0.86032216   -8.1790334    515.69568  0.016925813  0.016601757            2 
 2540000   0.85660527    -8.163695    516.10848  0.016932693  0.016595947            4 
 2541000   0.84823341   -8.1759054    516.67249  0.016944526  0.016590156            2 
 2542000   0.84877744   -8.2101599    515.51501  0.016899915  0.016584357            3 
 2543000   0.85712269   -8.1890682    517.77696  0.016967393  0.016578529            3 
 2544000   0.84416499   -8.2119142    516.88969  0.016931659  0.016572699            5 
 2545000   0.82882271   -8.1870049    515.91581  0.016893117  0.016566872            5 
 2546000   0.83794409    -8.194848    517.14336  0.016926661  0.016561053            4 
 2547000   0.83209775    -8.190097    516.70373  0.016905632   0.01655523            3 
 2548000   0.85668836    -8.189468    516.30144   0.01688584   0.01654943           10 
 2549000   0.85198305   -8.2103679     516.7537  0.016894001  0.016543659            5 
 2550000   0.82696194   -8.1928638    517.33372  0.016906331   0.01653789            2 
 2551000   0.84305826   -8.2084927    518.10711  0.016924968  0.016532119            5 
 2552000   0.85360328   -8.1766951    518.09529   0.01691795  0.016526309            5 
 2553000   0.83384122   -8.1826912    517.37965  0.016887963  0.016520528            4 
 2554000    0.8134564   -8.1993734    517.26222  0.016877519  0.016514752            3 
 2555000   0.83614682   -8.2176279    517.99409  0.016894784  0.016508987            8 
 2556000   0.81748957   -8.2066253    516.59291  0.016842492  0.016503204            2 
 2557000   0.83970937    -8.235599    515.73592  0.016807976  0.016497378            2 
 2558000   0.83476308   -8.1755662    516.83897  0.016837339   0.01649159            2 
 2559000    0.8578624    -8.196257    515.96372  0.016802257  0.016485791            4 
 2560000   0.83851102   -8.1806312     518.2322  0.016869538  0.016479994            3 
 2561000   0.83917119    -8.211736    518.17614  0.016861127  0.016474209            4 
 2562000   0.84738215   -8.1847218    517.20872  0.016823078  0.016468391            5 
 2563000   0.83492452   -8.2257945    516.96918  0.016808726   0.01646257            3 
 2564000   0.83843213   -8.2201323    516.37313  0.016782798   0.01645675            4 
 2565000   0.83780059   -8.2346343    517.91593  0.016826378  0.016450935            3 
 2566000   0.82930225   -8.1937588    517.48678  0.016805884   0.01644512            4 
 2567000   0.83279613   -8.2080114    517.10279  0.016786872  0.016439319            3 
 2568000   0.82486359    -8.240454    516.51748  0.016761341  0.016433495            3 
 2569000   0.84990723   -8.2737436    516.05268  0.016739739  0.016427663            3 
 2570000   0.85077686   -8.2574935    517.48107  0.016779542  0.016421813            3 
 2571000   0.85494859   -8.2367866    517.14497  0.016762121  0.016415965            9 
 2572000   0.83012194   -8.2291974    516.32681  0.016729096  0.016410127            4 
 2573000   0.84600579   -8.2496366    516.14029  0.016716553  0.016404306            7 
 2574000   0.85011746   -8.2371744    517.35172  0.016749279  0.016398493            4 
 2575000   0.83512911   -8.2080869    518.14084  0.016768312  0.016392716            5 
 2576000   0.82322639   -8.2142594    517.99574  0.016757109  0.016386948            4 
 2577000   0.83567492    -8.209805     518.4843  0.016766405    0.0163812            5 
 2578000   0.82656302    -8.221735    517.66069  0.016733278  0.016375432            4 
 2579000   0.84605216   -8.1930681    518.29813  0.016747387  0.016369667            5 
 2580000   0.83196709   -8.1899219    518.82341  0.016757862  0.016363899            3 
 2581000   0.84734167   -8.1915846    519.57132  0.016775517  0.016358173            4 
 2582000    0.8340463   -8.2049617    517.83342   0.01671293   0.01635246           12 
 2583000   0.84390296   -8.1873833    519.70134  0.016766723   0.01634674            4 
 2584000   0.84468139    -8.199869     518.3266  0.016715899  0.016341014            2 
 2585000   0.81200256   -8.2237855    517.53897  0.016684042  0.016335272            6 
 2586000    0.8247404   -8.2320214    518.04151  0.016693784  0.016329504            5 
 2587000   0.83887691   -8.1944086    519.21812  0.016725232  0.016323756            2 
 2588000   0.83247653   -8.2290061    518.20572  0.016686171  0.016318019            4 
 2589000   0.82867203   -8.1972152     518.1501  0.016677935  0.016312289            9 
 2590000   0.83269065   -8.2164272    518.06794  0.016668853  0.016306528            2 
 2591000   0.86222563   -8.1986572       518.12  0.016664094  0.016300769           14 
 2592000   0.83541446   -8.2346692    518.06337  0.016655844  0.016295036            8 
 2593000   0.81778347   -8.2115502    519.12064  0.016683399  0.016289287            7 
 2594000   0.85229912   -8.2198696     519.2573  0.016681358  0.016283583            3 
 2595000   0.83841569   -8.2089881    519.96037  0.016697507  0.016277874            2 
 2596000   0.81660329   -8.2250084    518.62007   0.01664805  0.016272157            6 
 2597000   0.83675128   -8.2269805    520.13139  0.016690136   0.01626644            4 
 2598000   0.85192414   -8.2320071    518.99378  0.016647221  0.016260738            5 
 2599000   0.82200474   -8.1935038    519.35625  0.016652438  0.016255034            4 
 2600000   0.85729998   -8.1934674    519.20754  0.016641267  0.016249355            3 
 2601000   0.84962061   -8.1868457    520.05763  0.016662105  0.016243671            4 
 2602000   0.83065919   -8.1873028    519.98786  0.016653467  0.016237995            6 
 2603000   0.83100614   -8.1695324    519.79171   0.01664079   0.01623231            2 
 2604000   0.84773695   -8.1671636    520.27037  0.016649717   0.01622662            5 
 2605000   0.82692371   -8.1890843     519.4482  0.016617025  0.016220927            5 
 2606000   0.83122065   -8.2177383    519.26758  0.016604873  0.016215211            3 
 2607000   0.83534116    -8.209252    519.54109  0.016607246  0.016209501            3 
 2608000   0.83385479     -8.17418    520.77966  0.016640454  0.016203793            3 
 2609000   0.84094717   -8.1968919    520.40325  0.016622053  0.016198106            5 
 2610000   0.81377969   -8.1637579    521.04401  0.016636143  0.016192439            6 
 2611000   0.83179329   -8.2003611    519.66507  0.016585761  0.016186748            5 
 2612000   0.83845725   -8.2048963    518.61136  0.016545794  0.016181046            2 
 2613000   0.84482197    -8.229006      519.237  0.016559414   0.01617533            2 
 2614000    0.8298156   -8.2340856    517.70547  0.016504255  0.016169588            3 
 2615000   0.83801227   -8.1931584    520.56853  0.016589182    0.0161639            3 
 2616000   0.81398449   -8.2264462    519.10835  0.016536326  0.016158184            4 
 2617000   0.82860295   -8.2169679     520.0127  0.016558805  0.016152456            5 
 2618000   0.81447351   -8.1837357     520.0237   0.01655283  0.016146731            3 
 2619000   0.84959706   -8.2200823    520.29879  0.016555263  0.016141023            4 
 2620000   0.84437384   -8.1990058     519.3681  0.016519341  0.016135311            6 
 2621000   0.84405724   -8.2263099    519.42869  0.016514965  0.016129615            5 
 2622000   0.83557999   -8.2034926    519.97578  0.016526055  0.016123916            7 
 2623000   0.82293234   -8.2075667    519.53031  0.016505602  0.016118252            3 
 2624000   0.84133435   -8.1982101    520.23618  0.016521728  0.016112568            6 
 2625000   0.83889348   -8.1948676    519.35039  0.016487314  0.016106906            3 
 2626000   0.83932762   -8.2102905    518.38274  0.016450328  0.016101265            2 
 2627000   0.82844451   -8.2086879    520.37168  0.016507159  0.016095597            2 
 2628000   0.84390768   -8.1933474     520.2738  0.016497774  0.016089913            7 
 2629000   0.84416145    -8.224823    520.31722  0.016492875  0.016084227           19 
 2630000   0.82444456   -8.2090908    519.43651  0.016458698  0.016078511           12 
 2631000   0.82506777   -8.2207107    519.21982  0.016445579  0.016072787            3 
 2632000   0.83078352   -8.2415281    519.82272  0.016458419  0.016067063            4 
 2633000   0.82661582   -8.2285099    519.90928  0.016454908  0.016061323            3 
 2634000   0.82256388   -8.2456157    519.81826  0.016445781  0.016055581            4 
 2635000   0.83661955   -8.2335018    519.82987  0.016439907  0.016049801            6 
 2636000   0.82084545   -8.2739089    518.66462  0.016396833  0.016044033            6 
 2637000    0.8303411   -8.2485049    519.52896   0.01641793  0.016038251            2 
 2638000   0.82142032   -8.2390042    519.45882   0.01640949  0.016032483            3 
 2639000    0.8639974   -8.2474175    518.78764  0.016382078  0.016026731            8 
 2640000   0.82918275   -8.2464305    518.80777  0.016376508  0.016020946            3 
 2641000   0.82848806   -8.2311463    519.42221  0.016389695  0.016015157            2 
 2642000   0.82277354    -8.223491    519.47043  0.016385012  0.016009415            8 
 2643000   0.82840473   -8.2450365    519.61342  0.016383321  0.016003685            3 
 2644000   0.82979881   -8.2182517    520.69659  0.016411264  0.015997955            3 
 2645000   0.83029792   -8.2133795    520.45551  0.016397464  0.015992269            2 
 2646000   0.83184891   -8.2152934     520.4252  0.016390312  0.015986595            4 
 2647000   0.82559818   -8.2152399    521.20307  0.016408609  0.015980926            8 
 2648000   0.83110494    -8.235509    520.72422  0.016387343  0.015975222            4 
 2649000   0.83251287   -8.2171417    519.97998  0.016357745  0.015969528            7 
 2650000   0.82050804   -8.2298199     520.1943  0.016358311  0.015963803            2 
 2651000   0.82167344   -8.2023236    520.10207  0.016349241  0.015958135            4 
 2652000   0.84975418   -8.2336701    519.84159  0.016334892  0.015952469            3 
 2653000   0.83730943    -8.228163    520.05246  0.016335358  0.015946778            3 
 2654000   0.85096401   -8.2022679    521.10734  0.016362325  0.015941103            3 
 2655000   0.82801523   -8.2548916    518.97215  0.016289145  0.015935413            3 
 2656000   0.82368574   -8.2403233     520.6887  0.016336869  0.015929703            5 
 2657000    0.8205214   -8.2390744    519.60745  0.016296809  0.015923974            3 
 2658000    0.8108113   -8.2622346    518.90987  0.016268807  0.015918257            5 
 2659000   0.82341856   -8.2584185    519.42486  0.016278829  0.015912516            4 
 2660000   0.83388003   -8.2482091    520.38878  0.016302907  0.015906777            5 
 2661000   0.83836334   -8.2768643    519.78529  0.016277881  0.015901054            5 
 2662000   0.82543586   -8.2352683    519.75077  0.016270685  0.015895346            2 
 2663000   0.85588384   -8.2453106    520.28985  0.016281445  0.015889626            3 
 2664000   0.81528235   -8.2132483    521.12677  0.016301513  0.015883927            5 
 2665000   0.82973286   -8.2463766    520.21938  0.016267023  0.015878224            3 
 2666000   0.83332473   -8.2475278    519.40618  0.016235502  0.015872524            4 
 2667000   0.84489196   -8.2495496    520.47598  0.016262842  0.015866784            3 
 2668000   0.83907423   -8.2454742    518.89076  0.016207233  0.015861057            4 
 2669000   0.82386438   -8.2685234    519.11937  0.016208298  0.015855323            3 
 2670000   0.82318249   -8.2578431    520.54482  0.016246717  0.015849587            4 
 2671000   0.84165061   -8.2405711    520.15135  0.016228359  0.015843872            2 
 2672000   0.83387202   -8.2716371    519.27188  0.016194856   0.01583814            3 
 2673000   0.82318346   -8.2306086    522.07003  0.016276033  0.015832425            2 
 2674000   0.82470897    -8.224785    520.52127   0.01622168    0.0158267            5 
 2675000   0.81913123   -8.2888316    519.00285  0.016168313  0.015820979            3 
 2676000   0.82778684   -8.2350019    520.42528  0.016206567  0.015815252            3 
 2677000   0.82470235   -8.2819774    520.65364  0.016207622  0.015809532            4 
 2678000   0.84040182   -8.2903905    519.40977  0.016162863  0.015803786            3 
 2679000   0.81907815   -8.2594393    519.81716  0.016169502  0.015798039            2 
 2680000   0.82809428   -8.2560067    520.89711  0.016197049  0.015792304            3 
 2681000    0.8282574   -8.2406346    520.07146  0.016165344  0.015786571            3 
 2682000   0.81426728   -8.2610934    519.83537  0.016151981  0.015780829            5 
 2683000   0.81030598   -8.2582402    519.65072  0.016140226   0.01577508            1 
 2684000   0.82099594    -8.274246    518.23153  0.016090149  0.015769322            4 
 2685000   0.83863576   -8.2895834     518.8044  0.016101937  0.015763521            5 
 2686000   0.83851169   -8.2776043    518.98934   0.01610168  0.015757743            3 
 2687000   0.81118093   -8.2744228    519.67123  0.016116835  0.015751996            3 
 2688000   0.83343632   -8.2904903    518.89124  0.016086658   0.01574624            3 
 2689000   0.80536146     -8.27598    520.12523  0.016118918  0.015740489            5 
 2690000   0.80857197   -8.2367705    521.63994  0.016159849  0.015734769            5 
 2691000   0.82179164   -8.2384682    520.50755  0.016118777  0.015729076            3 
 2692000   0.82560468   -8.2458222    519.79032  0.016090587  0.015723386            5 
 2693000   0.82794358   -8.2759419    518.62262  0.016048478  0.015717691            4 
 2694000   0.82524604    -8.279445    520.09488  0.016088062  0.015712009            2 
 2695000   0.81148863   -8.2540824    521.01465  0.016110533  0.015706328            1 
 2696000   0.81566489   -8.2462913     521.5597  0.016121405  0.015700664            2 
 2697000   0.83266773   -8.2837337    520.51144  0.016083038  0.015694995            3 
 2698000   0.81967756   -8.2456289    521.60625  0.016110892  0.015689302            5 
 2699000   0.82212869   -8.2294581    521.58525  0.016104275  0.015683647            5 
 2700000   0.81479102   -8.2372952    522.72742  0.016133562  0.015677997            5 
 2701000   0.82741751   -8.2864439    520.28947  0.016052372  0.015672341            3 
 2702000   0.80591095   -8.2984292    520.36412  0.016048733  0.015666661            5 
 2703000   0.80698814   -8.2977312    519.66795  0.016021333   0.01566096            3 
 2704000   0.81734237   -8.2902975    520.61869  0.016044708  0.015655264            4 
 2705000   0.82437656   -8.2564014    520.11073  0.016023128  0.015649581            4 
 2706000   0.79557468   -8.3051159    518.58564   0.01597024  0.015643891            3 
 2707000   0.81596554   -8.2600146     521.7173  0.016060747  0.015638201            4 
 2708000   0.81885037   -8.2883138    520.40565  0.016014453  0.015632527            6 
 2709000   0.82765065   -8.2377266    521.79459  0.016051267  0.015626847            1 
 2710000   0.83556863   -8.2814155    521.00215  0.016020976  0.015621169            4 
 2711000   0.80333521   -8.2728555    521.38189  0.016026739  0.015615521            3 
 2712000   0.80903277   -8.2564785    520.89638  0.016005911  0.015609865            3 
 2713000   0.81257131   -8.2536843     521.6216  0.016022288  0.015604194            4 
 2714000   0.81333033   -8.2306862    522.20981  0.016034445  0.015598549            6 
 2715000   0.80909269   -8.2468638    521.89401  0.016018846  0.015592913            3 
 2716000   0.80613812   -8.2791677    522.39912  0.016028446  0.015587273            6 
 2717000   0.82602682   -8.2644786    522.12733  0.016014211  0.015581643            4 
 2718000   0.81154924   -8.2467911    521.98715  0.016004021  0.015576048            5 
 2719000   0.80764924   -8.2834037    520.64781  0.015957086  0.015570441            7 
 2720000   0.82044723   -8.2717056    521.74911   0.01598496   0.01556485            9 
 2721000   0.80443811   -8.2803948    521.54682   0.01597289  0.015559245            1 
 2722000   0.80693012   -8.2674276    521.79869  0.015974733   0.01555363            3 
 2723000   0.82523761   -8.2860119    523.02163  0.016006293  0.015548011            4 
 2724000   0.82406155   -8.2103137    524.38093  0.016042001   0.01554241            2 
 2725000   0.80277569   -8.2793378    521.59378   0.01595088  0.015536847            4 
 2726000   0.80911328   -8.2827074    521.94714  0.015955831  0.015531253            6 
 2727000   0.82157837   -8.2784754    521.85305  0.015947104  0.015525644            4 
 2728000   0.81792589    -8.234429    522.65508  0.015965759  0.015520067            5 
 2729000   0.80189865   -8.2629235    522.43575  0.015953211  0.015514516            4 
 2730000   0.80452828   -8.3004636    522.27549  0.015942475  0.015508927            2 
 2731000   0.80701415   -8.2422853    523.84988  0.015984678  0.015503356            3 
 2732000   0.82404291   -8.2411364     523.2073  0.015959227  0.015497803            6 
 2733000   0.81069423   -8.2717463    522.41715  0.015929295  0.015492273            7 
 2734000   0.80854925    -8.269222    521.90567  0.015907878  0.015486719            3 
 2735000   0.83791325   -8.2693494     521.9079   0.01590213  0.015481161            3 
 2736000    0.8159714   -8.2527593     522.2451  0.015906588  0.015475599            2 
 2737000   0.84210613   -8.2798784    522.96745   0.01592277  0.015470022            3 
 2738000   0.81127233   -8.3049858    521.77206  0.015880572  0.015464464            2 
 2739000   0.80050713   -8.2501842    522.54207  0.015898201  0.015458905            4 
 2740000   0.80334048    -8.301971    521.90359   0.01587298  0.015453311            5 
 2741000   0.79441884   -8.2680244    522.59025  0.015888065  0.015447734            2 
 2742000   0.82243017   -8.3266126    521.29577   0.01584293  0.015442145            2 
 2743000   0.79512592   -8.2903312    522.48307  0.015873225  0.015436573            3 
 2744000   0.80406137   -8.2996956    522.71696  0.015874543  0.015431017            3 
 2745000   0.80234823   -8.2865556    523.92135  0.015905323  0.015425457            2 
 2746000   0.81248253   -8.2720946    524.48941   0.01591677  0.015419919            2 
 2747000   0.81114242   -8.2520653    521.84855  0.015830863  0.015414394            2 
 2748000   0.81220049   -8.3030399    523.09239  0.015862821  0.015408879            3 
 2749000    0.8086907   -8.2690714    523.84813   0.01587996  0.015403356           15 
 2750000   0.79717866   -8.2954662    523.62206  0.015867335  0.015397832           11 
 2751000   0.80175489   -8.3037024    522.90431  0.015839825  0.015392332            3 
 2752000   0.79468407   -8.2715315    523.79304  0.015860981  0.015386808            4 
 2753000   0.79986656   -8.2743879    523.15879  0.015836021    0.0153813            1 
 2754000     0.810531   -8.2436495    523.99918    0.0158557  0.015375833            3 
 2755000   0.80965355   -8.2702098    525.04133  0.015881468  0.015370347            3 
 2756000   0.79690726   -8.2769931    522.99979  0.015813975  0.015364853            2 
 2757000   0.82216619   -8.3141417    522.85419  0.015803839  0.015359309            5 
 2758000   0.78958168   -8.2918947    522.29538  0.015781224  0.015353764            6 
 2759000   0.79934613   -8.2632684    522.88637  0.015793354  0.015348256           11 
 2760000   0.80467427   -8.2567144    523.53021  0.015807072  0.015342747            1 
 2761000   0.83944212   -8.2759319    524.40181  0.015827653  0.015337257            4 
 2762000    0.8008667   -8.3029267    524.01975  0.015810396  0.015331776            3 
 2763000   0.80779572   -8.2781134    524.25666  0.015811819  0.015326273            4 
 2764000     0.808119   -8.3039223    523.42296  0.015780962  0.015320755            4 
 2765000   0.81125908   -8.2968481    523.06815  0.015764561  0.015315243            4 
 2766000   0.80174355   -8.2750529    524.57671  0.015804312  0.015309793            5 
 2767000   0.80842707   -8.2945196    524.28944  0.015789948  0.015304343            5 
 2768000   0.81382601   -8.2632837    523.56938  0.015762565  0.015298869            4 
 2769000   0.80510398   -8.2735161    524.24971  0.015777348  0.015293402            4 
 2770000   0.80440961   -8.2800425    523.32293   0.01574377  0.015287917            5 
 2771000   0.81880748    -8.269585     523.4818  0.015742866  0.015282421            2 
 2772000   0.80752809   -8.2980508    523.05821  0.015724453   0.01527692            4 
 2773000   0.79637853   -8.2832974    524.61127  0.015765455  0.015271444           14 
 2774000   0.81735226   -8.2586035    524.05116  0.015742945  0.015265997            4 
 2775000   0.82015268   -8.3083816    523.43113  0.015718653  0.015260503            3 
 2776000   0.80134298   -8.3014454    523.20017  0.015706057  0.015255009            9 
 2777000   0.80807909   -8.2952698    523.75706  0.015717112  0.015249498            7 
 2778000   0.77919022    -8.311115    523.93969  0.015716933  0.015244007            4 
 2779000   0.81138541   -8.3234181    523.59086  0.015700817  0.015238516            3 
 2780000   0.79832186   -8.3173758    523.33833    0.0156876  0.015233013            2 
 2781000   0.79506724   -8.3531748    523.93692  0.015699896  0.015227511            5 
 2782000   0.81188502   -8.3279581    523.01688  0.015666693  0.015221991            3 
 2783000   0.81506699   -8.3088499    524.97574  0.015719719  0.015216521            3 
 2784000   0.79695108   -8.3330906    524.79879  0.015708776   0.01521104            3 
 2785000   0.81128121    -8.311744    523.12596  0.015653081   0.01520557            3 
 2786000   0.80283971   -8.3080494    523.64194  0.015662896  0.015200124            1 
 2787000   0.80410984   -8.2920151    525.13489  0.015701916   0.01519464            5 
 2788000   0.78691081   -8.3090957    523.38362  0.015643939  0.015189171            1 
 2789000   0.80137843   -8.3306429    523.79493  0.015650619  0.015183669            2 
 2790000   0.79373307    -8.301898    524.42997  0.015663977  0.015178193            4 
 2791000   0.81342844   -8.2798937    525.18485  0.015680904   0.01517274            5 
 2792000   0.80740196   -8.2924677    525.13635  0.015673841  0.015167286            2 
 2793000   0.81394953   -8.2991062    525.23548  0.015671186  0.015161871            4 
 2794000    0.8028557   -8.3021089    525.43102   0.01567141  0.015156448            5 
 2795000   0.80660109   -8.2783933    525.32526   0.01566265  0.015151033            3 
 2796000   0.81608046   -8.3095585    525.36399  0.015658202  0.015145609            3 
 2797000   0.82507807   -8.2973115    524.97461  0.015641003  0.015140166            5 
 2798000   0.79820018   -8.3419445    525.10564  0.015639315  0.015134722            5 
 2799000   0.80735662   -8.3165141    524.33292  0.015610722  0.015129284            6 
 2800000   0.81955495   -8.2933382    525.12958  0.015628857  0.015123843            5 
 2801000   0.80999064   -8.2995253    524.96379  0.015618344  0.015118407            6 
 2802000   0.81739788   -8.3124998    524.33145  0.015593964  0.015112984           10 
 2803000   0.80396086   -8.3172039    524.47309  0.015592612  0.015107579            7 
 2804000   0.80307877   -8.2884462    525.11602  0.015606158  0.015102155           10 
 2805000   0.81225744   -8.3577071    524.46427  0.015581232  0.015096731            8 
 2806000    0.8173525   -8.3066333    524.02503  0.015562635   0.01509127            8 
 2807000   0.80656096   -8.3076615    524.68414  0.015576658  0.015085822           10 
 2808000   0.78610606   -8.3182952    524.49189  0.015565405  0.015080356            5 
 2809000   0.79453275   -8.3180649    525.26678  0.015582852  0.015074884            8 
 2810000   0.79928415   -8.3535163    524.83521  0.015564508  0.015069428           10 
 2811000   0.79212402   -8.3306963    523.32161    0.0155141   0.01506397            6 
 2812000   0.79118265   -8.3482497    524.83573  0.015553453  0.015058496            7 
 2813000   0.80710185   -8.3429875    523.15752  0.015498208  0.015053028            5 
 2814000   0.80540584   -8.3792615    523.84466   0.01551305  0.015047555            3 
 2815000   0.81408917   -8.3357826    523.38807  0.015494022  0.015042077            5 
 2816000   0.78898401    -8.355983    523.31175  0.015486261  0.015036596            6 
 2817000    0.8060677   -8.3459422    523.82658  0.015495994  0.015031127            7 
 2818000   0.79124821   -8.3427039    524.15176  0.015500111  0.015025652           12 
 2819000   0.78202126   -8.3336231    525.64228  0.015538674  0.015020193            2 
 2820000   0.80338776   -8.3010819    525.09637  0.015517032  0.015014765            6 
 2821000   0.82580979   -8.3238554    525.58066  0.015525838  0.015009355            5 
 2822000   0.79187527   -8.3309693    524.45726  0.015487162  0.015003921            8 
 2823000   0.78558315    -8.313227    524.19188  0.015473842  0.014998497            5 
 2824000   0.80039293   -8.3305396    524.56672  0.015479424  0.014993054            7 
 2825000   0.80567271    -8.324883       524.53  0.015472861  0.014987641            9 
 2826000   0.80003144   -8.3536083    524.55218   0.01546804  0.014982245            2 
 2827000   0.80651218   -8.3330413    523.90027  0.015443352  0.014976816            5 
 2828000   0.79990454   -8.3383084    524.15868  0.015445506  0.014971364            3 
 2829000   0.80501041   -8.3318545     524.2575  0.015442957   0.01496591            2 
 2830000   0.79580915   -8.3309128    523.96992  0.015429032  0.014960473            3 
 2831000   0.80537023   -8.3596981    523.33433  0.015404873  0.014955045            7 
 2832000   0.79145145   -8.3463084    524.33989  0.015429022  0.014949593            2 
 2833000   0.79628794   -8.3777276    524.09233  0.015416294  0.014944138            2 
 2834000   0.79222067   -8.3546208    524.22402  0.015414726  0.014938683            4 
 2835000   0.79786048   -8.3316939    525.53587   0.01544785  0.014933212            8 
 2836000   0.79269684    -8.366925    524.11656  0.015400698  0.014927752            5 
 2837000   0.80161287   -8.3401681    524.94575  0.015419626  0.014922312            4 
 2838000   0.78846067   -8.3352781    524.08155  0.015388817  0.014916875            4 
 2839000   0.79293599   -8.3287966    523.42993  0.015364269  0.014911436            3 
 2840000   0.80194391   -8.3219548    525.11274  0.015408238  0.014906001            4 
 2841000   0.78200171   -8.3565875    524.67642  0.015390016  0.014900597            4 
 2842000   0.80830973   -8.3384727    524.42998  0.015377374  0.014895174            5 
 2843000   0.81068165   -8.3329388    525.35112  0.015398966  0.014889739            5 
 2844000   0.79479764   -8.3030484    524.84951  0.015378853  0.014884332            5 
 2845000   0.78821516   -8.3225698    525.06976  0.015379899  0.014878936           15 
 2846000   0.80640916   -8.3244018    525.35337    0.0153828  0.014873533            6 
 2847000   0.79717236    -8.323097    525.28992  0.015375539  0.014868121            4 
 2848000   0.80498391   -8.3511033    525.96867  0.015390001  0.014862693            6 
 2849000    0.7981727   -8.3286009    525.67944  0.015376139  0.014857288            4 
 2850000   0.79273477   -8.3527041    524.32289  0.015331079  0.014851878            5 
 2851000    0.8033781   -8.3391033    525.53911  0.015361251  0.014846455            5 
 2852000   0.79319874   -8.3685695    524.76535  0.015333256  0.014841027            4 
 2853000   0.80078483   -8.3388335    525.13981  0.015338819  0.014835623            2 
 2854000   0.79904833   -8.3553088    525.50975  0.015344246  0.014830205            2 
 2855000   0.81192953   -8.3513655     524.6636  0.015314174  0.014824807            2 
 2856000   0.79056785   -8.3447849    526.06845  0.015349803  0.014819407            3 
 2857000   0.76983286   -8.3503303    524.60709  0.015301805  0.014813998            4 
 2858000    0.8073681   -8.3414437    525.64597  0.015326743  0.014808592            4 
 2859000   0.78670251   -8.3325902    524.43817  0.015286177  0.014803206            5 
 2860000   0.79657959   -8.3526236    525.89748  0.015323353  0.014797819            3 
 2861000   0.80388348   -8.3610467    525.35441  0.015302179  0.014792435            2 
 2862000    0.7806648   -8.3446439     525.1352   0.01529045  0.014787065            4 
 2863000   0.80831524   -8.3347422    526.05132  0.015311774  0.014781672            5 
 2864000   0.79147553   -8.3714438     525.0118  0.015276181   0.01477629            7 
 2865000   0.77733762   -8.3481432    525.38174   0.01528161  0.014770916            4 
 2866000   0.79089003   -8.3258458    525.14628  0.015269431  0.014765554            5 
 2867000   0.78445419   -8.3690224    524.29337  0.015239314  0.014760173            3 
 2868000   0.79718785   -8.3615507    525.96611  0.015282604  0.014754815            4 
 2869000   0.79223962   -8.3384338    524.68579  0.015240089  0.014749438            7 
 2870000   0.78972351   -8.3577115    525.14326  0.015248062   0.01474406           13 
 2871000    0.7949441   -8.3514897    524.77494   0.01523206  0.014738698            3 
 2872000   0.78473458   -8.3391744    525.34953  0.015243429   0.01473333            3 
 2873000   0.79338107    -8.369508    524.71838  0.015219816  0.014727977            4 
 2874000    0.7722278   -8.3490527    525.56735  0.015239137  0.014722625            1 
 2875000   0.80712768   -8.3486278    525.85079  0.015242052   0.01471728            6 
 2876000   0.79378609   -8.3730591    525.65722  0.015231143  0.014711955            2 
 2877000   0.77606444   -8.3606497    526.13953  0.015239819  0.014706634            2 
 2878000   0.79725668   -8.3553813    525.42218  0.015213753  0.014701318            5 
 2879000    0.7856007   -8.3292455    526.23508  0.015231998  0.014695997            2 
 2880000   0.78444434   -8.3356238    526.62954  0.015238123  0.014690693            2 
 2881000   0.80018599   -8.3447602    525.08288  0.015188097   0.01468537            4 
 2882000   0.78649637   -8.3626121    525.32798  0.015189914  0.014680045            3 
 2883000   0.79519279   -8.3603709    525.96724  0.015203123  0.014674701            2 
 2884000    0.8068638   -8.3663378    524.91978  0.015167585  0.014669396            2 
 2885000   0.79202523   -8.3811208    526.42707  0.015205866  0.014664069            3 
 2886000     0.794159   -8.3487241    526.16036  0.015192896  0.014658751            2 
 2887000   0.80121986   -8.3355573    524.65393   0.01514415  0.014653425            4 
 2888000   0.80984001   -8.3617222    525.58465  0.015165762  0.014648113           13 
 2889000   0.77258369   -8.3448984    527.70165  0.015221578  0.014642807            3 
 2890000   0.79988951   -8.3229371    526.07321  0.015169354  0.014637523            6 
 2891000   0.78884901   -8.3501174    526.09536  0.015164746  0.014632254            3 
 2892000   0.76425829   -8.3478512    526.51755  0.015171667  0.014626981            3 
 2893000    0.7782048   -8.3369637    526.83103  0.015175453  0.014621706            1 
 2894000   0.80110587   -8.2898611    526.69055  0.015166164  0.014616443            3 
 2895000   0.79124733   -8.3208415    528.01379  0.015199015  0.014611204            2 
 2896000   0.80137441   -8.3094307    527.90582   0.01519066  0.014605971            4 
 2897000   0.77187631   -8.3343293    527.59712  0.015176537  0.014600738            7 
 2898000   0.79092356   -8.3514651    525.61907   0.01511442  0.014595482            4 
 2899000   0.78480198   -8.3566244    527.02331  0.015149572  0.014590196            7 
 2900000    0.8086251   -8.3673509    525.89169   0.01511183  0.014584917            6 
 2901000   0.79310987   -8.3557221    528.07822  0.015169431  0.014579655            9 
 2902000    0.7971221   -8.3514796    527.99361  0.015161774  0.014574405            4 
 2903000   0.76309059   -8.3424386    528.49696     0.015171  0.014569144            5 
 2904000   0.79241778   -8.3646677    528.71525   0.01517204  0.014563919            4 
 2905000   0.81025317   -8.3250612    527.49896  0.015131927  0.014558697            4 
 2906000   0.78198238   -8.3463623    528.08124  0.015143417  0.014553487            5 
 2907000   0.79381467   -8.3268158    527.41608   0.01511914  0.014548289            2 
 2908000   0.78827198   -8.3245532    528.73567  0.015151756   0.01454308            4 
 2909000   0.80403304   -8.3645691    527.48846  0.015110819   0.01453787            3 
 2910000   0.78542079   -8.3514357     528.3357  0.015129888  0.014532654            3 
 2911000   0.77176985   -8.3626103    527.64353  0.015104876  0.014527448            2 
 2912000   0.79202389   -8.3373508    527.19823  0.015086946  0.014522241            4 
 2913000   0.78794209   -8.3600841    527.73229  0.015097044  0.014517045            2 
 2914000   0.78088583   -8.3565236    528.14205  0.015103582  0.014511837            4 
 2915000   0.79626638   -8.3627324    526.66127  0.015056068  0.014506629            5 
 2916000   0.78644962   -8.3546674    525.96534  0.015031017  0.014501396            4 
 2917000   0.78995665   -8.3806152    527.88669  0.015080753  0.014496147            3 
 2918000   0.77723906   -8.3653797    527.38989  0.015061397  0.014490915            3 
 2919000    0.7797141   -8.3545617     528.8443  0.015097759   0.01448569            8 
 2920000   0.77972322   -8.3536915    528.20193  0.015074256  0.014480473           17 
 2921000   0.79304687   -8.3595276    527.57571   0.01505123  0.014475243            5 
 2922000   0.79099801   -8.3889857    526.76789   0.01502304  0.014469993            9 
 2923000   0.77862701   -8.3897866     528.2223  0.015059365  0.014464744            8 
 2924000   0.78341384   -8.3582752    528.03447  0.015048862  0.014459519            5 
 2925000   0.78849311   -8.3309064     528.5423  0.015058185  0.014454301            4 
 2926000   0.77416465   -8.3797751    527.60898  0.015026458  0.014449077            4 
 2927000   0.78463816   -8.3581959    528.63582  0.015050559  0.014443842            4 
 2928000   0.78597897   -8.3653819    527.78547  0.015021217   0.01443863            6 
 2929000   0.78923227   -8.3904344     526.7882  0.014987715  0.014433413            6 
 2930000   0.78258354   -8.4012857     525.7568  0.014953265  0.014428162           14 
 2931000   0.78803436   -8.3765311    526.36303  0.014965399  0.014422926            4 
 2932000   0.78101905   -8.3663351    527.06704  0.014980305  0.014417703            3 
 2933000   0.78538343    -8.371227    527.11057  0.014976434  0.014412473           17 
 2934000   0.80672517   -8.3781359    528.03079  0.014997466  0.014407255            6 
 2935000   0.77586083   -8.3849017    528.24541   0.01499845  0.014402039            5 
 2936000   0.77508933   -8.3553677    528.08946  0.014988915  0.014396826            5 
 2937000    0.7809557   -8.3816384    526.87402  0.014949325  0.014391621            7 
 2938000   0.79533042   -8.3684966    525.93402  0.014917575  0.014386376            4 
 2939000   0.77628445   -8.3538317    527.34379  0.014952472  0.014381155            2 
 2940000   0.76837772   -8.3792583    527.82613  0.014961058  0.014375943            7 
 2941000   0.77338991   -8.3455373    526.89681  0.014929639  0.014370725            3 
 2942000   0.77361759   -8.3963589    527.03358  0.014928438  0.014365496            6 
 2943000   0.78928799   -8.3537266    526.70047  0.014913933  0.014360263            7 
 2944000   0.78388255     -8.40267    527.14176  0.014921359  0.014355027            4 
 2945000   0.77039962    -8.390285    526.09455   0.01488666  0.014349796            3 
 2946000   0.78232319   -8.3851708    526.63306  0.014896839  0.014344557            3 
 2947000   0.76931529   -8.3954159    527.24709  0.014909148  0.014339338            5 
 2948000    0.7796015    -8.372097    528.84552  0.014949274  0.014334125            2 
 2949000   0.77859601   -8.3673644    527.04712  0.014893385  0.014328931            3 
 2950000   0.77696627   -8.3694213    529.21323  0.014949526  0.014323739            4 
 2951000    0.7662676   -8.3716257    528.17539  0.014915153  0.014318542            4 
 2952000   0.77594392   -8.3833778    527.05468  0.014878463  0.014313327            3 
 2953000   0.77556824   -8.4169249    527.02249  0.014872516  0.014308106            9 
 2954000   0.75968169   -8.4151965    526.78083  0.014860664  0.014302883            2 
 2955000   0.78355699   -8.3656562    527.67483  0.014880847  0.014297687            5 
 2956000   0.78928522   -8.3795735    526.49881  0.014842659  0.014292512            7 
 2957000      0.77396   -8.3747244    527.83627  0.014875332  0.014287332            7 
 2958000   0.77178585   -8.3689934    528.83642  0.014898479   0.01428215            4 
 2959000   0.77446701   -8.3845968    528.89647  0.014895135  0.014276972            4 
 2960000   0.77535595   -8.3949192    527.66881  0.014855541  0.014271788            6 
 2961000   0.77681741    -8.406152    526.67793  0.014822637  0.014266598            4 
 2962000   0.78857687   -8.4090569    528.45839  0.014867724  0.014261423            6 
 2963000   0.77941596   -8.3925984    528.72679  0.014870255  0.014256244            3 
 2964000   0.77573086   -8.4125906     527.9846  0.014844371  0.014251073            6 
 2965000   0.76085552   -8.4047928    527.47142  0.014824941  0.014245925            5 
 2966000   0.77465197   -8.3851808    528.09454  0.014837451  0.014240756            3 
 2967000   0.78305155   -8.3800763    528.50619  0.014844012  0.014235587           11 
 2968000   0.76047486    -8.391011    527.08793   0.01479919  0.014230413            2 
 2969000   0.75623039   -8.4106085    526.57635  0.014779846  0.014225215            4 
 2970000   0.78107613   -8.4019334    527.28646  0.014794794  0.014220024            5 
 2971000    0.7754175   -8.3873748    527.71902  0.014801947  0.014214839            6 
 2972000    0.7868052   -8.4080791    527.84441  0.014800482  0.014209657            6 
 2973000   0.79118435   -8.3866741    528.66093  0.014818391  0.014204489            4 
 2974000    0.7575911   -8.3833112     526.3017  0.014747302  0.014199307            4 
 2975000   0.77670486   -8.3931429    526.89115  0.014758856  0.014194124            6 
 2976000   0.76278488   -8.3824642    527.44991  0.014769543  0.014188953            4 
 2977000   0.77795319   -8.3883303     528.1533  0.014784271  0.014183776            4 
 2978000   0.78007067   -8.3323001    529.13064  0.014806655  0.014178631            1 
 2979000   0.76494178   -8.4048107    527.68917  0.014761362   0.01417347            1 
 2980000   0.78306269   -8.3811001      528.763  0.014786437  0.014168332            3 
 2981000   0.77011308   -8.3930147    527.66004  0.014750644    0.0141632            7 
 2982000   0.76447451     -8.41106    528.33819  0.014764649  0.014158048            6 
 2983000   0.77748762   -8.4149331    529.09286  0.014780782  0.014152916            6 
 2984000   0.79819638   -8.3849842    529.19159  0.014778586  0.014147789           11 
 2985000   0.78192789   -8.3912053    528.42343   0.01475219  0.014142675            5 
 2986000   0.77520385   -8.3759051    528.81146  0.014758078  0.014137559            3 
 2987000   0.76824729   -8.3832828    527.58279  0.014718859  0.014132423            3 
 2988000   0.77506604   -8.4182765    528.12902  0.014729167  0.014127296            6 
 2989000   0.77516417   -8.4154744    528.46247  0.014733536  0.014122179            6 
 2990000   0.78724351   -8.4107589    528.13397  0.014719453  0.014117051            8 
 2991000   0.78088085   -8.4226071    528.92486  0.014736567  0.014111945           10 
 2992000   0.77537169   -8.3896921     527.5375  0.014693001  0.014106839            5 
 2993000   0.77500466    -8.430869    527.49282  0.014686848  0.014101717            7 
 2994000   0.76504847   -8.4221068    528.69649  0.014715445  0.014096577            5 
 2995000   0.77688808   -8.4308564    528.23867  0.014697793  0.014091458            6 
 2996000    0.7685491   -8.4120636    528.43011  0.014698212  0.014086372            3 
 2997000   0.78970349    -8.414724    529.37602  0.014719609  0.014081281            4 
 2998000   0.77460089   -8.4080736    529.45418  0.014716872  0.014076191            8 
 2999000   0.77440175   -8.3767307    529.51646  0.014713695  0.014071128            2 
 3000000   0.76707096   -8.3829151    529.14337  0.014698427  0.014066062            2 
 3001000   0.79015065    -8.402279    528.92406  0.014687439  0.014060994            4 
 3002000   0.77659584   -8.4037574    528.00503  0.014657035  0.014055888            3 
 3003000   0.77184383   -8.4028841    528.67642  0.014670785  0.014050789            5 
 3004000   0.76793005   -8.4156514    528.56707  0.014662868  0.014045689            6 
 3005000   0.77637853   -8.4133476    528.95908   0.01466886  0.014040599            6 
 3006000   0.77220295   -8.3986876    528.39973  0.014648473  0.014035508            7 
 3007000   0.76144681   -8.3923644    529.31895  0.014669076   0.01403045            3 
 3008000   0.77697742   -8.4062145    527.97316  0.014626916   0.01402539            5 
 3009000   0.75987464   -8.4045295    528.84517  0.014646205  0.014020313            3 
 3010000   0.78400767   -8.3880518    529.82854  0.014668564  0.014015244            3 
 3011000   0.76090379   -8.4188595    530.09449  0.014671053  0.014010174            7 
 3012000   0.77849734   -8.4191361    528.59238  0.014624623  0.014005092            2 
 3013000   0.77991777   -8.4431171    528.24466  0.014610152   0.01400001            4 
 3014000   0.77227922   -8.4031946    528.28353  0.014606379  0.013994925            5 
 3015000   0.76728583   -8.4130932    529.02851  0.014622126  0.013989841            3 
 3016000   0.76565201   -8.4445231    529.07914  0.014618677  0.013984755            4 
 3017000   0.77142783   -8.4204969    527.83355  0.014579426  0.013979667            4 
 3018000   0.77218225    -8.425808    529.68207  0.014625637   0.01397459            4 
 3019000   0.76665033   -8.4188723    527.50361   0.01456066  0.013969507            5 
 3020000   0.75834113   -8.4161184    528.31836  0.014578321  0.013964437            3 
 3021000   0.76934927   -8.4065794    529.25168  0.014599241  0.013959387            2 
 3022000   0.76059892   -8.4124241    528.23595  0.014566401  0.013954338            5 
 3023000   0.77483802   -8.4224469    529.41278  0.014594023  0.013949247            5 
 3024000   0.75214913   -8.4123776    529.13826  0.014581632  0.013944157            5 
 3025000   0.77132005   -8.4101435     529.5594  0.014588413    0.0139391           14 
 3026000   0.75489257   -8.4106281    529.58284  0.014584238  0.013934037            7 
 3027000   0.74150347    -8.434221    529.73524  0.014583615  0.013928977            6 
 3028000   0.76123329   -8.4422606    527.42302  0.014515165  0.013923914            7 
 3029000   0.78562259   -8.4101938    530.74751  0.014601835  0.013918847            9 
 3030000   0.77100785   -8.4149037    529.00543  0.014549104  0.013913784            4 
 3031000   0.76060147    -8.421802    528.87477  0.014540712   0.01390871            6 
 3032000   0.77781356    -8.438119    528.12423  0.014515288  0.013903641            2 
 3033000   0.77871656   -8.4324709    527.60597  0.014496262  0.013898547            5 
 3034000   0.78180186   -8.4330505    528.37878  0.014512711  0.013893453            1 
 3035000   0.76428052   -8.4526136    528.57923  0.014513433  0.013888363            3 
 3036000   0.76345163   -8.4390822    528.88481   0.01451704  0.013883288            3 
 3037000    0.7684605   -8.4441306    529.01558  0.014515848  0.013878233            3 
 3038000   0.73830017   -8.4138849    529.44872  0.014522951  0.013873178            3 
 3039000   0.78639871   -8.4226036    529.16988  0.014510526  0.013868141            4 
 3040000   0.76816174   -8.4352576    528.34299  0.014483086  0.013863084            7 
 3041000   0.76666927   -8.4188286    528.67536  0.014487432   0.01385803           10 
 3042000   0.76440498   -8.4067066    528.71895  0.014483863  0.013852991            1 
 3043000   0.76498779   -8.4434645    528.20526  0.014465036  0.013847933            4 
 3044000   0.76624626   -8.4407341    529.16784  0.014486636  0.013842876            3 
 3045000   0.76117053     -8.41134    529.22814  0.014483529  0.013837814            7 
 3046000   0.75945229   -8.4342928    529.38717  0.014483125  0.013832769            8 
 3047000   0.76685267    -8.435954    528.51304  0.014454465  0.013827705            6 
 3048000   0.76396479   -8.4203373    528.75577  0.014456359  0.013822643            7 
 3049000   0.75236727   -8.4284635    528.27647  0.014438517  0.013817585            2 
 3050000   0.75868099   -8.4035817    529.40813  0.014464703  0.013812557            3 
 3051000   0.77014644   -8.4160585    528.77326  0.014442622  0.013807527            2 
 3052000   0.75738616   -8.4163979    528.11402  0.014419889  0.013802499            3 
 3053000   0.77062253   -8.4263002    528.70431  0.014431278  0.013797484            7 
 3054000   0.77849206   -8.4386498    528.62162  0.014424297  0.013792447            1 
 3055000   0.76594878   -8.4328643    529.84686  0.014452997  0.013787428            4 
 3056000   0.77428866   -8.4480365    528.40163  0.014408858  0.013782404            4 
 3057000   0.76631312   -8.4517484    529.96113  0.014446656  0.013777363            5 
 3058000   0.75878058   -8.4541426    528.67384  0.014406852  0.013772315            7 
 3059000   0.77812413   -8.4541655     528.8695  0.014407472   0.01376727            3 
 3060000   0.75769334   -8.4809306    527.22992  0.014358113   0.01376222            5 
 3061000   0.76960912   -8.4624584    529.48987  0.014414948  0.013757178            3 
 3062000   0.74712681   -8.4573578    528.01855  0.014370198  0.013752125            3 
 3063000   0.77740627   -8.4851995    527.80149  0.014359601  0.013747068            5 
 3064000   0.75597865    -8.457038    529.26333  0.014394673  0.013742026            3 
 3065000   0.76793038   -8.4775888    529.54127  0.014397533  0.013736978            4 
 3066000   0.76599657   -8.4593428    528.09304  0.014353475  0.013731946            2 
 3067000   0.75820275    -8.455298    530.18047  0.014405512  0.013726899            4 
 3068000   0.75260082   -8.4365124    529.16615  0.014373266  0.013721869            4 
 3069000    0.7608088   -8.4408827      529.797  0.014385712  0.013716869            6 
 3070000   0.75596907   -8.4714057    529.12043  0.014362661  0.013711848            5 
 3071000   0.77005089   -8.4741696    529.64153  0.014372125  0.013706836            6 
 3072000   0.76629422   -8.4623489     530.1334  0.014380789  0.013701828            7 
 3073000   0.75992073   -8.4481892    530.26977  0.014379807  0.013696818           12 
 3074000   0.74646846   -8.4536566    528.82828  0.014336052  0.013691809            4 
 3075000   0.75301752   -8.4906698    528.48904  0.014322196  0.013686783            4 
 3076000   0.78005499    -8.451113    529.81283  0.014353403   0.01368177            5 
 3077000   0.75065153   -8.4544289     528.6527  0.014317319  0.013676752            4 
 3078000   0.76502454   -8.4790902    528.13396  0.014298624  0.013671734            6 
 3079000    0.7714828   -8.4746708    528.24099  0.014296876  0.013666703            4 
 3080000    0.7433717   -8.4720345    529.30395  0.014320994  0.013661677            4 
 3081000   0.75466461   -8.4413689    529.22075  0.014314096  0.013656659            6 
 3082000   0.73955687   -8.4394046    529.63787   0.01432073  0.013651648            2 
 3083000   0.76080009   -8.4662746    529.08082  0.014301028  0.013646633            5 
 3084000   0.75138902   -8.4583265    527.66167  0.014258043  0.013641629            4 
 3085000   0.75905903   -8.4695513    528.80196  0.014284224  0.013636627            7 
 3086000   0.77391547   -8.4481757     529.4777  0.014297843  0.013631626            2 
 3087000   0.76730329    -8.453323    529.42634  0.014291824  0.013626628            4 
 3088000   0.75575697   -8.4646034    528.23838  0.014255138  0.013621628            5 
 3089000   0.76978546   -8.4838157    528.50784  0.014257792  0.013616622            2 
 3090000   0.75674766   -8.4655833    529.54608  0.014281178  0.013611626            3 
 3091000   0.77018787   -8.4688102    529.28998  0.014269653  0.013606635            8 
 3092000   0.76230405   -8.4544841    528.87635   0.01425389  0.013601628            6 
 3093000   0.74621039    -8.462191    530.32966  0.014288438  0.013596642            3 
 3094000   0.75153418   -8.4497429     529.0039  0.014248112  0.013591638            4 
 3095000   0.74207702   -8.4685261    527.93961  0.014214852  0.013586631            4 
 3096000   0.75939111   -8.4558817    529.92309  0.014263649  0.013581653            2 
 3097000   0.75937425   -8.4367606    529.67193  0.014252285  0.013576677            2 
 3098000   0.76497481   -8.4598256    528.01155  0.014203022  0.013571712            2 
 3099000   0.77094736   -8.4648965    529.54876  0.014239775  0.013566729           14 
 3100000   0.74202949   -8.4742083    528.95771  0.014219293   0.01356175            8 
 3101000   0.76471111   -8.4550141    528.23376  0.014195253  0.013556769            7 
 3102000   0.76590113   -8.4970236    527.97818  0.014183811  0.013551766            5 
 3103000   0.75856077   -8.4939292    528.33084  0.014188711  0.013546764            7 
 3104000   0.76309588   -8.4812271    528.69315  0.014193867  0.013541769            5 
 3105000   0.76577084   -8.4705017    529.15742  0.014201756  0.013536762            8 
 3106000   0.75773587   -8.4781913    528.86726  0.014189398  0.013531755            6 
 3107000   0.75217241   -8.4802024    528.80053  0.014183042   0.01352676            5 
 3108000   0.76704204   -8.4697102    529.00961  0.014184084  0.013521776            4 
 3109000   0.75192218   -8.4681566    527.72272  0.014145028  0.013516778            5 
 3110000    0.7585783   -8.4791656    528.82455  0.014170004  0.013511806            4 
 3111000   0.77220362   -8.5013288    529.27509  0.014177518   0.01350684            3 
 3112000   0.74241887    -8.444198    529.37174   0.01417555  0.013501868            6 
 3113000   0.76052891   -8.4783175    528.92318  0.014158989    0.0134969            3 
 3114000   0.75833357   -8.4957358     528.1129  0.014132758  0.013491935            6 
 3115000    0.7614426   -8.4702882    529.12547  0.014155309  0.013486964            6 
 3116000   0.78128699   -8.4589928    529.33816  0.014156455  0.013482015            7 
 3117000   0.73498109   -8.4680227    528.53462   0.01413043  0.013477053            8 
 3118000   0.75610266   -8.4589665     529.5709  0.014153595  0.013472106           11 
 3119000   0.75218412   -8.4815188     529.1464  0.014137715  0.013467138            6 
 3120000   0.73908409   -8.4515008     528.5371   0.01411691  0.013462187            8 
 3121000   0.72839855    -8.478206    529.51413  0.014138474  0.013457233           10 
 3122000   0.74387605   -8.4681514    529.46249  0.014132567  0.013452287            7 
 3123000   0.75281187   -8.4817433    529.01074  0.014115987  0.013447348           12 
 3124000   0.74807273   -8.4669165    528.55823  0.014099398  0.013442412            4 
 3125000   0.75636784   -8.4813372    529.08626  0.014108967  0.013437465           15 
 3126000   0.74309505   -8.4606681    530.85407   0.01415158  0.013432523            5 
 3127000   0.76060869   -8.4847088    528.82632  0.014093016  0.013427579           10 
 3128000   0.76000461   -8.4591328    529.17475  0.014097793  0.013422617           12 
 3129000   0.75658909   -8.4930962    528.64163  0.014079089  0.013417658           18 
 3130000   0.73307452   -8.4913411    528.11574  0.014060589  0.013412701            8 
 3131000   0.75524082   -8.4794891    528.09462  0.014055537  0.013407747           16 
 3132000   0.74706826   -8.4643331    528.03624  0.014049496  0.013402795            7 
 3133000   0.76170303   -8.5006263    529.37703  0.014080674  0.013397824            4 
 3134000   0.75949862   -8.5008746    529.05263  0.014067556  0.013392848            5 
 3135000   0.74978953   -8.4881442      528.921  0.014059569  0.013387879            6 
 3136000   0.75755449   -8.5115972    527.81304  0.014025644  0.013382913            2 
 3137000   0.75280419   -8.4927039    529.39404  0.014063172  0.013377951            7 
 3138000   0.74868541   -8.5010247    529.26518  0.014055268  0.013372992            6 
 3139000   0.74970533   -8.4926152    528.99703  0.014043672  0.013368042            6 
 3140000   0.74341587   -8.4715861    528.60865  0.014028892  0.013363109            8 
 3141000   0.74632855   -8.4606525    529.19473  0.014039975  0.013358185           11 
 3142000   0.75731246   -8.4565309    529.30964  0.014038554   0.01335326            4 
 3143000   0.74349891   -8.4849035    527.86539  0.013995795  0.013348323            3 
 3144000   0.74666567   -8.4902118    528.20966  0.014000468  0.013343393            4 
 3145000    0.7641069    -8.464694    529.22198   0.01402284  0.013338455            9 
 3146000   0.74849224   -8.4894287    529.65168  0.014029765  0.013333515            5 
 3147000   0.74920734   -8.4793555     529.1906  0.014013097  0.013328582            9 
 3148000   0.76469574   -8.4470649    529.01264  0.014003935  0.013323657            4 
 3149000   0.74445342   -8.4646024    528.92135  0.013997072   0.01331873            5 
 3150000   0.75850347   -8.4531623    528.01199  0.013968571   0.01331381            5 
 3151000   0.74721964   -8.4708593    528.25233  0.013970494   0.01330889            3 
 3152000   0.74828555   -8.4775732    528.43769  0.013970963  0.013303972           10 
 3153000   0.74054005   -8.4621571    528.11582  0.013958025  0.013299049           10 
 3154000   0.75173157     -8.47158    529.42673  0.013988235  0.013294117            7 
 3155000   0.73853772   -8.4302476    529.68423  0.013990603  0.013289189            3 
 3156000   0.74532074    -8.482646    529.65607  0.013985427  0.013284273            5 
 3157000     0.757867   -8.4688937    528.43305  0.013948713  0.013279365            2 
 3158000    0.7440585   -8.4748911    528.95468  0.013958061  0.013274441           10 
 3159000   0.75368119   -8.4899009    528.25515  0.013935189  0.013269532            7 
 3160000   0.75076827   -8.4931931    528.61323  0.013940222  0.013264616            3 
 3161000   0.75076004   -8.4933505    528.61192  0.013935778  0.013259695            2 
 3162000   0.75063689   -8.4627777    530.04403  0.013969113  0.013254786            6 
 3163000   0.74482565   -8.4897588    529.00905  0.013937429  0.013249875           13 
 3164000   0.75368069   -8.4771907    527.96258  0.013905462  0.013244975            5 
 3165000   0.76027412   -8.4822652    528.83456  0.013924027   0.01324007            4 
 3166000   0.74386339   -8.4770146    528.80476  0.013918845  0.013235163            4 
 3167000   0.74852504   -8.4695256    529.31271  0.013927816  0.013230283            5 
 3168000   0.74738859   -8.4778586    528.65981  0.013906245  0.013225393           11 
 3169000   0.74650814   -8.4794137    528.44623   0.01389624  0.013220495            5 
 3170000   0.76031913   -8.4897761    529.48998  0.013919295  0.013215586            5 
 3171000   0.74421531    -8.494694    528.61083  0.013891801  0.013210677            5 
 3172000    0.7455264   -8.5049902    528.41157  0.013882187  0.013205775            5 
 3173000   0.74482352    -8.493108    528.95579  0.013892105  0.013200876           11 
 3174000   0.73510686   -8.4968894    529.77126  0.013909138   0.01319599            6 
 3175000   0.72840456   -8.4958383       530.19  0.013915748  0.013191115           11 
 3176000   0.73346239   -8.4796721    528.66371  0.013871319  0.013186244           15 
 3177000   0.73605571   -8.4863599    529.43369  0.013887149  0.013181363            4 
 3178000   0.76766119   -8.4885958    529.94973  0.013896311  0.013176496            6 
 3179000   0.73562121   -8.5136828    529.26422   0.01387397  0.013171645            2 
 3180000   0.74435652   -8.4842062    529.94924  0.013887559  0.013166796            2 
 3181000   0.72867226   -8.4833916    529.43072  0.013869609  0.013161939            4 
 3182000   0.72238542   -8.4912587    529.63921   0.01387071  0.013157085            4 
 3183000   0.74899256   -8.4897235    528.94408  0.013848154  0.013152236            4 
 3184000   0.75292371   -8.4898796     528.2037  0.013824427  0.013147359            5 
 3185000    0.7291569   -8.5030757    528.66281  0.013832099  0.013142479            1 
 3186000    0.7275104   -8.4810118    528.72484   0.01382938   0.01313761            4 
 3187000   0.72410278   -8.5063109     529.5796   0.01384739   0.01313274            3 
 3188000   0.74166202   -8.4917857    529.70654  0.013846365  0.013127892            3 
 3189000   0.74311482   -8.4853195    529.25779  0.013830297  0.013123046            6 
 3190000   0.73429507   -8.5069103    528.97854  0.013818666  0.013118208            5 
 3191000   0.75044871   -8.4947478    530.03862   0.01384202  0.013113367            4 
 3192000   0.73750782   -8.4907073    529.41465  0.013821393  0.013108521            3 
 3193000   0.75829229   -8.4832597     529.6933  0.013824337  0.013103687            1 
 3194000   0.74434949   -8.4830041    529.85381  0.013824197  0.013098847            2 
 3195000   0.74330195   -8.5064745    529.84031  0.013819518  0.013094002            4 
 3196000   0.73025225   -8.5024446    528.76806  0.013787236  0.013089157            3 
 3197000   0.73844949    -8.518794    528.37333  0.013772634  0.013084301            3 
 3198000     0.723418    -8.512807    528.53261  0.013772478  0.013079434            5 
 3199000   0.73557937   -8.5222088    528.71681  0.013772971  0.013074578            3 
 3200000   0.73961032   -8.5270268    529.27909   0.01378331  0.013069723            3 
 3201000   0.74119102   -8.5124303    529.78893  0.013792277  0.013064876            3 
 3202000   0.73490014   -8.5319422    528.52277  0.013755017  0.013060022            5 
 3203000    0.7502688   -8.5010838    529.06315  0.013764782  0.013055158            3 
 3204000    0.7409086   -8.5064732    529.50371  0.013771944    0.0130503            6 
 3205000   0.74680951   -8.5055332    529.36699  0.013764092  0.013045449            2 
 3206000   0.73804077   -8.5023877     527.9777  0.013723687  0.013040599            2 
 3207000   0.74036041   -8.5091385    529.77929  0.013766222  0.013035751            3 
 3208000   0.74870615   -8.5181436    529.22723   0.01374759  0.013030928            5 
 3209000   0.72596448   -8.5202612    529.10368  0.013740098  0.013026082            3 
 3210000   0.72540091   -8.4918051    528.36201  0.013716563  0.013021257            2 
 3211000   0.73083902   -8.4822733    529.98837  0.013754499  0.013016438            2 
 3212000   0.74387942   -8.4709208    529.99913  0.013750496  0.013011624            6 
 3213000   0.74702201   -8.5123859    529.55645  0.013734735  0.013006827            3 
 3214000    0.7411802   -8.5095394    528.56396  0.013704728  0.013002019            2 
 3215000   0.73339667   -8.5087012    528.78119  0.013706096  0.012997211            4 
 3216000   0.75542312   -8.4851917    529.80301  0.013728312  0.012992421            4 
 3217000   0.73889062   -8.4787283    530.04683   0.01373036  0.012987629            4 
 3218000   0.74144598    -8.479237    529.43765  0.013710318  0.012982849            4 
 3219000   0.73530341   -8.5031555    529.57393  0.013709587  0.012978076            3 
 3220000   0.72224871   -8.4873022     530.8008  0.013737081  0.012973304            4 
 3221000   0.73775252   -8.5076403    529.87906  0.013708969  0.012968533            6 
 3222000   0.74340865   -8.4982749    531.15719  0.013737771  0.012963769            6 
 3223000    0.7430681   -8.4866686     529.5192  0.013691157  0.012958994            4 
 3224000   0.72763759   -8.5070507     529.5512  0.013687738   0.01295423            2 
 3225000   0.74365733   -8.5188455    530.04105  0.013696151  0.012949456            2 
 3226000   0.74885276   -8.4863302    530.56774  0.013705511  0.012944691            8 
 3227000   0.72917468    -8.488121    529.76099   0.01368043  0.012939916            5 
 3228000   0.74773558    -8.508003    529.57204  0.013671314   0.01293514            4 
 3229000   0.74027711   -8.4853398    530.39549  0.013688332  0.012930373            6 
 3230000     0.735274   -8.5230036     528.9359  0.013646437  0.012925619           11 
 3231000   0.75534291   -8.4907869    530.77063  0.013689534  0.012920854            6 
 3232000   0.73443079    -8.469416    530.24336  0.013671704  0.012916103            4 
 3233000   0.74931632   -8.4941649    530.64543  0.013677839  0.012911354            7 
 3234000   0.73958315   -8.5040924    530.43686  0.013668235   0.01290661            7 
 3235000   0.72802754   -8.4990848    529.85677  0.013649067  0.012901864            2 
 3236000   0.73511153   -8.5282404    529.92939  0.013646719  0.012897098            1 
 3237000   0.73378728   -8.4972481    530.56898  0.013658969  0.012892349            5 
 3238000   0.73656541   -8.5214327    529.29031  0.013621843  0.012887606            3 
 3239000   0.71501698   -8.5235652    530.18582  0.013640677  0.012882844            7 
 3240000   0.73163562       -8.517     530.1208  0.013634794  0.012878101            3 
 3241000   0.73618859   -8.4926498    529.86428  0.013623992  0.012873366            7 
 3242000   0.75441549   -8.5371353    529.35704  0.013606751   0.01286861            5 
 3243000   0.73713454   -8.5212516    529.94158  0.013617576  0.012863835            4 
 3244000   0.73140915   -8.5172759     529.2061  0.013594485  0.012859089            8 
 3245000   0.74738172   -8.5097359    529.62229  0.013600983  0.012854349            8 
 3246000   0.73884724   -8.4660428     530.8137   0.01362738  0.012849613           10 
 3247000   0.73013212   -8.5327292    530.08295  0.013604428  0.012844889           11 
 3248000   0.72527767   -8.4946836    529.71242  0.013590733  0.012840164            5 
 3249000   0.73086899   -8.4752392    531.37097   0.01362909  0.012835439           10 
 3250000   0.72837892   -8.5329371    529.96457  0.013588835   0.01283072            4 
 3251000   0.73082246   -8.5342435    530.18574  0.013590325  0.012826007            8 
 3252000    0.7323825   -8.5181373     530.1014  0.013583984  0.012821299           12 
 3253000   0.71445633   -8.5328161     528.9734  0.013550912  0.012816591            4 
 3254000   0.72211077   -8.4831399    531.48353  0.013611031  0.012811878            5 
 3255000   0.73211517   -8.5003343    530.48615  0.013581315  0.012807173            2 
 3256000   0.73211977   -8.5137186    529.06091  0.013540666  0.012802465            7 
 3257000   0.74601387   -8.5105036    529.56801  0.013549483  0.012797748            7 
 3258000   0.72208754   -8.4996602    530.66545  0.013573395  0.012793032            4 
 3259000   0.72109177   -8.5589628    529.70064   0.01354456    0.0127883            5 
 3260000   0.73211372   -8.5243333    529.70175  0.013540433  0.012783578            8 
 3261000   0.72391672   -8.5108403    529.98911  0.013543624  0.012778853            2 
 3262000   0.72720584   -8.5249797    529.80878  0.013534866  0.012774152            2 
 3263000   0.72448084   -8.5180105    530.67176  0.013552757  0.012769446            2 
 3264000   0.73701951    -8.545162    529.72417  0.013524412  0.012764742            7 
 3265000   0.71182134   -8.5238344    530.31987  0.013535474  0.012760028            3 
 3266000   0.71962521   -8.5425392    530.16352   0.01352734  0.012755313           11 
 3267000   0.73363574   -8.4923862    530.97475  0.013543892  0.012750608            7 
 3268000   0.75571336   -8.5132998    530.48692  0.013527308  0.012745912            5 
 3269000   0.72491431   -8.5354564    530.72075  0.013529131  0.012741213            2 
 3270000   0.72623241   -8.5281864    530.68162  0.013523996  0.012736515            5 
 3271000   0.72661617   -8.5245304    530.90172  0.013525469  0.012731828            7 
 3272000   0.74685345   -8.5329278    529.57792   0.01348762  0.012727145            6 
 3273000   0.73785626   -8.5131699    531.23172  0.013525607  0.012722447            7 
 3274000   0.73244526   -8.5340095    530.73149  0.013508743  0.012717747            4 
 3275000   0.72797233    -8.502447     530.7501  0.013505092  0.012713058            2 
 3276000   0.74371871   -8.5169089    530.33338  0.013490369  0.012708357            5 
 3277000   0.73307846   -8.5294312    530.32709  0.013486092  0.012703667            2 
 3278000   0.72158235   -8.5442474    529.81814   0.01346904  0.012698986            3 
 3279000   0.73100204   -8.5531907    528.65013  0.013435248   0.01269429            3 
 3280000     0.728599   -8.5335157    530.39221  0.013475412  0.012689604            3 
 3281000   0.73766652   -8.5252411      530.463  0.013473103  0.012684926            3 
 3282000   0.73208395    -8.557068    529.92168  0.013455253  0.012680241            2 
 3283000   0.72854999   -8.5332575    530.36053  0.013462294  0.012675552            4 
 3284000   0.74309984   -8.5129604    530.86188  0.013470917   0.01267089            5 
 3285000   0.71569539   -8.5391263    529.47633  0.013431667  0.012666218            6 
 3286000   0.71790479    -8.531152    529.91256  0.013438643  0.012661538            3 
 3287000   0.71669585   -8.5620598     529.7284  0.013429885  0.012656838            3 
 3288000   0.72209601   -8.5464795    530.71994  0.013450931  0.012652154            3 
 3289000   0.72242114   -8.5545153    531.81773  0.013474656  0.012647485            2 
 3290000   0.73241816   -8.5342788    530.07242  0.013426353   0.01264281            4 
 3291000   0.72643034   -8.5410713    529.90993  0.013418159  0.012638138            3 
 3292000   0.74286651   -8.5463684    530.15923  0.013420394  0.012633472            5 
 3293000   0.74135086   -8.5528412    529.99008  0.013412038  0.012628796            2 
 3294000   0.72129601   -8.5371153    529.24912  0.013389221  0.012624118            3 
 3295000   0.72756252   -8.5410611    530.24273  0.013410287  0.012619451            4 
 3296000   0.73423785   -8.5258691    530.90033  0.013422844  0.012614786            3 
 3297000   0.73842248   -8.5379495    529.86945  0.013392717  0.012610118            2 
 3298000   0.72056655   -8.5383395    530.67401  0.013408986  0.012605448            2 
 3299000   0.71071996   -8.5464181    530.52523  0.013401163  0.012600788            4 
 3300000   0.74495699   -8.5495405    531.52479  0.013422343   0.01259613            4 
 3301000   0.70915856   -8.5624197    529.81936  0.013375224  0.012591462            5 
 3302000   0.72453274   -8.5469299    531.04543  0.013402116  0.012586805            5 
 3303000   0.71742708   -8.5658834    529.69203  0.013363912  0.012582132            5 
 3304000   0.72556212     -8.56818    528.41383  0.013327629  0.012577455            4 
 3305000   0.72578026   -8.5454053    530.19594  0.013368531  0.012572789            3 
 3306000   0.70574021   -8.5637625    530.51518  0.013372534  0.012568124            2 
 3307000   0.75363864   -8.5684145    529.40244   0.01334045  0.012563455            2 
 3308000   0.72921333   -8.5461538     529.3223  0.013334399  0.012558789            2 
 3309000   0.72029666   -8.5833336    528.70111  0.013314725   0.01255412            4 
 3310000    0.7188005   -8.5500658    529.56568  0.013332469  0.012549459            6 
 3311000   0.72033903     -8.56529     529.3672  0.013323447  0.012544815            2 
 3312000   0.71687669   -8.5473423    529.37912  0.013319724  0.012540168            3 
 3313000   0.72964057   -8.5440191    529.91783  0.013329254  0.012535515            2 
 3314000   0.72520178   -8.5304957    529.56915  0.013316464  0.012530876            4 
 3315000    0.7247014   -8.5492374    530.57256  0.013337671   0.01252623            4 
 3316000   0.71940717   -8.5484963     529.4801  0.013306195  0.012521592            5 
 3317000   0.71271929   -8.5497503    530.31928  0.013323266  0.012516948            5 
 3318000   0.71692483   -8.5224666     530.3064  0.013318927  0.012512299            9 
 3319000   0.73630278   -8.5749163    529.28607  0.013289296  0.012507642           10 
 3320000   0.72472909   -8.5571265    529.85152  0.013299486  0.012502988            9 
 3321000   0.71939118     -8.57157    529.21849  0.013279597   0.01249833            3 
 3322000   0.73335194   -8.5593694    529.76367  0.013289275  0.012493682            3 
 3323000   0.71274868   -8.5570782    528.63838  0.013257056  0.012489033            4 
 3324000   0.72245907   -8.5693129    528.33792  0.013245535  0.012484383            5 
 3325000   0.71483944    -8.550582    529.50146  0.013270713   0.01247973            5 
 3326000   0.73703361   -8.5253991    529.81717  0.013274633  0.012475079            8 
 3327000   0.70984801   -8.5620868    530.20501  0.013280358  0.012470421            3 
 3328000    0.7212514   -8.5606267    529.12544  0.013249335  0.012465762            6 
 3329000   0.71181325   -8.6045362    529.61945  0.013257721  0.012461097            5 
 3330000   0.72595867   -8.5486828    530.03126  0.013264046  0.012456445            7 
 3331000   0.73170833   -8.5433397    530.05868   0.01326075  0.012451809            2 
 3332000   0.70522484   -8.5660878    529.49231  0.013242605  0.012447173            4 
 3333000   0.70316764   -8.5532183    529.37256  0.013235638  0.012442544            8 
 3334000   0.72655218   -8.5780555    528.40892  0.013207582  0.012437909            2 
 3335000   0.71459434   -8.5753929     528.6272  0.013209076  0.012433266            6 
 3336000   0.72717634   -8.5711667    529.08561  0.013216567  0.012428629           10 
 3337000   0.72699767   -8.5356189    530.18982  0.013240181  0.012423989            4 
 3338000   0.71520096   -8.5436331     529.1819  0.013211052  0.012419353            5 
 3339000   0.70949703   -8.5745519    530.15903  0.013231482  0.012414713            2 
 3340000   0.70653037   -8.5811769    528.68117  0.013190648  0.012410089            4 
 3341000    0.7263416   -8.5786036    529.71171  0.013212404  0.012405451            4 
 3342000   0.72376341   -8.5729618    529.54148  0.013204206  0.012400836            4 
 3343000   0.71284321   -8.6085896    529.41421  0.013197084    0.0123962            3 
 3344000   0.70133469   -8.5598357    530.05052  0.013208994  0.012391555           10 
 3345000   0.71317263   -8.5582491    529.34628  0.013187501  0.012386927            2 
 3346000   0.71012251   -8.5934245    528.55136  0.013163762  0.012382307            6 
 3347000   0.71946083   -8.5655178    529.79132  0.013190701  0.012377696            3 
 3348000   0.71629069   -8.5697221    528.72899  0.013160319  0.012373079           15 
 3349000   0.70183806   -8.5664062    529.89321  0.013185359  0.012368454            2 
 3350000   0.70907687   -8.5801328    529.09073  0.013161461  0.012363815            2 
 3351000   0.73354787    -8.576141    528.38439  0.013139968  0.012359188           11 
 3352000   0.72115845    -8.577605    529.46327   0.01316287  0.012354562           11 
 3353000   0.69944361   -8.5641952    528.32335  0.013130613  0.012349927            3 
 3354000   0.72177338   -8.5796857    528.48427  0.013130696  0.012345291            5 
 3355000   0.71267148   -8.6088051    528.81276  0.013134942  0.012340659            3 
 3356000    0.7326289   -8.5991548    528.01312  0.013111172  0.012336018            6 
 3357000    0.7281665    -8.611075    527.89432  0.013104317  0.012331378            3 
 3358000   0.71177848   -8.6059138    528.40853  0.013113176  0.012326735            6 
 3359000   0.72038759   -8.6014814    527.92798   0.01309735  0.012322089            9 
 3360000   0.71870556   -8.5822131    528.70512  0.013112726  0.012317451            5 
 3361000   0.71838279   -8.5812735    528.47829  0.013103201  0.012312836            9 
 3362000   0.71479018   -8.5651804     528.8551  0.013108643  0.012308212           10 
 3363000   0.70613017   -8.6032963    528.19792  0.013088461  0.012303579            7 
 3364000   0.71421186   -8.6028565    528.65126    0.0130958  0.012298957            8 
 3365000   0.72404466   -8.6026773    529.12446  0.013103627  0.012294327           11 
 3366000    0.7098127   -8.5717727    529.03432  0.013097503    0.0122897           10 
 3367000   0.71182506   -8.5922855    527.90145  0.013065574  0.012285084           13 
 3368000   0.70448423   -8.5919627    528.64055  0.013079982  0.012280456           13 
 3369000   0.71326702   -8.5988808    529.22139  0.013090467  0.012275828           24 
 3370000   0.72784282   -8.6028815    528.55945  0.013070214  0.012271201           14 
 3371000   0.69869854   -8.6026395    527.48473  0.013039769  0.012266581           15 
 3372000   0.69520873    -8.599571    528.10604  0.013051256  0.012261962            9 
 3373000   0.70933251   -8.6229795    528.17952  0.013049202  0.012257338           16 
 3374000   0.70305634   -8.6134754    528.68407  0.013057797   0.01225272           12 
 3375000   0.71914287   -8.5823815    529.25601   0.01306805  0.012248115           11 
 3376000   0.72397909    -8.575717    528.98305  0.013057441  0.012243524            9 
 3377000   0.69747368   -8.6043232    528.83272  0.013049865  0.012238936           13 
 3378000   0.71654031   -8.5982614    528.97629  0.013049543  0.012234341           11 
 3379000   0.71285487   -8.5627932    529.72022  0.013064028  0.012229758            4 
 3380000   0.72421712   -8.5797356    530.22087  0.013072507  0.012225185            4 
 3381000   0.71887341   -8.5786158    528.58681  0.013028365  0.012220598           18 
 3382000     0.714065   -8.6006204     528.5373  0.013023292  0.012216021            8 
 3383000   0.70870147   -8.5980477    527.95302   0.01300505   0.01221145           10 
 3384000   0.69602434   -8.5856603     530.2736  0.013058353  0.012206885           13 
 3385000   0.70235939   -8.6187866    528.51206  0.013011129  0.012202313            5 
 3386000   0.72237815   -8.5942686    529.14012  0.013022744  0.012197743            5 
 3387000   0.72809695   -8.6060164    528.29632  0.012998138  0.012193185           13 
 3388000   0.69865478   -8.6034737    530.02276  0.013036766  0.012188637            6 
 3389000   0.71610779   -8.6069253    529.61693   0.01302294  0.012184084            2 
 3390000   0.70666017   -8.5814258    529.93048  0.013026806  0.012179553            2 
 3391000   0.72205615   -8.5986131    529.16389  0.013004126  0.012175009            6 
 3392000   0.71576741   -8.5955411    527.57557  0.012961271  0.012170454            9 
 3393000   0.70055921   -8.6024139    528.68706   0.01298475  0.012165907            3 
 3394000   0.70193042   -8.6293664     528.2177  0.012969399  0.012161347            6 
 3395000   0.71077883   -8.6098167    529.71055  0.013002223  0.012156787            6 
 3396000   0.69679412   -8.6292369    528.54519  0.012969797  0.012152229            2 
 3397000   0.71712072   -8.6250099    528.81514  0.012972602  0.012147667            8 
 3398000   0.70662511   -8.6008781    528.54173  0.012962079  0.012143104            6 
 3399000   0.72155901   -8.5988287    529.13762  0.012972875  0.012138549            5 
 3400000    0.7144294   -8.5876464    528.57272  0.012955214  0.012134004            8 
 3401000   0.69354927   -8.5956579    528.82837  0.012957669  0.012129462            6 
 3402000   0.71056876   -8.6202888    527.63147  0.012924541  0.012124912           10 
 3403000   0.69579711   -8.5951092    528.91979  0.012952292  0.012120363            7 
 3404000   0.69842613   -8.6048115     528.7575  0.012944514  0.012115814            8 
 3405000   0.71518264   -8.5816643    528.71904  0.012939771  0.012111262            7 
 3406000   0.69448113   -8.5994914    528.88406  0.012940009  0.012106713            7 
 3407000   0.70254502   -8.5996952    530.02029  0.012964003   0.01210217            5 
 3408000   0.70086472   -8.6158186    528.04276  0.012911844  0.012097626            5 
 3409000   0.71560085   -8.5675528    529.51715  0.012944098  0.012093084            4 
 3410000   0.70743966   -8.6083471    528.95661  0.012926603   0.01208854            7 
 3411000   0.71391984   -8.6198925    527.79669  0.012894476  0.012083998            4 
 3412000   0.71719207   -8.5781658    528.22335  0.012901117  0.012079457            4 
 3413000   0.71507945   -8.6123184    528.07362  0.012893682  0.012074918            5 
 3414000   0.70535089   -8.6043081    527.74041  0.012881771  0.012070382            4 
 3415000   0.72006883   -8.6137992    529.07649  0.012910603  0.012065848            4 
 3416000    0.7062979    -8.618097     529.0094  0.012905186  0.012061307            4 
 3417000   0.71088714   -8.5980894     530.0776  0.012927461  0.012056773            3 
 3418000   0.68938452   -8.6429158    528.14641  0.012876595  0.012052238            8 
 3419000   0.72665379   -8.6077751     528.7073  0.012886499  0.012047715            7 
 3420000   0.70216901   -8.5799516    528.47693  0.012877118  0.012043195            6 
 3421000   0.69846723   -8.6015131    528.60856   0.01287656  0.012038678            2 
 3422000   0.71136172   -8.6193491    528.56633  0.012871769  0.012034167            7 
 3423000   0.70154187    -8.601697    529.07098  0.012880295  0.012029652            8 
 3424000   0.70934041   -8.5878812    529.17421  0.012879045  0.012025153           12 
 3425000   0.69372374   -8.6007152     529.2545  0.012877238  0.012020659            8 
 3426000   0.71234384   -8.6212127    528.45651   0.01285407  0.012016148            6 
 3427000   0.70822616    -8.607855    529.01334  0.012863859  0.012011647           10 
 3428000   0.69918911   -8.6269371    528.99275  0.012859606  0.012007152            4 
 3429000   0.70581217   -8.6150493    528.53899  0.012844828  0.012002654            3 
 3430000   0.70927134   -8.5977491    528.17624   0.01283227  0.011998157           13 
 3431000   0.68547768   -8.6108528    529.45745  0.012859649   0.01199367            9 
 3432000   0.71319691   -8.6168573    529.01783  0.012845227  0.011989176           21 
 3433000   0.70139695   -8.6094903    529.48958  0.012852937  0.011984696           11 
 3434000   0.71202025   -8.6040179    529.06325  0.012838848  0.011980214            8 
 3435000   0.70725565   -8.6021089    528.60248  0.012823932  0.011975738           11 
 3436000   0.69801825   -8.6102696    529.14078  0.012833255   0.01197126            9 
 3437000   0.69722651   -8.6125626    529.22361   0.01283153  0.011966775            8 
 3438000      0.70273   -8.6210015    528.64095  0.012813674  0.011962295            5 
 3439000   0.71036481    -8.628478    529.57825  0.012832661  0.011957816           15 
 3440000   0.70742111   -8.6294728    529.51161  0.012827316  0.011953329            6 
 3441000   0.70516965   -8.6317466    527.72683  0.012780365  0.011948862           12 
 3442000   0.71569551   -8.6036061    529.21688  0.012812727  0.011944385            7 
 3443000   0.70084003   -8.6036902    528.71434  0.012796842  0.011939914            9 
 3444000   0.69830369   -8.6071586    528.74162  0.012793787  0.011935445           11 
 3445000   0.72500741   -8.5757257    529.39049  0.012805769  0.011930972            8 
 3446000   0.70603128   -8.6367267    528.20622  0.012773414  0.011926503            4 
 3447000   0.69993974   -8.5935119    527.94886  0.012763487  0.011922033            8 
 3448000    0.7110237   -8.5949853    528.19601  0.012765758  0.011917564            3 
 3449000   0.68787581   -8.6061488    527.99751  0.012757261  0.011913095            5 
 3450000   0.70847698   -8.6145368    528.90565  0.012775499  0.011908624            6 
 3451000   0.69908671   -8.6037626    528.24702  0.012755892  0.011904155            3 
 3452000   0.69857706   -8.6193298    527.89363  0.012743666  0.011899682            6 
 3453000   0.69094832   -8.6033823    529.73904  0.012784512  0.011895207            4 
 3454000   0.70030594   -8.6329936    527.61789  0.012729635  0.011890734           13 
 3455000    0.6880219   -8.6243664    527.49546  0.012722997  0.011886258           12 
 3456000   0.70592264   -8.6225394    527.58219  0.012721407  0.011881778            5 
 3457000   0.70895127   -8.6176027    527.76587  0.012722155  0.011877309            8 
 3458000    0.6948639   -8.6566417    527.54886  0.012713246  0.011872827            5 
 3459000   0.66904446    -8.623071    528.51034  0.012732735  0.011868345           10 
 3460000   0.70232331   -8.6398831    528.75407  0.012734925  0.011863876           10 
 3461000   0.70555162   -8.6088744    528.55324  0.012726409  0.011859405           10 
 3462000   0.70519163   -8.6220925    526.29787  0.012668445  0.011854934           16 
 3463000   0.70734081   -8.6344976    528.24541  0.012711652  0.011850464            5 
 3464000   0.69453043   -8.6391575    528.24673  0.012708014  0.011845984           11 
 3465000   0.68976666   -8.6304066    527.52811  0.012687064  0.011841508            8 
 3466000   0.70021063   -8.6469296    527.66477  0.012686689  0.011837035            8 
 3467000   0.69411465   -8.6188784    527.82402  0.012686857  0.011832561           10 
 3468000   0.67269101   -8.6133904    527.66453  0.012679367  0.011828091            7 
 3469000   0.69752316   -8.6484501    528.03376  0.012684581  0.011823613            5 
 3470000   0.68448043   -8.6323596    527.78831  0.012675032  0.011819146           14 
 3471000   0.68690882   -8.6326459    527.43422  0.012662879  0.011814679            7 
 3472000   0.68830484   -8.6206159    528.14676  0.012676334  0.011810209           11 
 3473000   0.68619052   -8.6295772    528.22791  0.012674631  0.011805746            7 
 3474000   0.70479552   -8.6543448    527.70769  0.012658503  0.011801277           10 
 3475000   0.71672407    -8.621941    527.58878  0.012652009  0.011796819            5 
 3476000   0.71004821   -8.6142079    528.10392  0.012660719  0.011792359           15 
 3477000   0.70838927   -8.6329453    526.70814  0.012623625  0.011787895           17 
 3478000   0.69014376   -8.6761282    527.05599   0.01262833  0.011783423           17 
 3479000   0.70899201   -8.6379418    527.86988  0.012644196  0.011778951            8 
 3480000    0.6868061   -8.6418014    526.90106  0.012617363  0.011774485           12 
 3481000   0.70259266   -8.6700451    527.42605  0.012626306   0.01177002           15 
 3482000   0.68785204   -8.6687152    527.75064  0.012630448  0.011765558           15 
 3483000   0.69522622    -8.636226    528.27934  0.012639471  0.011761097           25 
 3484000   0.68808144   -8.6668076    526.91023  0.012603096  0.011756636           20 
 3485000    0.6964726   -8.6347208    528.04938  0.012626719  0.011752181            8 
 3486000   0.68326617   -8.6530035    525.65668  0.012565899  0.011747736           14 
 3487000   0.69853746   -8.6387916    527.85075   0.01261473  0.011743284            6 
 3488000   0.69892435   -8.6477777    526.36293  0.012575567  0.011738827            4 
 3489000   0.69780414   -8.6144689    527.19433   0.01259182  0.011734388            6 
 3490000   0.67573042   -8.6606589    527.96813  0.012606689  0.011729946            9 
 3491000   0.68316746   -8.6670093    527.73919  0.012597613  0.011725498            6 
 3492000   0.68894751   -8.6682768    526.49837  0.012564394  0.011721058           15 
 3493000   0.70729926   -8.6675403    527.22849  0.012578216  0.011716606            6 
 3494000   0.69057296   -8.6319418    528.70873   0.01260992  0.011712158            4 
 3495000   0.70452475   -8.6568754    526.99153  0.012565368  0.011707711            9 
 3496000   0.68569505   -8.6880408    527.23153  0.012567494   0.01170326            9 
 3497000   0.69051389    -8.678765    527.16075  0.012562214  0.011698812            5 
 3498000   0.68295389   -8.6806834    527.59455  0.012568957  0.011694357            8 
 3499000   0.68291585   -8.6667829    526.83112  0.012547183  0.011689916           10 
 3500000   0.69528923   -8.6473072     526.5864  0.012537772  0.011685472            9 
 3501000   0.70178641   -8.6630986    527.41624  0.012553943  0.011681033           18 
 3502000   0.68625468   -8.6654404     528.8588  0.012584685  0.011676599            9 
 3503000   0.69215546   -8.6643952    527.20286  0.012541699  0.011672172           10 
 3504000   0.69805823   -8.6618905    526.98068  0.012532836  0.011667753           10 
 3505000   0.68220301   -8.6553559    527.53673   0.01254248   0.01166333            5 
 3506000   0.70316683   -8.6610731    527.51209  0.012538318  0.011658904            8 
 3507000   0.70110063   -8.6429796    527.01625   0.01252296  0.011654477            7 
 3508000    0.6923726   -8.6512421    527.03631  0.012519867  0.011650067           13 
 3509000   0.69293088   -8.6607678    526.57904  0.012505439   0.01164565            9 
 3510000   0.69712045   -8.6697847    527.33673  0.012519865  0.011641235           11 
 3511000     0.689331   -8.6412623    526.55122  0.012497656  0.011636816           15 
 3512000   0.68520305   -8.6727537    527.26067  0.012510931  0.011632396           10 
 3513000   0.69210016   -8.6942031    526.88864  0.012498544  0.011627981           13 
 3514000    0.6855457   -8.6335298    528.56379  0.012534713  0.011623576            6 
 3515000   0.69098304   -8.6289145    528.62396  0.012532574  0.011619179           10 
 3516000   0.69035854   -8.6473102    528.40898  0.012523914  0.011614785           10 
 3517000   0.67912821   -8.6522646    527.25766  0.012493073   0.01161039            7 
 3518000   0.70278967   -8.6561002    527.39202  0.012492705  0.011605992            5 
 3519000   0.69091835   -8.6488278    528.54836  0.012516538  0.011601599            5 
 3520000   0.69549927   -8.6578395    527.62101  0.012491028  0.011597207           12 
 3521000   0.67787963   -8.6931299    527.63138  0.012487726  0.011592811            7 
 3522000   0.69115682   -8.6675208    526.67368   0.01246152  0.011588408           15 
 3523000   0.67378357   -8.6627851    527.98966  0.012489111  0.011584016            8 
 3524000   0.69069787   -8.6753822    527.27966  0.012468777   0.01157962            8 
 3525000   0.69350605   -8.6765241    526.59331  0.012449014   0.01157522           14 
 3526000   0.70286854   -8.6812353    525.05423  0.012409109  0.011570832           11 
 3527000    0.6940437   -8.6487143    527.22669   0.01245692  0.011566439            9 
 3528000    0.6887463   -8.6456949     527.2179  0.012453182  0.011562045            7 
 3529000   0.68715542   -8.6426561    527.64935  0.012459841  0.011557665           15 
 3530000   0.68595342   -8.6596829    527.73437  0.012458318  0.011553271           11 
 3531000    0.6902937   -8.6569335    527.59462  0.012451492  0.011548887            6 
 3532000   0.68680179   -8.6708311    526.67799   0.01242634  0.011544498            6 
 3533000   0.70099251   -8.6708917    525.99781  0.012406779  0.011540103           16 
 3534000    0.6880694    -8.647428    526.50382  0.012415201   0.01153571           10 
 3535000   0.68685526    -8.662898    527.36411  0.012431969  0.011531323            9 
 3536000   0.68065624   -8.6752468    527.44436  0.012430344   0.01152694            8 
 3537000   0.69467458   -8.6897212    525.63703  0.012384248   0.01152256           12 
 3538000    0.7015094   -8.6903922    526.30578  0.012396499  0.011518179            9 
 3539000   0.70038595    -8.677945    527.39732  0.012418699  0.011513801            5 
 3540000   0.68086254   -8.6616534    527.89473    0.0124269  0.011509436            7 
 3541000   0.68389988   -8.6670158    526.85468  0.012398915  0.011505071           13 
 3542000     0.686434   -8.6845584    526.81843  0.012394561  0.011500696           11 
 3543000   0.69147998   -8.6688665    527.06934  0.012396964  0.011496327           10 
 3544000   0.68101889   -8.6957938    526.29547   0.01237527  0.011491963           10 
 3545000   0.68985178   -8.6777869    527.77547   0.01240657  0.011487605           13 
 3546000   0.68429241   -8.6620236    528.58698  0.012422142  0.011483243            8 
 3547000   0.68789467   -8.6762014    526.90194  0.012379051  0.011478881           15 
 3548000   0.68518923   -8.6595096     526.4805  0.012365664  0.011474524            7 
 3549000   0.68768634   -8.6617723    527.54931  0.012387276  0.011470182            7 
 3550000    0.6902651   -8.6707769     527.1787  0.012375087  0.011465839           11 
 3551000   0.66917328   -8.6643277     527.5484  0.012380278    0.0114615            8 
 3552000    0.6900324   -8.6698965    526.59976  0.012354537  0.011457152           10 
 3553000   0.68897709   -8.6712848    527.01036   0.01236069   0.01145281            7 
 3554000   0.68896237   -8.6662475    526.26718  0.012339786  0.011448472            7 
 3555000   0.67931924   -8.6696102    527.98466  0.012376574  0.011444137            6 
 3556000   0.70580374   -8.6837353    526.81207  0.012345615  0.011439794           10 
 3557000   0.68589032    -8.676362    526.36077  0.012331571  0.011435458           10 
 3558000   0.67779068   -8.6675316    526.40811  0.012329214  0.011431117            7 
 3559000   0.69317742   -8.6575095    525.19338  0.012297307  0.011426783            6 
 3560000   0.67454195   -8.6729474    526.14999  0.012316245   0.01142245            8 
 3561000   0.67915594   -8.6775667    527.02158  0.012333183  0.011418119            9 
 3562000   0.67985907   -8.6621212    527.24284  0.012334897  0.011413793            9 
 3563000   0.66763035   -8.6839869    526.81956  0.012321535  0.011409469           11 
 3564000   0.69383593   -8.6504767    526.81408   0.01231795  0.011405143            6 
 3565000   0.69112177   -8.6767283    526.12762  0.012298448  0.011400829           12 
 3566000   0.68304331   -8.6614573    526.55487  0.012304984  0.011396507           15 
 3567000   0.66499416   -8.6739999     526.5534    0.0123015  0.011392172            4 
 3568000   0.69193859   -8.6634796    527.93328   0.01233028  0.011387861            4 
 3569000   0.66718223   -8.6609673    526.92966  0.012303392   0.01138355           19 
 3570000   0.68309158   -8.6648453    526.48066  0.012289464  0.011379237           23 
 3571000   0.67171505    -8.673762    527.86325  0.012318287  0.011374924            7 
 3572000   0.68555885   -8.6523168    526.81437  0.012290369  0.011370612           14 
 3573000   0.69463949   -8.6561349    526.47712  0.012279063  0.011366304            5 
 3574000    0.6830708   -8.6478076    527.94203  0.012309784     0.011362           17 
 3575000   0.67725157   -8.6763775    527.16605  0.012288253   0.01135769            9 
 3576000    0.6840511   -8.6618163    526.36887  0.012266239  0.011353392           14 
 3577000   0.67175074   -8.6837045    527.05906   0.01227889  0.011349091           11 
 3578000   0.68498686   -8.6814653    526.59022  0.012264538  0.011344787           16 
 3579000   0.68485166     -8.65774     527.6457  0.012285687   0.01134049            6 
 3580000   0.68140569   -8.6883698    527.34908  0.012275351  0.011336203            5 
 3581000   0.68761069   -8.6873418     526.4417  0.012250808  0.011331907           12 
 3582000   0.65970531   -8.6869365    526.83978  0.012256649  0.011327603           11 
 3583000   0.67319652   -8.6677453    527.02563   0.01225755    0.0113233           19 
 3584000   0.66377112   -8.6811053    527.13215  0.012256607  0.011318998           13 
 3585000    0.6788849   -8.6652838    526.97268  0.012249481  0.011314703           11 
 3586000   0.67819735   -8.6840814    526.98184  0.012246278   0.01131041           10 
 3587000   0.67955357   -8.6714097    527.67405  0.012258945  0.011306122           17 
 3588000   0.69054328   -8.6588676    526.39946  0.012225926  0.011301836           10 
 3589000   0.67027376    -8.676933    527.15123  0.012239975  0.011297544           18 
 3590000   0.68332366   -8.6856834    526.08536  0.012211824  0.011293261           12 
 3591000   0.67614712   -8.6904754    527.14358   0.01223298  0.011288982           13 
 3592000   0.68250392   -8.6851312    526.98303   0.01222585  0.011284701           17 
 3593000   0.66525051     -8.69329    526.53058  0.012211953  0.011280423           10 
 3594000   0.68344059   -8.6913062    527.06666  0.012220985   0.01127615           15 
 3595000   0.67211757   -8.6721484    526.83557  0.012212229  0.011271878            4 
 3596000   0.65514137   -8.6696873    526.87309  0.012209703  0.011267611            5 
 3597000   0.67012305   -8.6977915    527.13731   0.01221243  0.011263332            5 
 3598000   0.67539552   -8.7146737    525.58866  0.012173167  0.011259059           15 
 3599000   0.67328322   -8.7017273    526.11722  0.012182023   0.01125478            5 
 3600000   0.67488151   -8.7036355    526.69156  0.012191934  0.011250505           10 
 3601000   0.66267654   -8.6977186    527.14405   0.01219902  0.011246243            4 
 3602000   0.68211255   -8.6923182    526.56975  0.012182347  0.011241974            6 
 3603000   0.66705721   -8.6986736    526.85337  0.012185525  0.011237701            4 
 3604000   0.65782751   -8.7168717    526.84962  0.012182057  0.011233434            8 
 3605000   0.65626599    -8.674807    526.92591  0.012180442  0.011229164            4 
 3606000   0.67089243   -8.6938821    526.90697  0.012176626  0.011224903            8 
 3607000   0.68254766   -8.6895057    526.67228  0.012167828  0.011220638            4 
 3608000   0.65750769   -8.6905289    526.43544  0.012158986  0.011216384            8 
 3609000   0.67931761   -8.6917804    527.40537  0.012178013  0.011212131            7 
 3610000   0.66217115   -8.6977286    526.26233  0.012148253  0.011207885            8 
 3611000   0.66551409   -8.6778786    526.79191   0.01215711  0.011203637            6 
 3612000   0.67297603   -8.6689025     526.9015  0.012156273  0.011199394           13 
 3613000    0.6780866   -8.6823232    527.23819  0.012160674  0.011195153            4 
 3614000   0.67213692   -8.6868671    527.14397  0.012155137  0.011190906            4 
 3615000   0.68157761   -8.6775292    526.79213  0.012143664  0.011186665            7 
 3616000   0.67284611   -8.6923449    526.78292  0.012140093  0.011182428            2 
 3617000   0.68307398    -8.679247    526.26475  0.012124798  0.011178186            8 
 3618000   0.67648213   -8.7057272    527.08789  0.012140407  0.011173955           17 
 3619000   0.68019379   -8.6785912    527.43573  0.012145061  0.011169717           11 
 3620000   0.66986772   -8.7045694    526.95227  0.012130577  0.011165483            8 
 3621000   0.69170583   -8.6864953    527.98671  0.012151034  0.011161252            4 
 3622000   0.67516846   -8.6957629    527.21709  0.012129972  0.011157017            2 
 3623000   0.65688934   -8.6765345    526.85605  0.012118319  0.011152791           15 
 3624000   0.67401643   -8.7101893    526.26932  0.012101484  0.011148564           10 
 3625000   0.68718685   -8.6947046      526.849  0.012111471  0.011144336            5 
 3626000   0.66701694   -8.7034186    527.05441  0.012112852  0.011140117            7 
 3627000   0.68903332   -8.7015417    525.62528  0.012076677  0.011135892            3 
 3628000   0.68110611   -8.6841404    527.09252   0.01210705   0.01113167            9 
 3629000   0.67183888   -8.6938043    526.38515   0.01208747  0.011127454           13 
 3630000   0.67739372   -8.7012586    526.41842  0.012084904  0.011123235            9 
 3631000   0.67433179   -8.6898131    526.66965  0.012087342  0.011119011            4 
 3632000   0.66629992   -8.7034887    527.52757  0.012103698  0.011114794            4 
 3633000   0.67970046   -8.7061193    527.22225  0.012093363  0.011110575            5 
 3634000   0.67166907   -8.7294997    527.09791  0.012087184   0.01110636            3 
 3635000   0.67776881   -8.7107262    526.50239  0.012070206  0.011102145            4 
 3636000   0.67219338   -8.7142877    526.44981  0.012065681  0.011097932            4 
 3637000   0.67662581   -8.7143164    525.60443  0.012042994  0.011093717            3 
 3638000   0.67295027   -8.6894703    526.74325   0.01206577  0.011089509            6 
 3639000     0.673414   -8.7234181    525.60109  0.012036299  0.011085296            4 
 3640000   0.68006626   -8.7069742    526.03384  0.012042899  0.011081087            5 
 3641000    0.6655591   -8.7146217    527.55016  0.012074296  0.011076881           10 
 3642000   0.66789519   -8.7218769    526.32695  0.012042993  0.011072683            3 
 3643000   0.66652639   -8.7096535    527.37221  0.012063597  0.011068482           13 
 3644000    0.6698586   -8.7089578    526.59938  0.012042613  0.011064292            4 
 3645000   0.66571177   -8.7084474    526.66874  0.012040895  0.011060098            9 
 3646000   0.66008232   -8.7012547    526.96591  0.012044384  0.011055908            6 
 3647000   0.66465282   -8.7217335    526.85812  0.012038619  0.011051714            3 
 3648000    0.6745532   -8.6971035    526.77501   0.01203342  0.011047525           11 
 3649000   0.66696197    -8.688117    527.04729  0.012036341  0.011043335            5 
 3650000    0.6686485   -8.7045519    527.50966    0.0120436  0.011039145            4 
 3651000   0.66238643   -8.7037315    527.08389  0.012030583  0.011034957            8 
 3652000   0.67312967   -8.7060262    525.33011   0.01198727  0.011030768            4 
 3653000   0.65586786    -8.704673    526.10248  0.012001608  0.011026585            4 
 3654000   0.65998585   -8.7119278    526.53135  0.012008104    0.0110224            7 
 3655000   0.67156451   -8.7115838    526.61725  0.012006777  0.011018211            5 
 3656000   0.66785669   -8.7255736    526.66271  0.012004529   0.01101404            9 
 3657000   0.67066004   -8.7054062    526.54014  0.011998454  0.011009874            6 
 3658000   0.64958945   -8.7098827    526.42796  0.011992618  0.011005699            5 
 3659000   0.67801948   -8.7172183    526.15576  0.011983141  0.011001521            6 
 3660000   0.68156516   -8.7081778    526.92591  0.011997402  0.010997351            5 
 3661000   0.67008902   -8.7462156    526.01723  0.011973442  0.010993181            4 
 3662000    0.6677239   -8.6957417    526.53876   0.01198204  0.010989016           24 
 3663000   0.66957341   -8.7098268    525.55723  0.011956439  0.010984856            5 
 3664000    0.6708995   -8.7151748    526.13131  0.011966233  0.010980692            2 
 3665000   0.66535548    -8.712533    526.90472  0.011980553  0.010976528            2 
 3666000   0.68136803   -8.7161439    525.58574  0.011947303  0.010972366            7 
 3667000   0.65767706   -8.7190455    526.71604  0.011969731  0.010968206            7 
 3668000   0.66734728   -8.7256993    525.88265  0.011947534  0.010964047           11 
 3669000   0.67141541   -8.7165038    525.13861  0.011927378  0.010959889            7 
 3670000   0.67117945   -8.7157116    526.46535  0.011954254  0.010955729            4 
 3671000   0.66250844   -8.7202193    525.12311  0.011920528  0.010951571            4 
 3672000   0.65910175   -8.7275424    524.86118  0.011911338  0.010947412            5 
 3673000   0.66542673   -8.7469448    526.60015  0.011947549  0.010943261            5 
 3674000   0.67549259   -8.7179279    526.19878  0.011935193  0.010939118            5 
 3675000   0.67432708   -8.7284247    526.45473  0.011937749  0.010934984            7 
 3676000   0.65803359   -8.7054205    526.94354  0.011945583  0.010930846            5 
 3677000   0.65396557   -8.6986563    525.37187  0.011906714  0.010926708            5 
 3678000   0.66627811   -8.7285622    525.65365  0.011909862  0.010922573            4 
 3679000   0.65485711   -8.6979256     527.1003  0.011939393  0.010918441            6 
 3680000   0.66504086   -8.7163595     525.3966  0.011897568  0.010914316            6 
 3681000   0.64762618   -8.7225218    525.79772  0.011903417   0.01091019            3 
 3682000   0.65894496   -8.6957321    525.95965  0.011903849  0.010906059            4 
 3683000   0.65744716   -8.7170485    526.35579   0.01190958  0.010901926            5 
 3684000   0.67045528   -8.6911647    526.87132  0.011918008  0.010897804            5 
 3685000     0.664622   -8.7021874    525.97817  0.011894577  0.010893681            4 
 3686000   0.67224498    -8.715241    525.99719   0.01189178   0.01088956            4 
 3687000   0.66164956    -8.707747    525.42809  0.011875691  0.010885442            6 
 3688000   0.66348124   -8.7160455    525.64372  0.011877344  0.010881324            7 
 3689000   0.64550906   -8.7334555    526.08395  0.011884069  0.010877209            5 
 3690000   0.66881125   -8.7063637    525.70445  0.011872278  0.010873098            5 
 3691000   0.67674857   -8.7309785    526.82971  0.011894467  0.010868992            3 
 3692000   0.64893658   -8.6952861    527.43592  0.011904928  0.010864903            7 
 3693000   0.66335174   -8.7359586    526.29818  0.011876031  0.010860797           12 
 3694000   0.65199489    -8.719625    527.00727  0.011888812    0.0108567            5 
 3695000   0.68255377   -8.6930904    526.49489  0.011874039  0.010852603            8 
 3696000   0.66941862   -8.6928005    526.14492  0.011862936  0.010848505            6 
 3697000   0.66773101   -8.6967039    527.23739  0.011884352  0.010844407            4 
 3698000   0.67942983   -8.7333499    526.69304  0.011868871  0.010840311            6 
 3699000    0.6570681   -8.7250123    527.20258  0.011877142   0.01083622            4 
 3700000   0.64816835   -8.7054935    526.68048  0.011862173  0.010832131            5 
 3701000   0.68259027   -8.7013695    526.80785  0.011861836  0.010828042            4 
 3702000   0.66213955   -8.6992848    527.07808  0.011864715  0.010823955            9 
 3703000   0.67689435     -8.73273    526.19199   0.01184157  0.010819871            3 
 3704000   0.64211104   -8.7123779    526.47496  0.011844739  0.010815783            6 
 3705000   0.65388316   -8.7219896    526.70694   0.01184676  0.010811694            5 
 3706000   0.65966488   -8.7324585    525.93542  0.011826215   0.01080761            5 
 3707000   0.64421341   -8.7291786     524.8369   0.01179833   0.01080352            9 
 3708000   0.65707897   -8.7206667    526.17888  0.011825307  0.010799433            7 
 3709000    0.6609615   -8.7105557    526.34822  0.011825924  0.010795347            8 
 3710000   0.67001494   -8.7192688    526.79943  0.011832871  0.010791267            7 
 3711000   0.66202901   -8.7308068    525.38657  0.011797956  0.010787192            6 
 3712000   0.65497079   -8.7377284    525.22414  0.011791131   0.01078311            6 
 3713000   0.66980094   -8.7223778    526.90507  0.011825682  0.010779037            8 
 3714000   0.65955649   -8.7018187    526.26869  0.011808219   0.01077497            8 
 3715000   0.66191775   -8.7262081    526.49467  0.011810109  0.010770908            6 
 3716000   0.66299725   -8.7161408    525.85665  0.011792623  0.010766838            6 
 3717000    0.6679241   -8.7416177    525.84883  0.011789275   0.01076277            8 
 3718000   0.66182909   -8.7172455    526.71802  0.011805586  0.010758698            7 
 3719000   0.65367563   -8.7127756    526.34082  0.011793959  0.010754635            3 
 3720000   0.66210533   -8.7383677    526.36273   0.01179128  0.010750571            7 
 3721000   0.65862315   -8.7526609    525.54478  0.011769793  0.010746507            8 
 3722000   0.66193697   -8.7065745    527.81951   0.01181756  0.010742443            4 
 3723000   0.65226097   -8.7292893    526.02739  0.011774272  0.010738389           11 
 3724000   0.65864231   -8.7301943    526.49931  0.011781671  0.010734332            9 
 3725000   0.66078996   -8.6990804    526.51976  0.011778966  0.010730278           11 
 3726000   0.66547111    -8.700234    526.50333  0.011775437  0.010726227            7 
 3727000   0.65567074     -8.72883     525.3438  0.011746351  0.010722176           11 
 3728000   0.64074796   -8.7436066    525.78649  0.011753096  0.010718129            5 
 3729000   0.66909084   -8.7387249    525.09295  0.011734445   0.01071408            8 
 3730000   0.65524526   -8.7486547    525.90618  0.011749468  0.010710033            7 
 3731000   0.66520852   -8.7358884    526.33701  0.011755941  0.010705978            8 
 3732000   0.65261597   -8.7192122    526.05411  0.011746474  0.010701934            7 
 3733000   0.66578714   -8.7177038    525.74841  0.011736503  0.010697894            9 
 3734000   0.64598274   -8.7563677    526.32061   0.01174613  0.010693852           11 
 3735000   0.65937897    -8.732783    525.76103    0.0117305   0.01068981            5 
 3736000   0.66282897   -8.7252088    526.33886  0.011740249  0.010685774           10 
 3737000   0.65808242   -8.7278123    526.00348  0.011729629  0.010681737            9 
 3738000   0.63944199   -8.7484803    525.34457  0.011711802  0.010677706            4 
 3739000   0.66582558   -8.7404697    526.21692  0.011728112  0.010673676           15 
 3740000   0.66006098   -8.7315878    526.06185  0.011721521  0.010669648           10 
 3741000    0.6587114   -8.7213092    526.17737  0.011720961  0.010665625            8 
 3742000   0.64688315   -8.7337488    527.25078  0.011741733  0.010661606           10 
 3743000   0.65108495   -8.7541873    526.03817  0.011711599  0.010657589            4 
 3744000   0.64463398   -8.7410661    526.20186  0.011712114  0.010653565            6 
 3745000   0.64109179   -8.7247156    527.49529  0.011737768  0.010649545            8 
 3746000   0.65855252   -8.7279905    526.09328  0.011703445  0.010645534           12 
 3747000   0.65938968   -8.7220275    526.35173   0.01170607  0.010641523            8 
 3748000   0.64192605    -8.749018    526.81579  0.011713265  0.010637511            7 
 3749000   0.65168165   -8.7453089    525.89605  0.011689696  0.010633502           12 
 3750000   0.66707465   -8.7272469    525.17458  0.011670546  0.010629487            8 
 3751000   0.65060508   -8.7431503    525.89575  0.011683457  0.010625475            7 
 3752000   0.64482714    -8.743008     525.9207  0.011680897  0.010621469            9 
 3753000   0.65480539   -8.7403596     526.8162  0.011697668  0.010617461            7 
 3754000   0.65291226   -8.7266075    526.55369  0.011688725  0.010613461            5 
 3755000   0.65926528   -8.7544955    525.76825  0.011668181  0.010609464            9 
 3756000    0.6517445   -8.7388401    525.92352   0.01166852  0.010605466            9 
 3757000   0.64916298   -8.7046612    526.39885  0.011675957  0.010601468           13 
 3758000   0.65957982   -8.7592247    526.27857  0.011670183  0.010597464            8 
 3759000   0.65601163   -8.7528132    526.01993  0.011661344  0.010593463           13 
 3760000   0.66060106   -8.7522681    525.50084  0.011646739  0.010589464           14 
 3761000   0.64802073   -8.7466573    526.64895  0.011669081   0.01058547            6 
 3762000   0.65471217   -8.7574097     526.3672  0.011659738  0.010581469           16 
 3763000   0.64838549   -8.7573434    525.47216  0.011636818  0.010577478           14 
 3764000   0.64874804    -8.751085    526.49759  0.011656429  0.010573492           19 
 3765000   0.65465279   -8.7453527    525.39928  0.011629023  0.010569506           12 
 3766000   0.66016572   -8.7097837    526.72592  0.011655291  0.010565523            6 
 3767000   0.64786366   -8.7477527    525.52212  0.011625567  0.010561546            6 
 3768000   0.66067924   -8.7357563    525.76756   0.01162791  0.010557565            7 
 3769000   0.63934055   -8.7389593    525.51726   0.01161929  0.010553584           10 
 3770000    0.6706151   -8.7431407    526.73288  0.011643079  0.010549596           12 
 3771000   0.65818899   -8.7570187    525.60652    0.0116151  0.010545618           11 
 3772000   0.64771053   -8.7520787     525.6456  0.011612884  0.010541641            6 
 3773000   0.65046665   -8.7166979    525.32695  0.011602769  0.010537662            6 
 3774000   0.64948528   -8.7475918    525.13163  0.011595381  0.010533684            4 
 3775000   0.64549126   -8.7532598    524.87722  0.011586694  0.010529707            7 
 3776000   0.64271432   -8.7373446    526.31881   0.01161544  0.010525734            9 
 3777000    0.6646708   -8.7479664    525.76259  0.011600093  0.010521761           11 
 3778000   0.63962835   -8.7540919    526.45084  0.011612203  0.010517794           10 
 3779000   0.63727075   -8.7381772    525.25048   0.01158266  0.010513828           16 
 3780000     0.630694   -8.7148127    525.70942  0.011589714  0.010509864           15 
 3781000   0.64624205   -8.7585251    526.82758  0.011611293  0.010505893           12 
 3782000   0.63912769   -8.7499827    525.43185  0.011577469  0.010501931           14 
 3783000   0.63531662   -8.7715358    526.15175  0.011590267  0.010497968           13 
 3784000   0.65084295   -8.7498693    526.27707  0.011589964  0.010494007           11 
 3785000   0.65197879   -8.7338535    526.07931  0.011582548  0.010490051           11 
 3786000   0.62428521   -8.7451217    525.74747  0.011572184  0.010486093           11 
 3787000   0.64933139   -8.7469954     526.9281  0.011595108  0.010482139            6 
 3788000   0.63767022   -8.7404401     527.0775  0.011595334  0.010478185            9 
 3789000   0.64467612   -8.7408266    525.34744  0.011554224  0.010474234            7 
 3790000   0.64448969   -8.7626751    525.17089  0.011547293  0.010470284            4 
 3791000   0.65148548   -8.7480438    526.11077  0.011564908  0.010466336            9 
 3792000   0.65684942    -8.759983    525.07264  0.011539044  0.010462388            6 
 3793000   0.63664303   -8.7614218    525.26974  0.011540332  0.010458436            7 
 3794000   0.64129104   -8.7582835    525.59986  0.011544541  0.010454484            5 
 3795000   0.66259208   -8.7174355     525.3434  0.011535867  0.010450535           10 
 3796000   0.63276222   -8.7485249    525.70364  0.011540737  0.010446585            7 
 3797000   0.64730958   -8.7581787    525.20697  0.011526797  0.010442631            5 
 3798000   0.64359447   -8.7832259     524.7897  0.011514606  0.010438679            6 
 3799000   0.65629405   -8.7497974    525.66586  0.011530795  0.010434733            5 
 3800000   0.65327792   -8.7644976    525.79682  0.011530632  0.010430792           12 
 3801000   0.63593322   -8.7659321    525.09255  0.011512158  0.010426849            6 
 3802000   0.63794995   -8.7675856    525.42031  0.011516314  0.010422913            8 
 3803000    0.6475719   -8.7563555    525.98539  0.011525668   0.01041898            5 
 3804000    0.6379182   -8.7582886    525.03414  0.011501799  0.010415048            5 
 3805000   0.64975718   -8.7523994    525.42512   0.01150734  0.010411115            8 
 3806000   0.64833716   -8.7543023    525.46134  0.011505109  0.010407185            4 
 3807000   0.65266278   -8.7590273    525.84098  0.011510397   0.01040325            3 
 3808000   0.63859227   -8.7479222    524.45561  0.011477057  0.010399317            7 
 3809000   0.64791451   -8.7743164    524.92385  0.011484288  0.010395391            6 
 3810000   0.64505831   -8.7670994    525.21186  0.011487574  0.010391465            7 
 3811000   0.64446964   -8.7540539    525.12894  0.011482746  0.010387538            6 
 3812000    0.6519551   -8.7714606    524.65873  0.011469454  0.010383623            4 
 3813000   0.64292315   -8.7592286    525.53262  0.011485545  0.010379707            7 
 3814000   0.63482498   -8.7658521     524.8806  0.011468288  0.010375792           12 
 3815000   0.63813222   -8.7675128    524.73287  0.011462055  0.010371875            5 
 3816000   0.65582721   -8.7701547    525.60436  0.011478083  0.010367959            3 
 3817000   0.64332131   -8.7626557    524.40616  0.011448916  0.010364041           10 
 3818000    0.6574081   -8.7733302    524.11289  0.011439517  0.010360124            6 
 3819000   0.64634159   -8.7797854    524.68124  0.011448923  0.010356218            5 
 3820000   0.64570506   -8.7483332    525.15364  0.011456231  0.010352307            6 
 3821000   0.63544056     -8.75909    525.97948  0.011471244  0.010348402            3 
 3822000   0.64724122   -8.7629852    525.44827   0.01145666  0.010344501            3 
 3823000    0.6345995   -8.7565498    525.09934  0.011446058    0.0103406            3 
 3824000   0.63667771   -8.7747054    527.27233  0.011490419  0.010336698            5 
 3825000    0.6381626   -8.7363464    525.80677  0.011455485  0.010332796            4 
 3826000   0.65503614   -8.7554816     525.5616  0.011447151    0.0103289            5 
 3827000   0.65217225   -8.7654119       525.37  0.011439988  0.010325006            6 
 3828000   0.62248729   -8.7620201    525.29557  0.011435379   0.01032112            4 
 3829000   0.64398711   -8.7266058     527.0743  0.011471104  0.010317232            3 
 3830000   0.65483439   -8.7684251    525.40574  0.011431805  0.010313342            3 
 3831000    0.6330618   -8.7600496    524.84776  0.011416683  0.010309462            6 
 3832000   0.64356196   -8.7411881    525.46817  0.011427196  0.010305577            3 
 3833000   0.62627019   -8.7987646    525.12208   0.01141669  0.010301694            2 
 3834000   0.64604043   -8.7548343     526.1024   0.01143502  0.010297812            6 
 3835000   0.64792796    -8.777031    525.24023  0.011413304  0.010293935            2 
 3836000   0.65230125   -8.7821584    525.72048  0.011420761  0.010290056            4 
 3837000   0.63138795   -8.7849983    525.46983  0.011412341  0.010286179            4 
 3838000   0.64246152   -8.7844384    525.43114  0.011408527  0.010282305            3 
 3839000   0.64924055    -8.778711    524.89483  0.011393914  0.010278436            4 
 3840000   0.63720611   -8.7798981    525.44179  0.011402817  0.010274563            5 
 3841000   0.64170759   -8.7584483    525.12493  0.011392973  0.010270691            5 
 3842000   0.62906366   -8.7703716    524.49426  0.011376329  0.010266822            6 
 3843000   0.64201163    -8.753373    525.94318  0.011404787  0.010262957            5 
 3844000   0.63212389   -8.7828396    524.88446  0.011378869  0.010259093            4 
 3845000   0.62648295   -8.7566876     525.3505   0.01138601  0.010255233            3 
 3846000   0.61850063   -8.7687736    525.14744   0.01137865  0.010251373            8 
 3847000   0.62945398   -8.7764856    524.79859  0.011368135  0.010247514            6 
 3848000   0.64710567   -8.7694371     524.8001  0.011365213  0.010243651            3 
 3849000   0.62011895   -8.7907383    525.29332  0.011372939  0.010239789            3 
 3850000   0.63382678   -8.7754347     525.5246  0.011374991  0.010235937            6 
 3851000   0.62631106   -8.7557133    526.16055  0.011385799  0.010232089            4 
 3852000   0.62446996   -8.7603469    525.48931  0.011368322   0.01022824            5 
 3853000   0.63566919   -8.7831498    525.16093  0.011358269  0.010224386            8 
 3854000   0.64148897   -8.7817135    525.23509  0.011356925  0.010220534            3 
 3855000   0.64390199   -8.7873986    525.13284  0.011351769  0.010216685            7 
 3856000    0.6430435    -8.757823    524.44922  0.011334051  0.010212837            6 
 3857000   0.64261037   -8.7756239    525.22871  0.011347954  0.010208994            3 
 3858000   0.63387145    -8.770994    526.47249  0.011371879  0.010205156            3 
 3859000    0.6432493   -8.7733583    525.73564   0.01135302  0.010201315            9 
 3860000   0.64026011   -8.7574738    524.73981   0.01132858  0.010197478            4 
 3861000   0.62377783   -8.7771875    524.78061  0.011326526  0.010193639            3 
 3862000    0.6350926   -8.7894654    524.47527  0.011317005  0.010189805            8 
 3863000   0.64243056   -8.7792389     524.3691  0.011311785  0.010185964            6 
 3864000   0.62133049   -8.7748294    525.79471  0.011339603  0.010182131            7 
 3865000    0.6312852   -8.7735961    525.45422  0.011329328  0.010178295            5 
 3866000   0.64363618   -8.7724453    525.34004  0.011323936  0.010174461            6 
 3867000   0.61799138   -8.7745753    525.72207   0.01132924   0.01017063            5 
 3868000   0.63621787   -8.7766179    524.59708  0.011302074  0.010166808            7 
 3869000   0.62319162    -8.763952    524.82671  0.011304099  0.010162987            4 
 3870000   0.62398997   -8.7525872    524.88231  0.011302375  0.010159164            4 
 3871000   0.63291015   -8.7999193    524.43447  0.011289815  0.010155343            8 
 3872000   0.65782171   -8.7845995    524.76266  0.011293962  0.010151524            4 
 3873000   0.63203882   -8.8020738    526.04081  0.011318547  0.010147704            3 
 3874000   0.64474578   -8.7655454    525.09196  0.011295215  0.010143881            2 
 3875000   0.61574988   -8.7804345    524.34571  0.011276252  0.010140065            4 
 3876000   0.63368164   -8.7739416    524.21738  0.011270583  0.010136242            6 
 3877000   0.61821694   -8.7918417    524.68391  0.011277704  0.010132425            5 
 3878000   0.62482715   -8.7861242    525.05838  0.011282843  0.010128619            3 
 3879000   0.63090543   -8.7974428    525.63878  0.011292403  0.010124813            3 
 3880000   0.63328117   -8.7811186    525.49019  0.011286301  0.010121005            6 
 3881000   0.65036874   -8.7770269    526.21753  0.011299011  0.010117201           10 
 3882000   0.64205999   -8.7784632    525.44875  0.011279597  0.010113396            2 
 3883000   0.62550753   -8.8133142    524.10086  0.011247765  0.010109592            3 
 3884000   0.63674753   -8.7800267    524.56995  0.011254934  0.010105795            5 
 3885000   0.63581669   -8.7862938    525.73662  0.011277062   0.01010199            5 
 3886000   0.63092614   -8.7647108    525.12736  0.011261095  0.010098199            2 
 3887000    0.6232104   -8.7823899    525.18156  0.011259359  0.010094402            3 
 3888000    0.6256433   -8.7905898    525.09022  0.011254506   0.01009061            5 
 3889000     0.629829   -8.7675093    525.17934  0.011253521  0.010086816            3 
 3890000   0.62233858   -8.7644036     524.5859  0.011237916  0.010083026            4 
 3891000   0.63903502   -8.7953313     525.2296  0.011248814  0.010079232            4 
 3892000   0.62116932   -8.8062566    525.11998  0.011243576  0.010075443           11 
 3893000   0.62592811   -8.7937361    525.17797  0.011241929  0.010071654            5 
 3894000   0.61725418   -8.7732085    524.61511  0.011226997  0.010067874            6 
 3895000   0.63101877   -8.7605948    525.64133   0.01124607  0.010064095            5 
 3896000   0.63118049    -8.800462    525.02247  0.011229947  0.010060322            7 
 3897000   0.62807201   -8.7921015    524.66809  0.011219487  0.010056539            6 
 3898000   0.62054328    -8.770221     525.6184  0.011236925  0.010052759            4 
 3899000   0.62228923   -8.8120409    524.60749  0.011212437  0.010048981            3 
 3900000   0.62733454   -8.8090415    524.94673  0.011216811  0.010045206            3 
 3901000   0.62008332   -8.7912112    525.02381  0.011215582   0.01004143            5 
 3902000   0.60700211   -8.7834942    524.94353  0.011210993  0.010037653            5 
 3903000   0.60649104   -8.7926001    525.04822  0.011210356  0.010033875            2 
 3904000   0.62325054   -8.8007512    524.42674  0.011194218  0.010030101            4 
 3905000   0.63030996    -8.782556    524.66884  0.011196518  0.010026326            3 
 3906000   0.62513677   -8.8215855    524.64585  0.011193161  0.010022552            3 
 3907000   0.61654525   -8.8095365     524.1954  0.011180689   0.01001878            4 
 3908000   0.61582707   -8.7928264    525.14622  0.011198103  0.010015009            3 
 3909000   0.62475454   -8.7894204    524.29588   0.01117711  0.010011242            7 
 3910000   0.62441234   -8.7920967    524.15371  0.011171221  0.010007481            5 
 3911000   0.61288779   -8.7804799     524.1736  0.011168789  0.010003719            4 
 3912000   0.62953466   -8.7869409    525.19402  0.011187671 0.0099999579            3 
 3913000    0.6351391   -8.7942786    524.58644  0.011171872 0.0099961919            3 
 3914000   0.61737042   -8.7856932    525.35441  0.011185369  0.009992432            7 
 3915000   0.62893086   -8.7967388    524.53985  0.011165174 0.0099886755            3 
 3916000   0.62744694   -8.7887435    524.64462  0.011164552 0.0099849193            2 
 3917000   0.63752674   -8.7947996    524.75014  0.011163946 0.0099811605            2 
 3918000   0.61897948   -8.7991077    523.65895  0.011137888 0.0099774075            3 
 3919000    0.6097451   -8.7972095    524.03359  0.011143012 0.0099736522            3 
 3920000   0.62817567    -8.791155    525.29526  0.011166991 0.0099699032            6 
 3921000   0.63168179   -8.7876146    524.38066  0.011144705 0.0099661571            3 
 3922000   0.63507715   -8.7874378    524.63242  0.011147213 0.0099624139            3 
 3923000   0.62413816   -8.8117212    524.24739  0.011136192 0.0099586711            4 
 3924000   0.63562769    -8.793781     524.8491  0.011146133 0.0099549318            6 
 3925000    0.6227732   -8.7937492    523.66346   0.01111812 0.0099511905            5 
 3926000   0.62889582   -8.7885627    524.94535  0.011142498 0.0099474566            2 
 3927000   0.61914287   -8.7952485    525.13394  0.011143662 0.0099437193            4 
 3928000   0.61909325   -8.7864749    525.43762  0.011147268 0.0099399799            5 
 3929000   0.61315699    -8.792812    525.23325  0.011140096 0.0099362465            4 
 3930000   0.62052745   -8.8161002    524.21745  0.011115722 0.0099325149            9 
 3931000   0.63518445   -8.7717114     523.8163   0.01110439 0.0099287845            7 
 3932000   0.62919658   -8.7842991    524.86283  0.011123746 0.0099250608            7 
 3933000   0.63577521    -8.802928    524.31753  0.011109364 0.0099213344            6 
 3934000   0.61688939   -8.8136503    524.26244  0.011105373 0.0099176085            4 
 3935000   0.63861162   -8.7965783     524.8165  0.011114284  0.009913883            2 
 3936000    0.6244978   -8.8064958    524.94725  0.011114229 0.0099101674            2 
 3937000   0.62635762   -8.7915793    524.68527   0.01110586 0.0099064536            5 
 3938000   0.62142953    -8.778049    524.72217  0.011103821  0.009902736            4 
 3939000   0.61967444   -8.8102611    525.56528  0.011118839 0.0098990236            5 
 3940000   0.61912664    -8.816299    523.67788  0.011076097 0.0098953093            7 
 3941000   0.61913266   -8.8115056    523.94234  0.011078879 0.0098915918            5 
 3942000   0.63080285   -8.7988314    525.12313   0.01110103  0.009887887            3 
 3943000   0.62553007   -8.8088752    524.58218  0.011086782 0.0098841789            3 
 3944000    0.6231724   -8.8110454     524.3589  0.011079253 0.0098804673            5 
 3945000   0.60752038   -8.8073061    524.90259   0.01108793 0.0098767613            7 
 3946000   0.62916534   -8.8103178    524.23527  0.011071027 0.0098730558            7 
 3947000   0.62670239   -8.7998974    525.03271  0.011085058 0.0098693519            8 
 3948000    0.6301741   -8.8161017    525.19633  0.011085704 0.0098656481            7 
 3949000   0.62245845    -8.796429    525.36922  0.011086545 0.0098619515            6 
 3950000    0.6241942   -8.8084797    524.03361  0.011055561  0.009858259            2 
 3951000   0.62610547   -8.8207589    524.89766  0.011070988 0.0098545531            5 
 3952000   0.61631902   -8.8090283    525.16154   0.01107375 0.0098508565            4 
 3953000   0.61880593   -8.7986462    525.29136  0.011073686 0.0098471625            5 
 3954000   0.62687244   -8.8247973    523.47683  0.011032643  0.009843471            3 
 3955000   0.62021909    -8.808372    524.25102  0.011046166 0.0098397871            5 
 3956000   0.61494992   -8.8329945    523.87429  0.011035438 0.0098360945            4 
 3957000   0.62621363   -8.8253386    524.60665  0.011048072 0.0098324093            8 
 3958000   0.62706426   -8.8212297    524.71353  0.011047531  0.009828729            6 
 3959000   0.60648511    -8.804123    524.29758  0.011035985 0.0098250507            6 
 3960000    0.6257108   -8.8101158    524.15966  0.011030296 0.0098213747            7 
 3961000   0.61537633   -8.7929934    522.86908  0.011000359 0.0098176984            2 
 3962000   0.61420006   -8.7893134     524.6055  0.011034105 0.0098140213            5 
 3963000   0.60918913   -8.7924608     524.4038   0.01102708 0.0098103492            3 
 3964000   0.61141069   -8.8074326    525.34312  0.011044045 0.0098066809            4 
 3965000   0.59984402   -8.8031587    524.48653  0.011023256 0.0098030147            3 
 3966000    0.6216838   -8.8147309    523.96856  0.011009593 0.0097993445            6 
 3967000   0.61674049   -8.8202916    523.60711  0.010999225  0.009795679            4 
 3968000   0.60772842    -8.815988    523.20537  0.010988016 0.0097920075            3 
 3969000   0.61586516   -8.8103861    525.36372  0.011030564 0.0097883479            8 
 3970000   0.61481157    -8.810148    524.58931  0.011011531 0.0097846861            3 
 3971000   0.62422503   -8.7957229    525.79108  0.011033977 0.0097810322            8 
 3972000   0.61750212   -8.8134213    524.29736  0.010999861 0.0097773723            4 
 3973000   0.60511065   -8.7933951     525.3737  0.011019668 0.0097737146            9 
 3974000   0.60075867   -8.8248489    524.60714  0.011000821 0.0097700603            4 
 3975000   0.60700911    -8.806949    524.17654  0.010989026 0.0097664094            4 
 3976000   0.60732712   -8.8382154    524.09763  0.010984608 0.0097627566            4 
 3977000   0.63949489   -8.8181569    524.17678  0.010983505 0.0097591071            7 
 3978000   0.61105044   -8.7982776    524.69028  0.010991501 0.0097554635            5 
 3979000    0.6195726   -8.8144486    524.49309  0.010984609 0.0097518136            4 
 3980000   0.62251734   -8.8127403    525.03921  0.010993283 0.0097481657            5 
 3981000   0.62272125   -8.8033175    524.97167  0.010989108 0.0097445268            4 
 3982000   0.62732114   -8.8127943    524.49415  0.010976355 0.0097408858            2 
 3983000   0.61674117   -8.8197914    524.34269   0.01097043 0.0097372484            6 
 3984000   0.60787966   -8.8022296    524.76358  0.010976481 0.0097336126            8 
 3985000   0.60660228   -8.8297182    524.06548  0.010959128 0.0097299761            8 
 3986000   0.61282087   -8.8243591     525.0602  0.010977174 0.0097263411            2 
 3987000   0.62083735   -8.8457584     523.7086  0.010946171 0.0097227103            3 
 3988000   0.60204333   -8.8286198    524.71712    0.0109645 0.0097190759            4 
 3989000   0.60439346    -8.826737    524.06377  0.010948102 0.0097154469            7 
 3990000   0.62892206   -8.7887434    524.42224  0.010952845 0.0097118161            2 
 3991000   0.61798079   -8.8007855    523.72432  0.010935528 0.0097081901            5 
 3992000   0.61929305    -8.817833    525.43998  0.010968604  0.009704564            7 
 3993000   0.59864244   -8.8379436    524.08356  0.010937548 0.0097009405            3 
 3994000   0.60116984   -8.8089515     525.3085  0.010960368 0.0096973172            5 
 3995000   0.60754693   -8.8025871    525.22561  0.010955895 0.0096937003            3 
 3996000   0.60651884   -8.8112196    524.43267  0.010936617 0.0096900841            1 
 3997000   0.60516828   -8.8265107    523.70721  0.010918756 0.0096864697            5 
 3998000   0.62118904   -8.8098554    522.88885  0.010898967 0.0096828533            3 
 3999000   0.61481804   -8.8221317    523.96069  0.010918577 0.0096792417            3 
 4000000   0.61527186   -8.8023729    524.48267  0.010926722 0.0096756281            5 
 4001000   0.61060987   -8.8099863    524.14726  0.010917005 0.0096720153            4 
 4002000   0.62021842    -8.805621    524.54822  0.010922627 0.0096684044            4 
 4003000    0.6227676   -8.8135198    525.05372  0.010930421 0.0096647982            4 
 4004000   0.62735974   -8.8171004    524.01036  0.010905977 0.0096611863            5 
 4005000   0.60836805   -8.8325713    523.84786  0.010899872 0.0096575767            3 
 4006000   0.60505289   -8.8373297    524.65613  0.010913965 0.0096539697            2 
 4007000   0.60399239   -8.8307285    524.24246  0.010902638 0.0096503643            4 
 4008000   0.62018359   -8.8255984    525.11682  0.010918097 0.0096467572            2 
 4009000   0.61352448   -8.8341957    524.59328  0.010904491 0.0096431547            7 
 4010000   0.61654244   -8.8261375     524.5095  0.010900031 0.0096395545            3 
 4011000   0.61537262   -8.8159058     524.0405   0.01088757 0.0096359515            3 
 4012000   0.60381033   -8.8329843     524.4556  0.010893478 0.0096323502            7 
 4013000   0.61183196   -8.8266261    523.40571  0.010868961 0.0096287501            5 
 4014000   0.61488072   -8.8529687     524.1292  0.010881274 0.0096251481            6 
 4015000   0.59573632    -8.832559    523.42119  0.010863869 0.0096215538            5 
 4016000   0.61050363   -8.8379758    523.91909  0.010871495 0.0096179504            6 
 4017000   0.60632559   -8.8375854    522.97735  0.010849252 0.0096143509            6 
 4018000   0.60573667   -8.8501604     523.5381  0.010858182 0.0096107506            5 
 4019000   0.59886069   -8.8317899    523.17379  0.010847926 0.0096071536            5 
 4020000   0.62630834   -8.8470699    522.67036  0.010834792 0.0096035555            4 
 4021000    0.6018797    -8.830821    523.66044  0.010852616 0.0095999653            2 
 4022000   0.60483039   -8.8335308    523.83304  0.010853494 0.0095963761            5 
 4023000   0.60672678   -8.8382444    522.79552  0.010829305 0.0095927916            3 
 4024000   0.61586156   -8.8235411    524.09345  0.010853493 0.0095892096            5 
 4025000   0.60062152   -8.8289794    523.67348  0.010842101 0.0095856269            3 
 4026000   0.60715052   -8.8277583    523.88354  0.010843756 0.0095820453            6 
 4027000   0.61726373   -8.8339079    523.37548   0.01083055 0.0095784663            7 
 4028000   0.60513611   -8.8292651    524.45086  0.010850109 0.0095748891            8 
 4029000   0.61345278   -8.8407224    523.85441  0.010835079 0.0095713139            2 
 4030000   0.60365927   -8.8166713    523.84698  0.010832237 0.0095677387            2 
 4031000   0.60169342   -8.8383066    523.93831  0.010831438 0.0095641709            2 
 4032000    0.6087216   -8.8514325    523.99694  0.010829963  0.009560603            3 
 4033000   0.60900257   -8.8351152    524.99784  0.010847959 0.0095570388            4 
 4034000   0.61327087   -8.8385629    523.60256  0.010816447 0.0095534709            3 
 4035000   0.60438135   -8.8326868    524.04631  0.010822931 0.0095499043            3 
 4036000   0.60953295   -8.8224398     523.4873  0.010808707 0.0095463405            4 
 4037000    0.5978091   -8.8555494    523.51487  0.010806599 0.0095427774            2 
 4038000      0.59729   -8.8381227    523.55417  0.010804734 0.0095392156            4 
 4039000   0.59765747    -8.841773    523.01533  0.010790941 0.0095356515            5 
 4040000   0.60888225   -8.8427346    524.12955  0.010811253 0.0095320909            2 
 4041000   0.60472441   -8.8292122    523.02296  0.010785758 0.0095285335            4 
 4042000   0.60116979   -8.8363698    523.51372  0.010793207 0.0095249783            4 
 4043000   0.60388396   -8.8480587     522.9598   0.01077912  0.009521425            2 
 4044000   0.58429445   -8.8475169    523.04195  0.010778148 0.0095178692            4 
 4045000   0.61512099   -8.8387431    524.07508  0.010796767 0.0095143166            4 
 4046000   0.60509584   -8.8548252    523.88146  0.010790111 0.0095107671            5 
 4047000   0.60226526   -8.8295295    524.77313  0.010805805 0.0095072179            3 
 4048000   0.59092618   -8.8370815    523.85695  0.010784275  0.009503672            4 
 4049000   0.60516106   -8.8391455    523.97764  0.010784096  0.009500128            2 
 4050000    0.6009972   -8.8275726    523.63431  0.010774369 0.0094965868            2 
 4051000   0.59797255    -8.815573    523.69909  0.010773041 0.0094930462            4 
 4052000   0.60715618   -8.8604997    522.39509  0.010743565 0.0094895063            7 
 4053000   0.59080568   -8.8633318    522.80524  0.010749347 0.0094859656            4 
 4054000   0.60159312   -8.8777204    523.03393  0.010751396 0.0094824282            8 
 4055000   0.60449383   -8.8230047    523.69704  0.010762372 0.0094788943            6 
 4056000   0.59421868   -8.8467393    523.27701  0.010751089 0.0094753592            5 
 4057000   0.59812865   -8.8403701    523.96687  0.010762609 0.0094718272            4 
 4058000   0.59249325   -8.8427186    523.41212  0.010748565 0.0094682928            5 
 4059000   0.59650198   -8.8287328    523.54042  0.010748551 0.0094647611            5 
 4060000   0.59978536   -8.8507182    524.39242  0.010763391 0.0094612282            3 
 4061000   0.58202436   -8.8246996    523.77047  0.010747978 0.0094577005            4 
 4062000   0.60266346   -8.8486491    522.91328  0.010727747 0.0094541745            3 
 4063000   0.60866479   -8.8443953    523.64935  0.010740203 0.0094506467            3 
 4064000   0.60167111   -8.8512754    522.92611   0.01072273 0.0094471185            4 
 4065000   0.60414339   -8.8410783    523.60601  0.010734031 0.0094435971            8 
 4066000   0.59408056   -8.8445797    524.65637  0.010752918 0.0094400761            2 
 4067000   0.61057652   -8.8560298    522.67014  0.010709576 0.0094365566            8 
 4068000    0.6074948   -8.8598826    523.25084  0.010718839 0.0094330391            2 
 4069000   0.58880279   -8.8430277    523.39986  0.010719257 0.0094295237            4 
 4070000    0.5928875   -8.8306202    523.52234  0.010719131 0.0094260074            3 
 4071000   0.60167632    -8.841894    523.51152  0.010716276 0.0094224942            9 
 4072000   0.59755865   -8.8308635    523.77259  0.010718987 0.0094189852            4 
 4073000   0.61592764   -8.8440863    523.31889  0.010707073 0.0094154733            4 
 4074000   0.58985595   -8.8514205    523.84752  0.010715258 0.0094119713            4 
 4075000   0.58858587   -8.8446817    522.49429  0.010684955 0.0094084619            9 
 4076000   0.60404872   -8.8407601    522.83656  0.010689331 0.0094049544            6 
 4077000    0.5961823   -8.8637848    523.14195  0.010692951 0.0094014508            3 
 4078000   0.60757944   -8.8586126    523.20867  0.010691693 0.0093979482            7 
 4079000   0.60156154   -8.8549551    523.76555  0.010700448 0.0093944507            2 
 4080000   0.60181852   -8.8458124    522.89082   0.01067996 0.0093909533            4 
 4081000    0.5974042   -8.8577424    523.19836  0.010683623 0.0093874571           10 
 4082000   0.61494759   -8.8360429    523.20863  0.010681215  0.009383966           11 
 4083000   0.60538434   -8.8434422    523.70131  0.010688654 0.0093804739            5 
 4084000   0.60364673   -8.8265468    524.35809  0.010699439 0.0093769884            6 
 4085000   0.60062562   -8.8538001    523.65599  0.010682497 0.0093735059           11 
 4086000   0.58788167   -8.8443376    524.68082  0.010700784 0.0093700241            5 
 4087000   0.59751654   -8.8533972    523.96456  0.010683561 0.0093665373            3 
 4088000   0.59905023   -8.8505024    522.82132  0.010657643 0.0093630563            3 
 4089000   0.60838878   -8.8482789    523.88562  0.010676727 0.0093595716            3 
 4090000   0.59334232   -8.8393805    523.49804  0.010666219 0.0093560905            3 
 4091000   0.58988151   -8.8500998    523.16048  0.010656736 0.0093526024            5 
 4092000   0.60460409   -8.8456779    522.47217  0.010640114 0.0093491209            4 
 4093000    0.5810687   -8.8390647    523.73137  0.010663152 0.0093456449            6 
 4094000   0.59048131   -8.8723843    522.36174  0.010632669 0.0093421689            4 
 4095000    0.6015506   -8.8622076    523.03428  0.010643758 0.0093386952            9 
 4096000   0.58406688   -8.8544505    523.21219  0.010644779 0.0093352228            3 
 4097000   0.59262329   -8.8639588    523.75694  0.010653261 0.0093317556            3 
 4098000   0.60300076   -8.8551961    523.51709  0.010645784 0.0093282924            7 
 4099000   0.60480738   -8.8343419    523.82168   0.01064938 0.0093248274            4 
 4100000    0.6018084    -8.853965    523.22524  0.010634659 0.0093213637            4 
 4101000   0.59630148   -8.8572755    522.26305  0.010612514 0.0093178992            2 
 4102000   0.59164676   -8.8431336    522.76567  0.010620138 0.0093144367            2 
 4103000   0.59514685   -8.8533291    522.67787  0.010615766 0.0093109771            3 
 4104000   0.59288349   -8.8745114    523.20531  0.010623889 0.0093075226            3 
 4105000   0.58118095    -8.846229    522.93289  0.010615771 0.0093040646            4 
 4106000   0.60173845   -8.8446808    522.77941  0.010610071 0.0093006042            5 
 4107000   0.59305998   -8.8507411    523.52028   0.01062252 0.0092971453            3 
 4108000    0.6037261   -8.8565252    523.20385  0.010613515 0.0092936891            4 
 4109000   0.59062976   -8.8482199    523.33737   0.01061364 0.0092902376            4 
 4110000    0.5868488   -8.8535488    523.45277  0.010613398 0.0092867859            3 
 4111000   0.58861392   -8.8578116    523.41513  0.010610053 0.0092833354            5 
 4112000   0.58778417   -8.8671015    523.39343  0.010607033 0.0092798922            3 
 4113000   0.58365429   -8.8659723    524.12576  0.010619292 0.0092764479            5 
 4114000   0.59400762   -8.8626934    524.08415  0.010615868 0.0092730047            4 
 4115000   0.60125813   -8.8511176    523.28363  0.010597076 0.0092695632            5 
 4116000   0.59359124    -8.840849    523.25277  0.010593877 0.0092661251            9 
 4117000   0.59414427   -8.8522055    524.00661  0.010606562  0.009262681            4 
 4118000   0.58888859   -8.8601057    522.70215  0.010577589 0.0092592451            2 
 4119000   0.58548751   -8.8513038    523.52291  0.010591626 0.0092558106            5 
 4120000   0.60033057   -8.8484111    523.78886  0.010594435 0.0092523775            9 
 4121000    0.6028058   -8.8554347    523.39206   0.01058384 0.0092489452            3 
 4122000   0.59019661   -8.8398343    522.86397  0.010570596 0.0092455115            5 
 4123000   0.59355159   -8.8734517    524.09931  0.010593001 0.0092420841            6 
 4124000   0.59324172   -8.8696667    523.11076  0.010570457 0.0092386607            6 
 4125000   0.58749934   -8.8511456    524.33811  0.010592689 0.0092352364            5 
 4126000   0.58200329   -8.8544876    523.31796  0.010569518  0.009231809            4 
 4127000   0.58945883   -8.8685339    524.22746  0.010585321 0.0092283854            4 
 4128000   0.59496588   -8.8541258    523.90065   0.01057616 0.0092249631            8 
 4129000   0.59641035   -8.8755689     524.2193   0.01058003 0.0092215384            7 
 4130000   0.58212285   -8.8456123     523.3758  0.010560448 0.0092181118            8 
 4131000   0.57997944    -8.869309    523.07769  0.010551878 0.0092146944           10 
 4132000   0.57543875   -8.8731453    523.20836   0.01055196 0.0092112744            5 
 4133000   0.59431643   -8.8695941    523.45023  0.010554283 0.0092078583            8 
 4134000   0.60170653   -8.8703641    523.54605  0.010553662 0.0092044435            6 
 4135000   0.58153131   -8.8591891    522.82253  0.010536528 0.0092010302            3 
 4136000   0.58885778   -8.8708679    522.89812  0.010535504 0.0091976212            9 
 4137000   0.58558202   -8.8562815    522.96912  0.010534387 0.0091942122            6 
 4138000   0.58868969   -8.8614714    522.87551  0.010529956 0.0091908047            4 
 4139000   0.58738645   -8.8596669    523.27962  0.010535549 0.0091873952            5 
 4140000   0.58937474   -8.8762448    522.13049  0.010509873 0.0091839856            9 
 4141000   0.58569926   -8.8639724    522.74292  0.010519659 0.0091805823            5 
 4142000   0.57906378   -8.8799891     523.2388  0.010527096 0.0091771765            4 
 4143000   0.58701353   -8.8837471     522.3051  0.010505775  0.009173779            6 
 4144000   0.58289476   -8.8609712    523.13045  0.010519837 0.0091703791            6 
 4145000   0.59009768   -8.8506026    523.82726  0.010531308 0.0091669817            5 
 4146000   0.58089754   -8.8748291    522.63961  0.010504897 0.0091635832            5 
 4147000    0.5861322   -8.8744738    523.49776  0.010519608 0.0091601862            5 
 4148000   0.58710946    -8.875532    522.37588  0.010494533 0.0091567921            4 
 4149000   0.59138541   -8.8432798    522.90202  0.010502571 0.0091534017            2 
 4150000   0.59816093   -8.8593111    523.06609  0.010503335 0.0091500124            4 
 4151000   0.57950351   -8.8896312    522.22667  0.010483953 0.0091466237            4 
 4152000   0.58630144   -8.8446239     523.4474  0.010505929 0.0091432363            5 
 4153000   0.59493447   -8.8868334     523.5495  0.010505448 0.0091398496            5 
 4154000   0.58389422   -8.8572946    523.40761  0.010500072 0.0091364612            9 
 4155000   0.58379063   -8.8740962    521.55369  0.010460363 0.0091330743            4 
 4156000    0.5821796   -8.8990171    521.66355  0.010460049 0.0091296859            5 
 4157000   0.58392998   -8.8899488    522.78781   0.01048007 0.0091263009            3 
 4158000   0.58950874    -8.895485    522.57643  0.010473313 0.0091229208            3 
 4159000   0.58354427   -8.8927729    523.41093  0.010487516 0.0091195428            5 
 4160000   0.58783461   -8.8629584     523.0431  0.010477626 0.0091161642            5 
 4161000   0.58920205   -8.8523034    522.39443  0.010462117 0.0091127879            7 
 4162000   0.58769298   -8.8696049    522.70792   0.01046588 0.0091094112            7 
 4163000   0.58282517   -8.8856804    523.48046  0.010478831 0.0091060373           19 
 4164000   0.57685042   -8.8574109    522.82142  0.010463125 0.0091026689            3 
 4165000   0.59081797   -8.8792583    523.14667   0.01046712    0.0090993           10 
 4166000   0.59400313   -8.8772214    521.50615  0.010431792  0.009095927            8 
 4167000   0.57329549   -8.8809555    522.87527  0.010456669 0.0090925588           13 
 4168000   0.58958015   -8.8780219    522.79189  0.010452493   0.00908919            9 
 4169000   0.58374144   -8.8703498    523.26944  0.010459531 0.0090858237            8 
 4170000   0.58227322   -8.8593866    522.41782  0.010440004 0.0090824602           16 
 4171000   0.58773161   -8.8815233    522.71406   0.01044342 0.0090790984            6 
 4172000   0.57417508   -8.8674888    522.88891  0.010444409 0.0090757337            5 
 4173000   0.58659368   -8.8669518    521.63593  0.010416885 0.0090723734           16 
 4174000   0.59252724    -8.880652    523.10128  0.010443645 0.0090690134            9 
 4175000   0.58822554   -8.8597791    522.09948  0.010421147 0.0090656605            5 
 4176000   0.60330201   -8.8982476     522.8826  0.010434279  0.009062305           14 
 4177000   0.57872256   -8.8887515     521.9291  0.010412758 0.0090589477           12 
 4178000   0.57746954   -8.8643824    522.66803  0.010425005 0.0090555917            5 
 4179000   0.57523889   -8.8870377    522.51272  0.010419413 0.0090522389            7 
 4180000   0.57896143   -8.8718599    522.39198  0.010414513  0.009048888           12 
 4181000   0.57285637   -8.8760756    521.95279  0.010403268 0.0090455342            5 
 4182000   0.57995366     -8.89869    523.01497  0.010421947 0.0090421839            3 
 4183000   0.59272326   -8.8914058     522.7038  0.010413256  0.009038836           10 
 4184000   0.57116494   -8.8787379    522.36361  0.010403992 0.0090354928            7 
 4185000   0.58129625   -8.8781203    523.40385  0.010422219 0.0090321512            5 
 4186000   0.58168237   -8.8722097    523.64539  0.010424538 0.0090288162           12 
 4187000   0.59189256   -8.8832206    521.19343  0.010373247 0.0090254777            6 
 4188000   0.58734065   -8.8825749      521.573  0.010378323 0.0090221354            5 
 4189000   0.56674551   -8.9002335    522.35702  0.010391442  0.009018794            5 
 4190000   0.58097948   -8.8886719    522.08853  0.010383622 0.0090154554            5 
 4191000   0.57677945   -8.8830862    522.76617  0.010394619 0.0090121213            5 
 4192000   0.57754721   -8.8686066    522.96047  0.010396002 0.0090087939            7 
 4193000   0.57061309   -8.8706737    522.14584  0.010377332 0.0090054645            4 
 4194000   0.57157379   -8.8706997    522.01384  0.010372235 0.0090021356            5 
 4195000   0.59829274   -8.8822325    522.15157  0.010372498 0.0089988096            3 
 4196000   0.58022431   -8.8741719    522.82675  0.010383436 0.0089954877            3 
 4197000   0.57558693    -8.889789    523.01091  0.010384618 0.0089921651            7 
 4198000   0.56947575   -8.8667701    522.73955  0.010376758 0.0089888459            5 
 4199000   0.57567938   -8.8776984     522.1525  0.010362636 0.0089855268            5 
 4200000   0.58067767   -8.8831424    523.10796  0.010379126 0.0089822101            5 
 4201000   0.57235858   -8.8886147    522.65205  0.010367612  0.008978891            7 
 4202000   0.56772871   -8.9050129    522.45375  0.010361212 0.0089755776            4 
 4203000   0.57222037   -8.8966035    522.40542  0.010357789 0.0089722652            5 
 4204000   0.57151115   -8.8931171    522.38226  0.010354866 0.0089689589            5 
 4205000   0.55979412   -8.8799489    521.51577  0.010335231 0.0089656516            7 
 4206000    0.5709867   -8.8993694    521.74641  0.010337344 0.0089623382            5 
 4207000   0.58061291   -8.8853804    523.29522  0.010365566 0.0089590282            7 
 4208000    0.5796635   -8.8911734     522.3437  0.010344259 0.0089557187            4 
 4209000   0.57755064   -8.8943185    521.28984  0.010320936 0.0089524114            5 
 4210000   0.57195253   -8.8957925    521.82939  0.010329164 0.0089491043            5 
 4211000   0.56341617   -8.8925574    522.13219  0.010332704 0.0089457984            5 
 4212000   0.57770924   -8.9010406    521.73699  0.010322432 0.0089424999            3 
 4213000   0.57283994   -8.8725421    522.23062  0.010329746 0.0089391976            5 
 4214000   0.58167188   -8.8840325      523.111  0.010344704 0.0089358996            7 
 4215000    0.5776055   -8.9186094    521.65664  0.010313496 0.0089326033            5 
 4216000   0.58403024   -8.8922012    520.96345  0.010297348 0.0089293002            6 
 4217000   0.58022085   -8.8776534    521.95896  0.010314579 0.0089260039            5 
 4218000   0.57015382    -8.899339    522.39864   0.01032082 0.0089227045            6 
 4219000   0.56689991   -8.8924657    522.20658  0.010314581 0.0089194053            8 
 4220000    0.5664414    -8.907622    522.30824  0.010314144 0.0089161086            6 
 4221000    0.5777422   -8.9140519    522.54686  0.010316411 0.0089128125            5 
 4222000   0.57507084   -8.9289727    522.02889  0.010303744 0.0089095224            8 
 4223000    0.5663924   -8.8975757    521.87014  0.010298171 0.0089062294            7 
 4224000   0.57153431   -8.8760538    522.15196  0.010301293 0.0089029382            5 
 4225000   0.57544476   -8.8969317    521.29053  0.010281865 0.0088996491            8 
 4226000   0.57354211   -8.8970989    522.30258  0.010299388 0.0088963612            9 
 4227000   0.56665466    -8.894311    521.65776  0.010284239 0.0088930757           10 
 4228000   0.57793771   -8.8996445    522.20318  0.010292557 0.0088897946            8 
 4229000   0.56737862   -8.9057834    521.78722  0.010281927 0.0088865098            6 
 4230000   0.57244513   -8.8735139    521.96408   0.01028298 0.0088832279            6 
 4231000   0.58184253   -8.8872531    522.05277  0.010282297  0.008879949            7 
 4232000   0.58294449   -8.9053861    521.99679  0.010278765 0.0088766702            5 
 4233000   0.58560568   -8.9161967    522.89829  0.010294084 0.0088733918            5 
 4234000   0.56741721   -8.9241282    521.88989  0.010271806 0.0088701158            7 
 4235000   0.56830348   -8.8981784    521.90145  0.010269607 0.0088668421           13 
 4236000   0.56852316   -8.8833599    521.35365  0.010256406 0.0088635683            5 
 4237000   0.58915945   -8.9103333    521.72174  0.010261225 0.0088603024            5 
 4238000   0.56966148   -8.9131025     522.1771  0.010267758 0.0088570333            8 
 4239000   0.58041786   -8.9082916    522.37439  0.010269214 0.0088537645            6 
 4240000   0.57316949   -8.9041241    521.73678  0.010254261 0.0088504998            6 
 4241000   0.58221281   -8.8961884     522.1554  0.010260068 0.0088472365            6 
 4242000    0.5724812   -8.8913076     522.6163  0.010266704 0.0088439745            7 
 4243000     0.577992   -8.9021336    521.98858  0.010251956  0.008840712            6 
 4244000   0.55785851   -8.8936217    522.47181  0.010259029 0.0088374561            7 
 4245000   0.57721052   -8.8989545    522.11163  0.010249541 0.0088342007            6 
 4246000   0.57987118    -8.895604    521.03342  0.010225966  0.008830945            7 
 4247000   0.57646637   -8.8950991     521.9639  0.010241816 0.0088276842            9 
 4248000   0.55421233    -8.911337    521.07771   0.01022202 0.0088244237            5 
 4249000   0.57078306    -8.907153    522.15182  0.010240681 0.0088211691            6 
 4250000   0.55445182   -8.8905544    521.71614  0.010229728 0.0088179171            5 
 4251000   0.58186215   -8.8832913     522.2282   0.01023736 0.0088146716           11 
 4252000   0.57302566   -8.9130417     521.5539  0.010221737 0.0088114291           11 
 4253000   0.56686318   -8.9022794    522.05596  0.010229171 0.0088081851            6 
 4254000   0.57097033   -8.9098496    522.50525  0.010235567 0.0088049433            6 
 4255000   0.58240212   -8.8991864    522.44045  0.010231893 0.0088017028            5 
 4256000   0.56895756   -8.8803156    521.38069  0.010208739  0.008798465            7 
 4257000   0.57873532   -8.9052614    521.41369  0.010206986 0.0087952264            7 
 4258000    0.5844067   -8.8884935    522.01213  0.010216301 0.0087919915            6 
 4259000   0.57715429   -8.9049967    521.55369  0.010204933 0.0087887576            8 
 4260000   0.58181433   -8.9101141    522.20521  0.010215282 0.0087855239            3 
 4261000   0.57998881   -8.9038164    521.92138  0.010207333  0.008782291            7 
 4262000   0.56496339    -8.891604    522.05158  0.010207484 0.0087790568            6 
 4263000   0.57800012   -8.8968433    521.85506  0.010201248 0.0087758304           13 
 4264000   0.56617179   -8.8928185    521.69303  0.010195689  0.008772601            9 
 4265000   0.56754514   -8.9256624    521.80368  0.010195461 0.0087693724           11 
 4266000   0.57040023   -8.8857536    522.18625  0.010200544 0.0087661486           10 
 4267000   0.57140995   -8.8988881    521.93253  0.010193198 0.0087629259            9 
 4268000   0.58235965   -8.9044338    521.93483  0.010190855 0.0087597033            5 
 4269000   0.58055937   -8.9190799    522.33866  0.010196351 0.0087564839            8 
 4270000   0.57531044   -8.9122491    521.47037  0.010177017 0.0087532614            8 
 4271000   0.57960362   -8.9170602    521.29954  0.010171301 0.0087500434            7 
 4272000    0.5539856   -8.9017913    521.49886  0.010172809 0.0087468277            5 
 4273000   0.56279607   -8.9094486    520.64551  0.010153786 0.0087436146            6 
 4274000   0.57992578   -8.9065849    521.36139  0.010165368 0.0087404049           12 
 4275000   0.57848434   -8.8878905    521.37145  0.010163186 0.0087371953            6 
 4276000   0.58324844    -8.897836    521.89853  0.010171081 0.0087339913            7 
 4277000   0.57102189    -8.925988    521.80361  0.010166854  0.008730785            7 
 4278000   0.57528294   -8.9121493    522.95987  0.010187001 0.0087275793           13 
 4279000   0.56704372   -8.8994718    522.03153  0.010166541 0.0087243752            5 
 4280000   0.56643774   -8.9028146    521.32426  0.010150394 0.0087211708           13 
 4281000   0.56095547   -8.9329547    521.59223   0.01015324 0.0087179675            9 
 4282000   0.57293946   -8.9114057    521.27298  0.010144655 0.0087147695            7 
 4283000   0.57320536   -8.9312112    521.51384  0.010146973 0.0087115733            8 
 4284000   0.56420597   -8.9221396    521.77316  0.010149649 0.0087083754            6 
 4285000   0.56502249   -8.9004445    521.99654  0.010151625 0.0087051805            6 
 4286000   0.57181349   -8.9004702    522.79408  0.010164763 0.0087019891           10 
 4287000   0.57686624   -8.8946569     522.3817  0.010154376    0.0086988            6 
 4288000   0.57074602   -8.9356563    521.31883  0.010131352 0.0086956117            9 
 4289000   0.57078883   -8.9238512    521.93205  0.010140904 0.0086924201           13 
 4290000   0.56521806   -8.9129875     521.9036  0.010137988 0.0086892293            7 
 4291000   0.55835965   -8.9048284    521.79808  0.010133576 0.0086860415           12 
 4292000   0.55914443   -8.9098931    522.36128   0.01014215 0.0086828526            7 
 4293000   0.55431959   -8.9137098    521.01618  0.010113677 0.0086796668            9 
 4294000   0.56506224   -8.9061497    522.21346  0.010134557 0.0086764827            8 
 4295000   0.56343761    -8.915882    522.23844  0.010132682 0.0086732951            9 
 4296000   0.56220328   -8.9140495    521.90445  0.010123845  0.008670112            9 
 4297000   0.55218756   -8.9200809     522.2693  0.010128565 0.0086669329            6 
 4298000   0.57167384   -8.8984673     522.0713  0.010122369 0.0086637536           11 
 4299000   0.56683272   -8.9097335    521.94981  0.010117659 0.0086605775            9 
 4300000   0.55921377   -8.9076905    521.44387  0.010105501 0.0086574009            6 
 4301000   0.57545712   -8.9045423    521.93693  0.010112705 0.0086542253           12 
 4302000   0.55803285   -8.9264868    521.44123  0.010100752 0.0086510504            8 
 4303000    0.5674209   -8.9160122    521.38529  0.010097322 0.0086478741            7 
 4304000   0.57560953   -8.9189524    521.76024  0.010102235 0.0086447044            7 
 4305000   0.55828617   -8.9118707    521.37961   0.01009252 0.0086415338            6 
 4306000   0.56195778   -8.9330939    521.03748  0.010083555 0.0086383624            8 
 4307000   0.55958498   -8.9172127    521.02968  0.010081063 0.0086351913           15 
 4308000   0.55392851   -8.9293312    520.73453  0.010073014 0.0086320232            6 
 4309000   0.55117986   -8.9154137    521.75702  0.010090451 0.0086288583            7 
 4310000   0.55228952   -8.8996029    521.52703  0.010083663 0.0086256941            4 
 4311000   0.56074859   -8.9166162    521.62644  0.010083245 0.0086225348            9 
 4312000   0.57133341    -8.915188    521.91132  0.010086412 0.0086193747            4 
 4313000   0.55474871   -8.8987081    522.96956   0.01010452 0.0086162181            5 
 4314000   0.56211787   -8.9173849    522.06212  0.010084649 0.0086130615            7 
 4315000   0.55137044    -8.908664    521.94803  0.010080109 0.0086099076            7 
 4316000   0.54054211   -8.9197953    521.33639  0.010065964 0.0086067541            4 
 4317000   0.55982006   -8.9184386    521.70281  0.010070705 0.0086035977            6 
 4318000   0.55584529   -8.9219301    522.07687  0.010075592 0.0086004441            7 
 4319000   0.55154964   -8.9250053    522.40892  0.010079666 0.0085972903            5 
 4320000   0.55285742   -8.9299497    521.63767  0.010062455 0.0085941439            6 
 4321000   0.55934579   -8.9180843    521.48133  0.010057111 0.0085909954            5 
 4322000   0.56847529    -8.918211    520.19717  0.010030024 0.0085878492            4 
 4323000   0.56838052   -8.9139878    521.00375  0.010043252 0.0085847004            3 
 4324000   0.56694697   -8.9433726    520.87423  0.010038433 0.0085815582            8 
 4325000   0.54860824   -8.9341319    521.19613  0.010042315 0.0085784162            4 
 4326000    0.5571955   -8.9298971    521.76169  0.010050888 0.0085752758            6 
 4327000   0.56149403   -8.9207409    521.67271  0.010046851   0.00857214            7 
 4328000   0.56068476   -8.9018109    522.00032  0.010050838 0.0085690052            3 
 4329000   0.55392191   -8.9258843     521.1343  0.010031845 0.0085658731            5 
 4330000    0.5692337   -8.9357932    521.39299  0.010034507 0.0085627391            5 
 4331000   0.57191928   -8.9227993    521.63043  0.010036759 0.0085596067            5 
 4332000   0.56218203   -8.9261773    521.45871  0.010031139 0.0085564806            6 
 4333000   0.56402777   -8.9300242    520.34268   0.01000736 0.0085533521            5 
 4334000   0.55982884   -8.9313428    521.03366  0.010018337 0.0085502239            5 
 4335000    0.5626933   -8.9203446    521.32184  0.010021565 0.0085470977            6 
 4336000    0.5457676   -8.9298332    521.58394  0.010024292 0.0085439711            7 
 4337000    0.5553067   -8.9434152    521.97263  0.010029449 0.0085408437            5 
 4338000   0.55222851   -8.9363153    521.03207  0.010009069 0.0085377229            7 
 4339000   0.56292116   -8.9299506    521.76573  0.010020852 0.0085345994            5 
 4340000   0.55237204   -8.9266687    521.21444  0.010007958  0.008531479            5 
 4341000   0.56917217   -8.9331269     521.5389  0.010011881 0.0085283601            8 
 4342000   0.55021921    -8.954394    520.57373 0.0099910512 0.0085252399            4 
 4343000   0.55446632   -8.9243362    521.41914  0.010004972   0.00852212            7 
 4344000   0.55772802   -8.9212879     521.9647  0.010013135  0.008519005            3 
 4345000   0.55847129   -8.9511642    520.95026 0.0099913744 0.0085158914            7 
 4346000   0.57011939   -8.9129551     520.9568 0.0099892007 0.0085127795            4 
 4347000   0.56893656   -8.9281388    521.62216 0.0099996581 0.0085096716            5 
 4348000   0.55473377   -8.9277684    520.36259 0.0099732174 0.0085065604            5 
 4349000   0.53693261   -8.9384342    520.62698 0.0099759903 0.0085034529            8 
 4350000   0.55209505    -8.919681    521.55789 0.0099915305 0.0085003444            8 
 4351000   0.55027199   -8.9285448    521.17918 0.0099819808 0.0084972375            5 
 4352000   0.55664204   -8.9201416    521.53834 0.0099865644 0.0084941358            9 
 4353000   0.55812487   -8.9353366    520.86606 0.0099714002 0.0084910319            4 
 4354000   0.55263925    -8.933236    521.25841 0.0099766194 0.0084879317            4 
 4355000   0.55679231   -8.9480887    520.29745 0.0099559405 0.0084848321            8 
 4356000   0.55953028   -8.9383497    521.46196 0.0099759329 0.0084817326            7 
 4357000   0.54260774   -8.9544027    521.20251 0.0099686809 0.0084786376            5 
 4358000   0.56126376   -8.9194264    521.19215 0.0099661953 0.0084755433            8 
 4359000   0.55308118   -8.9442138    521.03576 0.0099609192 0.0084724475            5 
 4360000   0.55577985   -8.9150918    521.02128 0.0099583578 0.0084693539            6 
 4361000   0.54457062   -8.9392992    521.37993 0.0099629277 0.0084662592            9 
 4362000    0.5620553   -8.9383203    520.71081 0.0099478604 0.0084631706            9 
 4363000   0.54843256   -8.9288529    521.11356  0.009953273 0.0084600797           10 
 4364000   0.54997218   -8.9212959    521.22095  0.009953043 0.0084569944            9 
 4365000   0.54174268   -8.9332409    520.10933 0.0099295405  0.008453907            7 
 4366000   0.55365711   -8.9305303    521.45155  0.009952885 0.0084508234            5 
 4367000   0.55588839   -8.9255493     521.5707 0.0099528795 0.0084477396            8 
 4368000   0.55340851   -8.9403186    520.92616 0.0099383044 0.0084446563            5 
 4369000   0.55528817     -8.93442    521.66102 0.0099500462 0.0084415762            8 
 4370000   0.55317493    -8.926599    521.36787  0.009942179 0.0084384969            7 
 4371000   0.55484992   -8.9297769    521.11868 0.0099351537   0.00843542            5 
 4372000   0.54275296   -8.9196266    521.45436 0.0099392794 0.0084323421            6 
 4373000   0.56067859   -8.9331223      521.814 0.0099438601 0.0084292675           11 
 4374000   0.54994112   -8.9488053     521.1963 0.0099298182 0.0084261939            4 
 4375000   0.55829739   -8.9488803     520.5741 0.0099156972 0.0084231218            8 
 4376000   0.55492426   -8.9382203    520.67545 0.0099153613 0.0084200511            5 
 4377000   0.53899485   -8.9374564    521.38324 0.0099265714 0.0084169865            5 
 4378000   0.55855615    -8.945109    521.08204 0.0099185708 0.0084139204            8 
 4379000   0.54316886   -8.9282521    521.03685  0.009915446 0.0084108565            7 
 4380000   0.56254223   -8.9475218    520.54152  0.009903758 0.0084077922           10 
 4381000   0.56029751   -8.9400723    520.39872 0.0098987811 0.0084047269           13 
 4382000   0.54826375   -8.9568809    521.05867 0.0099090725  0.008401667           14 
 4383000   0.54273237   -8.9532537    520.39065 0.0098941107 0.0083986012            6 
 4384000   0.54055675   -8.9431533    520.51542 0.0098942256  0.008395542           11 
 4385000   0.54795516   -8.9423261    520.85422 0.0098984079 0.0083924823           13 
 4386000    0.5454977   -8.9336447    520.67303 0.0098927085 0.0083894266            8 
 4387000   0.55814626    -8.941846    521.54814 0.0099070765 0.0083863704           16 
 4388000   0.53976467   -8.9228595    521.16303  0.009897505 0.0083833225           13 
 4389000   0.55455947   -8.9572957     521.4532 0.0099007594  0.008380271           18 
 4390000   0.54394156   -8.9358073    521.26301  0.009894894 0.0083772175           14 
 4391000   0.54640471   -8.9473763    520.57476 0.0098795788 0.0083741689            5 
 4392000   0.53360213   -8.9393726    521.17032 0.0098886293 0.0083711225            8 
 4393000   0.53332546   -8.9553808    520.33683 0.0098705673 0.0083680748            8 
 4394000   0.55280137      -8.9501    521.67263 0.0098936547 0.0083650285            5 
 4395000    0.5559758   -8.9437794    521.10833 0.0098807041 0.0083619876            6 
 4396000   0.55378604    -8.938721    521.11128 0.0098785122 0.0083589475           13 
 4397000   0.54356992   -8.9542606    521.27128  0.009879298 0.0083559072           19 
 4398000   0.54867427   -8.9174164    520.48067 0.0098620712 0.0083528696            8 
 4399000    0.5443838    -8.942343    521.58465 0.0098807428 0.0083498357           17 
 4400000   0.54031468   -8.9284286    520.90052 0.0098655401 0.0083468028            4 
 4401000   0.54388453   -8.9378811    521.12644 0.0098675763 0.0083437686            6 
 4402000   0.55323221    -8.943128     521.7753 0.0098776181 0.0083407356            4 
 4403000   0.54184344   -8.9367989    521.39713 0.0098682174 0.0083377028           15 
 4404000   0.55136046   -8.9544588    520.74392 0.0098536165 0.0083346694           18 
 4405000   0.54442702   -8.9495452    520.55642 0.0098478323 0.0083316408           11 
 4406000   0.54863776    -8.952816    521.33637 0.0098603489 0.0083286156           11 
 4407000   0.54738593   -8.9442305    520.76301 0.0098472696 0.0083255905           10 
 4408000   0.55130286   -8.9519575    521.85261 0.0098656346 0.0083225696            6 
 4409000    0.5415371   -8.9562089    520.33924 0.0098347932 0.0083195462            8 
 4410000   0.54507403   -8.9382355    520.59455 0.0098373876 0.0083165232           11 
 4411000   0.54654956   -8.9377336    521.98961 0.0098615131 0.0083135045           13 
 4412000   0.55390558   -8.9188649    520.39699 0.0098291968 0.0083104851            6 
 4413000   0.54868964   -8.9266814     521.6265  0.009850187 0.0083074685            9 
 4414000   0.54637763   -8.9554694    520.68374 0.0098301568 0.0083044528            5 
 4415000   0.55262649     -8.93956    520.83073 0.0098307046 0.0083014368           19 
 4416000   0.54668862    -8.930127    520.04264 0.0098136066 0.0082984214           16 
 4417000   0.54819848    -8.949381    520.71727 0.0098241127 0.0082954075           16 
 4418000   0.54927787   -8.9374379    520.46502 0.0098171311 0.0082923954           16 
 4419000   0.54709482   -8.9578741    520.62726 0.0098179691 0.0082893838           13 
 4420000   0.54254154   -8.9462061    520.36384 0.0098107813 0.0082863724           21 
 4421000   0.55228001   -8.9558487    520.42007 0.0098096221 0.0082833648           10 
 4422000   0.55106548   -8.9495447    521.37626 0.0098254233 0.0082803581            7 
 4423000   0.53794418    -8.968745     521.5335 0.0098261644 0.0082773501           17 
 4424000   0.55863533   -8.9408559    521.13949 0.0098165215 0.0082743447           21 
 4425000   0.55836902   -8.9566562    520.53652 0.0098029477 0.0082713431            7 
 4426000    0.5385935   -8.9424951    520.40561 0.0097982681 0.0082683417           12 
 4427000   0.55168483   -8.9504622    520.91757 0.0098056917 0.0082653401           17 
 4428000   0.54378205   -8.9310822    521.23594 0.0098094688 0.0082623433            8 
 4429000   0.53637775   -8.9396862     521.4688 0.0098116354 0.0082593472           18 
 4430000   0.51955951   -8.9574139    521.31093 0.0098064509 0.0082563511           13 
 4431000   0.53825552    -8.951165    521.19695 0.0098020942 0.0082533555           17 
 4432000   0.53442519    -8.947546    520.93337 0.0097949264  0.008250365           15 
 4433000    0.5458138   -8.9620831    520.54189 0.0097853577 0.0082473707           19 
 4434000   0.53961293   -8.9462897    520.52856 0.0097829003 0.0082443761           15 
 4435000   0.53147253   -8.9602008    521.35129 0.0097961535 0.0082413893           12 
 4436000   0.53984065   -8.9863256    520.70879 0.0097818754 0.0082384018           12 
 4437000   0.54287507   -8.9450056    520.40888 0.0097740379 0.0082354123           20 
 4438000   0.53177039   -8.9473149    520.41826 0.0097720117 0.0082324257            8 
 4439000   0.54564577   -8.9338777    520.76854 0.0097763862 0.0082294414            9 
 4440000   0.53980315   -8.9624878    521.62895 0.0097903331 0.0082264578            8 
 4441000   0.53720896   -8.9611712    520.30434  0.009763273 0.0082234772           15 
 4442000   0.54871185   -8.9419483    520.94183 0.0097730345 0.0082204948           17 
 4443000   0.54233249   -8.9407471    520.26393 0.0097581201 0.0082175154           16 
 4444000   0.55058215    -8.949018    520.25572 0.0097557704  0.008214536           15 
 4445000   0.53292527   -8.9517499    520.19356 0.0097524101  0.008211559           13 
 4446000   0.54061762   -8.9582211     520.4999 0.0097559585  0.008208585           12 
 4447000   0.55369149   -8.9450195    520.37387 0.0097514031 0.0082056092           24 
 4448000   0.53715302   -8.9761468    520.31938 0.0097481899 0.0082026387           22 
 4449000   0.53691028   -8.9533522    520.52243 0.0097498021 0.0081996668           16 
 4450000   0.54379229   -8.9412105     520.9384 0.0097554007 0.0081966981           15 
 4451000   0.53755778   -8.9649992    520.66297 0.0097480523 0.0081937314           21 
 4452000   0.54639702   -8.9654358    519.75028 0.0097287788 0.0081907643           14 
 4453000   0.54414837   -8.9530598    521.08404  0.009751554 0.0081877983           14 
 4454000   0.52446111   -8.9594743    521.56292 0.0097583244 0.0081848344            7 
 4455000    0.5307903   -8.9635781    519.96482 0.0097262406 0.0081818704           18 
 4456000   0.53849312   -8.9522319    521.12313 0.0097457198 0.0081789063           20 
 4457000   0.54325591   -8.9641804    520.67789 0.0097352085 0.0081759435           20 
 4458000   0.54372186   -8.9691553    520.27611 0.0097255143 0.0081729854           21 
 4459000   0.51983148   -8.9612267    520.17361 0.0097214175 0.0081700258           25 
 4460000   0.53891266   -8.9728328    520.10225 0.0097179045 0.0081670666           20 
 4461000   0.54408569   -8.9648083    520.20912 0.0097177225 0.0081641076           13 
 4462000   0.53480774   -8.9527072    520.23588 0.0097160444 0.0081611527           18 
 4463000   0.53673284   -8.9793642    520.62206 0.0097210781 0.0081581979           17 
 4464000   0.54508942   -8.9605923    521.10108 0.0097278428 0.0081552429            8 
 4465000   0.53159587   -8.9720955    520.12695 0.0097074831 0.0081522901           19 
 4466000   0.54021761   -8.9721008    521.47365 0.0097304383 0.0081493407            7 
 4467000   0.54524619   -8.9654424    520.12764 0.0097031497 0.0081463919           19 
 4468000   0.54501422   -8.9668749    521.38458 0.0097244214 0.0081434438            6 
 4469000   0.54305646   -8.9591364    520.59925 0.0097076014 0.0081404989            7 
 4470000   0.53263134   -8.9506364    519.97453 0.0096937831 0.0081375529            5 
 4471000    0.5350562   -8.9866448    519.47748 0.0096823507 0.0081346092           12 
 4472000   0.53848177    -8.960964    520.94813 0.0097075903 0.0081316663           14 
 4473000   0.53035741   -8.9567929    520.26922 0.0096927718 0.0081287239           19 
 4474000   0.53642544   -8.9605903    519.93219 0.0096843279 0.0081257812           12 
 4475000   0.52977655    -8.969639    520.15039  0.009686227 0.0081228431           12 
 4476000   0.53606019   -8.9642945    519.82186 0.0096779465 0.0081199073           18 
 4477000   0.52964238   -8.9686782    519.89429 0.0096771329 0.0081169701            9 
 4478000   0.53961649   -8.9718391    520.77824 0.0096914218 0.0081140392           17 
 4479000   0.53010739   -8.9836523    520.19864 0.0096784743 0.0081111073           20 
 4480000   0.54068556   -8.9576239    519.85455 0.0096699136  0.008108179            9 
 4481000   0.53427955   -8.9615805    520.15988 0.0096734338 0.0081052495            8 
 4482000   0.52386593   -8.9603768    520.15206 0.0096711301 0.0081023197            5 
 4483000   0.54206539   -8.9572421    520.39397 0.0096734695  0.008099394            4 
 4484000   0.54272272   -8.9624197    520.35822 0.0096706479 0.0080964673            7 
 4485000   0.53154768    -8.978081    520.40024 0.0096692724 0.0080935429            7 
 4486000   0.53244009   -8.9716243    519.29896 0.0096466591 0.0080906176            6 
 4487000   0.52476628   -8.9785136    520.98924 0.0096759016 0.0080876948            3 
 4488000   0.54490688   -8.9700625    519.30988 0.0096425631 0.0080847743           12 
 4489000   0.53373598   -8.9707236     520.4733 0.0096620126 0.0080818553            5 
 4490000    0.5393142   -8.9563708    519.90038 0.0096492275 0.0080789329            6 
 4491000   0.53071304   -8.9808837    519.36649 0.0096371723  0.008076012           18 
 4492000    0.5244111   -8.9724743    520.79073 0.0096614487 0.0080730939            4 
 4493000   0.53057221   -8.9622991    519.34265 0.0096324403 0.0080701766            3 
 4494000   0.52966573   -8.9761192    520.07358 0.0096438508 0.0080672584            9 
 4495000   0.54086039   -8.9873999     519.4679 0.0096304765 0.0080643467            8 
 4496000   0.54728308   -8.9697057     520.3366 0.0096444358 0.0080614338            4 
 4497000   0.53364716   -8.9898107    520.16526 0.0096391161 0.0080585228            5 
 4498000   0.53157526   -8.9852721    520.66837 0.0096462941 0.0080556114            8 
 4499000   0.53139229   -8.9738891    520.03239 0.0096323699 0.0080527014           12 
 4500000   0.53704515   -8.9822891    520.32327 0.0096356162 0.0080497955            5 
 4501000   0.53357306   -8.9832188    519.75277 0.0096229128   0.00804689            7 
 4502000   0.52270463   -9.0116664    519.45029 0.0096151764 0.0080439831            5 
 4503000   0.53804313   -8.9796466    519.59171 0.0096156582 0.0080410797            5 
 4504000   0.53179676   -8.9771809    520.12388 0.0096233696 0.0080381768            5 
 4505000    0.5415679   -8.9908541    519.13389 0.0096029207 0.0080352761            5 
 4506000   0.52949839   -8.9590904    519.49316 0.0096074338 0.0080323738            5 
 4507000   0.52901591   -8.9627679    520.19089  0.009618203 0.0080294739            6 
 4508000   0.52066162   -8.9647176     520.2463 0.0096170937 0.0080265797            7 
 4509000   0.53370113   -8.9776262    520.57312  0.009621001 0.0080236868            6 
 4510000   0.53043077   -8.9892283    520.33494 0.0096144667 0.0080207917            8 
 4511000   0.54130345   -8.9868463    519.75482 0.0096016187  0.008017899            6 
 4512000   0.54147837   -8.9853165    519.80209 0.0096003637 0.0080150081            5 
 4513000   0.54225435   -8.9769871    519.57323 0.0095940105  0.008012118            3 
 4514000   0.53155352   -8.9782498    520.23558 0.0096041127 0.0080092312            8 
 4515000   0.53268056   -8.9854278    519.50772 0.0095885515 0.0080063422            3 
 4516000   0.52803551   -8.9700001    520.30996 0.0096012319  0.008003456            3 
 4517000   0.53417965   -8.9899536    520.58546  0.009604189  0.008000571            4 
 4518000   0.52572857   -8.9684681    520.23986 0.0095956887 0.0079976887           13 
 4519000   0.53429304   -8.9884225     520.5626 0.0095995169 0.0079948051            6 
 4520000   0.52839249   -9.0004964    518.89908 0.0095667235 0.0079919248           12 
 4521000   0.53275925   -8.9894007    520.21099 0.0095887892 0.0079890416            4 
 4522000   0.52078771   -8.9681555    519.36423 0.0095710643 0.0079861632            4 
 4523000   0.53584772   -8.9810664     519.4525 0.0095705745  0.007983285            3 
 4524000   0.52939286     -8.98361    519.48852 0.0095691225 0.0079804065            5 
 4525000   0.52626319   -8.9871019    520.58082 0.0095871237 0.0079775338            8 
 4526000   0.53523577   -8.9937275    520.84247 0.0095898231 0.0079746599            6 
 4527000   0.54286994   -9.0131899    519.56444 0.0095641786 0.0079717875            3 
 4528000   0.52590881   -8.9624256     518.9661 0.0095510545 0.0079689148            4 
 4529000    0.5343073   -8.9917815    520.18831 0.0095714342 0.0079660402            8 
 4530000   0.50991241    -8.979974    520.46199  0.009574356 0.0079631703           10 
 4531000   0.52384624   -8.9875067    520.26868 0.0095686875 0.0079603085            4 
 4532000   0.52733873    -8.988862    519.57172 0.0095537607 0.0079574456            8 
 4533000   0.53405571   -8.9800605    519.92427 0.0095581343 0.0079545831            4 
 4534000    0.5183999   -8.9774983    520.08321 0.0095589474 0.0079517212            3 
 4535000   0.52743008   -8.9917664    520.62687 0.0095668297 0.0079488619            4 
 4536000   0.52135901   -8.9665604    520.28053 0.0095583577 0.0079460022            2 
 4537000   0.51654615   -9.0031836    520.18647 0.0095545233  0.007943147            5 
 4538000   0.53295891   -8.9882025    519.96664  0.009548381 0.0079402911            9 
 4539000   0.52652121   -8.9826733     519.8163 0.0095435173 0.0079374338            3 
 4540000   0.53087738   -8.9739547    520.87983 0.0095609367 0.0079345791            7 
 4541000    0.5208143   -8.9867525    519.39368 0.0095315585 0.0079317295            5 
 4542000   0.51389964   -9.0109482    519.01479 0.0095225082 0.0079288785            3 
 4543000   0.52447962   -8.9939742    519.31658  0.009525948 0.0079260251            2 
 4544000   0.52398376   -8.9745901    519.77066  0.009532179 0.0079231766            6 
 4545000     0.537572   -8.9844239    520.48047 0.0095430962 0.0079203314            5 
 4546000   0.52686741   -9.0019016    520.26166  0.009536986 0.0079174844            6 
 4547000   0.52383824   -8.9901169    519.96965 0.0095295368 0.0079146395            6 
 4548000   0.52807187    -8.986852    519.70063 0.0095225123 0.0079117958            6 
 4549000    0.5300918    -8.988053    519.61096 0.0095187763 0.0079089521            5 
 4550000   0.51194605   -8.9920786    519.66365 0.0095176492 0.0079061108            4 
 4551000    0.5297778   -8.9865156     520.3062 0.0095273236 0.0079032691            2 
 4552000   0.51244059   -8.9828497    519.66043 0.0095134085 0.0079004295            6 
 4553000   0.50660317   -8.9825792    519.78713  0.009513638 0.0078975894            3 
 4554000   0.52648721   -8.9778303    519.19628  0.009500737 0.0078947564            3 
 4555000   0.51695038    -8.991234    519.76679 0.0095090887 0.0078919225            8 
 4556000   0.52196197   -8.9930512    518.80744 0.0094894542 0.0078890891            4 
 4557000   0.51714549   -8.9893277    520.17923 0.0095124575 0.0078862571            4 
 4558000   0.51965383   -8.9792163    519.71855  0.009501948 0.0078834309            3 
 4559000   0.51957998   -9.0031327    519.30731 0.0094923468 0.0078806014            4 
 4560000   0.52175798   -8.9961922    520.29699 0.0095083514  0.007877773            7 
 4561000   0.52839606   -8.9952984    519.85121 0.0094981219 0.0078749438            4 
 4562000   0.51744336   -8.9917193     520.0942 0.0095004786  0.007872116            3 
 4563000   0.51679448   -9.0007703    520.33076 0.0095027167  0.007869289            3 
 4564000   0.51256857   -8.9876423    520.32975 0.0095006163 0.0078664647            4 
 4565000   0.52842018   -8.9976668    519.36301 0.0094808874 0.0078636424            3 
 4566000   0.51287461   -8.9868868    519.90882 0.0094887725 0.0078608218            5 
 4567000   0.51562753   -8.9826956     520.1101 0.0094903676 0.0078580023            4 
 4568000   0.53096374   -9.0050902    519.38034 0.0094749771 0.0078551834            5 
 4569000   0.52240026   -8.9902629    519.55851 0.0094761529 0.0078523659            4 
 4570000   0.51561064   -8.9894894    519.88965 0.0094801176 0.0078495482            6 
 4571000   0.52938512    -8.996269    519.94816 0.0094791103 0.0078467322           10 
 4572000   0.52090597   -9.0138302    519.56772 0.0094701029 0.0078439195            3 
 4573000   0.51850628   -8.9793905    519.83074 0.0094728248 0.0078411073            5 
 4574000   0.51977372   -9.0064587    519.75952 0.0094694564 0.0078382959            6 
 4575000   0.52149133   -9.0108131    518.97374 0.0094530736 0.0078354854            6 
 4576000   0.52232505   -8.9825616    519.45356 0.0094597458 0.0078326786            7 
 4577000   0.52329833   -8.9972289    520.13343 0.0094700573 0.0078298733            5 
 4578000   0.52586577    -9.005134    519.00692  0.009447483 0.0078270685           10 
 4579000   0.51432844   -9.0012141    518.96678 0.0094446891  0.007824265           12 
 4580000   0.50838561   -9.0120622    519.13457 0.0094456799 0.0078214614            6 
 4581000   0.51594875   -9.0011845    519.72518 0.0094543618 0.0078186606            5 
 4582000    0.5154258    -9.003497     519.3386 0.0094452678 0.0078158597           11 
 4583000    0.5302442   -9.0096086    519.88891 0.0094532132   0.00781306           10 
 4584000   0.53230741   -8.9977709    519.33806  0.009441137 0.0078102609           11 
 4585000   0.52709116   -9.0116457      519.819  0.009447819 0.0078074631            6 
 4586000   0.51329794   -8.9931796    519.19813 0.0094344769 0.0078046683           10 
 4587000   0.51165148   -9.0129947    519.57877 0.0094393353 0.0078018736           15 
 4588000   0.50968627   -8.9869424    519.29465 0.0094321173 0.0077990772           12 
 4589000   0.52386121   -9.0002858    519.08951 0.0094263367 0.0077962839           12 
 4590000   0.51871156   -9.0095831    520.16666 0.0094438391 0.0077934927            7 
 4591000   0.51494502   -9.0073269    519.67494 0.0094328568 0.0077907017           14 
 4592000   0.51966538   -9.0143841    519.68923 0.0094310618 0.0077879135           16 
 4593000   0.51698979   -9.0019338    519.87752 0.0094324248 0.0077851256           11 
 4594000   0.52289161   -9.0039445    519.20273 0.0094181311 0.0077823412            8 
 4595000   0.50952857   -9.0055015     519.6088 0.0094234457 0.0077795554            9 
 4596000   0.52845177   -9.0116282    519.09307 0.0094120443 0.0077767712           10 
 4597000   0.51448687   -9.0090302    519.08406 0.0094098337 0.0077739884            8 
 4598000   0.51227947   -8.9989603    518.71625  0.009401121 0.0077712088           13 
 4599000   0.51431142    -8.999936    518.87932 0.0094020317 0.0077684276           15 
 4600000   0.51515438   -8.9928399    520.18948 0.0094237224 0.0077656512            7 
 4601000   0.52518226   -9.0001815    519.78527 0.0094143532 0.0077628752           15 
 4602000   0.51565157   -9.0103528    518.96284 0.0093974149  0.007760099            9 
 4603000   0.51986997   -9.0116724    519.49263 0.0094049647 0.0077573251            7 
 4604000     0.516327   -9.0205655    519.30763 0.0093995734 0.0077545539            6 
 4605000    0.5085193    -9.003825    519.56028 0.0094021043 0.0077517837            5 
 4606000   0.51941098   -9.0092275    519.32458 0.0093957986 0.0077490105           10 
 4607000   0.51390037   -9.0117492    519.02633 0.0093883642 0.0077462423            9 
 4608000   0.51593273   -9.0065551     519.9438 0.0094029188 0.0077434748            6 
 4609000   0.51773285   -8.9973828    519.68918  0.009396275 0.0077407083            9 
 4610000   0.52381312   -9.0128547    519.50568 0.0093909197 0.0077379438            9 
 4611000   0.51030308   -8.9995724    519.31087 0.0093853623 0.0077351788            6 
 4612000   0.51291926   -9.0068801    519.48337 0.0093864442 0.0077324156            7 
 4613000    0.5144335    -9.006389    519.72588 0.0093887904  0.007729655           16 
 4614000   0.51785341   -9.0049993    518.70506 0.0093683185 0.0077268944           16 
 4615000   0.50990534   -9.0121869    519.06757 0.0093728344 0.0077241365           17 
 4616000    0.5108102    -9.008507    519.33677 0.0093756638 0.0077213785           13 
 4617000   0.51645039   -9.0148556    519.07224 0.0093688585 0.0077186217           10 
 4618000   0.52004132   -9.0017893    519.58705 0.0093761196 0.0077158644           13 
 4619000   0.51452766   -9.0318075    518.57855 0.0093558951 0.0077131094           16 
 4620000   0.52606256   -9.0073749    519.34112 0.0093676248 0.0077103543            3 
 4621000   0.50963431   -8.9868555    519.65509 0.0093712596 0.0077076003            7 
 4622000   0.51252816    -9.023019     519.0564 0.0093584379 0.0077048484           10 
 4623000     0.509184   -9.0103482    518.88972 0.0093534091 0.0077020979            5 
 4624000   0.51396211   -9.0047978    520.07931 0.0093728249 0.0076993515           10 
 4625000   0.50365144   -9.0229474    519.27797 0.0093563598  0.007696602            8 
 4626000   0.50960982    -9.012264    518.77191 0.0093452211 0.0076938557            7 
 4627000   0.52283558   -8.9957148    519.59965  0.009358109 0.0076911082            6 
 4628000   0.51523682   -9.0124645     519.3009 0.0093507076 0.0076883637            6 
 4629000   0.50661451   -9.0051256    519.09643 0.0093450067 0.0076856231            7 
 4630000   0.51624085   -9.0140767    519.23696 0.0093455176 0.0076828796            5 
 4631000   0.50249552    -9.017094    520.49732 0.0093661794 0.0076801407            6 
 4632000   0.51437269   -9.0360541    519.03232 0.0093378009 0.0076773994            7 
 4633000   0.51438023   -9.0368756     519.7352 0.0093484279 0.0076746628            6 
 4634000   0.51475126   -9.0185161    518.68249 0.0093274797 0.0076719286            7 
 4635000   0.50990534   -8.9987677    520.23959 0.0093534627 0.0076691912            5 
 4636000   0.51396359   -8.9997156    519.71433 0.0093420033 0.0076664585            4 
 4637000   0.51113189    -9.009016    519.87071  0.009342799 0.0076637281            5 
 4638000    0.5054314   -9.0141786    519.16726 0.0093281453 0.0076609965            7 
 4639000   0.50175388   -9.0042351    519.23766 0.0093273993 0.0076582679            8 
 4640000   0.50996018   -9.0006153    518.62915 0.0093144602 0.0076555383            4 
 4641000   0.50063092   -9.0212572    518.53792 0.0093108152 0.0076528078            6 
 4642000   0.50832575   -9.0045629    519.83133 0.0093320288 0.0076500827            7 
 4643000   0.49833526   -9.0182346    518.78997 0.0093113283 0.0076473588           11 
 4644000   0.50184497    -9.019967    518.81606 0.0093097914 0.0076446323           10 
 4645000   0.51417294    -9.025226    518.98335 0.0093107884 0.0076419078            8 
 4646000   0.50404241   -9.0245889     519.4801 0.0093176945 0.0076391875            8 
 4647000   0.50183936   -9.0190412    518.56273 0.0092992385 0.0076364687            6 
 4648000   0.50665512   -9.0097354    518.87828 0.0093028952  0.007633747            9 
 4649000    0.5116735   -9.0263703    518.05235 0.0092860893 0.0076310322            8 
 4650000   0.50286217   -9.0245329     519.4082 0.0093083907 0.0076283157            9 
 4651000   0.50701308   -9.0164478    519.31572 0.0093047322 0.0076256022            7 
 4652000   0.50195724   -9.0212217    519.53916 0.0093067348 0.0076228909            9 
 4653000   0.51313264   -9.0337892    519.13141  0.009297432  0.007620179            9 
 4654000   0.50202578    -9.013691    519.27726 0.0092980458 0.0076174693            8 
 4655000   0.51264315   -9.0335133    518.60148 0.0092839506 0.0076147592           10 
 4656000   0.50820896   -9.0130719    518.98153 0.0092887588 0.0076120488            6 
 4657000   0.50280549   -9.0265087    518.83663 0.0092841713 0.0076093402           13 
 4658000   0.50278169   -9.0379107    518.81911 0.0092818647 0.0076066329           11 
 4659000   0.50662094   -9.0066596    519.03464 0.0092837276 0.0076039279            7 
 4660000   0.49443192   -9.0298017     519.5842  0.009291563 0.0076012226            7 
 4661000   0.51073174   -9.0142617      518.784 0.0092752629 0.0075985217            9 
 4662000   0.50595224   -9.0162402     519.6385 0.0092885475 0.0075958232            7 
 4663000   0.50847998   -9.0345233     519.4785 0.0092836962 0.0075931213            6 
 4664000   0.50756761   -9.0253509    518.72448 0.0092682333 0.0075904209            5 
 4665000   0.49522285   -9.0217914    518.78428 0.0092673147 0.0075877252            8 
 4666000   0.50880768   -9.0179655    518.69311 0.0092637003 0.0075850274            8 
 4667000   0.50317323   -9.0027542    519.13192 0.0092695507  0.007582333            9 
 4668000   0.49679094   -9.0196816    518.49454 0.0092561865 0.0075796364            6 
 4669000   0.49879933   -9.0242191    518.63601  0.009256729 0.0075769425            8 
 4670000   0.51296361   -9.0137629    517.98922 0.0092432052 0.0075742494           11 
 4671000    0.5055714   -9.0230515    519.01796 0.0092595797 0.0075715583            9 
 4672000   0.49957642    -9.028351    519.10984 0.0092592365 0.0075688682            7 
 4673000   0.48970968   -9.0379331    518.70216 0.0092499851 0.0075661762            5 
 4674000   0.50234514    -9.017967        518.3 0.0092408359 0.0075634858           13 
 4675000   0.49859427    -9.028008    518.69086 0.0092458264 0.0075607964            9 
 4676000   0.50361349   -9.0243244    518.68387 0.0092437245   0.00755811            5 
 4677000   0.50222494   -9.0244114    519.18066 0.0092505997 0.0075554261            3 
 4678000   0.49555618   -9.0283998    518.81883 0.0092421766  0.007552743            4 
 4679000   0.49469996   -9.0231009    518.51633 0.0092348139 0.0075500611            5 
 4680000   0.49836493   -9.0355054    519.14006 0.0092439469 0.0075473808            3 
 4681000    0.5055049   -9.0122022    518.67487 0.0092336907 0.0075447017           11 
 4682000   0.50532947   -9.0311561    518.79517 0.0092338596 0.0075420239            8 
 4683000   0.51033671   -9.0474127    518.58846 0.0092282095 0.0075393467            5 
 4684000   0.50946142   -9.0404782     518.2727 0.0092206216 0.0075366703            7 
 4685000   0.50351979   -9.0360272    518.88789 0.0092295961  0.007533993            7 
 4686000   0.50209751   -9.0350328    518.50404 0.0092208002  0.007531317            7 
 4687000   0.51071619   -9.0313417    518.65066 0.0092214397 0.0075286447            4 
 4688000   0.49635072   -9.0297054    518.41116 0.0092152154 0.0075259733            5 
 4689000    0.5054091   -9.0160569     518.9691 0.0092231659 0.0075233037            4 
 4690000   0.50583595   -9.0291704    518.20052 0.0092075431 0.0075206354            5 
 4691000   0.50124226   -9.0470182    518.47408 0.0092104398 0.0075179679            9 
 4692000   0.50845828    -9.037639    519.33345 0.0092237398 0.0075153025           10 
 4693000   0.48852114   -9.0412745    519.16278 0.0092187438 0.0075126356            4 
 4694000   0.49765668   -9.0374796    518.32241 0.0092018608 0.0075099702            6 
 4695000   0.49824597   -9.0300286    518.75699 0.0092076144 0.0075073056            7 
 4696000     0.496457   -9.0224158    519.56212  0.009219941 0.0075046418            7 
 4697000   0.49900139   -9.0303397    518.54158 0.0091998719 0.0075019811            8 
 4698000    0.5107734   -9.0285432    518.07131  0.009189572 0.0074993215            9 
 4699000   0.50010973   -9.0387444    518.85954 0.0092015951 0.0074966646            5 
 4700000   0.49807157   -9.0267739    518.87194 0.0091998571 0.0074940087           10 
 4701000   0.50776553   -9.0426538    519.27709  0.009205082 0.0074913533           10 
 4702000   0.49349063   -9.0360575    518.89502 0.0091963529 0.0074886968           11 
 4703000   0.49620581   -9.0090987    518.77046 0.0091921904 0.0074860456            8 
 4704000    0.4978247    -9.045842    518.26357 0.0091812565 0.0074833933           10 
 4705000   0.49200372   -9.0356075    518.49844 0.0091834651 0.0074807439            6 
 4706000   0.49657618   -9.0287602    518.90932 0.0091887894 0.0074780966            9 
 4707000   0.49446814   -9.0172443    518.68824 0.0091829233 0.0074754475            8 
 4708000   0.49750468    -9.042121    517.98107 0.0091684557 0.0074728022           10 
 4709000   0.49912469    -9.049296    518.42515 0.0091743673 0.0074701537            9 
 4710000   0.49480918    -9.019291    517.98671 0.0091646622 0.0074675104           11 
 4711000   0.50039283   -9.0281332    518.69426 0.0091752328 0.0074648652            8 
 4712000   0.50041813    -9.043866    518.59454 0.0091715219 0.0074622228           10 
 4713000   0.49884133   -9.0301317    518.39339 0.0091660194 0.0074595804            6 
 4714000   0.50175169   -9.0379227    518.18445 0.0091603812 0.0074569421            8 
 4715000   0.48315163    -9.016922      518.943 0.0091718451 0.0074543029            9 
 4716000   0.48813088   -9.0275021    517.76806 0.0091491387 0.0074516649            8 
 4717000   0.50318452   -9.0539131    518.53699 0.0091607835  0.007449029            3 
 4718000   0.49892557   -9.0247697    518.51071 0.0091583777  0.007446396           16 
 4719000   0.49789717   -9.0372526    518.35284 0.0091536491 0.0074437621           12 
 4720000   0.49478611   -9.0441135    518.63248 0.0091566469 0.0074411297           11 
 4721000    0.4945621   -9.0336914    518.09585 0.0091452349 0.0074385005           10 
 4722000   0.50018914   -9.0352391    518.12026  0.009143729 0.0074358704            5 
 4723000   0.49559799   -9.0219052      518.245  0.009143994 0.0074332414            9 
 4724000   0.48322646   -9.0433621    519.37452 0.0091619835 0.0074306129            7 
 4725000   0.49532899   -9.0344325    518.15561 0.0091385469 0.0074279836            7 
 4726000   0.50601626   -9.0313219    517.92674 0.0091325775 0.0074253596           15 
 4727000   0.50397886   -9.0483183    517.98655    0.0091317 0.0074227364            8 
 4728000   0.49404127   -9.0434705    518.75717 0.0091433511 0.0074201137            5 
 4729000   0.48463309   -9.0324767    518.40072 0.0091351363 0.0074174919            6 
 4730000    0.4839358   -9.0447901    518.86834 0.0091414437 0.0074148722            7 
 4731000   0.49271505    -9.054683    518.11699 0.0091262769 0.0074122515           13 
 4732000   0.48597914   -9.0443733    518.28855 0.0091273696 0.0074096325            7 
 4733000   0.49563806   -9.0396861    518.12083  0.009122488 0.0074070177            7 
 4734000   0.49575189   -9.0378956    519.01305 0.0091362669 0.0074044025            6 
 4735000   0.50125836   -9.0444673    519.30372 0.0091394531 0.0074017892            7 
 4736000    0.5015442   -9.0491899    518.67365 0.0091264367 0.0073991761            9 
 4737000   0.49580937   -9.0320829    518.51264 0.0091216776 0.0073965644           10 
 4738000   0.48928493   -9.0158448    518.56979 0.0091207576 0.0073939549            8 
 4739000   0.49249036   -9.0397067    518.79615 0.0091228134 0.0073913451            7 
 4740000   0.48775964   -9.0500844    519.00199 0.0091245076 0.0073887357            7 
 4741000   0.49031478   -9.0382714     517.7226 0.0091000949 0.0073861304            9 
 4742000    0.4967423   -9.0382096    518.48316 0.0091115416 0.0073835255            7 
 4743000   0.49307533   -9.0527701    518.04751 0.0091019663 0.0073809215            6 
 4744000   0.49011972   -9.0372459    520.02598 0.0091348015  0.007378319            8 
 4745000   0.50099033   -9.0491367     518.1913 0.0091006551 0.0073757155            6 
 4746000   0.48831356   -9.0213723    518.61268 0.0091061364 0.0073731157            7 
 4747000   0.49589092   -9.0448664    519.06648 0.0091121846 0.0073705151           13 
 4748000   0.49769876   -9.0458133    518.15229 0.0090942203 0.0073679145            6 
 4749000    0.4979217   -9.0456407    518.89575  0.009105351 0.0073653171           11 
 4750000   0.49444465   -9.0412342    517.27034 0.0090749182 0.0073627219            7 
 4751000   0.49199226   -9.0326714    518.74539 0.0090988807 0.0073601258           12 
 4752000   0.50123558   -9.0365198    518.86352 0.0090990376 0.0073575325            9 
 4753000   0.49548597   -9.0657901    518.42805 0.0090894882 0.0073549398            9 
 4754000   0.50306598   -9.0471254    518.23073 0.0090841174 0.0073523472            6 
 4755000   0.50034769   -9.0402032    517.86221 0.0090757484 0.0073497557            9 
 4756000   0.47851565   -9.0425442    518.24411 0.0090805318 0.0073471684            8 
 4757000   0.48023355     -9.04998     519.2322 0.0090959324 0.0073445811            8 
 4758000     0.492926   -9.0595797    517.75483 0.0090681453  0.007341995            9 
 4759000   0.48673803   -9.0546794    518.06204 0.0090716195 0.0073394097            6 
 4760000   0.49602707    -9.055562     518.8477 0.0090834681 0.0073368243           10 
 4761000   0.48365852    -9.046138    517.98782 0.0090665094 0.0073342407           10 
 4762000    0.4917882   -9.0491979    518.55505 0.0090745319 0.0073316594            4 
 4763000    0.4952558    -9.064501    517.41127 0.0090526151  0.007329078           12 
 4764000    0.4963354   -9.0567567     518.6096 0.0090716765 0.0073264969            7 
 4765000   0.49049967   -9.0331805    518.81619 0.0090733857  0.007323919           13 
 4766000    0.4876526   -9.0378769     517.7125 0.0090521839 0.0073213414            5 
 4767000   0.48753745   -9.0638832    518.10135 0.0090570826  0.007318764            6 
 4768000   0.48152658   -9.0427698    518.28547  0.009058401 0.0073161893           10 
 4769000   0.48422363   -9.0410831    518.12452 0.0090536891 0.0073136147            6 
 4770000    0.4890071   -9.0451187    518.08671 0.0090511305 0.0073110429            8 
 4771000   0.50062903   -9.0624766    517.52282 0.0090393841 0.0073084705           10 
 4772000   0.48063758   -9.0539036    518.63903 0.0090569822 0.0073058998           12 
 4773000   0.48235399   -9.0508775    518.22381 0.0090478352 0.0073033308           12 
 4774000    0.4853563   -9.0546129     518.3868 0.0090487851 0.0073007631            8 
 4775000   0.49753674     -9.03451    518.22597 0.0090440832 0.0072981958            7 
 4776000   0.49370898   -9.0523656    517.99366 0.0090381362 0.0072956294            9 
 4777000   0.47597327   -9.0476538    518.59523 0.0090467383 0.0072930628           10 
 4778000   0.48149443   -9.0454018    517.83568 0.0090315976 0.0072904961           10 
 4779000   0.48443296    -9.048484    518.57423 0.0090425862 0.0072879337            8 
 4780000   0.49784929   -9.0612806    517.82936 0.0090277085  0.007285373           12 
 4781000   0.49087585   -9.0379769     518.4683  0.009036957 0.0072828138            9 
 4782000   0.49054439   -9.0560746    518.26943 0.0090316016 0.0072802558           10 
 4783000   0.47628894   -9.0512518    517.27927  0.009012462 0.0072776974            8 
 4784000   0.48840932   -9.0429334    518.12257 0.0090252677 0.0072751424            6 
 4785000   0.48254021   -9.0550699    518.21964 0.0090250722 0.0072725878           11 
 4786000   0.48111916   -9.0543417    518.68678 0.0090313202 0.0072700361            7 
 4787000   0.47915615   -9.0604187    517.57807 0.0090101329  0.007267484            6 
 4788000   0.48943092   -9.0489296     518.7188  0.009028105 0.0072649336            9 
 4789000   0.49116113   -9.0461277    517.46035 0.0090043216 0.0072623839           10 
 4790000    0.4751591   -9.0490552    518.47277 0.0090200551 0.0072598348            8 
 4791000   0.48429646   -9.0569313    518.57948 0.0090200286 0.0072572852           10 
 4792000   0.49485785   -9.0596833    518.08763 0.0090095929 0.0072547368            8 
 4793000   0.49821851   -9.0504024    517.27315 0.0089935523 0.0072521899            8 
 4794000   0.49324405   -9.0498896      517.736 0.0089997218 0.0072496436           15 
 4795000   0.48084645   -9.0586116    518.06092 0.0090034919  0.007247099            9 
 4796000   0.48852598    -9.070783    518.76869 0.0090139124 0.0072445551            6 
 4797000    0.4816577   -9.0457647    517.76655 0.0089946243 0.0072420132            9 
 4798000   0.49224573   -9.0610925    518.05956 0.0089978386 0.0072394717            5 
 4799000   0.49704905   -9.0567271     517.9033 0.0089932504 0.0072369319            7 
 4800000   0.49379211   -9.0666025    518.18008 0.0089961819 0.0072343943           10 
 4801000   0.48026271   -9.0680442    518.61707 0.0090018933 0.0072318561            7 
 4802000   0.47681916   -9.0688336    517.98291 0.0089890135 0.0072293195           13 
 4803000   0.48721448   -9.0512061    517.54849 0.0089796047 0.0072267835            9 
 4804000   0.49032918   -9.0544369    518.40947 0.0089926704 0.0072242506            9 
 4805000   0.49660317   -9.0602432     517.8569 0.0089812157 0.0072217165            9 
 4806000   0.49013667   -9.0507999    517.85931 0.0089793888 0.0072191857            8 
 4807000   0.48035369   -9.0639158    518.48943 0.0089884445 0.0072166559            8 
 4808000   0.48460635   -9.0614622    517.97772 0.0089777058 0.0072141267            6 
 4809000   0.47820377   -9.0472693    518.18507 0.0089794322  0.007211599            8 
 4810000   0.48011802    -9.065657    518.77059 0.0089877095 0.0072090747            8 
 4811000   0.48369916    -9.050249    517.84258 0.0089697669  0.007206552            9 
 4812000   0.49252607   -9.0601373    518.22277 0.0089744869 0.0072040291           12 
 4813000   0.47637115   -9.0621611    518.43605  0.008976315 0.0072015076           11 
 4814000    0.4771242   -9.0561167    518.22002 0.0089707108 0.0071989871            7 
 4815000   0.47785052   -9.0412432    518.13282 0.0089673386 0.0071964665            5 
 4816000   0.48570179    -9.048669    517.11705 0.0089479003 0.0071939462            7 
 4817000   0.47364495   -9.0520392      517.739 0.0089568022 0.0071914266            5 
 4818000   0.47324063   -9.0621651    518.44372 0.0089671323 0.0071889099            8 
 4819000   0.47388751   -9.0497742    517.90546 0.0089559636 0.0071863927           11 
 4820000   0.47729456   -9.0696194    518.00972 0.0089559081  0.007183877            9 
 4821000   0.47707088   -9.0503727    518.06148  0.008954945 0.0071813625            5 
 4822000   0.47140347   -9.0471493    517.85946 0.0089495966 0.0071788501            5 
 4823000    0.4891331    -9.044227    518.28567 0.0089551052 0.0071763396           13 
 4824000   0.48143806   -9.0579728    518.14927 0.0089508927  0.007173831           10 
 4825000   0.47396183   -9.0653464    517.44261 0.0089368326 0.0071713221            7 
 4826000   0.47695628   -9.0843821     516.8784 0.0089252383 0.0071688133            9 
 4827000   0.47753707   -9.0642656    518.27931 0.0089475745  0.007166307           10 
 4828000   0.47491169   -9.0570305    519.89872  0.008973673 0.0071638028           10 
 4829000   0.48518651   -9.0640096    517.86039 0.0089366396 0.0071612969            7 
 4830000   0.47937386   -9.0536246    518.24819 0.0089414802 0.0071587954            9 
 4831000   0.48337212    -9.057608    518.24511 0.0089395762 0.0071562931            9 
 4832000   0.47837848   -9.0667104     517.5944 0.0089265039 0.0071537899            7 
 4833000   0.47398441   -9.0750069    518.19594  0.008935029 0.0071512906            5 
 4834000   0.47704452   -9.0549189    518.45199 0.0089375946 0.0071487899           13 
 4835000   0.48441354   -9.0652922     517.0241 0.0089111358 0.0071462914            8 
 4836000   0.47443314     -9.05808    517.48556  0.008917245 0.0071437945            8 
 4837000   0.47689296   -9.0664219    517.02042 0.0089073878 0.0071412957            8 
 4838000   0.46939951   -9.0651524    518.11758  0.008924445 0.0071388019           15 
 4839000   0.48226913   -9.0700834    518.71583 0.0089329033 0.0071363074           15 
 4840000   0.47623843   -9.0708668    517.63478 0.0089124446 0.0071338125           13 
 4841000   0.47519169    -9.071438    517.47325  0.008907823   0.00713132            7 
 4842000   0.48078284   -9.0752155    518.05322 0.0089159648 0.0071288297            7 
 4843000   0.48026612   -9.0695438    517.97648 0.0089128034 0.0071263404            8 
 4844000   0.47981892   -9.0654838    517.00504 0.0088942513 0.0071238537            8 
 4845000   0.48672573   -9.0578745     517.4696 0.0089004059 0.0071213684            6 
 4846000   0.47923223   -9.0615055    518.25033  0.008911995 0.0071188828           12 
 4847000   0.47607144   -9.0754017    518.29438 0.0089109137 0.0071163966           10 
 4848000   0.47475695   -9.0658446    518.11273 0.0089059531 0.0071139119            7 
 4849000   0.47808965   -9.0696772     518.1969  0.008905563  0.007111429            9 
 4850000   0.47436857   -9.0878725    517.78344 0.0088966226 0.0071089487            9 
 4851000   0.46631346   -9.0746985    517.95428 0.0088977234 0.0071064709            8 
 4852000   0.48038859   -9.0661671    517.31168  0.008884853 0.0071039901            9 
 4853000   0.48457393   -9.0764437    517.62991 0.0088884867 0.0071015138            5 
 4854000   0.46935528   -9.0681095     516.8976 0.0088740831 0.0070990368            8 
 4855000   0.47292229   -9.0707554    517.09861 0.0088757056 0.0070965605            8 
 4856000   0.47504909   -9.0640885    518.25713 0.0088937591 0.0070940858           11 
 4857000   0.46557732    -9.064814    518.15968 0.0088902559 0.0070916129           12 
 4858000   0.48072766   -9.0674893    517.78095 0.0088819292 0.0070891424           17 
 4859000   0.48147157   -9.0723068    517.69611 0.0088786464 0.0070866704            8 
 4860000   0.46894322    -9.064369    517.16716 0.0088677496 0.0070842006            6 
 4861000   0.47390928   -9.0761499    518.12732 0.0088823856 0.0070817321            6 
 4862000   0.48161563   -9.0784168     517.2541 0.0088655919 0.0070792636           13 
 4863000   0.48281944   -9.0658169    517.15819 0.0088621253 0.0070767962           10 
 4864000   0.48113971   -9.0691861    518.11486 0.0088766937 0.0070743308            8 
 4865000    0.4912107   -9.0648221    517.30907 0.0088610667 0.0070718675           10 
 4866000   0.47625961   -9.0571126    517.82802  0.008868133 0.0070694042           13 
 4867000   0.47442979   -9.0666384    517.79841 0.0088658038 0.0070669415           11 
 4868000   0.47229482   -9.0811453    517.70831 0.0088624403 0.0070644795           16 
 4869000   0.47278174   -9.0792293     517.8515 0.0088630707 0.0070620193           16 
 4870000   0.45979966   -9.0713202    516.34198 0.0088354206 0.0070595594           18 
 4871000   0.47702638   -9.0859154    517.61788 0.0088554348 0.0070571015           11 
 4872000      0.47066   -9.0741873    517.83775 0.0088573781 0.0070546465            9 
 4873000   0.46998852   -9.0829868    517.94069 0.0088573208 0.0070521909           13 
 4874000    0.4669523   -9.0755027    518.20431 0.0088600108 0.0070497356            9 
 4875000   0.48011472   -9.0774054    517.71881 0.0088498942 0.0070472819            5 
 4876000   0.47104379   -9.0739456    517.63791 0.0088466965  0.007044829           13 
 4877000   0.48242636    -9.077671    517.37609 0.0088404089 0.0070423785            7 
 4878000   0.46233719   -9.0953633    517.69892 0.0088441116   0.00703993           20 
 4879000   0.47383167   -9.0762324    517.17101 0.0088332822 0.0070374784           10 
 4880000   0.47161963   -9.0783831    517.32885 0.0088341675 0.0070350317           10 
 4881000   0.48103919   -9.0730254    518.24505     0.008848  0.007032588            8 
 4882000    0.4660415   -9.0688897    517.57009 0.0088346663 0.0070301423           11 
 4883000   0.47180682    -9.074714    516.99043 0.0088229646    0.0070277            6 
 4884000    0.4787102   -9.0826081    517.50325  0.008829908 0.0070252572            8 
 4885000   0.46523932   -9.0678931    517.01118 0.0088197062 0.0070228166           11 
 4886000   0.47145191   -9.0694703    517.46919 0.0088257128 0.0070203778           13 
 4887000   0.46276363   -9.0968911    517.09327 0.0088174966 0.0070179378           11 
 4888000   0.47674655   -9.0728942    517.07416 0.0088153669 0.0070154968            7 
 4889000   0.47093802   -9.0988907    517.62383 0.0088229329 0.0070130598            8 
 4890000   0.46396696   -9.0692473    516.73396 0.0088059638 0.0070106206            5 
 4891000   0.46805565   -9.0799838     517.0821 0.0088100952 0.0070081854            8 
 4892000    0.4663917   -9.0713886    517.34653 0.0088127985 0.0070057503            8 
 4893000   0.46674061   -9.0772874    517.55846 0.0088146069 0.0070033161            7 
 4894000   0.47655831    -9.080966    516.97476 0.0088028668 0.0070008819            8 
 4895000   0.47322225   -9.0681318    517.65157 0.0088125906 0.0069984498           11 
 4896000    0.4728467    -9.082478    516.77734 0.0087959106 0.0069960209           10 
 4897000   0.46511168   -9.0777389    517.61106  0.008808302 0.0069935913            9 
 4898000   0.47382501   -9.0793705    517.60959 0.0088064786 0.0069911617            8 
 4899000   0.46071411   -9.0782108    517.38849 0.0088009201 0.0069887344           10 
 4900000   0.46977414   -9.0736691     517.1617 0.0087952671 0.0069863079           13 
 4901000   0.47226162    -9.071819    516.68672 0.0087853962 0.0069838843           12 
 4902000   0.46358526   -9.0775386     517.2422 0.0087930471 0.0069814587           10 
 4903000   0.45152809   -9.0818766    517.36415 0.0087933263 0.0069790371            7 
 4904000   0.45376204   -9.0918648    518.14032 0.0088047227 0.0069766134            7 
 4905000   0.45881295   -9.0789466    516.87427 0.0087814181 0.0069741922           16 
 4906000   0.46767172   -9.0741508    517.42453 0.0087889749 0.0069717738            8 
 4907000   0.46539509   -9.0925783    517.00407 0.0087800433 0.0069693546           10 
 4908000    0.4659646   -9.0722711     516.7888 0.0087745994  0.006966936           10 
 4909000    0.4727963    -9.071002    517.63276 0.0087871387 0.0069645194            9 
 4910000   0.47081652   -9.0818286    516.60948 0.0087679817 0.0069621043           11 
 4911000   0.47331704   -9.0747749    517.01507 0.0087730787 0.0069596916            7 
 4912000   0.45899587   -9.0853397    517.41026 0.0087779971 0.0069572777            9 
 4913000     0.465146   -9.0832326    516.90477 0.0087676364 0.0069548651            9 
 4914000   0.47104926   -9.0843855    517.53754  0.008776583 0.0069524538           17 
 4915000   0.46312331   -9.0645498    517.05301 0.0087665821 0.0069500423           14 
 4916000   0.46762901   -9.1028261    517.13589 0.0087662037 0.0069476342           12 
 4917000   0.46185156   -9.0785586     517.2337 0.0087660786 0.0069452274           10 
 4918000   0.46917118   -9.0727298    518.99608 0.0087941589  0.006942821            7 
 4919000   0.46366656   -9.0848215    517.29023 0.0087634721 0.0069404173            8 
 4920000   0.45775314   -9.0792673    517.39577 0.0087634786 0.0069380147            9 
 4921000   0.48400277   -9.0877231    517.15587 0.0087576351  0.006935611           11 
 4922000   0.45999459   -9.0847926    516.93444 0.0087521068 0.0069332086           13 
 4923000    0.4652225   -9.0953888    517.65274  0.008762488  0.006930806            8 
 4924000   0.45627733   -9.0895055    517.06611 0.0087507804 0.0069284053            9 
 4925000   0.46681424    -9.065145    518.05025 0.0087656556 0.0069260078           10 
 4926000    0.4625074   -9.0914921    517.19124 0.0087493444 0.0069236105            9 
 4927000   0.46779533   -9.0779657    517.13943 0.0087466922 0.0069212139            5 
 4928000   0.47256913   -9.0867984    517.53225   0.00875156 0.0069188181            9 
 4929000   0.47173105   -9.0984732    516.88888 0.0087389072 0.0069164247            8 
 4930000   0.47343788   -9.0848294    517.62497 0.0087495769 0.0069140328            9 
 4931000   0.46074102   -9.0992893    517.12095 0.0087392846  0.006911639            5 
 4932000   0.47340612   -9.0827105    516.74764 0.0087312051 0.0069092471            9 
 4933000   0.46982781   -9.0875702    517.52861  0.008742628 0.0069068571            7 
 4934000   0.46521108   -9.0812404    517.22227 0.0087356821 0.0069044663            9 
 4935000   0.46280958   -9.0815246    518.21136  0.008750614 0.0069020797           15 
 4936000    0.4603664   -9.0866948    517.19345  0.008731656 0.0068996941           11 
 4937000   0.46675866   -9.0824511    517.04675 0.0087274112 0.0068973061            5 
 4938000   0.46243616    -9.080802    517.25373 0.0087291368 0.0068949239           10 
 4939000   0.47366854   -9.0848079    517.18914 0.0087262796 0.0068925402            7 
 4940000   0.46194072   -9.0877527    517.81428 0.0087350587 0.0068901591            7 
 4941000   0.46802979   -9.0904753     517.5909 0.0087295233 0.0068877776            5 
 4942000   0.46489158   -9.0942404    517.33638 0.0087234652 0.0068853963            7 
 4943000   0.46632092   -9.0693339    517.16781 0.0087188584 0.0068830166            9 
 4944000   0.45752047   -9.0821325    516.93342 0.0087131443 0.0068806378           10 
 4945000   0.46168779   -9.0886028    517.15696 0.0087151493 0.0068782616            8 
 4946000   0.46277951   -9.0966771     516.8154 0.0087076324  0.006875886            6 
 4947000   0.45919287   -9.0839197    517.89081 0.0087239878 0.0068735098            9 
 4948000   0.47164907   -9.0908979    517.39898 0.0087139414 0.0068711377            9 
 4949000   0.46072683   -9.0952799     517.2434 0.0087095609 0.0068687643            9 
 4950000   0.46968417   -9.0967883    516.97309 0.0087032507 0.0068663932           11 
 4951000   0.45930978   -9.1034725    516.43579 0.0086924491 0.0068640212           10 
 4952000   0.46855159   -9.1111113    517.03619 0.0087007975 0.0068616517            7 
 4953000   0.44977083   -9.0976481    517.26776  0.008702937 0.0068592834           14 
 4954000    0.4587665   -9.0865149    516.49981 0.0086882622 0.0068569162           10 
 4955000   0.45906905   -9.0967343    517.09144 0.0086964588 0.0068545477           11 
 4956000   0.45334226   -9.1004556    517.03236 0.0086937106 0.0068521805            8 
 4957000   0.45856847   -9.1012918     516.8227 0.0086884322 0.0068498164            7 
 4958000   0.45411213   -9.0861709    517.72583 0.0087018595 0.0068474528            9 
 4959000    0.4556958   -9.0947127    517.13939 0.0086902498 0.0068450914            9 
 4960000   0.44693275   -9.0902527    517.11926 0.0086881596 0.0068427298            7 
 4961000   0.45723648   -9.0824575    517.03474 0.0086849886 0.0068403698            7 
 4962000    0.4498736   -9.0832267    518.06826 0.0087005955 0.0068380104           10 
 4963000   0.45494864   -9.1038488     517.2273 0.0086847219 0.0068356537            4 
 4964000   0.46499049    -9.091038    516.92138 0.0086778368 0.0068332973            4 
 4965000   0.45456962   -9.1056519    517.48593 0.0086855645 0.0068309429            4 
 4966000   0.44669361   -9.0776206     517.5666 0.0086851691 0.0068285894            6 
 4967000   0.47231442   -9.0946249    516.85843 0.0086715393 0.0068262364            8 
 4968000   0.46489098   -9.0974136    516.97307 0.0086717168 0.0068238843           11 
 4969000   0.45268169   -9.0885264    516.78638 0.0086668407 0.0068215322           11 
 4970000   0.45756405   -9.0804606    517.29584 0.0086736392 0.0068191819            8 
 4971000   0.45895591   -9.0943921    517.18147 0.0086699771 0.0068168326            9 
 4972000   0.46236902   -9.1030125    517.12546 0.0086672946 0.0068144824           13 
 4973000   0.45154849   -9.0975839    517.79535 0.0086767771 0.0068121356            8 
 4974000   0.45736937   -9.0963915     516.3945 0.0086515631 0.0068097894            8 
 4975000    0.4608256    -9.102879     516.8836 0.0086580168 0.0068074446            7 
 4976000   0.46445886   -9.0877541    516.52801 0.0086503216 0.0068051008            8 
 4977000   0.45260402   -9.1260593    516.94528 0.0086555703 0.0068027587            9 
 4978000   0.45515551   -9.0915942    517.41379 0.0086616745 0.0068004152           14 
 4979000   0.45868708   -9.0766139     516.7947 0.0086495733 0.0067980749            6 
 4980000   0.44298155   -9.1085388    517.29081 0.0086561381 0.0067957382           11 
 4981000   0.45908254   -9.0906024    516.80924 0.0086463434 0.0067934007            7 
 4982000   0.45462177   -9.0971486    517.48962 0.0086559886 0.0067910621            5 
 4983000   0.46038449   -9.0926215    516.39677 0.0086359752  0.006788725            7 
 4984000   0.46303529   -9.0991938    517.03839 0.0086449704 0.0067863903            8 
 4985000   0.44893206   -9.0815125    516.97742 0.0086422169  0.006784057            8 
 4986000   0.45225384   -9.1124853    517.34014 0.0086465459 0.0067817222            9 
 4987000   0.47197601   -9.0975744    516.86772  0.008636918 0.0067793914           12 
 4988000    0.4564894   -9.0930281    515.63768 0.0086146365 0.0067770615            5 
 4989000   0.46244989   -9.0946995     516.7417 0.0086313506 0.0067747327           10 
 4990000    0.4527052    -9.105864     516.6844  0.008628664 0.0067724052           12 
 4991000   0.45189017   -9.0998333    517.07683 0.0086334874 0.0067700777            6 
 4992000   0.45852063   -9.0985179    517.60781 0.0086406219 0.0067677518            8 
 4993000   0.45533717   -9.1205372    516.83737 0.0086260327 0.0067654263            9 
 4994000   0.44758004    -9.104408    516.99246 0.0086268933 0.0067631004            8 
 4995000   0.45948768   -9.0973256    517.17492 0.0086282102 0.0067607766            8 
 4996000   0.45315406   -9.0947085    517.40373 0.0086302998 0.0067584561            7 
 4997000   0.44627317   -9.1135558    517.51059 0.0086303547 0.0067561357            7 
 4998000   0.44656835   -9.1135008    517.10922 0.0086219357 0.0067538152            5 
 4999000   0.43983531   -9.0979695    516.58489 0.0086114705 0.0067514945           11 
 5000000   0.44869733   -9.1050669    516.67714 0.0086112857 0.0067491754           16 
 5001000    0.4672035   -9.1096285    516.88805 0.0086130782 0.0067468572           14 
 5002000   0.44159151   -9.1064244    516.92729 0.0086120101 0.0067445426            8 
 5003000   0.45141284    -9.096036    516.37468 0.0086010841 0.0067422281            5 
 5004000    0.4619081   -9.0944381    517.26956 0.0086142679 0.0067399124           15 
 5005000   0.45106138   -9.0961254    515.87805 0.0085893781 0.0067375974            8 
 5006000   0.45178014   -9.1119016    517.05447 0.0086072458 0.0067352844           16 
 5007000    0.4474045   -9.1009603    516.64668 0.0085987398 0.0067329709           10 
 5008000   0.43917349   -9.1123186    516.67328 0.0085974653 0.0067306595           11 
 5009000    0.4504932   -9.1007184    516.57102 0.0085940478 0.0067283493           10 
 5010000   0.45809531   -9.0944326    517.02224 0.0085998376 0.0067260411           11 
 5011000   0.45164419   -9.1133586    516.99666 0.0085976961 0.0067237332            7 
 5012000   0.45421403   -9.1075027    516.79813 0.0085926797 0.0067214281            7 
Loop time of 12500.5 on 48 procs for 5000000 steps with 4000 atoms

Performance: 69117.492 tau/day, 399.985 timesteps/s
99.4% CPU use with 48 MPI tasks x no OpenMP threads

MPI task timing breakdown:
Section |  min time  |  avg time  |  max time  |%varavg| %total
---------------------------------------------------------------
Pair    | 864.82     | 932.23     | 992.96     | 108.3 |  7.46
Neigh   | 82.915     | 86.403     | 89.622     |  17.7 |  0.69
Comm    | 797.02     | 859.61     | 937.33     | 116.0 |  6.88
Output  | 13.576     | 13.598     | 13.658     |   0.4 |  0.11
Modify  | 10476      | 10496      | 10527      |  10.7 | 83.96
Other   |            | 112.8      |            |       |  0.90

Nlocal:        83.3333 ave          89 max          78 min
Histogram: 4 4 6 8 4 3 7 5 3 4
Nghost:        2239.38 ave        2261 max        2211 min
Histogram: 1 1 1 4 12 6 8 9 3 3
Neighs:        15056.2 ave       16518 max       13478 min
Histogram: 2 1 6 1 9 13 8 4 1 3
FullNghs:      30112.8 ave       32243 max       28098 min
Histogram: 2 5 6 7 6 3 9 5 2 3

Total # of neighbors = 1445414
Ave neighs/atom = 361.35350
Neighbor list builds = 266651
Dangerous builds = 0

#clear
#
#next RN
#
#jump SELF
Total wall time: 3:28:23
