
units lj                  # Use reduced LJ style units
atom_style atomic         # Uncharged point particles
atom_modify map hash      # Needed for indexing of clusters etc
                          # Used to be able to find where atoms are in relation to each other.

lattice fcc 1.0 spacing 1 1 1
Lattice spacing in x,y,z = 1.5874011 1.5874011 1.5874011
region box block 0 10 0 10 0 10 units lattice
create_box 2 box
Created orthogonal box = (0.0000000 0.0000000 0.0000000) to (15.874011 15.874011 15.874011)
  3 by 4 by 4 MPI processor grid
create_atoms 1 box
Created 4000 atoms
  using lattice units in orthogonal box = (0.0000000 0.0000000 0.0000000) to (15.874011 15.874011 15.874011)
  create_atoms CPU = 0.002 seconds
set type 1 type/fraction 2 0.16 78393
Setting atom values ...
  677 settings made for type/fraction
mass 1 1.0
mass 2 1.0
pair_style lj/cut  3.5
pair_modify tail  yes
pair_coeff 1  1  1.0  1.0   # Intearaction between 1 and 1 set with epsilon = 1 and sigma = 1
pair_coeff 1  2  1.5  0.8
pair_coeff 2  2  0.5  0.88

write_data data.0
System init for write_data ...
Neighbor list info ...
  update every 1 steps, delay 10 steps, check yes
  max neighbors/atom: 2000, page size: 100000
  master list distance cutoff = 3.8
  ghost atom cutoff = 3.8
  binsize = 1.9, bins = 9 9 9
  1 neighbor lists, perpetual/occasional/extra = 1 0 0
  (1) pair lj/cut, perpetual
      attributes: half, newton on
      pair build: half/bin/atomonly/newton
      stencil: half/bin/3d
      bin: standard
WARNING: Not all mixed pair coeffs generated from mixing. Use write_data with 'pair ij' option to store all pair coeffs. (../write_data.cpp:312)


#############################
#   M E L T   S Y S T E M   #
#############################

velocity all create 2.4 5833274 mom yes dist gaussian # Assign velocities
                                                    # Temperature 2.4, random number seed, zero linear momentum
                                                                                # Gaussian distribution

timestep 0.002   # simulation timestep
thermo 1000       # output thermodynamic data every 1000 steps bf 100

# Define a fix  in this case with index 1 applied to all
# particles in the simulation. This fix is for simulations
# in the anisotropic NPT ensemble. Note that we use the MTK
# correction.
fix 1 all npt temp 2.4 2.4 0.1 iso 5.68 5.68 0.5 mtk yes tchain 5 pchain 5 # Use NPT ensemble
                                                                         # Set temperature and pressure and damping
                                                                         # Numbers of thermostats in chain and in barostat
run 10000          # run for 10000 steps
Per MPI rank memory allocation (min/avg/max) = 3.642 | 3.644 | 3.648 Mbytes
Step Temp E_pair E_mol TotEng Press Volume 
       0          2.4   -7.2871769            0   -3.6880769   -3.4159639         4000 
    1000    2.3620848   -4.7733708            0   -1.2311293    5.5019582    4611.8374 
    2000    2.4059083   -4.7506769            0   -1.1427167     5.652047    4614.5558 
    3000    2.3529931   -4.7443616            0   -1.2157543    5.7694274    4595.4384 
    4000    2.3952129   -4.7735723            0   -1.1816512    5.1679196    4652.2854 
    5000    2.3497576   -4.7346044            0   -1.2108492     5.640939    4621.2823 
    6000    2.3535117   -4.8621454            0   -1.3327604    5.3704269     4576.273 
    7000    2.4145949   -4.7984222            0   -1.1774354     5.359674    4619.3708 
    8000    2.3738403   -4.7900604            0   -1.2301901    5.3355085    4628.1149 
    9000    2.3913198   -4.7872999            0    -1.201217    5.7688864    4582.4615 
   10000    2.4167612   -4.7064649            0   -1.0822294    5.6689774    4629.2992 
Loop time of 2.31606 on 48 procs for 10000 steps with 4000 atoms

Performance: 746093.866 tau/day, 4317.673 timesteps/s
99.6% CPU use with 48 MPI tasks x no OpenMP threads

MPI task timing breakdown:
Section |  min time  |  avg time  |  max time  |%varavg| %total
---------------------------------------------------------------
Pair    | 0.94693    | 1.0153     | 1.1585     |   4.0 | 43.84
Neigh   | 0.19293    | 0.20485    | 0.23065    |   1.5 |  8.84
Comm    | 0.69516    | 0.82163    | 0.94148    |   6.6 | 35.48
Output  | 0.00024608 | 0.00024951 | 0.00031088 |   0.0 |  0.01
Modify  | 0.19904    | 0.25921    | 0.313      |   7.4 | 11.19
Other   |            | 0.0148     |            |       |  0.64

Nlocal:        83.3333 ave          91 max          76 min
Histogram: 2 0 8 5 13 3 9 3 2 3
Nghost:        1493.38 ave        1512 max        1464 min
Histogram: 1 0 2 2 4 11 15 6 5 2
Neighs:        8242.10 ave        9116 max        7275 min
Histogram: 2 2 4 4 8 12 8 2 3 3

Total # of neighbors = 395621
Ave neighs/atom = 98.905250
Neighbor list builds = 907
Dangerous builds = 210

# Equilibrate just above the melting temperature to avoid step fn in T

fix 1 all npt temp 1.25 1.25 0.1 iso 5.68 5.68 0.5 mtk yes tchain 5 pchain 5
run 2000
Per MPI rank memory allocation (min/avg/max) = 3.642 | 3.644 | 3.648 Mbytes
Step Temp E_pair E_mol TotEng Press Volume 
   10000    2.4167612   -4.7064649            0   -1.0822294    5.6689774    4629.2992 
   11000    1.2468163   -6.4188179            0   -4.5490609    5.5834997    3778.3246 
   12000    1.2720526   -6.4339587            0   -4.5263568    5.6767717    3769.5316 
Loop time of 0.501077 on 48 procs for 2000 steps with 4000 atoms

Performance: 689714.492 tau/day, 3991.403 timesteps/s
99.6% CPU use with 48 MPI tasks x no OpenMP threads

MPI task timing breakdown:
Section |  min time  |  avg time  |  max time  |%varavg| %total
---------------------------------------------------------------
Pair    | 0.21583    | 0.23974    | 0.26269    |   2.1 | 47.85
Neigh   | 0.032589   | 0.034787   | 0.037952   |   0.6 |  6.94
Comm    | 0.14809    | 0.17168    | 0.19654    |   2.7 | 34.26
Output  | 5.6111e-05 | 5.7647e-05 | 7.3678e-05 |   0.0 |  0.01
Modify  | 0.04316    | 0.050048   | 0.059478   |   1.8 |  9.99
Other   |            | 0.004766   |            |       |  0.95

Nlocal:        83.3333 ave          92 max          77 min
Histogram: 4 4 10 4 6 4 9 1 4 2
Nghost:        1713.62 ave        1733 max        1688 min
Histogram: 3 0 2 3 10 9 7 5 4 5
Neighs:        10128.9 ave       11697 max        9165 min
Histogram: 5 4 11 8 6 5 4 4 0 1

Total # of neighbors = 486186
Ave neighs/atom = 121.54650
Neighbor list builds = 143
Dangerous builds = 11

#############################
# L I N E A R  Q U E N C H  #
#############################

# Define solid atoms. This closely follows ten Wolde  Ruiz-Montero and Frenkel  Faraday Discuss  1996  104  93-110
# Compute components of the per-atom q6 vector
compute q6 all orientorder/atom degrees 1 6 components 6 nnn NULL cutoff 1.3 # compute the Q6 parameter.
                                                                             # Use all neighbours within 1.3 unit cell.

# get number of connections
compute coord_number all coord/atom orientorder q6 0.5

# An atom is solid if it has 8 or more connections (of a possible 14)
variable is_solid atom c_coord_number>=8
group solid dynamic all var is_solid    # Must be dynamic to update
dynamic group solid defined

# do clustering
compute cluster solid cluster/atom 1.3 # Create a cluster where all atoms within are solid and max 1.3 units from another member

# define chunks one chunk per cluster
compute clus_chunks solid chunk/atom c_cluster nchunk every compress yes  # Says which atoms are in which chunk

# count the size of each chunk
compute size_chunks solid property/chunk clus_chunks count


# Find the maximum entry in the vector of chunk sizes
variable max_n equal max(c_size_chunks)


# Thermo style which includes this variable
# thermo_style custom step temp pe vol v_max_n

thermo ${N}  # Print the thermo information every 100 steps
thermo 1000  

# Reset the npt fix at a lower temperature (below freezing)
fix 1  all npt temp  ${temp} ${temp}  0.1  iso  5.68  5.68  0.5  mtk yes tchain  5  pchain  5
fix 1  all npt temp  0.45 ${temp}  0.1  iso  5.68  5.68  0.5  mtk yes tchain  5  pchain  5
fix 1  all npt temp  0.45 0.45  0.1  iso  5.68  5.68  0.5  mtk yes tchain  5  pchain  5

dump dmp2 all dcd ${N} traj.dcd
dump dmp2 all dcd 1000 traj.dcd


compute msd all msd com yes
variable twopoint equal c_msd[4]/6/(step*dt+1.0e-6)
fix 9 all vector 10 c_msd[4]
variable fit equal slope(f_9)/6/(10*dt)
thermo_style custom step temp pe c_msd[4] v_twopoint v_fit v_max_n

fix 1 all npt temp 1.25 ${temp} 0.1 iso 5.68 5.68 0.5 mtk yes tchain 5 pchain 5
fix 1 all npt temp 1.25 0.45 0.1 iso 5.68 5.68 0.5 mtk yes tchain 5 pchain 5
run 500000 # 5000000  # Run for this many steps
Neighbor list info ...
  update every 1 steps, delay 10 steps, check yes
  max neighbors/atom: 2000, page size: 100000
  master list distance cutoff = 3.8
  ghost atom cutoff = 3.8
  binsize = 1.9, bins = 9 9 9
  4 neighbor lists, perpetual/occasional/extra = 1 3 0
  (1) pair lj/cut, perpetual
      attributes: half, newton on
      pair build: half/bin/atomonly/newton
      stencil: half/bin/3d
      bin: standard
  (2) compute orientorder/atom, occasional
      attributes: full, newton on
      pair build: full/bin/atomonly
      stencil: full/bin/3d
      bin: standard
  (3) compute coord/atom, occasional
      attributes: full, newton on
      pair build: full/bin/atomonly
      stencil: full/bin/3d
      bin: standard
  (4) compute cluster/atom, occasional
      attributes: full, newton on
      pair build: full/bin/atomonly
      stencil: full/bin/3d
      bin: standard
Per MPI rank memory allocation (min/avg/max) = 9.766 | 9.771 | 9.776 Mbytes
Step Temp PotEng c_msd[4] v_twopoint v_fit v_max_n 
   12000    1.2720526   -6.4339587 5.0256356e-30 3.4900246e-32 8.3333333e+20            2 
   13000     1.238133   -6.4751136   0.53665006 0.0034400644  0.044848198            3 
   14000    1.2439469   -6.4166524    1.0451511 0.0062211376  0.043040428            3 
   15000    1.2486961    -6.420651    1.5540189 0.0086334378  0.042110394            2 
   16000     1.241916   -6.4619303    2.0575355   0.01071633  0.042415634            3 
   17000    1.2597409   -6.4750661    2.6125786  0.012806758  0.042681957            2 
   18000    1.2469287   -6.4108928    3.1381535  0.014528488  0.042893142            3 
   19000    1.2362083   -6.4250863    3.5501412  0.015570794  0.042683581            1 
   20000    1.2064228   -6.3965833    4.0215138  0.016756307  0.042216688            2 
   21000    1.2404029   -6.4415807    4.4830343  0.017789818   0.04177254            1 
   22000    1.2243795   -6.4648171    4.9777126  0.018854972  0.041340437            2 
   23000    1.2205946   -6.4467848    5.5512216  0.020113121  0.041238506            4 
   24000    1.2223743   -6.4559627    6.1097675   0.02121447  0.041420882            1 
   25000    1.2223017   -6.4220657    6.6421004  0.022140334  0.041744876            2 
   26000    1.2404775   -6.5032202    7.1519952  0.022923061  0.041955883            2 
   27000     1.235106   -6.4864817    7.6284977  0.023544746   0.04208131            2 
   28000    1.2221419   -6.4427705    8.0999876  0.024107106  0.042054004            1 
   29000    1.2319955   -6.5067974    8.5992682   0.02471054  0.042028703            2 
   30000    1.2199326    -6.455771    9.2770953  0.025769709  0.042187224            1 
   31000    1.2306796   -6.5113362    9.7730017  0.026271509  0.042389819            1 
   32000    1.2111573   -6.4864766    10.326556  0.026892072  0.042543885            2 
   33000    1.1933893   -6.4813665     10.75706  0.027164292  0.042622933            1 
   34000    1.2145929   -6.4898039    11.259834  0.027597632  0.042650558            2 
   35000    1.2428961   -6.4862811    11.964636  0.028487228  0.042755599            5 
   36000    1.2187071   -6.5200695    12.507401  0.028952317  0.042918893            2 
   37000    1.2118293   -6.5001676    13.055356  0.029403954  0.043082256            2 
   38000    1.2343589   -6.4934461     13.49275  0.029589363  0.043181315            2 
   39000    1.2178462    -6.475829    14.067354  0.030058448  0.043247403            2 
   40000     1.202001   -6.5213648    14.566413  0.030346692  0.043315085            2 
   41000    1.1906318   -6.5437504    15.038686  0.030566434  0.043363363            1 
   42000    1.2054457     -6.51571    15.658597  0.031068644  0.043419681            3 
   43000    1.1657457   -6.5587216    16.108111   0.03121727  0.043465625            3 
   44000    1.1987425   -6.5344817    16.627409  0.031491304  0.043491703            2 
   45000     1.206754   -6.5018792    17.053344  0.031580267  0.043482317            3 
   46000    1.2014618   -6.5551675    17.319272  0.031375493  0.043411095            2 
   47000    1.2167374   -6.5532103    17.718676  0.031416092  0.043282212            2 
   48000    1.1901702   -6.5130491     18.41286   0.03196677  0.043179719            3 
   49000    1.1758864   -6.5821295    18.781434  0.031941213  0.043080104            2 
   50000    1.1808424   -6.5101057    19.318537  0.032197561  0.042979857            3 
   51000     1.211041   -6.5072412    19.833607  0.032407855  0.042891123            3 
   52000    1.2075651   -6.5688707    20.342453  0.032600084  0.042816859            2 
   53000    1.1753563   -6.5543354    20.884383  0.032837079  0.042770285            1 
   54000    1.1815388   -6.5196054    21.337788  0.032928685  0.042706556            5 
   55000    1.1820691   -6.5439759    21.662625  0.032822158  0.042638336            1 
   56000    1.1817846   -6.5440372    22.166768  0.032986262  0.042551598            4 
   57000    1.1714784   -6.5573388    22.753747  0.033265711  0.042468158            2 
   58000    1.1683544   -6.5347096    23.271879  0.033436607  0.042406611            1 
   59000    1.1453126   -6.6081236    23.651226  0.033405686  0.042352595            3 
   60000    1.1644513   -6.5697415    24.114479  0.033492332   0.04227941            1 
   61000    1.1752917   -6.6037759    24.595382  0.033600249  0.042204833            3 
   62000    1.1396032   -6.5674733    25.026523    0.0336378  0.042133817            3 
   63000    1.1696138   -6.5765685    25.373392  0.033562687  0.042050897            1 
   64000    1.1552592   -6.5827501    25.826297  0.033627991  0.041953239            3 
   65000     1.162686    -6.569892    26.294018  0.033710279  0.041856769            5 
   66000    1.1750107   -6.5884308     26.64969  0.033648598  0.041753163            3 
   67000    1.1466606    -6.589923    27.050847  0.033645332  0.041655879            2 
   68000    1.1879403   -6.5741208    27.719648  0.033970157  0.041565328            3 
   69000    1.1734829   -6.5661399    28.029788    0.0338524  0.041472567            2 
   70000    1.1703963   -6.5772571    28.431043  0.033846479  0.041371017            2 
   71000    1.1486357   -6.5837211    28.774861  0.033773311  0.041268741            3 
   72000    1.1837343   -6.5924962    29.203221  0.033800024  0.041162886            1 
   73000    1.1703163   -6.6264559    29.467718  0.033638948  0.041045473            1 
   74000    1.1555611   -6.6170853    29.853595  0.033618913  0.040922753            1 
   75000    1.1408929   -6.6258554    30.471695  0.033857439  0.040808269            2 
   76000    1.1380707   -6.6205988    30.781259   0.03375138  0.040701206            3 
   77000    1.1695175   -6.5958603    31.108165  0.033666845   0.04058969            2 
   78000    1.1353649   -6.6254744    31.508403  0.033662823  0.040470585            2 
   79000    1.1295922   -6.6448143    32.030422  0.033787365  0.040357798            2 
   80000    1.1395198   -6.6387793    32.209218  0.033551269  0.040238642            2 
   81000    1.1439643    -6.656208    32.692744   0.03363451  0.040109232            3 
   82000    1.1287114    -6.649372     33.07433  0.033612124  0.039982496            2 
   83000    1.1220654   -6.6770366    33.568034  0.033702845  0.039872909            5 
   84000    1.1421795   -6.7111432    33.935726  0.033666394  0.039768965            2 
   85000    1.1583836   -6.6655442    34.252901  0.033581275   0.03966583            3 
   86000    1.1432732   -6.6220469      34.7492  0.033671705   0.03955928            1 
   87000    1.1405696   -6.6492816     35.05023  0.033573017  0.039450264            2 
   88000    1.1404928   -6.6782886    35.296598  0.033424809  0.039337441            3 
   89000    1.1248695   -6.6692592    35.593124  0.033326895  0.039216692            1 
   90000    1.1277081   -6.6797471     36.00793  0.033340676  0.039092278            2 
   91000     1.117257   -6.6964356    36.461271  0.033389442  0.038971924            1 
   92000     1.107725   -6.6858945    36.621081  0.033171269  0.038853412            6 
   93000    1.1288956   -6.6334873    37.064126  0.033211583  0.038736842            5 
   94000     1.123837   -6.6680244    37.557934   0.03329604   0.03862264            3 
   95000    1.1160445   -6.6778783    37.753868  0.033117428  0.038504878            3 
   96000    1.1216831   -6.6827715    37.949347  0.032942142  0.038377297            5 
   97000    1.1033674   -6.7107389    38.167595   0.03279003  0.038245669            3 
   98000    1.1268316   -6.6934345    38.806894   0.03299906  0.038118198            2 
   99000    1.1041558   -6.6691843    39.275074  0.033059826  0.037995041            1 
  100000    1.1024566    -6.737208    39.643307  0.033036089  0.037882424            2 
  101000    1.1097265   -6.7055056    39.934956  0.032949634  0.037768261            1 
  102000    1.0965531   -6.6998216    40.132457  0.032787955  0.037655713            2 
  103000    1.1281648   -6.7297225    40.524716  0.032786987  0.037538871            2 
  104000    1.0928544   -6.7157972    41.090117  0.032924773  0.037431367            4 
  105000    1.0794055   -6.7025771     41.55085  0.032976865  0.037330858            2 
  106000    1.0948503   -6.7523601    41.842978  0.032895423  0.037237399            3 
  107000    1.0876209   -6.6913216    42.263744  0.032915688  0.037144772            2 
  108000    1.1002637   -6.6996284    42.641145  0.032902118  0.037055793            2 
  109000    1.0762293   -6.7344419     42.94989  0.032836307   0.03696552            3 
  110000    1.0770341    -6.731516    43.306278  0.032807786  0.036876074            1 
  111000    1.0772567   -6.7308526    43.490657  0.032650643   0.03678086            3 
  112000    1.1029187   -6.7236001    43.833066  0.032613888  0.036683175            1 
  113000    1.0755058   -6.7056954    44.279571   0.03265455  0.036590401            2 
  114000    1.0772226   -6.7345847    44.646233  0.032636135  0.036500084            6 
  115000    1.0944541   -6.7850997    44.888177  0.032527664  0.036413536            3 
  116000    1.0683278   -6.7504078    45.355891  0.032583255  0.036322011            3 
  117000    1.0875411   -6.7342265    45.608032  0.032484353  0.036233011            3 
  118000     1.065918   -6.7604111    45.917177  0.032427385  0.036143048            2 
  119000    1.0594468   -6.7260593    46.140124  0.032311011  0.036051969            1 
  120000    1.0813333   -6.7768374     46.28307  0.032141021  0.035957649            2 
  121000    1.0883509   -6.7398379    46.689597   0.03215537  0.035863857            3 
  122000    1.0756111   -6.7334353    47.252053  0.032275992  0.035774941            2 
  123000    1.0633006   -6.7456085    47.566002  0.032226288  0.035686508            2 
  124000    1.0774202   -6.7583352    47.905958  0.032194864  0.035601394            2 
  125000    1.0604862   -6.7865468    48.288794  0.032192529  0.035518479            2 
  126000    1.0549477   -6.8040353    48.491833  0.032071318   0.03543224            2 
  127000    1.0472093   -6.7545927    48.693727  0.031951264  0.035345437            3 
  128000    1.0750959   -6.7684856    48.931593  0.031856506  0.035256023            3 
  129000    1.0583975   -6.7699921    49.475023  0.031960609  0.035167434            2 
  130000    1.0574127   -6.8052011    49.733475  0.031880432  0.035080758            2 
  131000    1.0413353   -6.8201989    50.104046  0.031872803  0.034994445            4 
  132000    1.0455024   -6.7903761    50.706667  0.032011785  0.034914745            3 
  133000    1.0761674   -6.7840668    50.958211  0.031928703  0.034839311            3 
  134000    1.0404323   -6.7960931    51.356818  0.031938319  0.034763967            3 
  135000     1.052151   -6.8230142    51.544364  0.031817509  0.034690937            4 
  136000    1.0634726   -6.8056668     52.10035  0.031924234  0.034619024            1 
  137000     1.012814   -6.8372527    52.342621  0.031838577  0.034548073            3 
  138000    1.0531622   -6.7850594    52.631703  0.031782429  0.034475703            2 
  139000    1.0410906   -6.7885949    52.594044  0.031531201  0.034402126            3 
  140000    1.0423185   -6.8360721    53.105994  0.031610711  0.034327325            2 
  141000    1.0434041   -6.8303546    53.446979  0.031588049  0.034253077            1 
  142000    1.0372429   -6.8267511    53.711436  0.031520796  0.034177314            1 
  143000    1.0176589   -6.8248314    54.078716  0.031514403  0.034105119            4 
  144000    1.0408192   -6.8633804    54.176557  0.031352174  0.034030901            4 
  145000    1.0393537   -6.8742867    54.352647  0.031237153  0.033950452            3 
  146000    1.0217272   -6.8250457    54.643682  0.031189316  0.033870082            3 
  147000    1.0400952   -6.8251409     55.26891  0.031331581  0.033795227            4 
  148000    1.0269194   -6.8543761    55.620394  0.031317789  0.033722584            1 
  149000    1.0040691   -6.8396343    55.874153  0.031249526  0.033651314            5 
  150000    1.0339675   -6.8663257    56.289271  0.031271817  0.033581044            4 
  151000    1.0158185   -6.8338945    56.436842   0.03114616  0.033512141            4 
  152000    1.0318964   -6.8541028    56.822583  0.031152732   0.03344214            2 
  153000    1.0169651   -6.8540501    57.125009  0.031113839  0.033375077            3 
  154000    1.0118979    -6.858296    57.481083  0.031104482  0.033308789            2 
  155000    1.0210691   -6.8400881    57.962002  0.031162367  0.033245006            3 
  156000    1.0246983   -6.8492225    58.290509  0.031138093  0.033185382            3 
  157000    1.0113691   -6.8854069    58.330448  0.030960959  0.033124313            3 
  158000    1.0130361    -6.887287    58.795911  0.031010501  0.033062607            2 
  159000    1.0159538   -6.9305075    59.195901  0.031025105  0.033003294            2 
  160000    1.0168018   -6.8733928     59.35857  0.030915922  0.032942522            4 
  161000    1.0124677   -6.8957034    59.678614  0.030889552   0.03288122            2 
  162000    1.0114292   -6.9165031    59.949119  0.030838024  0.032820429            4 
  163000     1.013498   -6.8804035    60.348484  0.030853008    0.0327613            3 
  164000     1.020719   -6.8970658    60.267105  0.030623529  0.032697422            3 
  165000     1.047197   -6.8915146    60.459418   0.03053506  0.032629352            2 
  166000    1.0077716   -6.9264543    60.594586  0.030418969  0.032559162            3 
  167000   0.99450707   -6.8962917    60.955651  0.030416991  0.032488373            3 
  168000    1.0022571   -6.9005527    61.311397  0.030412399  0.032417977            3 
  169000    1.0102092   -6.9305438    61.277811  0.030215883  0.032348673            3 
  170000   0.99193259   -6.9330488    61.489086  0.030141709  0.032276053            2 
  171000    1.0063707   -6.9179243    61.697981  0.030067242  0.032203653            5 
  172000   0.99240548   -6.9214783    62.320726   0.03019415  0.032132446            3 
  173000   0.99209682   -6.9206228    62.165281   0.02994474  0.032061244            3 
  174000   0.99975411   -6.8998928    62.565104   0.02996413  0.031989235            1 
  175000   0.98823743   -6.9228594     62.95515  0.029978643  0.031918405            4 
  176000   0.98645428   -6.9132059    63.125316  0.029888881  0.031846204            5 
  177000   0.98037597     -6.97635    63.221928  0.029765503  0.031774038            3 
  178000   0.97008421   -6.9665257    63.363732  0.029664669  0.031700183            3 
  179000    0.9930466   -6.9424477    63.739309  0.029673794  0.031626745            3 
  180000   0.97406764   -6.9674295    63.803989  0.029538884  0.031554256            3 
  181000   0.98202714   -6.9618991    64.040053  0.029484371  0.031479737            5 
  182000   0.99056359   -6.9298303     64.31608  0.029448755   0.03140492            2 
  183000   0.96544915    -6.978403    64.469154  0.029357538  0.031330371            4 
  184000   0.96950627   -6.9419675    64.846553   0.02936891  0.031256565            3 
  185000   0.95452395   -7.0140255    64.916702  0.029241758  0.031182619            7 
  186000   0.97585266   -6.9748431    65.303012  0.029257622  0.031109267            2 
  187000    0.9755842   -6.9773426    65.251816  0.029078349  0.031035581            1 
  188000   0.96115358   -7.0136117     65.47618  0.029023129  0.030959665            3 
  189000   0.97275953   -6.9891648    65.427595  0.028848146  0.030882899            5 
  190000   0.95032451   -6.9598848    65.868789   0.02888982  0.030806225            4 
  191000   0.97403125   -7.0107153    66.527515  0.029025966  0.030731163            4 
  192000   0.97436832   -7.0127544    66.384179  0.028812578  0.030656793            4 
  193000   0.95366677   -6.9890412    66.565172  0.028741439  0.030581598            3 
  194000   0.94991261   -6.9660725    67.087186   0.02881752  0.030508844            3 
  195000   0.94328199   -6.9853209    67.157173  0.028699647  0.030435808            2 
  196000   0.97100889   -6.9980705    67.409303  0.028660418  0.030361582            4 
  197000   0.94978798   -7.0115822    67.391951  0.028507593  0.030286172            7 
  198000   0.95035673   -7.0171596      67.4654  0.028394528  0.030209467            5 
  199000   0.95507358   -7.0067321    67.932958  0.028447637  0.030131977            2 
  200000   0.94618756   -7.0190026    68.067085  0.028361286  0.030056445            4 
  201000   0.94108776   -7.0119854    68.067155  0.028220213  0.029980952            2 
  202000    0.9354073   -7.0393508    68.387114  0.028212506  0.029903985            3 
  203000   0.94914655   -6.9992765    68.643872  0.028178929  0.029827146            4 
  204000   0.94379432   -6.9928161    68.838003  0.028120099  0.029751357            4 
  205000   0.93260319   -6.9979792    69.113653  0.028094981  0.029676342            3 
  206000   0.91402519   -7.0377452    68.940854  0.027888695  0.029601492            6 
  207000   0.92521295   -7.0638047    69.326654  0.027909281  0.029524225            2 
  208000   0.93254884   -7.0565004    69.322876  0.027773588  0.029446484            3 
  209000   0.94694623   -7.0190425      69.3662  0.027657975  0.029368203            6 
  210000   0.92769748   -7.0577288    69.651041  0.027639302  0.029291149            2 
  211000   0.91638829   -7.0552593     69.90245  0.027607603    0.0292142            8 
  212000   0.91669081   -7.0736643    70.036047  0.027529893  0.029137663            4 
  213000   0.92917566   -7.0443712    70.383256  0.027536485  0.029063917            4 
  214000   0.92234617   -7.0170673    70.707971  0.027534256  0.028991223            7 
  215000   0.92488707   -7.0619132    70.850803  0.027461551  0.028918426           15 
  216000   0.92622328   -7.0420272    71.041038  0.027407808   0.02884512            3 
  217000   0.90646862   -7.0687747    70.994738  0.027263724  0.028770752            5 
  218000   0.89478517   -7.0604196    71.304375  0.027257024  0.028696535            4 
  219000   0.91915612    -7.088595    71.342227  0.027146966  0.028622203            5 
  220000   0.90016587   -7.0970922    71.482345  0.027076646  0.028547791            3 
  221000    0.9282844   -7.0958152    71.867292   0.02709928  0.028473415            3 
  222000    0.9276944   -7.0816599    72.096023  0.027063072   0.02839882            8 
  223000   0.93473292   -7.1126296    71.970764  0.026894904  0.028325347            4 
  224000   0.90840046   -7.0984513    72.270241   0.02688625  0.028253378            4 
  225000   0.91425062   -7.0817656    72.456625  0.026835787  0.028181645           12 
  226000   0.92172893   -7.1208163    72.710857  0.026810788  0.028109314            7 
  227000   0.90449304   -7.1287492    72.823964  0.026734201  0.028036425            7 
  228000   0.90571951   -7.0934126    72.880686  0.026637677  0.027964135            3 
  229000   0.90205992   -7.1143974     72.94295  0.026544014  0.027892094            1 
  230000   0.90678269   -7.0978898    73.494548  0.026628459   0.02782073            2 
  231000   0.91187854   -7.1027444    73.765886   0.02661107  0.027749862            2 
  232000   0.89170799   -7.0851807     73.96767  0.026568847  0.027680989            3 
  233000   0.87632359    -7.117467    74.204135   0.02653939  0.027613696            4 
  234000   0.89732817   -7.1373148    74.423504  0.026504097  0.027546342            4 
  235000   0.90641562   -7.1250763    74.773239  0.026515333  0.027479907            4 
  236000   0.89532533   -7.1122734    74.662601  0.026363913  0.027414217            4 
  237000   0.89186087   -7.1506912     74.86196  0.026322771  0.027348383            4 
  238000   0.89934593   -7.1410443    75.064596  0.026283122  0.027280844            3 
  239000   0.88682697     -7.11459    74.987089  0.026146126   0.02721296            4 
  240000   0.88604188   -7.1534806    75.157395  0.026096318  0.027144398            3 
  241000   0.87695202   -7.1705592    75.384283  0.026066488  0.027076357            4 
  242000   0.88804531    -7.139186    75.532594  0.026009846   0.02700874            4 
  243000   0.87618132   -7.1236245    75.587532   0.02592165  0.026941379            2 
  244000   0.87360102    -7.177675    75.682591  0.025847879  0.026873536            5 
  245000   0.88309378   -7.1800247    75.849664  0.025799205  0.026805314            2 
  246000   0.87071616   -7.1485335    75.953137  0.025729382   0.02673719            7 
  247000   0.87024187   -7.1635776    76.182336  0.025702542  0.026668662            9 
  248000   0.86651132   -7.1972657    76.464604  0.025693751  0.026601481            6 
  249000   0.86852406   -7.1543123    76.635555  0.025647776  0.026535679            4 
  250000    0.8668894   -7.1397534    76.955375  0.025651792  0.026470363            2 
  251000   0.86887724   -7.1932007    76.980772  0.025558025  0.026405716            8 
  252000   0.85349051   -7.1921188    77.154923  0.025514194  0.026341427            4 
  253000   0.86569053    -7.212831     77.19131  0.025425333  0.026276738            6 
  254000   0.87816859   -7.2207858    77.201437  0.025328556  0.026211236            4 
  255000   0.84746409    -7.188787    77.325704  0.025269838  0.026144625            5 
  256000   0.87427889   -7.2213361    77.397143  0.025194383  0.026077841            2 
  257000   0.85069832   -7.2265759     77.40964  0.025100402  0.026011312            4 
  258000   0.84720643   -7.2166642    77.505621  0.025034115    0.0259439            4 
  259000   0.83855112   -7.2281637    77.668306  0.024989802  0.025876569            3 
  260000   0.83889575   -7.2121672    77.706249  0.024905849   0.02580892            3 
  261000   0.85470133   -7.2251112    77.491486  0.024741854   0.02574063            2 
  262000   0.85513099   -7.2394281    77.905379  0.024779064  0.025672234            5 
  263000   0.84204797   -7.2654834     77.95792  0.024701496  0.025604107            3 
  264000   0.83393901   -7.2259254     77.77264  0.024549444   0.02553458            6 
  265000   0.83928089   -7.2368351    78.154718  0.024576955  0.025465247            5 
  266000   0.84598408   -7.2206965     78.25384  0.024515614  0.025396524            3 
  267000   0.85809501   -7.2302368    78.434921  0.024480312  0.025327888            3 
  268000   0.83807858   -7.2427668    78.445267  0.024392185  0.025259635            4 
  269000   0.83542771   -7.2151902    78.814911   0.02441602  0.025192927            4 
  270000   0.85340097   -7.2082196    78.800711  0.024321207  0.025126967           10 
  271000   0.82679178   -7.2352786    78.847114   0.02424573  0.025061077            3 
  272000    0.8395442   -7.2503004     78.99338  0.024201403  0.024994009            4 
  273000   0.83992062   -7.2402844    79.405021  0.024238407  0.024927048            4 
  274000   0.81679427   -7.2613999    79.204335   0.02408891  0.024859731            3 
  275000   0.82506336   -7.2820991    79.104446  0.023971044   0.02479226            6 
  276000   0.83076403   -7.2648772    79.470826  0.023994815  0.024724926            5 
  277000   0.83541425   -7.2615677    79.260594  0.023844944  0.024657905            5 
  278000   0.82578725   -7.2733336    79.262046  0.023759606  0.024589993            4 
  279000   0.80946536   -7.2722075     79.50882  0.023748154  0.024521868            3 
  280000   0.82468304   -7.2608637    79.418573   0.02363648  0.024453761            4 
  281000   0.83035932   -7.3255707    79.315901  0.023521916  0.024385119            6 
  282000   0.81297926   -7.3041552    79.649672  0.023537137  0.024316787            5 
  283000   0.81693849   -7.2799974    79.507106  0.023411986  0.024247932            7 
  284000   0.80682532      -7.3009    79.847599   0.02342946  0.024179635            4 
  285000   0.82278446   -7.3111689    79.854711  0.023349331   0.02411161           11 
  286000   0.82617602   -7.3085162    80.071264  0.023330788  0.024043306            5 
  287000   0.80200931   -7.3075135    80.107351  0.023259974  0.023975198            7 
  288000   0.81301265   -7.3456241    79.973594  0.023140508  0.023907389            4 
  289000   0.80981147   -7.2892679    80.279429  0.023148624  0.023839931           11 
  290000   0.78777844   -7.3664547    80.274878  0.023067494    0.0237725            7 
  291000   0.80343393   -7.3560979    80.184407  0.022962316  0.023705348            7 
  292000   0.79705647   -7.3064644    80.485328  0.022969557  0.023637687            5 
  293000   0.80645771   -7.3042745    80.698332  0.022951744  0.023571274            6 
  294000   0.79688089   -7.3132824     80.68564  0.022870079    0.0235056            3 
  295000   0.79900714    -7.330816    80.831598  0.022833785  0.023439793            5 
  296000   0.81646678   -7.3673331    80.899123  0.022775654   0.02337448            5 
  297000   0.78351274   -7.3420105    81.099927  0.022755311  0.023308859            4 
  298000   0.79961062   -7.3231645    81.142831  0.022690948  0.023243562            3 
  299000    0.7966467   -7.3844863    81.162646  0.022620581  0.023178476            9 
  300000   0.79044411   -7.3356831    81.331721  0.022592145  0.023113869            4 
  301000   0.80329708   -7.3527482    81.201542  0.022481047  0.023049395            4 
  302000   0.78011442   -7.3307276    81.333133  0.022442917   0.02298493            4 
  303000   0.78109992   -7.3652414    81.675386  0.022462977  0.022920484            6 
  304000   0.76600184   -7.3641436    81.587223  0.022364919  0.022856369            4 
  305000   0.79790051   -7.3600594    81.689516   0.02231954  0.022792584            5 
  306000    0.7855809   -7.3653321    81.892426  0.022301859  0.022729119            6 
  307000   0.78086495   -7.3667758    81.777923  0.022198133  0.022665986            5 
  308000   0.78103842   -7.3700007    81.845794  0.022144425  0.022602787            4 
  309000   0.77333917   -7.3766084    82.084821  0.022137222  0.022539729            5 
  310000    0.7697281   -7.3980687    82.297126  0.022122883  0.022477272            4 
  311000   0.76771832   -7.3942659     82.36526  0.022070005  0.022415255            3 
  312000   0.79016258    -7.398613    82.421795  0.022014368  0.022353318            4 
  313000   0.76130428   -7.4117271    82.143532   0.02186995  0.022290914            5 
  314000   0.75596865   -7.4098802    82.439158  0.021878757   0.02222821            3 
  315000   0.77003036   -7.3975329    82.315214  0.021776512  0.022165565            6 
  316000   0.77284957   -7.3933173    82.553176  0.021770352  0.022103246            3 
  317000   0.76272902   -7.4145925     82.30575  0.021636632  0.022040554            6 
  318000   0.76457291   -7.4357439    82.239348  0.021551192  0.021977713            5 
  319000   0.76168408   -7.4156569    82.459449  0.021541131   0.02191544            5 
  320000   0.74864489   -7.4007813     82.62195  0.021516133  0.021853297            4 
  321000   0.76440455   -7.4209117    82.715228   0.02147332  0.021791041            7 
  322000   0.74049655   -7.4400258    82.750605  0.021415788  0.021728832           22 
  323000   0.73752686   -7.4184988     82.82879  0.021369657  0.021666616            7 
  324000   0.74251637   -7.4398684    82.627846  0.021252018   0.02160451            7 
  325000   0.77121236   -7.4319995    82.690461  0.021202682  0.021542136           17 
  326000   0.75449521   -7.4868706    82.797107  0.021164905  0.021479936            8 
  327000   0.74604241   -7.4650917    82.663226  0.021066062  0.021417839            7 
  328000   0.77193419   -7.4890579    82.864705  0.021053025  0.021355661            4 
  329000   0.73930779   -7.4627655    82.999118  0.021023079  0.021293776           12 
  330000    0.7289443    -7.468317    83.029154  0.020966958   0.02123203           17 
  331000   0.74203146   -7.4978658    82.988858  0.020893469   0.02117077           14 
  332000   0.76395065   -7.4553769    83.352435  0.020921796  0.021110102            8 
  333000   0.73746615   -7.4769121    83.222094   0.02082635  0.021049297            5 
  334000   0.72784321   -7.4811963    83.272395  0.020776546   0.02098903            9 
  335000    0.7419899   -7.4734218    83.360271  0.020736386   0.02092908           10 
  336000   0.73019832   -7.5024336    83.337763  0.020669088  0.020868816            4 
  337000   0.73775979   -7.4914024    83.397801  0.020622602  0.020808615            8 
  338000   0.73522235   -7.4964692    83.408556   0.02056424  0.020748695            6 
  339000   0.72854823   -7.5110821    83.494414  0.020524684  0.020688837           12 
  340000   0.71091233   -7.5160722    83.661047  0.020505159   0.02062915            8 
  341000   0.73245175   -7.4938625    83.591375     0.020428  0.020569375            4 
  342000   0.72012977    -7.487653     83.70314  0.020395502  0.020510038           15 
  343000   0.71593804   -7.4864864    83.779592  0.020354614  0.020451255            9 
  344000   0.72018419   -7.4983538     83.63268  0.020259855  0.020392267            5 
  345000   0.71223607    -7.498317    83.802544   0.02024216  0.020333515            6 
  346000    0.7353141   -7.5083182    83.800528  0.020183171  0.020274636            7 
  347000   0.70874093   -7.5156385    83.707646  0.020102701  0.020215723            9 
  348000   0.71216568   -7.5231864    83.731835  0.020050727  0.020156718            6 
  349000   0.70416386     -7.49585     83.81373  0.020012829  0.020097745            6 
  350000   0.69885308   -7.5313746    83.664532  0.019920127  0.020038667            4 
  351000   0.71404846   -7.5294593    83.810592  0.019898051  0.019979671            6 
  352000   0.70109432   -7.5562347    83.672478  0.019808825  0.019920949            4 
  353000   0.70294636   -7.5689366    83.839936  0.019792242  0.019862428            5 
  354000   0.71000467   -7.5318575    83.879322  0.019745603  0.019803921            5 
  355000   0.69879321   -7.5583341    84.035154  0.019726562  0.019745249            7 
  356000   0.69842226   -7.5710949    83.778603  0.019611096  0.019686802            7 
  357000   0.70386061   -7.5495901    83.899768  0.019584446  0.019628274            5 
  358000   0.69607505   -7.5802455    83.753199  0.019495624  0.019569863           10 
  359000    0.6871741   -7.5927129    83.865726  0.019467439  0.019511331           13 
  360000   0.68931853   -7.5809151    84.014035  0.019447693  0.019452904            5 
  361000   0.67857257   -7.5783982    83.886095  0.019364288  0.019394587            5 
  362000   0.69761382   -7.5581169    83.940569  0.019323335  0.019336506            7 
  363000   0.69904698   -7.5572214    84.048546  0.019294891  0.019278793            6 
  364000   0.67359362   -7.5642947    84.088718   0.01925108  0.019221342            7 
  365000   0.68201878   -7.6069546      84.1371  0.019209383  0.019163871            7 
  366000   0.68046311   -7.6074231    83.999126  0.019125484  0.019106321            7 
  367000   0.69696925   -7.6019637    84.061199  0.019087466  0.019048945            5 
  368000    0.6797559   -7.6057005    84.041884  0.019031224  0.018991575           19 
  369000   0.68192381   -7.6027074    83.914996  0.018950993  0.018934259           12 
  370000   0.67381921    -7.601616    83.966328  0.018911335  0.018876937            8 
  371000   0.65588071   -7.6218421    84.055364   0.01888036  0.018819701            9 
  372000   0.65604794   -7.6154775    83.964309  0.018809209  0.018762497            7 
  373000   0.67512241   -7.6377056    84.041045  0.018775926  0.018705589            6 
  374000   0.66696323   -7.6362346     84.04657  0.018726954  0.018648794            5 
  375000   0.66221663   -7.6242557    84.079239  0.018684275  0.018592098            5 
  376000   0.66665952   -7.6482755    84.032616   0.01862425   0.01853512            8 
  377000   0.67867257   -7.6275853    83.911023  0.018547971  0.018478208           20 
  378000   0.67393833   -7.6256476    83.875543  0.018491081  0.018421323            8 
  379000   0.64735737   -7.6567249    83.951387  0.018458968  0.018364516            6 
  380000   0.65085141   -7.6305743    84.058767   0.01843394  0.018307904            3 
  381000   0.65374405   -7.6492531     83.89208  0.018349099  0.018251093            6 
  382000   0.65270487   -7.6691341    84.037895  0.018332874  0.018194426            7 
  383000   0.64544233   -7.6590031    83.832248  0.018240263  0.018138164            5 
  384000   0.65700358   -7.6470959     83.90852  0.018209314  0.018082126            6 
  385000    0.6580549   -7.6317264    83.960293  0.018173223  0.018026069           10 
  386000   0.65487447   -7.6822621    84.041123  0.018143593   0.01797013           10 
  387000    0.6408543     -7.66483    83.883952  0.018062866  0.017914409           13 
  388000   0.64496977      -7.6866    84.167189  0.018077145  0.017859063           11 
  389000   0.64113462   -7.6670098    84.013172   0.01799768   0.01780382           10 
  390000   0.65021593   -7.6955235    84.024833  0.017954024  0.017748819            8 
  391000   0.62625426   -7.6733853    83.916428  0.017885002  0.017693718            4 
  392000   0.64445837   -7.6859872     83.92208  0.017840578  0.017638467           12 
  393000   0.64491928   -7.6930189    83.923948  0.017795579  0.017583389            3 
  394000   0.63684273   -7.7098688    83.970822  0.017760326  0.017528284            6 
  395000    0.6327168   -7.7079149    83.979426  0.017717179  0.017473394            9 
  396000   0.63531837   -7.7034789    83.975182  0.017671545  0.017418703            8 
  397000   0.63587169   -7.7077371    84.117029  0.017656807  0.017364194            9 
  398000   0.62149254   -7.7098886    83.948506  0.017577158  0.017309835            6 
  399000   0.62512977   -7.7057057    83.883821  0.017519595  0.017255701           10 
  400000   0.62809048   -7.6943503     83.80681  0.017459752  0.017201754           10 
  401000   0.61985363   -7.7129409    83.820641  0.017419086  0.017147716            5 
  402000    0.6296706    -7.706248    83.869347  0.017385851  0.017093892            8 
  403000   0.63448642   -7.7118169    83.968877  0.017363291  0.017040247            9 
  404000    0.6277019   -7.7235331    84.035397  0.017334034  0.016987133           11 
  405000   0.62244155   -7.7165682    84.092684  0.017303021  0.016934049            9 
  406000   0.60555535   -7.7076355    83.918208  0.017224591  0.016881286           10 
  407000     0.597474    -7.730079    84.006199  0.017200286  0.016828436           14 
  408000   0.61388131   -7.7449683     84.02818  0.017162618  0.016775938            7 
  409000     0.598099   -7.7268514    83.941544  0.017103004  0.016723531            8 
  410000   0.59484417   -7.7314521    83.990994   0.01707134  0.016671406            6 
  411000   0.60246042   -7.7294278    83.950829   0.01702166  0.016619317            7 
  412000   0.59543586   -7.7302895    83.858238  0.016961618  0.016567291            8 
  413000   0.60373694   -7.7299475      83.8775  0.016924435  0.016515294            9 
  414000    0.5937029   -7.7530163    83.822968  0.016872578  0.016463199            6 
  415000   0.60625689   -7.7679803     83.81024  0.016829366  0.016411273           10 
  416000   0.60806032   -7.7527497    83.921093  0.016811116   0.01635947           11 
  417000   0.59785813   -7.7488561    83.926938   0.01677197  0.016307962           12 
  418000   0.59390664   -7.7572528    83.689126  0.016684435  0.016256405           13 
  419000   0.59685812   -7.7538321    83.604658  0.016627816  0.016204954           13 
  420000   0.59961426   -7.7885405    83.702975  0.016607733  0.016153719           13 
  421000   0.59488504   -7.7859754    83.742819  0.016576172  0.016102468           15 
  422000    0.6011713   -7.7722103     83.70127  0.016528687  0.016051524           11 
  423000    0.5829931   -7.7685565    83.803774  0.016509806  0.016000707           16 
  424000   0.59229652   -7.7979034    83.766523  0.016463546  0.015950001           13 
  425000     0.580659   -7.7739244    83.787143  0.016428852  0.015899516           12 
  426000   0.59381663   -7.7701414    83.790834  0.016391008  0.015849286            8 
  427000   0.58098614   -7.7743608    83.664551  0.016327976  0.015799209           13 
  428000   0.59146041   -7.8087133    83.735242  0.016303591  0.015749127           17 
  429000   0.58299957   -7.8045998    83.732245  0.016265005  0.015699312           18 
  430000   0.57229336   -7.8074496    83.832366  0.016246583  0.015649751           16 
  431000   0.58908936   -7.7936641    83.747348  0.016192449  0.015600233            5 
  432000   0.55808174   -7.8066888    83.655046  0.016137162  0.015550872           10 
  433000   0.58628298   -7.8189408    83.648501  0.016098634  0.015501476            9 
  434000   0.57404708   -7.8088896    83.524946  0.016037816  0.015452232           15 
  435000   0.57145275   -7.8034008    83.726949  0.016039645  0.015403087           16 
  436000   0.56766702   -7.8288802    83.704714  0.015998607  0.015354143           10 
  437000   0.56736852   -7.8287432    83.653834  0.015952295  0.015305469           15 
  438000   0.56553343   -7.8243843    83.634407  0.015912178  0.015256955            4 
  439000   0.56548402   -7.8351134    83.708013  0.015889904  0.015208749           14 
  440000   0.56637463   -7.8393586    83.646545  0.015842149   0.01516069           18 
  441000   0.56718031   -7.8323963    83.664129  0.015809548  0.015112819           12 
  442000   0.56171319   -7.8098266     83.73451  0.015787049  0.015065059            8 
  443000   0.56162834   -7.8558208    83.618528  0.015729595  0.015017406           13 
  444000    0.5647797   -7.8283932    83.474588  0.015667152  0.014969857            9 
  445000   0.56088304   -7.8349905    83.611139  0.015657517  0.014922614           10 
  446000     0.551618   -7.8494858    83.547866  0.015610588  0.014875491            9 
  447000   0.56796797   -7.8669429    83.531572  0.015572627  0.014828436           10 
  448000   0.54962818   -7.8451393    83.572547  0.015545489  0.014781521            6 
  449000   0.55014029   -7.8784931    83.637028  0.015522834  0.014734782            8 
  450000   0.54252525    -7.863385    83.580342  0.015477841  0.014688089           17 
  451000   0.54326053   -7.8714361    83.487866  0.015426435  0.014641715            5 
  452000   0.53526463   -7.8622374    83.657093  0.015423505  0.014595399            5 
  453000   0.54803146    -7.884052    83.425219  0.015346803  0.014549179           18 
  454000   0.54093793   -7.8835944    83.727422  0.015368469  0.014503147            8 
  455000   0.54524538   -7.8795273    83.625326  0.015315994  0.014457275            6 
  456000   0.53630474   -7.8798167    83.592502  0.015276407  0.014411651            6 
  457000   0.54792552    -7.864015    83.509506  0.015227846   0.01436612            8 
  458000    0.5422867   -7.8780693    83.417425  0.015177843  0.014320728            4 
  459000   0.54862097   -7.8845884    83.506495  0.015160947  0.014275582            8 
  460000   0.53653684    -7.888434    83.441816  0.015116271   0.01423053            8 
  461000   0.53373565   -7.9049018      83.3279  0.015062889  0.014185661           12 
  462000   0.53362069   -7.8921159    83.742796  0.015105122  0.014141074            6 
  463000   0.53779704   -7.8998789    83.409024  0.015012423  0.014096576            9 
  464000   0.52469173   -7.9073051    83.390964  0.014976825   0.01405215            6 
  465000   0.52544821   -7.9015895    83.419742  0.014949775  0.014007912            8 
  466000   0.51848001   -7.8969579    83.427825  0.014919139  0.013963776            8 
  467000   0.51837255   -7.9125204    83.320619  0.014868062  0.013919818           12 
  468000    0.5191572   -7.9150255    83.310875  0.014834557  0.013875956            6 
  469000   0.52708882   -7.9190203    83.349133  0.014809725  0.013832356            6 
  470000    0.5230589   -7.9093354    83.372535  0.014782364  0.013788859            7 
  471000   0.52677316   -7.9144394    83.329314  0.014743332   0.01374557           13 
  472000   0.51936104   -7.9316716    83.474974  0.014737813  0.013702459            9 
  473000    0.5225637   -7.9216317     83.30075   0.01467596  0.013659445           10 
  474000    0.5185783   -7.9317242    83.354493  0.014654447  0.013616517            7 
  475000   0.50769452     -7.92555    83.467038   0.01464334  0.013573903            8 
  476000   0.50956482   -7.9465307    83.427877  0.014605721  0.013531365            5 
  477000   0.50699199   -7.9353142    83.310717  0.014554633  0.013489018           10 
  478000    0.4990715   -7.9252705    83.574154  0.014570111  0.013446799           10 
  479000   0.48709136   -7.9411047     83.24256  0.014482004  0.013404611           10 
  480000   0.50931386   -7.9524821     83.32984  0.014466986  0.013362661           20 
  481000   0.49772053   -7.9433344    83.333722  0.014437582  0.013320824            7 
  482000   0.50492279   -7.9610082    83.286538  0.014399471  0.013279204            4 
  483000   0.49947829   -7.9458165    83.355388  0.014381537  0.013237663            5 
  484000   0.47833597   -7.9637393    83.339225   0.01434904  0.013196318            8 
  485000   0.49888521    -7.965383    83.263787  0.014306493  0.013155076           17 
  486000   0.49229147   -7.9528185    83.333163  0.014288951  0.013113999           11 
  487000   0.48336027   -7.9724598    83.202731  0.014237291  0.013073091            9 
  488000   0.49174618   -7.9673025    83.231392  0.014213011   0.01303232            5 
  489000   0.48226535   -7.9631292      83.1835  0.014175784  0.012991757           10 
  490000   0.47759914   -7.9798825    83.212631  0.014151808  0.012951325            7 
  491000    0.4760706   -7.9720357    83.135579  0.014109908  0.012910908            9 
  492000   0.47557745   -7.9748384    83.372987  0.014121441  0.012870692            8 
  493000    0.4894647   -7.9818004    83.347952  0.014088565  0.012830628            9 
  494000   0.49269199   -7.9745126    83.166645  0.014029461  0.012790832           13 
  495000   0.47497337    -7.975672    83.048967  0.013981308  0.012751078           12 
  496000   0.47339607   -7.9795638    83.083412  0.013958907  0.012711432            6 
  497000   0.48704181    -7.984307     83.07614  0.013929601  0.012671905            8 
  498000   0.48104963   -7.9725172    83.180008  0.013919011  0.012632547           12 
  499000    0.4735317   -7.9855243    83.161171  0.013887971  0.012593331            6 
  500000   0.46435464    -7.979123    82.994428  0.013832405   0.01255427            9 
  501000   0.46986911   -7.9995296    83.099243  0.013822229  0.012515354            8 
  502000   0.46332531    -8.002516    83.090765  0.013793288  0.012476554            8 
  503000     0.472777    -8.009674    83.131064  0.013772542  0.012438016           11 
  504000   0.46213415   -7.9932119    83.182911  0.013753788  0.012399578            9 
  505000   0.46148495   -7.9979699    82.982404  0.013693466  0.012361284           17 
  506000    0.4569103   -7.9922874    82.999364  0.013669197  0.012323101           10 
  507000   0.45703275   -8.0027469    83.141038  0.013665522   0.01228516           13 
  508000   0.46544593   -8.0143917     83.04395  0.013622695  0.012247247            8 
  509000   0.45247004   -7.9984265    83.059731  0.013598515  0.012209465           12 
  510000   0.45463542   -8.0075352    83.094602  0.013577549  0.012171855            7 
  511000   0.45061473   -8.0230121     83.03941  0.013541978  0.012134388           14 
  512000   0.44420773   -8.0365271    83.084108  0.013522804  0.012097034            5 
Loop time of 1116.45 on 48 procs for 500000 steps with 4000 atoms

Performance: 77388.430 tau/day, 447.850 timesteps/s
99.4% CPU use with 48 MPI tasks x no OpenMP threads

MPI task timing breakdown:
Section |  min time  |  avg time  |  max time  |%varavg| %total
---------------------------------------------------------------
Pair    | 69.224     | 73.826     | 79.129     |  23.8 |  6.61
Neigh   | 7.107      | 7.389      | 7.8511     |   5.8 |  0.66
Comm    | 62.163     | 69.57      | 73.938     |  31.6 |  6.23
Output  | 0.82174    | 0.82231    | 0.83116    |   0.1 |  0.07
Modify  | 947.26     | 953.4      | 957.1      |   6.9 | 85.40
Other   |            | 11.43      |            |       |  1.02

Nlocal:        83.3333 ave          90 max          78 min
Histogram: 4 5 7 7 4 8 3 4 4 2
Nghost:        1875.77 ave        1893 max        1857 min
Histogram: 2 1 3 10 4 8 11 3 4 2
Neighs:        11754.4 ave       13431 max       10604 min
Histogram: 5 5 6 6 10 7 5 2 0 2
FullNghs:      23509.9 ave       25758 max       21716 min
Histogram: 4 3 7 9 4 8 6 3 2 2

Total # of neighbors = 1128475
Ave neighs/atom = 282.11875
Neighbor list builds = 26857
Dangerous builds = 0

#clear
#
#next RN
#
#jump SELF
Total wall time: 0:18:39
