
units lj                  # Use reduced LJ style units
atom_style atomic         # Uncharged point particles
atom_modify map hash      # Needed for indexing of clusters etc
                          # Used to be able to find where atoms are in relation to each other.

lattice fcc 1.0 spacing 1 1 1
Lattice spacing in x,y,z = 1.5874011 1.5874011 1.5874011
region box block 0 10 0 10 0 10 units lattice
create_box 2 box
Created orthogonal box = (0.0000000 0.0000000 0.0000000) to (15.874011 15.874011 15.874011)
  3 by 4 by 4 MPI processor grid
create_atoms 1 box
Created 4000 atoms
  using lattice units in orthogonal box = (0.0000000 0.0000000 0.0000000) to (15.874011 15.874011 15.874011)
  create_atoms CPU = 0.002 seconds
set type 1 type/fraction 2 0.12 78393
Setting atom values ...
  508 settings made for type/fraction
mass 1 1.0
mass 2 1.0
pair_style lj/cut  3.5
pair_modify tail  yes
pair_coeff 1  1  1.0  1.0   # Intearaction between 1 and 1 set with epsilon = 1 and sigma = 1
pair_coeff 1  2  1.5  0.8
pair_coeff 2  2  0.5  0.88

write_data data.0
System init for write_data ...
Neighbor list info ...
  update every 1 steps, delay 10 steps, check yes
  max neighbors/atom: 2000, page size: 100000
  master list distance cutoff = 3.8
  ghost atom cutoff = 3.8
  binsize = 1.9, bins = 9 9 9
  1 neighbor lists, perpetual/occasional/extra = 1 0 0
  (1) pair lj/cut, perpetual
      attributes: half, newton on
      pair build: half/bin/atomonly/newton
      stencil: half/bin/3d
      bin: standard
WARNING: Not all mixed pair coeffs generated from mixing. Use write_data with 'pair ij' option to store all pair coeffs. (../write_data.cpp:312)


#############################
#   M E L T   S Y S T E M   #
#############################

velocity all create 2.4 9622624 mom yes dist gaussian # Assign velocities
                                                    # Temperature 2.4, random number seed, zero linear momentum
                                                                                # Gaussian distribution

timestep 0.002   # simulation timestep
thermo 1000       # output thermodynamic data every 1000 steps bf 100

# Define a fix  in this case with index 1 applied to all
# particles in the simulation. This fix is for simulations
# in the anisotropic NPT ensemble. Note that we use the MTK
# correction.
fix 1 all npt temp 2.4 2.4 0.1 iso 5.68 5.68 0.5 mtk yes tchain 5 pchain 5 # Use NPT ensemble
                                                                         # Set temperature and pressure and damping
                                                                         # Numbers of thermostats in chain and in barostat
run 10000          # run for 10000 steps
Per MPI rank memory allocation (min/avg/max) = 3.642 | 3.644 | 3.648 Mbytes
Step Temp E_pair E_mol TotEng Press Volume 
       0          2.4   -7.5560252            0   -3.9569252   -3.1663949         4000 
    1000    2.3663826   -4.6509242            0   -1.1022377    5.6902349    4760.0892 
    2000    2.4699531   -4.6687806            0  -0.96477715    5.5960692    4771.1335 
    3000    2.4146137   -4.7150028            0   -1.0939877    5.4134412    4765.0237 
    4000    2.4155548   -4.6826171            0   -1.0601908    5.6969533    4749.5876 
    5000    2.4193094   -4.6845286            0   -1.0564717    5.6659293    4754.6962 
    6000    2.3721816   -4.6536493            0   -1.0962665    5.5840407    4774.2386 
    7000    2.3345908   -4.6348815            0   -1.1338709    5.7867336    4747.9829 
    8000    2.4024423   -4.6558521            0   -1.0530896    5.6593028    4767.3253 
    9000    2.3674626   -4.6139265            0   -1.0636204    5.7515508    4778.1928 
   10000    2.4408927   -4.6225468            0  -0.96212312    5.8185358    4765.2128 
Loop time of 2.23684 on 48 procs for 10000 steps with 4000 atoms

Performance: 772518.366 tau/day, 4470.592 timesteps/s
99.6% CPU use with 48 MPI tasks x no OpenMP threads

MPI task timing breakdown:
Section |  min time  |  avg time  |  max time  |%varavg| %total
---------------------------------------------------------------
Pair    | 0.92627    | 0.98318    | 1.1472     |   4.6 | 43.95
Neigh   | 0.18939    | 0.19943    | 0.22683    |   1.9 |  8.92
Comm    | 0.62379    | 0.78712    | 0.8559     |   5.4 | 35.19
Output  | 0.00024168 | 0.0002461  | 0.000321   |   0.0 |  0.01
Modify  | 0.21404    | 0.25234    | 0.30086    |   5.0 | 11.28
Other   |            | 0.01452    |            |       |  0.65

Nlocal:        83.3333 ave          92 max          73 min
Histogram: 1 1 4 6 9 9 8 4 5 1
Nghost:        1467.77 ave        1491 max        1442 min
Histogram: 1 3 5 6 9 5 7 4 4 4
Neighs:        8000.52 ave        9037 max        6970 min
Histogram: 3 6 1 8 7 6 6 6 4 1

Total # of neighbors = 384025
Ave neighs/atom = 96.006250
Neighbor list builds = 902
Dangerous builds = 197

# Equilibrate just above the melting temperature to avoid step fn in T

fix 1 all npt temp 1.25 1.25 0.1 iso 5.68 5.68 0.5 mtk yes tchain 5 pchain 5
run 2000
Per MPI rank memory allocation (min/avg/max) = 3.642 | 3.644 | 3.648 Mbytes
Step Temp E_pair E_mol TotEng Press Volume 
   10000    2.4408927   -4.6225468            0  -0.96212312    5.8185358    4765.2128 
   11000    1.2418597   -6.2403164            0   -4.3779926    5.6989181    3926.4998 
   12000     1.247177   -6.2697599            0   -4.3994621    5.7038778    3915.7735 
Loop time of 0.489917 on 48 procs for 2000 steps with 4000 atoms

Performance: 705425.060 tau/day, 4082.321 timesteps/s
99.7% CPU use with 48 MPI tasks x no OpenMP threads

MPI task timing breakdown:
Section |  min time  |  avg time  |  max time  |%varavg| %total
---------------------------------------------------------------
Pair    | 0.20845    | 0.22913    | 0.27936    |   2.9 | 46.77
Neigh   | 0.031709   | 0.033787   | 0.040273   |   0.9 |  6.90
Comm    | 0.12393    | 0.17265    | 0.2008     |   4.0 | 35.24
Output  | 4.9084e-05 | 5.0194e-05 | 6.6052e-05 |   0.0 |  0.01
Modify  | 0.041224   | 0.050008   | 0.074093   |   3.8 | 10.21
Other   |            | 0.004292   |            |       |  0.88

Nlocal:        83.3333 ave          91 max          74 min
Histogram: 1 2 5 6 6 8 6 5 8 1
Nghost:        1662.58 ave        1690 max        1641 min
Histogram: 2 7 5 5 12 5 7 3 1 1
Neighs:        9730.35 ave       10613 max        8471 min
Histogram: 1 3 3 7 4 5 5 8 6 6

Total # of neighbors = 467057
Ave neighs/atom = 116.76425
Neighbor list builds = 144
Dangerous builds = 14

#############################
# L I N E A R  Q U E N C H  #
#############################

# Define solid atoms. This closely follows ten Wolde  Ruiz-Montero and Frenkel  Faraday Discuss  1996  104  93-110
# Compute components of the per-atom q6 vector
compute q6 all orientorder/atom degrees 1 6 components 6 nnn NULL cutoff 1.3 # compute the Q6 parameter.
                                                                             # Use all neighbours within 1.3 unit cell.

# get number of connections
compute coord_number all coord/atom orientorder q6 0.5

# An atom is solid if it has 8 or more connections (of a possible 14)
variable is_solid atom c_coord_number>=8
group solid dynamic all var is_solid    # Must be dynamic to update
dynamic group solid defined

# do clustering
compute cluster solid cluster/atom 1.3 # Create a cluster where all atoms within are solid and max 1.3 units from another member

# define chunks one chunk per cluster
compute clus_chunks solid chunk/atom c_cluster nchunk every compress yes  # Says which atoms are in which chunk

# count the size of each chunk
compute size_chunks solid property/chunk clus_chunks count


# Find the maximum entry in the vector of chunk sizes
variable max_n equal max(c_size_chunks)


# Thermo style which includes this variable
# thermo_style custom step temp pe vol v_max_n

thermo ${N}  # Print the thermo information every 100 steps
thermo 1000  

# Reset the npt fix at a lower temperature (below freezing)
fix 1  all npt temp  ${temp} ${temp}  0.1  iso  5.68  5.68  0.5  mtk yes tchain  5  pchain  5
fix 1  all npt temp  0.45 ${temp}  0.1  iso  5.68  5.68  0.5  mtk yes tchain  5  pchain  5
fix 1  all npt temp  0.45 0.45  0.1  iso  5.68  5.68  0.5  mtk yes tchain  5  pchain  5

dump dmp2 all dcd ${N} traj.dcd
dump dmp2 all dcd 1000 traj.dcd


compute msd all msd com yes
variable twopoint equal c_msd[4]/6/(step*dt+1.0e-6)
fix 9 all vector 10 c_msd[4]
variable fit equal slope(f_9)/6/(10*dt)
thermo_style custom step temp pe c_msd[4] v_twopoint v_fit v_max_n

fix 1 all npt temp 1.25 ${temp} 0.1 iso 5.68 5.68 0.5 mtk yes tchain 5 pchain 5
fix 1 all npt temp 1.25 0.45 0.1 iso 5.68 5.68 0.5 mtk yes tchain 5 pchain 5
run 2000000 # 5000000  # Run for this many steps
Neighbor list info ...
  update every 1 steps, delay 10 steps, check yes
  max neighbors/atom: 2000, page size: 100000
  master list distance cutoff = 3.8
  ghost atom cutoff = 3.8
  binsize = 1.9, bins = 9 9 9
  4 neighbor lists, perpetual/occasional/extra = 1 3 0
  (1) pair lj/cut, perpetual
      attributes: half, newton on
      pair build: half/bin/atomonly/newton
      stencil: half/bin/3d
      bin: standard
  (2) compute orientorder/atom, occasional
      attributes: full, newton on
      pair build: full/bin/atomonly
      stencil: full/bin/3d
      bin: standard
  (3) compute coord/atom, occasional
      attributes: full, newton on
      pair build: full/bin/atomonly
      stencil: full/bin/3d
      bin: standard
  (4) compute cluster/atom, occasional
      attributes: full, newton on
      pair build: full/bin/atomonly
      stencil: full/bin/3d
      bin: standard
Per MPI rank memory allocation (min/avg/max) = 9.755 | 9.759 | 9.764 Mbytes
Step Temp PotEng c_msd[4] v_twopoint v_fit v_max_n 
   12000     1.247177   -6.2697599 1.1832914e-33 8.2173008e-36 8.3333333e+20            2 
   13000    1.2470281   -6.2703431   0.54068824 0.0034659501  0.044327084            2 
   14000    1.2615561   -6.2208527    1.1086069 0.0065988504  0.045151362            2 
   15000    1.2555265   -6.2997618    1.6503646  0.009168692  0.045505414            2 
   16000    1.2767764   -6.3107353    2.1687803  0.011295731  0.045310375            2 
   17000     1.247337   -6.3050171    2.6916127   0.01319418  0.044857604            2 
   18000    1.2730698   -6.2705227    3.3276583  0.015405825  0.045047443            3 
   19000    1.2258992   -6.2908832    3.8747936  0.016994708   0.04568427            2 
   20000     1.248313   -6.3302006    4.4075875  0.018364947  0.045812177            5 
   21000    1.2725706   -6.2587321    4.9681249  0.019714781  0.045985134            5 
   22000    1.2242943    -6.298391    5.5426972  0.020995065  0.046051796            2 
   23000    1.2385681    -6.273799    6.0678455  0.021984947  0.046080167            2 
   24000    1.2385908   -6.2865897    6.5712044  0.022816682  0.046039899            1 
   25000    1.2701604   -6.2753347    7.1801878  0.023933959  0.045983837            2 
   26000    1.2007763   -6.3039184    7.7031596  0.024689614  0.045897063            2 
   27000    1.2277263   -6.2758931    8.1973227  0.025300378  0.045822873            2 
   28000    1.2365025   -6.2659851    8.7362781  0.026000827  0.045707918            1 
   29000    1.2426482   -6.3019416    9.1396046  0.026263231  0.045530682            5 
   30000    1.2536011   -6.2623067    9.6807114  0.026890865  0.045299003            2 
   31000     1.225923   -6.3261908    10.117347   0.02719717  0.045043627            1 
   32000    1.2337284   -6.2848909    10.730696   0.02794452  0.044848318            4 
   33000    1.2502864   -6.3103319    11.322919  0.028593228  0.044749915            1 
   34000    1.2301042   -6.3121139    11.933018  0.029247593   0.04476914            3 
   35000    1.2162091   -6.2680107    12.374287  0.029462587  0.044775051            3 
   36000    1.2350553   -6.2982624     12.88661  0.029830115  0.044726316            2 
   37000    1.2313686   -6.2916783    13.331438  0.030025761  0.044610084            2 
   38000    1.2380993   -6.3174698    13.871907  0.030420848  0.044516484            3 
   39000    1.2143293   -6.3172243    14.488887  0.030959159  0.044468822            2 
   40000    1.2369362   -6.3128812    14.903993  0.031049984  0.044408222            2 
   41000    1.2530861   -6.2952683    15.365909  0.031231522  0.044322699            6 
   42000    1.2480584    -6.331164    15.815344  0.031379651  0.044218302            4 
   43000    1.2348071   -6.3138945    16.318134  0.031624291  0.044094957            2 
   44000    1.2230646   -6.3366976    16.931833  0.032067866  0.043996875            1 
   45000     1.223329   -6.2804427    17.508252  0.032422689  0.043945195            1 
   46000    1.2297139   -6.3234546    17.857569  0.032350667   0.04385791            2 
   47000       1.2426   -6.3411676    18.457528  0.032726113  0.043794453            3 
   48000    1.2337985   -6.3092035    18.993105  0.032974141  0.043740745            5 
   49000    1.2268567   -6.2958222    19.446262  0.033071873   0.04369102            2 
   50000    1.2417446   -6.2904384    19.995571  0.033325951  0.043653532            1 
   51000    1.2224856   -6.3494571    20.628601  0.033706864  0.043633842            1 
   52000    1.2273269   -6.3230874    21.130724  0.033863339   0.04362657            3 
   53000    1.2461142   -6.3194341    21.664013  0.034062912  0.043618353            3 
   54000    1.2426248   -6.3162851    22.145674  0.034175422  0.043613108            2 
   55000    1.2081645   -6.3181395    22.767011  0.034495472  0.043606748            3 
   56000    1.2261796   -6.2947014     23.28268  0.034646845  0.043611846            2 
   57000    1.2213954    -6.327993    23.669707  0.034604835  0.043593572            2 
   58000    1.1947998   -6.3315518     24.24303  0.034831939  0.043586998            1 
   59000    1.2228936    -6.303258    24.903678  0.035174687  0.043589555            1 
   60000    1.2143252   -6.3068036    25.396428  0.035272817  0.043613041            5 
   61000    1.2139254   -6.3431166    25.805331  0.035253184  0.043623953            3 
   62000    1.2409093   -6.3593288    26.390144  0.035470623  0.043622396            1 
   63000    1.2358775   -6.3219268    26.798756  0.035448089  0.043620853            3 
   64000    1.2104877   -6.2779282    27.317693  0.035569913  0.043588179            2 
   65000    1.2132464   -6.3008871    27.681929  0.035489652  0.043564338            3 
   66000    1.2611816   -6.3103246    28.182074  0.035583426  0.043526908            1 
   67000    1.2349891   -6.3668755    28.798915  0.035819546  0.043507058            1 
   68000    1.2076286   -6.3226511    29.309321  0.035918285  0.043481475            1 
   69000     1.219205   -6.3548042    29.790717  0.035979127  0.043462192            3 
   70000    1.2049565   -6.3160371    30.432873   0.03622961  0.043455005            2 
   71000    1.2136727   -6.3275213    30.903655  0.036271895  0.043452856            1 
   72000    1.2487675   -6.3654466    31.405757  0.036349255  0.043443847            2 
   73000    1.2393909   -6.3111014    32.188471   0.03674483  0.043452928            2 
   74000    1.2092547   -6.3187991    32.614717  0.036728284  0.043463994            1 
   75000    1.2309301   -6.3425772    33.094106  0.036771229  0.043458301            3 
   76000    1.2236094   -6.3099672     33.61043  0.036853542   0.04345602            1 
   77000    1.2324731   -6.3266534    34.098234  0.036902851  0.043459449            2 
   78000    1.2225402   -6.3511125    34.682739  0.037054208  0.043451065            2 
   79000    1.2490309   -6.2936612    35.389155  0.037330332   0.04345809            2 
   80000    1.2380155   -6.3422728    35.941999  0.037439582  0.043476328            2 
   81000    1.2263922   -6.3139463    36.616354  0.037671146  0.043506739            2 
   82000    1.2278945   -6.3170436    37.046443  0.037648824  0.043543433            6 
   83000    1.2255318   -6.3196543    37.571707  0.037722597  0.043571181            2 
   84000    1.2150072   -6.3450125    38.026834  0.037725033  0.043593099            3 
   85000    1.2216912    -6.347426    38.488081  0.037733413  0.043604138            2 
   86000    1.2223194   -6.3279275     38.87805  0.037672529  0.043605919            3 
   87000     1.245117   -6.3275756    39.492696  0.037828253  0.043609701            4 
   88000    1.2102185   -6.3297699    40.104792  0.037978023   0.04361565            2 
   89000    1.2079727   -6.3567934    40.635578  0.038048293  0.043627682            1 
   90000    1.2017447   -6.3347499    41.166814   0.03811742  0.043638878            2 
   91000    1.2369871   -6.3498888    41.632559  0.038125054  0.043638545            4 
   92000    1.2002764   -6.3719712      42.0265  0.038067481  0.043637984            2 
   93000    1.2294492   -6.3290208    42.570991  0.038146049  0.043632394            3 
   94000    1.2015378   -6.3261522     43.19345  0.038292065  0.043633135            4 
   95000    1.1917079   -6.3188044    43.489274  0.038148486  0.043626195            3 
   96000    1.2139393   -6.3737325    44.164991  0.038337666  0.043614595            3 
   97000    1.2431013    -6.345857     44.62871  0.038340816  0.043607413            2 
   98000      1.22293   -6.3656665     45.12678  0.038373112  0.043600425            4 
   99000    1.2118359   -6.3471106    45.426492  0.038237788  0.043590648            2 
  100000    1.2063907   -6.3780145    45.832983  0.038194152  0.043572421            3 
  101000    1.2331956   -6.3506012    46.366827  0.038256457  0.043551259            2 
  102000    1.2151006   -6.3788822    46.766546  0.038207962   0.04352573            2 
  103000    1.1990868   -6.3611554    47.050879  0.038067054  0.043498454            2 
  104000    1.2222096    -6.312121    47.699975  0.038221134   0.04346941            4 
  105000    1.2118124   -6.3540127    48.484571  0.038479818  0.043442795            5 
  106000    1.2040191   -6.3651263    48.806713  0.038370057  0.043420646            2 
  107000    1.2021772   -6.2955506    49.433352  0.038499495   0.04340123            1 
  108000    1.2251087   -6.3272199    49.674851   0.03832936   0.04337151            2 
  109000    1.2069165   -6.3009114    50.451597  0.038571557   0.04334686            3 
  110000    1.2093795   -6.3757979    50.589548  0.038325415  0.043323187            3 
  111000    1.2349547   -6.3621526    51.329744  0.038535843  0.043294501            3 
  112000     1.214896   -6.3621611    51.493358   0.03831351  0.043263061            4 
  113000     1.194748   -6.3462815    52.192003  0.038489677  0.043227568            2 
  114000     1.214174   -6.3481012    52.888219  0.038660978  0.043198261            3 
  115000    1.1849395   -6.3330708    53.355132  0.038663139  0.043178513            2 
  116000    1.2217307   -6.3813271    53.874628  0.038703037  0.043164411            2 
  117000    1.2107798   -6.3905417    54.250807  0.038640176  0.043152472            2 
  118000    1.2257911   -6.3536542    54.945364  0.038803223  0.043138226            5 
  119000    1.2254494   -6.3905436    55.452366  0.038832189  0.043125269            2 
  120000     1.230978   -6.3349748    56.067412  0.038935702  0.043115104            2 
  121000    1.2141662   -6.3972642    56.640541  0.039008637  0.043104721            2 
  122000    1.2051034   -6.3884645    57.077461  0.038987337  0.043097105            2 
  123000    1.2417708   -6.3864136    57.466846  0.038934177  0.043087057            5 
  124000    1.2049071   -6.3583857     57.95268  0.038946693  0.043072963            3 
  125000    1.1854654   -6.3514173     58.54562  0.039030413  0.043058707            2 
  126000     1.209398   -6.3690153    59.398927  0.039285004  0.043057613            3 
  127000    1.2357858   -6.4268762      59.7439  0.039202034  0.043058298            5 
  128000    1.2142571   -6.3843433    60.340814  0.039284384  0.043059816            4 
  129000    1.2168649   -6.3675429    60.712155  0.039219738  0.043060865            3 
  130000    1.2056082   -6.3204687    61.491668  0.039417736   0.04305992            2 
  131000     1.189601    -6.340826    61.923438    0.0393915  0.043059439            2 
  132000    1.2164784   -6.3962541    62.611584  0.039527515  0.043058991            3 
  133000    1.1894182   -6.3993206    63.037721  0.039497319  0.043061069            1 
  134000    1.1854838   -6.3880496    63.327119  0.039382536  0.043063722            2 
  135000    1.2098277    -6.391235    63.751767  0.039352942  0.043061636            2 
  136000    1.2168288   -6.3792933    64.348518  0.039429239  0.043056957            2 
  137000    1.1988968   -6.3587211    64.915621  0.039486387  0.043050794            2 
  138000    1.1641956   -6.3746888    65.103751  0.039313859  0.043040398            2 
  139000    1.2151743   -6.4036813    65.643243  0.039354462  0.043029417            1 
  140000    1.1695621   -6.3333935    66.617792  0.039653447  0.043023223            2 
  141000    1.2088195   -6.3926053    66.861974  0.039516533  0.043017967            4 
  142000    1.1925719   -6.3481473      67.5639  0.039650176  0.043017031            2 
  143000    1.2086146   -6.3482208    68.144906  0.039711483  0.043016858            2 
  144000    1.2169528   -6.3532274    68.962293  0.039908734  0.043021722            2 
  145000    1.1775948   -6.3641535    69.143153  0.039737444  0.043025651            2 
  146000    1.2289502   -6.3622676    69.691511  0.039778259  0.043030275            6 
  147000    1.1961008   -6.3714082     70.23736  0.039817097  0.043032473            1 
  148000    1.1892527   -6.3474709    70.751183  0.039837378  0.043030217            1 
  149000    1.2058646    -6.336229    71.019217   0.03971992   0.04303047            3 
  150000    1.1923586   -6.3600912    72.073171  0.040040651  0.043034757            2 
  151000     1.172262   -6.4171281    72.390814   0.03995078  0.043040719            5 
  152000    1.1764042    -6.327355    73.259115  0.040163988  0.043048537            2 
  153000    1.1986328   -6.3513418     73.94205  0.040273447  0.043055868            2 
  154000    1.2041376   -6.3715857    74.089363  0.040091647  0.043062573            2 
  155000    1.1862869   -6.4012956    74.394627  0.039997111  0.043066817            2 
  156000    1.1896582   -6.3827256    75.152474  0.040145552  0.043072403            3 
  157000    1.1685618   -6.3696403    75.419653  0.040031663   0.04307569            3 
  158000    1.1946841   -6.3581639    76.178143  0.040178345  0.043081066            4 
  159000    1.1887896   -6.3593435    76.395834  0.040039745  0.043081174            1 
  160000    1.1792602   -6.3695719     76.33755  0.039759141  0.043074294            3 
  161000    1.1608358   -6.3516277    76.710702  0.039705332  0.043060698            3 
  162000    1.1893882   -6.4097029    77.071701  0.039645937  0.043043844            2 
  163000    1.1939131    -6.368454    77.630501  0.039688395  0.043025151            3 
  164000    1.1790194   -6.4271474    77.893512  0.039580036  0.043008167            3 
  165000    1.1921992   -6.3839624    78.717683  0.039756405  0.042991083            2 
  166000    1.1817279   -6.4250911    79.351778   0.03983523  0.042977997            4 
  167000     1.174211   -6.3501713    79.730231  0.039785544  0.042967089            2 
  168000    1.2089542   -6.4018484    80.271013   0.03981697  0.042957024            2 
  169000    1.1879021   -6.3732385    80.702059  0.039793915  0.042946636            8 
  170000    1.1759927   -6.4100917    81.187282  0.039797687  0.042932808            3 
  171000    1.2080186   -6.3936586    81.808534  0.039867707  0.042918509            3 
  172000    1.1823645   -6.4045599    82.015336  0.039736113  0.042903047            2 
  173000    1.1741581   -6.4019167    82.193061  0.039592033  0.042884765            4 
  174000    1.1784626   -6.3703441    82.802032  0.039656146  0.042866265            3 
  175000    1.1861151   -6.3991533    83.545715  0.039783674  0.042849392            1 
  176000    1.1855784   -6.4154904    84.117182  0.039828211  0.042835761            2 
  177000    1.1841873   -6.4091792     84.37209  0.039723206  0.042817033            1 
  178000    1.1769566   -6.4307448    84.875156   0.03973556  0.042798169            2 
  179000    1.1845517   -6.3899703    85.216507  0.039672489  0.042779308            2 
  180000    1.1758838   -6.3714455    85.734429  0.039691865   0.04275942            1 
  181000    1.1686575   -6.4318036     86.04505  0.039615585  0.042737974            3 
  182000     1.159568   -6.3650252    86.394254  0.039557808  0.042713488            3 
  183000    1.1663003   -6.3899517    86.926512  0.039584022  0.042690188            4 
  184000     1.168003   -6.3699133    87.352179  0.039561675   0.04266574            3 
  185000    1.2018792   -6.3919981    87.922212    0.0396046  0.042642363            3 
  186000    1.1643073   -6.4257337    88.376667  0.039595281  0.042619491            1 
  187000    1.1912157   -6.3882059    88.652036  0.039506255  0.042595592            2 
  188000    1.1791458    -6.404095     89.32041   0.03959238  0.042572761            3 
  189000    1.1584173    -6.432184    89.779782  0.039585442  0.042547676            2 
  190000    1.1830316   -6.3863388    90.179618  0.039552464  0.042524796            4 
  191000    1.1893557   -6.3981747    90.988483  0.039698291  0.042503441            2 
  192000    1.1674965   -6.4163857    91.657284  0.039781807  0.042484297            3 
  193000     1.164544   -6.4223391    92.019635  0.039732139  0.042466549            3 
  194000    1.1446618    -6.436961    92.314021  0.039653789  0.042448714            2 
  195000    1.1791805   -6.4492635    92.878066  0.039691481  0.042429122            1 
  196000    1.1729278   -6.3848358    93.274161  0.039657381  0.042408371            4 
  197000    1.1512807   -6.4343945    93.621465  0.039602989  0.042388855            2 
  198000    1.1800927   -6.4197891    94.110147  0.039608648  0.042369447            3 
  199000    1.1869028   -6.4363132    94.516005  0.039579567  0.042350654            3 
  200000    1.1674183    -6.398981    95.275862  0.039698276  0.042330678            1 
  201000    1.2042794   -6.3979057    95.594817  0.039633009  0.042311073            1 
  202000     1.173989   -6.4410609    95.866514  0.039548892  0.042292344            2 
  203000    1.1579535   -6.4202593    96.180594  0.039483002  0.042273644            3 
  204000    1.1762661    -6.386365     97.27353  0.039735919  0.042254105            1 
  205000    1.1139986   -6.4382757    97.402465  0.039594498  0.042235062            8 
  206000    1.1739676   -6.4115583     97.74144  0.039539417  0.042213527            2 
  207000     1.154978   -6.4346294     98.27139  0.039561751  0.042193959            3 
  208000    1.1720091   -6.4350064    98.519006  0.039470755  0.042174785            3 
  209000    1.1682965   -6.4189311    99.204516   0.03955523   0.04215663            4 
  210000    1.1727661   -6.4199535    99.787626  0.039598264  0.042139509            4 
  211000    1.1437191   -6.3701874    100.34198  0.039629534  0.042120235            1 
  212000    1.1384884   -6.4242573    100.54858  0.039523812  0.042101349            2 
  213000    1.1778334   -6.4000295    100.95259   0.03949632  0.042079751            1 
  214000    1.1486151   -6.4382058    101.15409  0.039390222  0.042057262            5 
  215000    1.1964561   -6.3994986    101.75017  0.039438048  0.042032793            4 
  216000    1.1600765   -6.4461699    101.75345  0.039256734  0.042007727            2 
  217000    1.1502266   -6.4345045    101.95068  0.039151565  0.041981436            4 
  218000    1.1511465   -6.4413112    102.59631  0.039218774  0.041952354            3 
  219000    1.1506581    -6.446541    102.79649  0.039115863  0.041924931            2 
  220000    1.1797991   -6.4406028    103.38617  0.039161427  0.041895659            4 
  221000    1.1627303   -6.3963604    104.12651  0.039263391  0.041867239            2 
  222000    1.1688019   -6.4085685    104.17126  0.039103324  0.041840199            2 
  223000    1.1448302   -6.4438408     104.1616  0.038924363  0.041811581            7 
  224000    1.1814568   -6.4137281    105.07638  0.039090916  0.041782745            4 
  225000    1.1825652   -6.4531896    105.54089  0.039089217  0.041753301            3 
  226000    1.1891682   -6.4212707    105.39041  0.038860769  0.041724231            6 
  227000    1.1596439   -6.4267886    106.46187  0.039082919  0.041693465            5 
  228000    1.1820011   -6.4483096    106.77107  0.039024513  0.041665121            2 
  229000    1.1594585   -6.4402745    107.27726  0.039038303  0.041635631            2 
  230000    1.1507532   -6.4467229    107.53355  0.038961431  0.041605159            2 
  231000    1.1590335   -6.4677897    107.58197  0.038810234  0.041574789            6 
  232000    1.1525592   -6.4528986    107.80449  0.038722879  0.041542756            2 
  233000    1.1475152   -6.4481635    108.06269  0.038649031  0.041509669            3 
  234000    1.1468832   -6.4561717    108.88423  0.038776436  0.041475773            3 
  235000    1.1536289    -6.415752    109.22254  0.038731398  0.041443155            3 
  236000    1.1565114     -6.45257     109.4557   0.03864961  0.041409702            2 
  237000    1.1235687   -6.5168926    109.61807  0.038543625  0.041375516            3 
  238000    1.1614166   -6.4464237    110.25429  0.038604444  0.041342215            3 
  239000    1.1474777   -6.4313275    111.02032  0.038710012  0.041309701            2 
  240000    1.1883116    -6.419118    111.40845  0.038683489   0.04127647            4 
  241000    1.1538094   -6.4260452    111.98316  0.038721701  0.041243171            1 
  242000    1.1538339    -6.415635     112.2521  0.038654304   0.04120917            2 
  243000     1.155937    -6.414292    112.91576  0.038722826  0.041176392            3 
  244000      1.17015   -6.4172935    113.11451  0.038632006  0.041144685            3 
  245000     1.147941   -6.4657422    113.86469  0.038729487  0.041113479            3 
  246000    1.1549045   -6.4592139    114.07935  0.038644768  0.041083217            2 
  247000    1.1490752   -6.4502845    114.72329  0.038705562  0.041054246            4 
  248000    1.1662255   -6.4629569    114.70313  0.038542718  0.041025485            2 
  249000    1.1369256   -6.4259764    115.12209  0.038528142  0.040994788            2 
  250000    1.1697891   -6.4867983    115.60548  0.038535158  0.040962205            4 
  251000    1.1370123   -6.4331499    116.25981  0.038598876  0.040931875            2 
  252000    1.1673323   -6.4837091    116.14121  0.038406484  0.040899918            3 
  253000    1.1551885   -6.4647747    116.99611   0.03853627  0.040869177            1 
  254000    1.1435619   -6.4497443    117.67357  0.038606814  0.040840767            4 
  255000    1.1446598   -6.4755091    117.89382  0.038527392  0.040812779            3 
  256000    1.1537079   -6.4445139    118.21833  0.038482528  0.040785393            3 
  257000    1.1217596     -6.47682    118.97934  0.038579553  0.040758854            2 
  258000    1.1323844   -6.4707359    119.54751  0.038613538  0.040733939            3 
  259000    1.1635649   -6.4558796    120.37953  0.038732153  0.040710814            2 
  260000    1.1608461   -6.4915848    120.78478   0.03871307  0.040688994            1 
  261000    1.1541066   -6.4670476    121.41675  0.038766522  0.040667425            1 
  262000    1.1595087   -6.4405361    121.72482  0.038716547  0.040646838            5 
  263000     1.167571   -6.4566421    122.33326  0.038762122  0.040625293            3 
  264000    1.1590983   -6.4708309    122.46181  0.038655875  0.040604695            2 
  265000    1.1541151   -6.4660851    122.74464  0.038598943  0.040582865            3 
  266000    1.1801627   -6.4493843    123.34958  0.038643353  0.040560182            2 
  267000    1.1424105   -6.4457506    123.66051  0.038595664  0.040538711            3 
  268000    1.1170571    -6.481656     123.9475   0.03854089   0.04051715            2 
  269000    1.1636676   -6.5185193    124.07383   0.03843675  0.040492936            2 
  270000    1.1148184   -6.4314983    124.87589  0.038541941  0.040469459            3 
  271000    1.1518028   -6.4703736      124.831  0.038385916  0.040445407            6 
  272000    1.1326907   -6.4859906    125.45106  0.038434762  0.040421424            6 
  273000    1.1432443   -6.4864504      125.838  0.038412087  0.040397016            2 
  274000    1.1708489   -6.4614272    126.78271  0.038559219  0.040374655            8 
  275000    1.1515588   -6.4908303    126.99855  0.038484409  0.040353637            4 
  276000    1.1522575   -6.4706584    127.37034  0.038457229  0.040331708            3 
  277000    1.1266225   -6.5001031    128.04181  0.038520401  0.040309812            2 
  278000     1.168361   -6.4655838    128.49749  0.038518432  0.040288587            5 
  279000    1.1552015   -6.5003364    129.04162  0.038542898  0.040268072            2 
  280000    1.1686595   -6.4393897    129.52907  0.038550318  0.040247332            4 
  281000    1.1582397    -6.489843    129.52559  0.038412097  0.040226289            3 
  282000    1.1379774   -6.4523901    129.76806  0.038347535  0.040205311            5 
  283000    1.1378288   -6.4753201      130.623  0.038463781  0.040184063            3 
  284000    1.1510307   -6.4929096    130.63707  0.038332472  0.040161715            3 
  285000    1.1463817   -6.4963046    130.65349  0.038202775  0.040137389            2 
  286000    1.1488547   -6.4716246    131.36342  0.038276055  0.040114374            3 
  287000    1.1171611   -6.5011357     131.6757  0.038233362    0.0400917            3 
  288000    1.1376838   -6.4812643    131.99379  0.038192649  0.040069797            3 
  289000    1.1366023   -6.4809465     132.8017  0.038293454  0.040048235            2 
  290000    1.1444575   -6.4985245    133.13336  0.038256712  0.040026482            3 
  291000    1.1585398   -6.4648726     134.2549   0.03844642  0.040005743            4 
  292000    1.1429714   -6.4739353    134.36035  0.038344849  0.039985085            1 
  293000    1.1396583   -6.4797195    134.80367  0.038340064  0.039964613            2 
  294000    1.1284118   -6.5059974    134.89692  0.038236089  0.039943063            2 
  295000    1.1499263   -6.4628704    135.40285  0.038249394  0.039921294            2 
  296000    1.1544907   -6.5309562    135.03674    0.0380171  0.039900143            5 
  297000    1.1214694   -6.4981295    135.68671  0.038071466  0.039876131            2 
  298000    1.1528911   -6.4843514    136.03463  0.038041004  0.039852688            6 
  299000    1.1355038   -6.4915194    136.22516  0.037966877  0.039828461            2 
  300000     1.116636   -6.5040427    136.91769  0.038032692  0.039803392            2 
  301000    1.1150323   -6.4694842    137.33354  0.038021467  0.039780372            1 
  302000    1.1255638   -6.4778482    138.24431  0.038146885  0.039759312            3 
  303000    1.1137712   -6.5185367    138.77564  0.038167117  0.039739776            2 
  304000    1.1223756   -6.4795469    138.88422  0.038071334  0.039719607            2 
  305000    1.1230096   -6.4606338    139.43185  0.038096134  0.039698768            3 
  306000    1.1292409   -6.5271912    139.18615  0.037904726  0.039676813            3 
  307000    1.1221812   -6.4728754    139.61658  0.037898095  0.039652874            3 
  308000    1.1465424    -6.489688    139.83875  0.037835159  0.039629213            5 
  309000    1.1158199   -6.4904977    141.05131  0.038039727  0.039606281            2 
  310000    1.1074482   -6.5612366    140.50159  0.037769244  0.039582891            3 
  311000    1.1128979   -6.4676703    141.82582  0.038002632    0.0395601            2 
  312000    1.1431031   -6.4445942    141.76947  0.037865778   0.03953695            2 
  313000    1.1742868   -6.4761697    141.97585  0.037799746  0.039513278            2 
  314000    1.1278859   -6.4951833    141.63487  0.037588872  0.039488058            2 
  315000     1.118119   -6.5198342    142.21449  0.037622882   0.03946194            2 
  316000    1.1314468   -6.5346368    142.54167  0.037590104  0.039435383            3 
  317000    1.1193367   -6.5378783    143.15887  0.037633772  0.039407692            2 
  318000    1.1286286   -6.4876083    143.67613  0.037650976  0.039380163            3 
  319000    1.1492363   -6.4927168    143.82841   0.03757273    0.0393531            3 
  320000    1.1251485   -6.4505451    144.28856  0.037575145  0.039325267            3 
  321000    1.1335512   -6.5190365    144.50843   0.03751517  0.039297928            2 
  322000    1.1300203   -6.5038404    144.62437  0.037428667  0.039269754            2 
  323000    1.0976086   -6.4899315    145.27799  0.037481423  0.039240922            5 
  324000    1.1367329   -6.5390374    145.37285  0.037390136  0.039213539            3 
  325000     1.125395   -6.5014867    145.98047  0.037430889  0.039185877            1 
  326000     1.131961   -6.5441992    146.27621  0.037391668  0.039158701            1 
  327000     1.113533   -6.5443398    146.06859  0.037224412  0.039130164            3 
  328000    1.1380629   -6.5243934    147.06488  0.037364045   0.03910082            2 
  329000    1.0941445   -6.5209356    147.42115  0.037340717  0.039073312            2 
  330000    1.1153317   -6.4951909    147.40587  0.037223704  0.039044782            1 
  331000    1.1189214   -6.4960603    148.26204  0.037326797  0.039016564            4 
  332000    1.1199685    -6.506203     147.8402  0.037108484  0.038988459            2 
  333000    1.1139487   -6.5130794    148.46595  0.037153641  0.038960484            2 
  334000    1.1162514   -6.5176723    148.95508  0.037164441  0.038932139            3 
  335000    1.1165338   -6.4934065    149.39444  0.037162796  0.038904369            2 
  336000    1.1090858   -6.5337958    149.48577  0.037074844  0.038875637            4 
  337000    1.0989937   -6.5236873    150.06747  0.037108673  0.038846758            4 
  338000    1.1256611   -6.4861134    150.50496  0.037106745  0.038818564            2 
  339000    1.1122771   -6.5138027    151.20155  0.037168523  0.038791451            2 
  340000    1.1319011    -6.542264    151.35341  0.037096425  0.038764872            4 
  341000    1.1215991   -6.5285166    151.78606  0.037093368  0.038738764            5 
  342000    1.1373685   -6.5179797    152.55275  0.037171724  0.038712811            2 
  343000    1.1271601   -6.4853243    152.90959  0.037150046  0.038686632            5 
  344000    1.1148216   -6.5282435    153.04502  0.037074859  0.038659111            5 
  345000    1.1010816   -6.5287646    153.06746  0.036972817  0.038630429            1 
  346000    1.1137182   -6.5289061    152.93789  0.036834751  0.038601378            7 
  347000    1.1215408   -6.5380573    153.14645  0.036778686  0.038571992            3 
  348000    1.1189169   -6.5335085    153.15456  0.036674943  0.038541767            3 
  349000    1.1048834   -6.5655098    153.64416  0.036686763  0.038510859            2 
  350000    1.1108619    -6.548381    153.91687  0.036646873   0.03848084            4 
  351000    1.1334763   -6.5257805     154.9456  0.036786704  0.038451089            3 
  352000    1.0982347   -6.5296352    155.15319  0.036731342  0.038421854            2 
  353000    1.1237131   -6.5427616    155.30659  0.036663501  0.038393962            3 
  354000     1.102745    -6.537337    156.19047  0.036768002  0.038365652            2 
  355000     1.093721     -6.47977    156.63319  0.036768355  0.038337811            3 
  356000    1.1233647    -6.496838    156.62655  0.036663518   0.03830973            2 
  357000    1.0908529    -6.528954      156.719    0.0365824  0.038280567            3 
  358000    1.1331631   -6.5120724    156.76096  0.036489982  0.038252092            2 
  359000    1.1079032   -6.5359267    157.48038  0.036555334  0.038222642            2 
  360000     1.105908   -6.5616219    157.62199  0.036486571  0.038193953            4 
  361000    1.0969968   -6.5384771    158.36952  0.036558062  0.038164419            3 
  362000    1.1258831   -6.5374219    158.46131  0.036478201  0.038135057            2 
  363000    1.1114195    -6.547483    158.36369  0.036355302   0.03810529            5 
  364000    1.1000312   -6.5564089    158.99259  0.036399403   0.03807564            4 
  365000    1.1202194   -6.5297553    158.84699  0.036266437  0.038045784            6 
  366000    1.1211147   -6.5388134    159.54153  0.036325486  0.038016721            6 
  367000    1.1145715   -6.5395513    159.99801  0.036330157  0.037986508            2 
  368000    1.1124778   -6.5088651    159.93205  0.036216496  0.037956002            4 
  369000    1.1164129   -6.5554588    160.32824  0.036207824  0.037925888            2 
  370000    1.0967894   -6.5521873    160.68601  0.036190543  0.037895181            1 
  371000    1.0926451   -6.5647314    161.35133  0.036242437  0.037864929            3 
  372000    1.1084663   -6.5577893    161.78485  0.036242125  0.037836184            3 
  373000    1.1181445   -6.5259417    162.30567  0.036261321  0.037807937            5 
  374000    1.0899165   -6.5464257    162.11923  0.036122824  0.037779215            3 
  375000    1.1006539   -6.5575017    161.97001  0.035993335  0.037749704            2 
  376000    1.1386067   -6.5484365    162.75917  0.036072511  0.037720991            2 
  377000    1.0914421   -6.5344871    163.46639  0.036133154  0.037692608            1 
  378000      1.13215   -6.5208195    164.57041  0.036280954  0.037664317            2 
  379000    1.1059524   -6.5806373    164.27348  0.036119937  0.037636087            6 
  380000    1.0964171   -6.5572089     164.9178  0.036166184   0.03760807            4 
  381000    1.0739771   -6.5614489    165.51286  0.036201414  0.037580619            5 
  382000    1.0901077   -6.5298581    165.64133  0.036134671  0.037553772            1 
  383000    1.0878071   -6.5420137    166.11173  0.036142674  0.037527025            3 
  384000    1.1021673   -6.4974624    166.39126  0.036109215  0.037500526            2 
  385000    1.1078086   -6.5726114    166.83802  0.036112124  0.037474734            5 
  386000    1.1063402   -6.5367656    168.06875  0.036284273  0.037449634            4 
  387000     1.094413   -6.5384639    167.82188  0.036137356  0.037425062            4 
  388000    1.0786165   -6.5732913    168.63386  0.036218612    0.0374013            4 
  389000    1.0832867   -6.5406695    170.06409  0.036431895  0.037377838            3 
  390000    1.0964349   -6.5704375    169.37648  0.036191555  0.037355664            3 
  391000    1.0871074   -6.5536035    169.78357  0.036185756  0.037332948            3 
  392000    1.0902139   -6.5421773    169.85905  0.036109493  0.037309047            3 
  393000    1.0997926   -6.5768114    170.71142   0.03619835  0.037286018            2 
  394000    1.0889663   -6.5506249    171.18725  0.036207118  0.037263654            3 
  395000    1.1151587   -6.5836521    171.76051  0.036236395  0.037241537            3 
  396000    1.0982461   -6.5642015       171.55  0.036100588  0.037219705            4 
  397000    1.1251806   -6.5690101    171.52572  0.036004559   0.03719718            4 
  398000    1.0977867   -6.6225246    172.11648  0.036037789  0.037174827            2 
  399000    1.1159483   -6.5814178    172.90178  0.036111482  0.037153025            3 
  400000    1.1186822   -6.6114072    173.29667  0.036103473  0.037131408            3 
  401000    1.0762818   -6.5555312    173.90122  0.036139072  0.037108718            2 
  402000     1.084679   -6.5709207    173.32772   0.03593029  0.037085838            1 
  403000    1.0881311   -6.5826505    173.99679  0.035979486  0.037062686            3 
  404000    1.0954906   -6.6006035    174.64999  0.036025162  0.037039031            4 
  405000    1.0925144   -6.5788959    174.63799  0.035933744  0.037014524            2 
  406000    1.0952402    -6.573831    173.96148  0.035706378  0.036990582            3 
  407000    1.1033516   -6.5911641    174.42349  0.035713244  0.036965538            2 
  408000    1.0810742    -6.566592     174.9899  0.035741402  0.036940328            5 
  409000    1.1015682   -6.5639028    175.49932  0.035757807  0.036915956            1 
  410000    1.0997985   -6.6004747    175.92996  0.035758123  0.036891856            5 
  411000    1.0853993   -6.5644125     176.7265  0.035832624  0.036869054            4 
  412000    1.0659823   -6.5529827    176.55885  0.035711741  0.036845751            2 
  413000    1.1276339   -6.5936661     177.0186  0.035718038  0.036821859            4 
  414000    1.1108487   -6.5881045    177.66634  0.035762145  0.036797764            3 
  415000    1.0925966    -6.567071    177.92811  0.035728536  0.036773797            4 
  416000    1.0694431   -6.5580369    177.79028  0.035615039  0.036749305            3 
  417000    1.0948841   -6.5394042    178.02765  0.035577068  0.036725867            3 
  418000    1.0743898   -6.5851299    178.68468  0.035622942  0.036702902            7 
  419000    1.1056655    -6.562084    179.78535  0.035756831  0.036681203            3 
  420000    1.0954685   -6.5666617    179.48411  0.035611927  0.036658752            3 
  421000    1.1052424   -6.5923387    180.42776  0.035714125  0.036636233            3 
  422000    1.0778981   -6.5745616    180.68062  0.035679427  0.036613534            6 
  423000    1.0791417   -6.5594019    180.44631  0.035548919  0.036591425            4 
  424000    1.0873595   -6.5918149    181.22461  0.035618045  0.036568605            5 
  425000    1.1015383     -6.59018    181.16415  0.035522382  0.036545681            5 
  426000    1.0793738    -6.584831    181.03182   0.03541311  0.036522074            3 
  427000    1.0739014   -6.5464133    181.82162  0.035484312  0.036498533            4 
  428000    1.0974923   -6.5581303    181.98292  0.035432811  0.036474572            3 
  429000    1.0859868   -6.5630598    182.55333  0.035461019  0.036451009            4 
  430000    1.0463223   -6.5829074    183.23329  0.035510328  0.036427267            2 
  431000    1.0992002   -6.6066955    182.61084  0.035307588  0.036403641            1 
  432000    1.1016501   -6.5526411    182.98805  0.035298622  0.036379545            3 
  433000    1.0788805   -6.5965599    183.21693  0.035261149  0.036355436            2 
  434000    1.0912365   -6.5807314    183.78246   0.03528849  0.036330783            4 
  435000    1.0887042   -6.5973175    183.50848  0.035154881  0.036306118            1 
  436000    1.0523613   -6.5761035     184.4012  0.035244877  0.036282013            4 
  437000    1.0865776   -6.5814253    184.50502  0.035184024  0.036257776            4 
  438000    1.0729211   -6.6163908    185.32697  0.035260077  0.036233097            4 
  439000    1.1008763   -6.5626263    185.58503  0.035228745  0.036208897            3 
  440000    1.0746941   -6.6208305    184.97161  0.035032502  0.036184448            2 
  441000    1.0944413   -6.5643157    185.99072  0.035145638  0.036160369            4 
  442000    1.0667862   -6.6137098    186.62518  0.035185743  0.036136598            3 
  443000    1.0968237   -6.5432224    187.36214  0.035244947  0.036113403            2 
  444000    1.0882732    -6.607642    187.00265  0.035098095  0.036090588            5 
  445000    1.0791892   -6.6016011    187.55135  0.035121976  0.036067774            5 
  446000    1.0590118   -6.6126805     187.6127   0.03505469  0.036044456            3 
  447000    1.0782055    -6.584865     188.0459  0.035057029   0.03602054            4 
  448000    1.0861083   -6.5514369    188.77343  0.035114105  0.035997608            2 
  449000    1.0736882   -6.6426439    188.29847  0.034947749  0.035974557            2 
  450000    1.0869272    -6.631554    188.59214   0.03492447  0.035951329            2 
  451000     1.061114   -6.6059906    188.91239  0.034906206  0.035928351            5 
  452000    1.0736899   -6.5992638    189.70939   0.03497592  0.035905069            3 
  453000    1.0616999     -6.59904     190.4388  0.035032892  0.035881762            3 
  454000    1.0529616   -6.5912477    190.55233  0.034976567  0.035858633            5 
  455000    1.0605883   -6.5746146    191.50636  0.035074424   0.03583643            5 
  456000    1.0703919   -6.6402654    191.47462  0.034991706  0.035814271            3 
  457000    1.0568657   -6.6096389    192.22202  0.035051427  0.035792557            3 
  458000    1.0672245    -6.605327    192.38582  0.035004697  0.035770673            6 
  459000    1.0694083   -6.6148487     192.3704  0.034925636  0.035749601            2 
  460000    1.0604987   -6.6446777    192.90316  0.034946225  0.035728176            2 
  461000     1.086787   -6.5944585    193.42486  0.034964724  0.035707155            6 
  462000    1.0913875   -6.6039622    193.61979  0.034924204   0.03568659            3 
  463000    1.0735634   -6.6195078     194.3944  0.034988193  0.035666035            4 
  464000    1.1088751   -6.6181354    194.93812  0.035010438  0.035646288            2 
  465000    1.0624694   -6.5769914    195.11003  0.034965955  0.035626077            5 
  466000    1.0758529   -6.6094962    196.06503    0.0350617   0.03560597            4 
  467000    1.0740819   -6.6017984    195.26618  0.034844072  0.035585814            5 
  468000    1.0749112   -6.5977928     196.4126  0.034973754  0.035565219            2 
  469000    1.0877124   -6.6374199    196.51009  0.034916506  0.035545302            2 
  470000    1.0540488   -6.6065473     196.6067  0.034859344  0.035525904            2 
  471000    1.0833703   -6.6133853    197.46223    0.0349367  0.035506596            2 
  472000    1.0471801   -6.6319736    196.64683  0.034718719  0.035486534            3 
  473000    1.0530958   -6.5927731     196.7704  0.034667089  0.035465752            3 
  474000    1.0758954   -6.6309196    197.44327  0.034712248    0.0354451            4 
  475000    1.0718118   -6.6160478    197.84529  0.034709701  0.035424924            4 
  476000    1.0671862   -6.6350627    198.13424  0.034687367  0.035404493            4 
  477000    1.0413513   -6.6441969     198.0122  0.034593326  0.035384011            3 
  478000    1.0559284   -6.6034503    198.97586  0.034688957  0.035363844            3 
  479000    1.0746426   -6.6363021    199.65008  0.034733834  0.035344046            2 
  480000    1.0612928   -6.6349901    199.83624  0.034693792  0.035324534            2 
  481000     1.049021   -6.6010746    200.09176  0.034665933  0.035304917            5 
  482000    1.0653354   -6.6276868    200.74512   0.03470697  0.035285238            3 
  483000     1.071849   -6.6413831    200.07884  0.034520159  0.035265195            2 
  484000    1.0435752   -6.6467376    200.53079  0.034526651  0.035244688            3 
  485000    1.0553657   -6.6314714    201.07853  0.034549575  0.035224601            2 
  486000    1.0763072   -6.6553528    201.72722  0.034589715  0.035205121            5 
  487000     1.068345   -6.6604178    201.98754  0.034563234  0.035185913            5 
  488000    1.0528596   -6.6300389    202.76621  0.034625377  0.035166506            3 
  489000    1.0738439   -6.6339198    203.13585  0.034617562  0.035147051            3 
  490000     1.071466    -6.621147    203.38322  0.034588982  0.035127455            5 
  491000    1.0650486   -6.6193711    203.59774  0.034554945  0.035108232            2 
  492000    1.0544123   -6.6102967    203.67504  0.034497805  0.035089096            2 
  493000    1.0474142   -6.6093495    204.49736  0.034566828  0.035069748            4 
  494000    1.0630561   -6.6392828    203.39297  0.034310555  0.035050127            2 
  495000    1.0544818   -6.6386163    204.78437  0.034475484  0.035030007            3 
  496000     1.055817    -6.639682    204.45454  0.034350561  0.035010409            6 
  497000    1.0798674   -6.6329884    205.03936  0.034379504  0.034990697            3 
  498000    1.0586645   -6.6300577    205.43572  0.034376794  0.034970645            5 
  499000    1.0758575   -6.6569532    205.11175    0.0342538   0.03495086            4 
  500000    1.0402319   -6.6539503    205.64501  0.034274168  0.034930051            3 
  501000     1.041115   -6.6114571    206.36746  0.034325925  0.034909959            6 
  502000    1.0844226   -6.6166816    206.72498  0.034316896  0.034890062            3 
  503000    1.0596814   -6.6234855    207.25125  0.034335859  0.034870151            4 
  504000    1.0574541    -6.607454    207.53211  0.034314172   0.03485025            2 
  505000    1.0759857   -6.6249035    207.43377  0.034229995  0.034830425            3 
  506000    1.0650999   -6.6544826    207.56109  0.034183315  0.034809886            4 
  507000    1.0734007   -6.6421754    208.83188  0.034324766   0.03479041            3 
  508000    1.0534441    -6.659665    209.18131   0.03431452  0.034771759            5 
  509000    1.0380059   -6.6590803    208.91789  0.034203977  0.034753035            3 
  510000    1.0384617   -6.6612413    209.20368  0.034183608  0.034733694            9 
  511000    1.0371585   -6.6768051    208.66857  0.034029447  0.034714398            2 
  512000    1.0575557   -6.6427879    210.17487  0.034208149  0.034694954            4 
  513000    1.0565811   -6.6621548    210.60369  0.034211126  0.034675777            2 
  514000    1.0362314    -6.636601    210.92846  0.034197222  0.034656788            2 
  515000    1.0376901   -6.6622199    210.93946  0.034132599  0.034638606            7 
  516000    1.0578224   -6.6436216    211.50684  0.034158081  0.034620031            3 
  517000    1.0498157   -6.6398178    212.23198  0.034208895  0.034601682            3 
  518000    1.0545667   -6.6531668    212.16167  0.034131543  0.034583365            5 
  519000    1.0468388   -6.6534031    211.95475  0.034032555  0.034565113            7 
  520000    1.0341532    -6.654225    212.54767  0.034062126  0.034546619            2 
  521000    1.0462553   -6.6588249    213.37387  0.034128898  0.034528174            5 
  522000    1.0697598   -6.6701079    213.17099  0.034031128  0.034509898            3 
  523000    1.0470953   -6.6325543    213.43512  0.034008146  0.034491669            8 
  524000    1.0521919    -6.655717    214.38747    0.0340947  0.034473846            3 
  525000    1.0567223   -6.6731896    213.40333  0.033873544  0.034455426            3 
  526000    1.0401428   -6.6616654    214.47678  0.033979211  0.034437143            3 
  527000    1.0385518   -6.6910755    214.28066  0.033883722  0.034418793            6 
  528000    1.0487598   -6.6513266    215.01194  0.033934966  0.034400151            4 
  529000    1.0376076   -6.6596198    214.87754  0.033849644  0.034381906            3 
  530000     1.016198   -6.7022664    214.96509  0.033799542  0.034363203            3 
  531000    1.0541421     -6.69205    215.60797  0.033836781   0.03434474            2 
  532000    1.0438046   -6.6309786     216.4515   0.03390531  0.034326659            5 
  533000    1.0338299   -6.7124334    216.56235  0.033859029  0.034308808            5 
  534000     1.045041   -6.7092129    216.92324  0.033851941  0.034291082            5 
  535000     1.056905   -6.6832882    217.27104  0.033842841  0.034273235            5 
  536000    1.0292274   -6.6925538    217.59602  0.033830226  0.034255484            2 
  537000    1.0348223   -6.6842979    217.95982  0.033823684  0.034237553            7 
  538000    1.0572538   -6.6795442    218.42521  0.033832901  0.034219681            7 
  539000    1.0126276   -6.6677117    219.38365  0.033918313  0.034201767            2 
  540000    1.0457973   -6.6817027    219.45953  0.033867211   0.03418453            8 
  541000    1.0393559   -6.6811773    219.64425  0.033833063  0.034167508            3 
  542000    1.0457617   -6.6963299    219.25189  0.033710315  0.034150352            5 
  543000    1.0289639   -6.6695278    221.17403  0.033943222  0.034133076            4 
  544000    1.0439849   -6.6746048     220.4075  0.033763404  0.034116261            4 
  545000    1.0249198   -6.6654898    220.72445  0.033749916  0.034099375            5 
  546000    1.0252602   -6.6424572    221.80466   0.03385297   0.03408275            6 
  547000    1.0309254   -6.6928964    221.86396  0.033800115  0.034066497            3 
  548000    1.0359505   -6.6836758    221.66931  0.033708837  0.034049567            4 
  549000    1.0270319   -6.6509849    222.53972  0.033779556  0.034032709            4 
  550000    1.0562112   -6.6675249    221.90672   0.03362223  0.034015596            5 
  551000    1.0336101   -6.6664843    223.02427  0.033730229  0.033998483            3 
  552000    1.0456001   -6.7274678    222.69951  0.033620096  0.033981545            7 
  553000    1.0287382   -6.6739764     223.5942  0.033694123  0.033965252            2 
  554000    1.0220017   -6.6781536    223.65807  0.033642911  0.033948713            2 
  555000    1.0191702   -6.6858229    223.27166  0.033524273   0.03393155            3 
  556000    1.0528607   -6.6796905    223.69587  0.033527558  0.033914098            4 
  557000     1.023473   -6.6679294    224.52409  0.033591276  0.033897011            3 
  558000    1.0304213   -6.6580128    225.14083  0.033623182  0.033879935            2 
  559000    1.0114053   -6.6811779    225.20053  0.033571934  0.033862895            3 
  560000    1.0008246   -6.6865428    225.44765  0.033548757  0.033845934            3 
  561000    1.0412516   -6.6916476    226.02448  0.033574641  0.033828808            7 
  562000    1.0609873    -6.716459    225.23557   0.03339792   0.03381171            7 
  563000    1.0262503   -6.6830563    225.69763  0.033406991  0.033794661            3 
  564000    1.0190518   -6.6746021    226.78617  0.033508595  0.033777998            3 
  565000    1.0244877   -6.6763274    227.13128  0.033500189    0.0337613            4 
  566000    1.0334904   -6.6798838    227.48091  0.033492477  0.033744222            4 
  567000    1.0343638   -6.6647676    227.67683  0.033462203  0.033727363            5 
  568000    1.0072412    -6.725662    227.51866  0.033380085  0.033710314            3 
  569000    1.0126465   -6.7351416    227.96273  0.033386458   0.03369307            3 
  570000    1.0205606    -6.713226    227.64715  0.033281747  0.033675582            4 
  571000    1.0098973   -6.7185035    227.76718  0.033240978  0.033658499            5 
  572000    1.0363647   -6.7032558    229.32845  0.033410322  0.033641621            2 
  573000    1.0282987    -6.722793    229.88877  0.033433504  0.033625098            3 
  574000     1.035961   -6.6848945    229.72403   0.03335134  0.033608697            3 
  575000    1.0230101   -6.7267496     229.7314  0.033294406  0.033591954            4 
  576000    1.0396532   -6.6604436    230.54523  0.033354344  0.033574782            3 
  577000    1.0386186   -6.6910211    230.51292  0.033291872  0.033557751            3 
  578000    1.0311256   -6.6636123    231.06566  0.033313965  0.033541063            2 
  579000    1.0240103   -6.7105518    231.00172  0.033247225  0.033524315            3 
  580000    1.0113592    -6.707583     231.2522   0.03322589  0.033507144            4 
  581000     0.994089   -6.6900284    232.15195  0.033297755   0.03349024            2 
  582000    1.0288411   -6.6817449    231.97002  0.033214494  0.033473492            3 
  583000    1.0181885    -6.690941    232.69789  0.033261562  0.033456935            4 
  584000     1.021464   -6.7052414    232.96808  0.033243163  0.033440363            2 
  585000    1.0232604   -6.7135051    233.17023  0.033215133  0.033423862            3 
  586000    1.0193609   -6.6658093    233.32717  0.033180769  0.033407127            3 
  587000    1.0276035   -6.7147514    233.59871  0.033162793  0.033390859            3 
  588000    1.0274247   -6.7597278    233.80391  0.033135475  0.033374059            6 
  589000    1.0200961    -6.722147    234.26505  0.033144461  0.033357409           11 
  590000    1.0225267   -6.7438887    233.79589  0.033022019  0.033340558            3 
  591000    1.0336385   -6.7255043    234.44183  0.033057223  0.033323538            4 
  592000    1.0011023   -6.7103615    234.43252  0.033000074  0.033306288            4 
  593000    1.0286753   -6.6956808    234.77628  0.032992732  0.033289155            3 
  594000    1.0276557   -6.7084555    234.66778  0.032921967  0.033271839            6 
  595000    1.0242618   -6.7000128    235.79297  0.033024226  0.033254694            2 
  596000    1.0218941   -6.7069193    234.92778  0.032847845  0.033237423            2 
  597000    1.0098118   -6.6983883    235.78638  0.032912671   0.03321991            1 
  598000    1.0187712    -6.703383    235.78816  0.032857882  0.033202455            6 
  599000   0.98997227   -6.7263443    235.62782   0.03278072  0.033184859            2 
  600000    1.0225123   -6.7279344    236.46281  0.032842057  0.033167213            3 
  601000    1.0065655   -6.7338332    237.43669  0.032922448  0.033150238            5 
  602000    1.0091118   -6.7270883    237.49601   0.03287597  0.033133494            7 
  603000    1.0407839   -6.7135104    237.61681  0.032838144  0.033116905            2 
  604000     1.010259   -6.6872628    238.35814  0.032886056  0.033100167            1 
  605000     1.000653   -6.7386155    238.48288  0.032848881  0.033083947            5 
  606000   0.99546185   -6.6992684     238.1126  0.032743757  0.033067327            1 
  607000    1.0182183   -6.7409847    239.76875  0.032917181  0.033051004            7 
  608000   0.99892788   -6.7214548    240.59972  0.032976935  0.033035192            5 
  609000    1.0103057   -6.7610288    239.84724  0.032819819  0.033019523            4 
  610000    1.0380873    -6.733748    241.09284   0.03293618  0.033003873            3 
  611000    1.0163877   -6.7160812    240.37719  0.032784669  0.032988408            6 
  612000    1.0071826   -6.7317202    241.06048  0.032824139  0.032972776            4 
  613000    1.0383011   -6.7334174    240.76105  0.032729887  0.032957194            3 
  614000   0.98186968   -6.7479237     241.3678  0.032758931  0.032941297            2 
  615000     0.985881    -6.752942    241.35933  0.032704517  0.032925111            8 
  616000    1.0109515   -6.7450123    241.43491  0.032661649   0.03290902            2 
  617000    1.0008546   -6.7255045     242.7742  0.032789601  0.032892403            6 
  618000   0.99719974   -6.7325191    242.02155  0.032635053  0.032876176            4 
  619000    1.0374924   -6.7598127    241.95341  0.032573157   0.03285963            4 
  620000    1.0086761   -6.7262991    242.90542  0.032648578  0.032843064            6 
  621000    1.0297192   -6.7321528     243.2467  0.032641801  0.032826673            3 
  622000    1.0144933   -6.7083089     242.4925  0.032488277  0.032809798            3 
  623000   0.99605052   -6.7439799    243.14109  0.032522885  0.032792864            2 
  624000    1.0146558   -6.7323827    243.17996  0.032475957  0.032775315            3 
  625000    0.9968464   -6.7077626    243.35695  0.032447593   0.03275814            5 
  626000    1.0030093   -6.7657546    243.97493  0.032478026  0.032740532            3 
  627000    1.0061465   -6.7377011    244.05155   0.03243641  0.032722573            3 
  628000     1.000343   -6.7046231    244.01286  0.032379625  0.032704773            2 
  629000    1.0144397   -6.7555647    243.86269  0.032308252  0.032686835            4 
  630000   0.99018884   -6.7409362    244.14486  0.032294294  0.032668654            5 
  631000   0.97803787   -6.7532612    244.21674  0.032252607  0.032650409            4 
  632000     1.000179   -6.7741616    243.78881  0.032145149  0.032631877            5 
  633000    1.0009369   -6.7608594    245.01186  0.032255379  0.032613191            6 
  634000   0.99998668   -6.7245622    244.92833  0.032193524  0.032595137            3 
  635000   0.97288666   -6.7396523    245.88234  0.032268023  0.032577133            9 
  636000   0.98652374   -6.7795772    245.65687  0.032187745  0.032558836            3 
  637000     1.007291   -6.7328928    245.81128  0.032157415  0.032540591            4 
  638000    1.0023422   -6.7352751    245.42403   0.03205643  0.032521956            2 
  639000     1.022843   -6.7480771    245.69318  0.032041364  0.032503366            3 
  640000    1.0238123   -6.7753771    246.27452  0.032066995  0.032485075            4 
  641000    1.0304372   -6.7459428    247.06948  0.032120317  0.032466704            6 
  642000   0.99266103    -6.729467    246.79774  0.032035013  0.032448797           11 
  643000    1.0004144   -6.7527251    247.91742  0.032130303  0.032430887            3 
  644000     1.001394   -6.7733367    247.37977   0.03201084  0.032412505            5 
  645000   0.98648753   -6.7417058    247.89167  0.032027348  0.032394515            4 
  646000   0.99237283   -6.7721564    248.30791  0.032031464  0.032376291            7 
  647000   0.99499983   -6.7747477    247.89328  0.031928552  0.032357669            2 
  648000   0.98609067   -6.7769399    248.52543  0.031960575  0.032339463            3 
  649000   0.98770269    -6.747807    249.15293  0.031991901  0.032320931            2 
  650000    1.0003276   -6.7684457    248.45869  0.031853679  0.032302494            5 
  651000   0.99230779   -6.7874085    249.55555  0.031945155  0.032283842            4 
  652000    1.0075549   -6.7662935    249.50829  0.031890118  0.032265377           12 
  653000    0.9879735   -6.7615751     249.7721  0.031874949  0.032246783            7 
  654000   0.99632821   -6.7693119    250.53796  0.031923797   0.03222827            3 
  655000   0.98882787   -6.7694092    250.16024  0.031827002  0.032209943            4 
  656000   0.97066933   -6.7568948    250.60287  0.031834714  0.032191437            2 
  657000    1.0156352   -6.7905939    250.59716  0.031785535  0.032172641            5 
  658000   0.98223595   -6.7478626    250.91535  0.031777527  0.032154301            3 
  659000   0.99101095   -6.7807722     251.3658  0.031786266  0.032136228            2 
  660000    0.9854169   -6.7633355    251.24403  0.031722731  0.032117988            3 
  661000    1.0044767   -6.7718178    251.95573  0.031764465   0.03209984            1 
  662000   0.99557011   -6.7774868    252.46933  0.031781135  0.032081809            2 
  663000    1.0025438   -6.7611047    252.56526  0.031745256  0.032063719            3 
  664000   0.99279368   -6.7655422    252.27228  0.031660678  0.032045455            7 
  665000   0.98745526   -6.7438827    253.00586  0.031704995  0.032026938            3 
  666000   0.98716267    -6.773052    252.24686   0.03156242  0.032008263           14 
  667000   0.99958195   -6.7714157    253.38032  0.031656712  0.031989861            4 
  668000   0.99211571   -6.7699894    253.52426  0.031627277  0.031971567            4 
  669000   0.98551662   -6.7508252     254.5748  0.031710862  0.031953741            6 
  670000   0.98930416   -6.7275647    254.62169  0.031669365   0.03193552            3 
  671000    1.0031753   -6.7551649    254.84853  0.031650339  0.031917708            2 
  672000   0.98307864     -6.80177    255.26963   0.03165546  0.031899842            4 
  673000   0.96159817   -6.7827426    255.55278  0.031643484  0.031881761            4 
  674000   0.97365045   -6.7674888    254.65217  0.031485185  0.031863601            4 
  675000   0.96365376   -6.7486095    256.10563  0.031617978  0.031845639            3 
  676000   0.96134596    -6.781316    256.03858  0.031562941  0.031827862            6 
  677000   0.99716557   -6.7730625     256.0402  0.031516519  0.031810106            3 
  678000   0.97452714   -6.7622328    256.63551  0.031543204  0.031792394            4 
  679000   0.99437397   -6.7861556    256.78429  0.031515008  0.031774453            4 
  680000    1.0099791   -6.7813353    256.30869  0.031410379   0.03175656            4 
  681000   0.97849377   -6.7922462    256.55725  0.031394671  0.031738096            6 
  682000   0.96925635   -6.7460001      256.417  0.031331501  0.031719833            3 
  683000   0.96768883   -6.8021978    256.64108  0.031312968  0.031701479            4 
  684000   0.97743618   -6.8063894    257.16583  0.031331119  0.031682981            7 
  685000   0.97999741   -6.7845888    257.66445   0.03134604  0.031664557            9 
  686000    1.0049145   -6.7833312    258.28427  0.031375641  0.031646204            4 
  687000   0.96858545   -6.7731546    258.58789  0.031366799  0.031628507            5 
  688000   0.99473609   -6.7955092    259.27131  0.031403986  0.031610906            2 
  689000   0.99347319   -6.7846355    258.84845  0.031307263  0.031593264            2 
  690000    0.9806984   -6.7928129    259.31393  0.031318107   0.03157566            4 
  691000   0.96656068     -6.75717    259.81182   0.03133283  0.031557895            2 
  692000   0.98582728   -6.7884996    258.50405  0.031130064   0.03154019            4 
  693000   0.97045399   -6.8034933    259.32263  0.031183578  0.031522339            4 
  694000   0.99885485   -6.7808897    259.92113   0.03121051   0.03150459            7 
  695000   0.96066422   -6.7757553    259.97478  0.031172035  0.031486836            4 
  696000   0.96290725   -6.7887116    260.83231  0.031229922  0.031469184            5 
  697000    0.9571738   -6.8007769    260.79012  0.031180072  0.031451554            3 
  698000   0.97632861   -6.7529423    261.22291  0.031187071  0.031433716            3 
  699000   0.96425053   -6.7828519    261.66472  0.031195126  0.031416353            4 
  700000   0.99304099   -6.7987734    261.12456  0.031086257  0.031398735            4 
  701000   0.97143499   -6.7562736    261.66526  0.031106189  0.031381448            5 
  702000   0.97412902   -6.7893722    261.92999  0.031093303  0.031363844            5 
  703000   0.98276596   -6.7841672    262.60862  0.031129519  0.031346042            3 
  704000   0.99028661   -6.7950526    263.07045  0.031139968  0.031328451            3 
  705000   0.96438345   -6.7657398    263.42671  0.031137909  0.031311108            1 
  706000   0.96411199   -6.8148619    263.53856  0.031107006  0.031293797            3 
  707000   0.98358607   -6.8088793    263.27729  0.031032212  0.031276492            2 
  708000   0.97199278   -6.7959925     263.9887  0.031072116  0.031259045            6 
  709000    0.9770841   -6.8307952    263.68978  0.030993157  0.031241509            7 
  710000   0.95072073   -6.8339906    263.75974  0.030957716  0.031224034            3 
  711000   0.96675647   -6.8031111    263.36127  0.030867472  0.031206268            2 
  712000   0.98262719   -6.7936972    264.55857  0.030964252  0.031188744            3 
  713000   0.96604221   -6.8115288    263.36211  0.030780986  0.031171058            5 
  714000   0.94673282   -6.8022916    264.44565  0.030864338  0.031153258            2 
  715000   0.98330044   -6.8030516    264.65298  0.030845336  0.031135663            4 
  716000   0.96418304   -6.7949381    265.69051  0.030923011  0.031117826            4 
  717000   0.97247269   -6.8046216    265.30973  0.030835627  0.031099642            6 
  718000   0.96398396    -6.817853    265.91943  0.030863443   0.03108163           17 
  719000   0.97431532   -6.8090721     265.7776  0.030804079  0.031063808            3 
  720000   0.97421989   -6.7755097    266.22729  0.030813344  0.031046091            3 
  721000   0.95693035     -6.84994    266.11707  0.030757867  0.031028115            8 
  722000    1.0051438   -6.8235167    266.44328  0.030752918  0.031010016            3 
  723000    0.9505138    -6.816688    267.14369  0.030791113  0.030992105            5 
  724000   0.94042048   -6.8010891    267.11047  0.030744759  0.030974384           10 
  725000   0.97624066   -6.8120846    266.88038  0.030675905  0.030956488            6 
  726000    0.9732906   -6.8237053    267.00087  0.030647483  0.030938694            2 
  727000    0.9632552   -6.8455462     267.0493  0.030610878  0.030920823            4 
  728000   0.96914115   -6.8021687    268.08386  0.030687255  0.030902938            3 
  729000   0.96126627   -6.8167045    268.29385  0.030669164   0.03088546            9 
  730000   0.95754914   -6.8278007    268.79332  0.030684169  0.030868019            4 
  731000   0.95536598   -6.8505639    268.80842  0.030643915  0.030850733            5 
  732000   0.97816346   -6.7795662    269.37807  0.030666903  0.030833512            4 
  733000    0.9518415   -6.8280834    269.29641  0.030615781  0.030816345            6 
  734000   0.95981907   -6.8129708    269.85882  0.030637922  0.030799248            5 
  735000    0.9526537   -6.8070851    270.49492  0.030668358  0.030782081            8 
  736000   0.94684886   -6.8137748    269.98319  0.030568749  0.030765035            3 
  737000   0.95343891   -6.8200992    270.28852  0.030561795  0.030747801            3 
  738000    0.9766981   -6.8528633     270.1572  0.030505556  0.030730582            6 
  739000   0.96400602   -6.8313477    270.01567  0.030448316  0.030713157            4 
  740000   0.95647165   -6.8564511    269.68198  0.030369592  0.030695512            6 
  741000   0.95784403   -6.8412114    271.24807  0.030504732  0.030678148            3 
  742000   0.94855166   -6.8466481    270.79597  0.030412845  0.030660878            6 
  743000   0.97718086    -6.809476    271.43727  0.030443839  0.030643457            7 
  744000   0.95908171   -6.8291494    271.76369  0.030439481  0.030626194            3 
  745000   0.95175529   -6.8470227    271.65383  0.030386334  0.030608827            3 
  746000   0.96797208   -6.8662976    271.61644  0.030341425  0.030591249            3 
  747000   0.95136442   -6.8313563    272.36127  0.030383899  0.030573794            6 
  748000   0.94740069   -6.8313918    272.91677  0.030405166  0.030556267            6 
  749000   0.94720286   -6.8266929    272.66397  0.030336445  0.030538624            3 
  750000   0.95000874   -6.8446409    272.47105  0.030274561  0.030520956            7 
  751000   0.94666439   -6.8357255    272.42831  0.030229506  0.030503204            5 
  752000   0.95155561   -6.8573513    272.31044  0.030176245  0.030485476            4 
  753000   0.96833973   -6.8238268    272.65638  0.030174456  0.030467753            3 
  754000    0.9432207    -6.855148     273.5598  0.030234284  0.030449691            6 
  755000   0.93765676    -6.871617    272.95236  0.030127192  0.030431551            5 
  756000   0.95472805    -6.794216     273.7485    0.0301751  0.030413505            5 
  757000   0.94439157   -6.8429699     273.1679  0.030071323  0.030395746            4 
  758000   0.96249302   -6.8312519    274.49967  0.030178064  0.030377769           10 
  759000    0.9402878   -6.8058751    273.03703  0.029977715  0.030359559            2 
  760000   0.95090403    -6.873423    273.46472  0.029985167  0.030341304            2 
  761000   0.93681104   -6.8682681    274.13062  0.030018684  0.030323169            4 
  762000    0.9402672    -6.853999    274.14636   0.02998101  0.030304884            4 
  763000    0.9590417   -6.8601029    274.27809  0.029956105  0.030286504            3 
  764000   0.93456251   -6.8451989    274.60579  0.029952639  0.030267974            4 
  765000   0.93331196   -6.8585453    274.91929  0.029947635  0.030249532            4 
  766000   0.94245444   -6.8454767    275.58066   0.02998049   0.03023113            4 
  767000   0.93134458    -6.819906    275.58661  0.029942048  0.030212919            3 
  768000   0.94316771   -6.8175481     276.1876  0.029968272  0.030194847            2 
  769000   0.93373804   -6.8822055    275.49237  0.029853963  0.030176753            5 
  770000      0.96121   -6.8287472    275.70594  0.029838305  0.030158301            7 
  771000   0.95042593     -6.85733    276.09213  0.029841346  0.030139932            5 
  772000   0.96894695   -6.8425539    275.95079  0.029787434  0.030121678            2 
  773000   0.94177605   -6.8647125    276.52178  0.029810455  0.030103632            3 
  774000   0.93667856   -6.8634481    277.00987  0.029824491  0.030085356            2 
  775000   0.95471551    -6.878361    276.86207  0.029770115  0.030067168            4 
  776000   0.93117945    -6.841291    277.38557   0.02978797  0.030048946            4 
  777000   0.92872683   -6.8506104    276.48494   0.02965304  0.030030558            4 
  778000   0.92867561   -6.8826359    277.22536  0.029694234  0.030012016            2 
  779000   0.95006818   -6.8513318     277.6792  0.029704664  0.029993429            3 
  780000   0.92939699   -6.8603946    277.20015  0.029615401  0.029974852            6 
  781000   0.96574436   -6.8843221    277.93012   0.02965537  0.029956504            7 
  782000   0.93721934   -6.8702412    278.01428  0.029626415  0.029937909            7 
  783000   0.92971192   -6.8651473    278.61395    0.0296524  0.029919564            3 
  784000   0.93833263   -6.8761042    278.37341  0.029589011  0.029900955            7 
  785000   0.94087594   -6.8539621    279.25164  0.029644548  0.029882372            3 
  786000   0.94448606   -6.8691093    279.36326  0.029618666  0.029864129            7 
  787000   0.96113383   -6.8442772    279.58208  0.029604202  0.029846072            3 
  788000   0.94813998   -6.8384325     279.5703  0.029565387  0.029827897            6 
  789000   0.92846016   -6.8627686    279.98403  0.029571613  0.029809903            3 
  790000   0.93903545   -6.8681364    280.61083  0.029600299   0.02979177            2 
  791000   0.92309441   -6.8693653    280.90414  0.029593778  0.029773786            4 
  792000   0.95120206   -6.8924296    280.38828  0.029502134  0.029755818            6 
  793000   0.94792391   -6.9013533    280.60939  0.029488166  0.029737703            4 
  794000   0.92713502   -6.8776227    281.16474  0.029509313  0.029719694            7 
  795000   0.93615525   -6.8915956    280.83584  0.029437719  0.029701784           10 
  796000   0.94402627   -6.8457611    281.04599  0.029422738  0.029683971            4 
  797000   0.92538718   -6.8875116     281.5135  0.029434704  0.029666292            5 
  798000   0.93128387   -6.8836237    281.25831  0.029371168  0.029648378            7 
  799000   0.93927331   -6.8945832    281.61529  0.029371641  0.029630365            5 
  800000   0.94533279   -6.9084367    282.05775  0.029381016  0.029612371            6 
  801000   0.93063687   -6.8763266    282.18085  0.029357142   0.02959453            6 
  802000   0.94449494   -6.9023987    282.76928   0.02938168  0.029576708            3 
  803000   0.93207685   -6.8865762    282.90169   0.02935883  0.029558802            4 
  804000   0.92188546   -6.9287124     282.1958   0.02924915  0.029540901            3 
  805000   0.95979943   -6.8881409    282.65506  0.029260358  0.029523051            2 
  806000   0.94263742   -6.8730204    283.26086   0.02928669  0.029505119            3 
  807000   0.91450996   -6.8855761    283.32032  0.029256539  0.029487327            7 
  808000   0.95496586   -6.8885956    284.21747  0.029312858   0.02946959            2 
  809000   0.94325043   -6.9032067    284.23771  0.029278709  0.029451849            2 
  810000   0.92722045   -6.8735363    284.02654  0.029220838  0.029434077            3 
  811000   0.93460578   -6.8902943    284.37517  0.029220629  0.029416295            4 
  812000   0.92740229   -6.8919847    284.03895  0.029150139  0.029398421            3 
  813000   0.93093085   -6.8953364    284.67186  0.029179157  0.029380475            5 
  814000   0.91746393   -6.9033409    284.32126  0.029107418  0.029362327            7 
  815000   0.91143435   -6.8884509    285.08548  0.029149844  0.029344508            4 
  816000   0.89599571   -6.8703471    284.73872  0.029078709  0.029326662            5 
  817000   0.93592161   -6.8885194    286.66647  0.029239746  0.029308923            3 
  818000   0.93107138   -6.9098528    285.53824  0.029089063  0.029291336            4 
  819000   0.92860552   -6.8628962    285.88049  0.029088369  0.029273787            4 
  820000   0.93386701   -6.8946086    286.56965  0.029122931  0.029256259            6 
  821000   0.90925143   -6.8562517    286.93837  0.029124885  0.029239019            2 
  822000   0.91675257   -6.9154729    287.02415   0.02909815  0.029221608            3 
  823000   0.93885053   -6.8947809    287.30221  0.029090949  0.029204293            5 
  824000   0.93370001   -6.9212938    286.83212  0.029008103   0.02918677            3 
  825000   0.92020616   -6.8933382    287.89564  0.029080368  0.029169415            3 
  826000   0.91796289   -6.8839329     287.2289  0.028977895  0.029152041            4 
  827000   0.92999504   -6.9277759    287.89694  0.029010172  0.029134449           14 
  828000    0.9381472   -6.9260181     287.6511  0.028950392  0.029116928            4 
  829000   0.91296283   -6.8835262    288.44179  0.028994952  0.029099424            8 
  830000   0.93841857   -6.8979671    289.07141  0.029023234  0.029082133            4 
  831000   0.91704906   -6.8830342    289.52727  0.029034022  0.029064871            6 
  832000   0.92852673   -6.9131223    288.41718  0.028887939  0.029047468            3 
  833000   0.91912384   -6.9125005    287.98317  0.028809841  0.029029891            6 
  834000   0.93386322   -6.9271474    287.91901  0.028768886  0.029012173            2 
  835000    0.9104345   -6.9249377    289.24137  0.028866404  0.028994713            4 
  836000   0.92948997   -6.9054049    288.56982  0.028764935  0.028977074            4 
  837000   0.91682448   -6.9046867     289.2381  0.028797103  0.028959416            5 
  838000   0.91342226   -6.8994295    289.22333   0.02876127  0.028941928            4 
  839000   0.92557414    -6.890121    290.23655  0.028827627   0.02892446            6 
  840000   0.91506925   -6.8957047     289.7988  0.028749881  0.028907058            9 
  841000   0.90622089   -6.9093703     290.0632  0.028741895   0.02888957            5 
  842000   0.92326711   -6.9131073    290.09209  0.028710619  0.028872142            4 
  843000   0.92607712    -6.899439    290.68338  0.028735012  0.028854824            4 
  844000   0.91953146   -6.8920737    290.69441  0.028702055  0.028837481            3 
  845000   0.92348434   -6.9230216    290.85412  0.028683838  0.028820163            6 
  846000   0.91911778   -6.9229234    291.14943  0.028679022  0.028802835            5 
  847000   0.91254961   -6.9224104    291.14524   0.02864475  0.028785516            7 
  848000    0.8959448   -6.9577924    290.89745  0.028586621  0.028768035            7 
  849000   0.91857279   -6.9191814    291.72743  0.028634416  0.028750532            4 
  850000   0.92947438   -6.9421071    290.85611  0.028515305  0.028732877            4 
  851000   0.89399159    -6.933282    291.47691  0.028542588  0.028715392            4 
  852000   0.92435544   -6.9344895    292.42892  0.028602203  0.028697978           12 
  853000   0.91795673    -6.893149     293.3372  0.028657405  0.028680868            4 
  854000   0.89749775    -6.912312    292.46247  0.028538493  0.028663786            2 
  855000   0.92739378   -6.9412542    293.32536  0.028589217   0.02864635            5 
  856000   0.91729029   -6.9189185    293.36446  0.028559624   0.02862928            4 
  857000   0.92639727   -6.8980878    294.15875  0.028603535  0.028612294            3 
  858000   0.90262918   -6.9425732    293.86097  0.028541275  0.028595237            6 
  859000   0.91563498   -6.9335002    293.71452  0.028493842  0.028578202            3 
  860000   0.91616163   -6.9451829    294.26858  0.028514397  0.028561058            4 
  861000     0.928667   -6.9183595    294.58086  0.028511504  0.028544111            4 
  862000   0.88538611   -6.9602436     294.3826  0.028459262  0.028527064            8 
  863000   0.92311213   -6.9255581    294.50433  0.028438038  0.028510106            4 
  864000    0.9039472   -6.9241049    295.82886  0.028532876  0.028493265            8 
  865000   0.92643942   -6.9847865    294.27044  0.028349754  0.028476421            8 
  866000   0.93574557   -6.9026847    295.31182  0.028417226  0.028459565            6 
  867000   0.91851219   -6.9533282     295.0117  0.028355604  0.028442574            4 
  868000   0.90523926   -6.9345059    294.88809  0.028311068  0.028425391            6 
  869000   0.91514527   -6.9322856     294.6433  0.028255016  0.028408332            6 
  870000   0.89786015   -6.9198137    295.07481  0.028263871  0.028391055            5 
  871000   0.90183625   -6.9102288    295.69065  0.028290341  0.028373835            7 
  872000   0.91302091   -6.9310909    295.44935  0.028234838  0.028356505            6 
  873000   0.90827157   -6.9345576    295.43525   0.02820115  0.028339142            4 
  874000   0.89906224   -6.9482917    294.96997   0.02812452  0.028321567           11 
  875000    0.9292787   -6.9490711    294.96119  0.028091542  0.028304088           10 
  876000    0.9126487   -6.9566735    296.17539   0.02817498  0.028286594            8 
  877000   0.89664495   -6.9566035    296.09631  0.028135339  0.028269331            3 
  878000   0.90146532   -6.9294951    296.15313  0.028108687  0.028252193            5 
  879000   0.90840214   -6.9549573    297.17785  0.028173858  0.028234744            7 
  880000   0.89744632   -6.9614711    296.22353   0.02805147  0.028217191            4 
  881000   0.92935885   -6.9616429    295.88464  0.027987574  0.028199554            6 
  882000    0.8855694   -6.9329504    296.73938    0.0280366  0.028181873            5 
  883000   0.88909763   -6.9683954    297.09482  0.028038394  0.028164168            5 
  884000   0.90116172   -6.9371565    297.03416  0.028000957  0.028146366            3 
  885000   0.89731178   -6.9394329     297.2332  0.027988061  0.028128695            3 
  886000   0.93643528   -6.9166597    297.68333  0.027998808  0.028111105            4 
  887000   0.87496952   -6.9631869    298.26457   0.02802185  0.028093791            3 
  888000    0.9070945   -6.9538853     297.9654  0.027962218  0.028076302            7 
  889000    0.8710393   -6.9538949    297.46608  0.027883959  0.028058894            6 
  890000   0.90314222    -6.927603    298.28896  0.027929678  0.028041412            4 
  891000   0.92778667   -6.9359074    298.40377  0.027909069   0.02802406            4 
  892000   0.90273848   -6.9479574    298.79185  0.027914037  0.028006747            5 
  893000    0.8876228   -6.9439015    297.94899  0.027804123  0.027989167            4 
  894000   0.90587714    -6.968497    298.69141  0.027842227  0.027971536            7 
  895000   0.90725732   -6.9415233    299.22932  0.027861203   0.02795393            6 
  896000   0.90313537   -6.9711694    298.47633  0.027760075   0.02793643            7 
  897000   0.89957588   -6.9471552    299.30387  0.027806008  0.027918912            3 
  898000   0.91321619   -6.9912072    298.76115   0.02772468  0.027901423            8 
  899000   0.88771213   -6.9743443    299.65855  0.027777025  0.027884078            4 
  900000   0.88149906   -6.9619696    299.64163  0.027744596  0.027866789            7 
  901000   0.87738858   -6.9516817    301.03365   0.02784255  0.027849542            4 
  902000    0.8800391    -6.957896     300.1896  0.027733703  0.027832437            4 
  903000   0.89025008   -6.9340515     300.5176  0.027733259  0.027815243            6 
  904000   0.87135867   -6.9521513    299.89136  0.027644853  0.027798019            3 
  905000   0.87707586   -6.9631677    300.60595  0.027680106  0.027780723            6 
  906000   0.89968062   -6.9779449     301.0634   0.02769163  0.027763604            4 
  907000   0.90084081   -6.9516775    301.18691  0.027672447  0.027746378            5 
  908000   0.88620602   -6.9602727    302.07886  0.027723831  0.027729171            3 
  909000   0.90254488   -6.9550246    301.62921   0.02765211  0.027712068            5 
  910000   0.88823362   -6.9534939    301.77612  0.027635176  0.027694894            2 
  911000   0.88408657   -7.0045628     301.7475  0.027602223  0.027677698            6 
  912000   0.88948427   -6.9798995    301.64135  0.027562258  0.027660344            9 
  913000   0.86872456   -6.9821883    301.83494  0.027549739  0.027643139            7 
  914000   0.88077591   -6.9310029    302.37403  0.027568749   0.02762601            5 
  915000   0.87621457   -6.9892224    302.39045  0.027540114  0.027608991            5 
  916000   0.88702209   -6.9515244    302.08929   0.02748265  0.027591818            7 
  917000   0.90023555   -6.9624468    302.46618   0.02748693  0.027574554            5 
  918000   0.89984174   -6.9763544    302.33886  0.027445431  0.027557418            3 
  919000   0.89799476   -6.9955048    301.80504   0.02736716  0.027540132            3 
  920000   0.87602016   -7.0162987    302.47746  0.027398321  0.027522585            4 
  921000   0.88087569   -6.9772183    303.91854  0.027498963  0.027505419            8 
  922000   0.89158192   -6.9841213    303.65546   0.02744536  0.027488333            4 
  923000   0.89211523   -6.9526221    304.26067  0.027470266  0.027471496            5 
  924000   0.87601793   -6.9653352    304.50326  0.027462415  0.027454631            5 
  925000    0.8875787   -6.9446229    303.86475  0.027375203    0.0274377            4 
  926000   0.87301424    -6.975651    304.38405  0.027392373  0.027420627            5 
  927000   0.87444057   -6.9707275    304.23613  0.027349527  0.027403567            4 
  928000   0.87021921   -6.9892732    304.28338  0.027324298  0.027386692            5 
  929000    0.8946306   -6.9863996    304.32143  0.027298299  0.027369631            2 
  930000   0.87833099    -6.990983    304.96602  0.027326704  0.027352735            4 
  931000   0.89956588   -6.9760701    305.69041  0.027362192  0.027335908            5 
  932000   0.88550599   -6.9801452     305.4912  0.027315021  0.027319069            8 
  933000   0.88334917   -6.9954885    305.60021  0.027295482  0.027302053           13 
  934000    0.8756653   -6.9966532    305.16055   0.02722703  0.027285067            7 
  935000   0.89430463   -6.9614999    305.05879   0.02718884  0.027268243            6 
  936000   0.88136861    -6.999295    304.54016  0.027113619  0.027251105            5 
  937000   0.88831789   -6.9808887    305.35787  0.027157406  0.027233774            5 
  938000   0.85793322   -6.9755292     305.9765  0.027183413  0.027216568            7 
  939000   0.87187386   -7.0199867    305.03211  0.027070652  0.027199422            7 
  940000   0.88789947   -7.0026954    306.47669  0.027169919  0.027182303            4 
  941000   0.87669634   -6.9707066     306.7052  0.027161282  0.027165502            3 
  942000   0.87758642   -6.9794264    305.83422  0.027055398   0.02714839            3 
  943000   0.86676116   -6.9675057    306.82481  0.027114246  0.027131414            6 
  944000   0.87642864   -6.9981866    306.03066  0.027015418  0.027114333            4 
  945000   0.85569137   -6.9918229    306.83118  0.027057424  0.027097301            7 
  946000   0.88646992   -6.9739921      307.731  0.027108087  0.027080306            4 
  947000   0.86550459   -6.9899545    306.85333  0.027002229  0.027063276            5 
  948000   0.88709336   -6.9838319    306.57436  0.026949223  0.027046029           12 
  949000   0.87147625   -7.0211206    305.93867  0.026865004  0.027028698            5 
  950000   0.85905293   -6.9806549     307.6374  0.026985737  0.027011331            6 
  951000   0.87759385   -7.0150752    307.00194  0.026901677  0.026994135            6 
  952000   0.86323036   -6.9837147    307.75316  0.026939177  0.026977071            9 
  953000   0.87484911     -7.02662    307.30294  0.026871541  0.026959932            4 
  954000   0.87036115    -6.996379    308.09022  0.026912143  0.026942761           15 
  955000   0.87719939   -7.0134847    308.10927  0.026885626  0.026925562           16 
  956000   0.86029478   -7.0170507    307.33602    0.0267901  0.026908413           11 
  957000   0.87249927   -6.9996865    309.02657  0.026909315  0.026891448            4 
  958000   0.84703123   -7.0076237    308.64732  0.026848236  0.026874614            3 
  959000   0.86268612   -7.0176295     308.5877  0.026815059  0.026857657            8 
  960000   0.84250408   -7.0231924    308.75945  0.026802036  0.026840542            7 
  961000   0.87981793   -7.0329604      308.972  0.026792577  0.026823368            5 
  962000   0.86145344   -7.0125971    308.21681  0.026699308  0.026806158            5 
  963000   0.87314373    -7.032487      308.769  0.026719366  0.026789048            5 
  964000   0.87429572   -7.0205242    308.75988  0.026690861  0.026771938            3 
  965000   0.88212838   -7.0390011    309.02898  0.026686441  0.026754795            6 
  966000   0.87525138   -7.0247475    309.29491  0.026681755  0.026737751            5 
  967000   0.88433814   -7.0266595     309.6388  0.026683799  0.026720669            7 
  968000   0.86535343   -7.0348937    308.99005  0.026600383  0.026703547            7 
  969000   0.86216335    -7.004703     309.1293  0.026584907  0.026686457            8 
  970000   0.87038674   -7.0394122    310.06794  0.026638139  0.026669267            4 
  971000   0.85460037   -7.0505786    309.63276  0.026573357  0.026651957           10 
  972000   0.88317847   -7.0573423    309.68876  0.026550819  0.026634674            6 
  973000    0.8618885    -7.008715    310.49208  0.026592333  0.026617595            6 
  974000   0.88110651   -7.0216765    310.81792  0.026592909  0.026600566            4 
  975000   0.86466687   -7.0290363    310.78172   0.02656254  0.026583558            5 
  976000   0.87166711   -6.9932725    310.95148  0.026549819  0.026566644            6 
  977000   0.85358748   -7.0111314    310.77318  0.026507436  0.026549724            3 
  978000   0.87160251    -7.015327     311.2601  0.026521821  0.026532825            4 
  979000   0.85779342   -7.0264029    310.54067  0.026433493  0.026515816            3 
  980000    0.8490332   -7.0114383    310.93386  0.026439954  0.026498809            6 
  981000   0.86472426   -7.0171959    312.29561  0.026528679  0.026481929            5 
  982000    0.8641383   -7.0157974    312.38291  0.026509073  0.026465131            4 
  983000   0.85310311   -7.0175993    311.66579  0.026421311  0.026448357            8 
  984000   0.85945432   -7.0246633    311.76827  0.026403139  0.026431561           14 
  985000   0.85969089   -7.0151498    312.41908  0.026431394  0.026414593            8 
  986000   0.85951964   -7.0723964      311.862  0.026357505  0.026397723            6 
  987000   0.87189468   -7.0560261    312.69841  0.026401419  0.026380733            6 
  988000    0.8666259   -6.9940722    312.70456  0.026375216   0.02636389            5 
  989000   0.85876982   -7.0152295    311.68225  0.026262407  0.026347063            5 
  990000   0.86366131   -7.0177982    313.04083  0.026350238  0.026330171            5 
  991000    0.8573329   -7.0089771    312.96324  0.026317124   0.02631329            5 
  992000   0.84544326   -7.0551351    312.65858  0.026265001  0.026296359            8 
  993000   0.86665966   -7.0227541    312.65172  0.026237976    0.0262795           11 
  994000   0.85233888     -7.06774    312.43461  0.026193378  0.026262555            7 
  995000   0.85779069   -7.0384111    313.01252  0.026215454  0.026245652            3 
  996000   0.86575039   -7.0207855    312.85797  0.026176203  0.026228651            8 
  997000   0.86955589   -7.0548562    312.96823  0.026159163  0.026211599            6 
  998000   0.88627728   -7.0252024    314.27361  0.026241951   0.02619465            6 
  999000   0.83011785   -7.0474758    313.50086  0.026151223  0.026177637            5 
 1000000   0.86013503   -7.0384729    312.83226  0.026069355  0.026160711            3 
 1001000   0.84567342   -7.0536511    313.63406  0.026110062  0.026143521            4 
 1002000   0.87176728   -7.0540827    313.10469  0.026039977  0.026126534            5 
 1003000   0.85456735   -6.9959849    314.55772  0.026134739  0.026109698            6 
 1004000   0.87444159   -7.0183578    314.98793  0.026144416  0.026093007            2 
 1005000   0.86047468   -7.0614001    314.36824  0.026067018  0.026076149            4 
 1006000   0.83979552   -7.0703101    314.17338  0.026024965  0.026059234            9 
 1007000   0.85150734   -7.0469652    315.10889  0.026076539  0.026042366            4 
 1008000   0.85654486   -7.0674685    314.98032  0.026040039   0.02602563            6 
 1009000   0.87687442   -7.0493683    314.97269  0.026013602  0.026008795            5 
 1010000   0.85370066    -7.037907    314.63044  0.025959607  0.025992091            6 
 1011000   0.83918742   -7.0634571    315.11142  0.025973576  0.025975446            5 
 1012000    0.8504945   -7.0659701    315.73949  0.025999628  0.025958594           11 
 1013000   0.84718136   -7.0755556    315.84837   0.02598292  0.025941908            4 
 1014000   0.84809302   -7.0445949     316.4794  0.026009155  0.025925296            5 
 1015000   0.83389865   -7.0738804    316.45142  0.025981233  0.025908658           11 
 1016000   0.84280286   -7.0624078    316.13459  0.025929675  0.025892069            5 
 1017000   0.87710357   -7.0441656    316.62513  0.025944373  0.025875478            4 
 1018000   0.83793745   -7.0310495    317.58127  0.025997157  0.025859031            5 
 1019000   0.84884268   -7.0266381    317.07166  0.025929969  0.025842494            3 
 1020000   0.83952163   -7.0401337     316.9481  0.025894453  0.025825925           10 
 1021000   0.85038178   -7.0529046    317.15825  0.025886243  0.025809388            3 
 1022000   0.84054387   -7.0542592    316.56924  0.025812886  0.025792816            6 
 1023000   0.85558347   -7.0248963    316.76881  0.025803911  0.025776232            7 
 1024000   0.85408987   -7.0519806    317.34046  0.025825233  0.025759688            8 
 1025000   0.84725953   -7.0451208    317.95643  0.025850116  0.025743162            4 
 1026000   0.87046741    -7.072884    316.99122  0.025746526  0.025726514            4 
 1027000   0.83507063   -7.0560432    316.88142  0.025712546   0.02570987            2 
 1028000   0.85336728   -7.0829787    316.90069  0.025689096  0.025693106            8 
 1029000   0.85096711   -7.0603032    317.42312   0.02570644   0.02567635            8 
 1030000     0.835635   -7.0750096    317.31458  0.025672701  0.025659597            3 
 1031000   0.83831068   -7.0648396    316.43691   0.02557686  0.025642751            5 
 1032000    0.8529938   -7.0843764    317.39489  0.025629433   0.02562585           10 
 1033000   0.83835792   -7.0892515    317.41456  0.025606209  0.025609014            5 
 1034000   0.83415889   -7.0645349    317.68838  0.025603512   0.02559226            8 
 1035000   0.83283217   -7.0877378    316.79414  0.025506775  0.025575299            4 
 1036000   0.83080331   -7.0917991    318.12364  0.025589096  0.025558386           14 
 1037000   0.85485669   -7.1031849    317.70676  0.025530919   0.02554136           10 
 1038000   0.85158008   -7.0826355    317.42261  0.025483511  0.025524431            4 
 1039000   0.82849147   -7.0636197    318.42686   0.02553953  0.025507606            3 
 1040000   0.83468666    -7.080214    317.94676  0.025476503  0.025490778            4 
 1041000   0.84051929   -7.0995623    318.77972   0.02551871  0.025474066            5 
 1042000   0.85023563   -7.0660532    318.72035  0.025489472  0.025457267            3 
 1043000   0.81967755    -7.082369    319.36098  0.025516218  0.025440595            3 
 1044000   0.84641743   -7.0625029    318.63699  0.025433987   0.02542373            9 
 1045000   0.82746544   -7.1018514    319.39698  0.025470254  0.025406903            5 
 1046000   0.83371733   -7.1066689    318.75609  0.025394845  0.025390014            2 
 1047000   0.85052697   -7.0724822    319.36216  0.025418828  0.025373183            3 
 1048000   0.85191639     -7.09161    318.90105  0.025357908  0.025356209            2 
 1049000   0.83256766   -7.0673031    319.11986  0.025351117   0.02533941            6 
 1050000   0.83022893   -7.0695233    318.74113  0.025296915   0.02532249            6 
 1051000   0.84140893   -7.0776689    319.18593  0.025308113  0.025305677            4 
 1052000   0.83045507   -7.0841434    319.71577  0.025326027  0.025288856            6 
 1053000   0.81005585   -7.0844726    319.46203  0.025281895  0.025272024            5 
 1054000   0.83193457    -7.092016    318.94297   0.02521687  0.025255117            4 
 1055000   0.82707694   -7.1030487    319.76789  0.025258127  0.025238139            4 
 1056000   0.83254385   -7.0790336    319.42569  0.025207204  0.025221193           13 
 1057000   0.83136937   -7.0870412     319.5961  0.025196791  0.025204277            4 
 1058000   0.82242996   -7.0953593    320.31889  0.025229906  0.025187488           15 
 1059000   0.84172093   -7.0834879    319.82417  0.025167152  0.025170731            5 
 1060000   0.83535553   -7.1198872    320.24445   0.02517645  0.025153914            8 
 1061000   0.82578549   -7.1280417    320.34036  0.025160255  0.025137011            3 
 1062000   0.84116533   -7.0848371    319.43506  0.025065525  0.025120151            9 
 1063000   0.84523217   -7.0885994    320.69495  0.025140714  0.025103444           11 
 1064000   0.81878303   -7.0940774    321.24848  0.025160439  0.025086857            4 
 1065000   0.82278177   -7.0604504    321.02986  0.025119707   0.02507023            4 
 1066000   0.83470882   -7.0749105    321.31235  0.025118226  0.025053607            7 
 1067000   0.82959768   -7.1375858    321.45351   0.02510571  0.025036926            3 
 1068000   0.82653307   -7.1081888    321.14578  0.025058191  0.025020238            4 
 1069000   0.82818812   -7.0973891    320.59221  0.024991597  0.025003624            7 
 1070000   0.84198674   -7.1137482    321.20689  0.025016113  0.024987053            4 
 1071000   0.82627571   -7.0933245    321.82031  0.025040484  0.024970584            6 
 1072000    0.8352082   -7.0804605    321.90277  0.025023537   0.02495408            5 
 1073000   0.84117617   -7.0933257    321.61056  0.024977521  0.024937775           10 
 1074000   0.83033757    -7.112957    322.16495  0.024997281  0.024921345           13 
 1075000   0.81053595   -7.1217669    322.59861  0.025007644  0.024904881            6 
 1076000   0.81664928   -7.1408782    322.48324  0.024975468  0.024888533           16 
 1077000   0.79220296   -7.0969846    323.46645  0.025028354  0.024872354            5 
 1078000    0.8221393   -7.0737101    323.60024  0.025015479  0.024856198            4 
 1079000   0.82586871   -7.1094129    323.53905   0.02498757  0.024840022           10 
 1080000   0.80913253   -7.0991136    323.06976  0.024928222  0.024823707            5 
 1081000   0.82093305   -7.1120444    323.43384  0.024933228  0.024807407           12 
 1082000   0.83396922   -7.1028749     323.1704  0.024889895  0.024791085            4 
 1083000   0.82542998   -7.1268028    323.32696  0.024878959   0.02477488            4 
 1084000   0.83140582   -7.1166446    324.29751   0.02493062  0.024758775            3 
 1085000   0.81058203   -7.1247918    322.94685  0.024803906  0.024742631           10 
 1086000   0.83044792   -7.0978754    324.30259  0.024885097  0.024726496            5 
 1087000   0.82625201   -7.1167017    323.69555  0.024815666  0.024710351            9 
 1088000   0.81464646   -7.1007439    323.59095  0.024784846  0.024694211            5 
 1089000   0.82270726   -7.1052931    324.00881  0.024794063  0.024678143            6 
 1090000   0.83020882   -7.1473595    323.99379  0.024770167  0.024661956            6 
 1091000   0.81620833   -7.1326353    324.45124  0.024782404  0.024645845            6 
 1092000   0.82922861   -7.1657639    324.44569  0.024759286  0.024629721            6 
 1093000   0.81993898   -7.1592502    324.64264   0.02475165  0.024613621           10 
 1094000   0.81206505   -7.1350556    325.49366  0.024793849  0.024597517           11 
 1095000   0.82669693    -7.127209    324.65499  0.024707381  0.024581498            8 
 1096000   0.80794624   -7.1281124    325.36449  0.024738784  0.024565525            6 
 1097000   0.83254118   -7.1087959    324.22007  0.024629297  0.024549469            5 
 1098000   0.81245837   -7.1190549    325.64757  0.024715207  0.024533434            5 
 1099000    0.8252385   -7.1353658    324.89083  0.024635337  0.024517504            8 
 1100000   0.82135577   -7.1392803    325.51637  0.024660331  0.024501501            8 
 1101000    0.8292718   -7.1609157    325.50797  0.024637297  0.024485479            7 
 1102000   0.81416491   -7.1381873    325.31715   0.02460051    0.0244695            6 
 1103000   0.81466231   -7.1013989    326.31885  0.024653887  0.024453586            4 
 1104000   0.79342886   -7.1387956    325.82286  0.024594117  0.024437742            6 
 1105000   0.79937214   -7.1211232    325.99192   0.02458461  0.024421853            8 
 1106000    0.8183697   -7.1541834     325.5886  0.024531992  0.024405897            4 
 1107000   0.79581921   -7.1024569    326.32532  0.024565291  0.024389829           10 
 1108000   0.81276206   -7.1241838    326.09886  0.024526087  0.024373909           11 
 1109000   0.80597538    -7.099719    325.70285  0.024474215  0.024358035            4 
 1110000    0.8004551   -7.1251097    326.65859  0.024523918  0.024342291            5 
 1111000   0.81684181   -7.1293777    327.04421  0.024530768  0.024326478            6 
 1112000   0.80378365   -7.1460223    327.86247  0.024570029  0.024310724            7 
 1113000   0.81965429   -7.1430899    326.36273  0.024435664   0.02429487            4 
 1114000   0.82888187   -7.1133335    327.86882  0.024526393  0.024279041            8 
 1115000   0.80216821   -7.1356114    326.82216  0.024426171  0.024263286           11 
 1116000   0.81802304   -7.1566383    327.50495  0.024455268   0.02424752           19 
 1117000   0.80536803   -7.1172093    328.31328  0.024493679  0.024231847            7 
 1118000   0.80917333   -7.1457576    327.25599  0.024392963  0.024215938            6 
 1119000   0.80901161   -7.1498225    327.97973  0.024425061  0.024200168            9 
 1120000   0.80797185   -7.1400427    327.69443  0.024382026  0.024184362            7 
 1121000   0.81361015   -7.1478746    327.89183   0.02437495  0.024168537            4 
 1122000   0.80303284   -7.1392725    328.34541  0.024386914  0.024152866            2 
 1123000   0.80357438   -7.1228121    328.44401  0.024372515  0.024137296            4 
 1124000   0.79837972   -7.1249692    328.80198  0.024377371  0.024121699            6 
 1125000   0.79350292   -7.1386072      328.637  0.024343481  0.024106145            6 
 1126000   0.79168717   -7.1580552    328.30551  0.024297329  0.024090587            7 
 1127000    0.8138483   -7.1676614    328.53292  0.024292585   0.02407489            7 
 1128000   0.80534703   -7.1244401    327.86949  0.024222036  0.024059139            8 
 1129000   0.79263626   -7.1191669    328.70567  0.024262302  0.024043486            7 
 1130000   0.80289972   -7.1402474    329.32415  0.024286442  0.024027824            5 
 1131000   0.80453749   -7.1402809    328.98509  0.024239986  0.024012191           11 
 1132000   0.77565944   -7.1458563     328.7539  0.024201554  0.023996463            9 
 1133000   0.80048957   -7.1552214    329.14942  0.024209284  0.023980865           11 
 1134000   0.79269661    -7.180015    328.91801  0.024170929  0.023965168            7 
 1135000   0.79957398   -7.1876576    329.21491  0.024171433  0.023949458           18 
 1136000   0.79000125   -7.1871871    329.03472  0.024136937  0.023933717            8 
 1137000    0.7993166   -7.1924602    329.24373  0.024131026   0.02391797            8 
 1138000   0.81163826   -7.1873974    329.31179  0.024114806  0.023902242            9 
 1139000   0.80182235   -7.1557916    329.44975  0.024103727  0.023886487            6 
 1140000   0.80159807   -7.1397976    329.58881   0.02409275  0.023870859           15 
 1141000   0.81093927   -7.1370059    329.36795  0.024055503  0.023855194            5 
 1142000   0.79671384   -7.1675662    329.33537  0.024032061  0.023839627            5 
 1143000    0.7884604   -7.1539718    329.43597   0.02401837  0.023823994            5 
 1144000   0.79686979     -7.14789    330.45534   0.02407163   0.02380842           10 
 1145000   0.80744845   -7.1487228    330.32398  0.024041046  0.023792811            5 
 1146000   0.77747203   -7.1512272    330.44723  0.024029031  0.023777187            3 
 1147000   0.79938947     -7.15757    330.63085  0.024021422  0.023761642            5 
 1148000   0.78760306   -7.1729023    330.12096  0.023963485  0.023745947            7 
 1149000   0.79396273    -7.169829    330.55059  0.023973788  0.023730186            5 
 1150000   0.78773383   -7.1604597    330.77846  0.023969453   0.02371439            5 
 1151000   0.77259104   -7.1541538    330.93548  0.023959997   0.02369863            6 
 1152000   0.78635385   -7.1614986    329.96056  0.023868675  0.023683018           11 
 1153000   0.77482456   -7.1377562    330.35218  0.023876278  0.023667448            7 
 1154000   0.78644173   -7.1816604    330.50382  0.023866538  0.023651771            4 
 1155000   0.78835917   -7.1462821    331.12941  0.023891011  0.023636262            6 
 1156000   0.79166056   -7.1714622    330.93723   0.02385649  0.023620575            9 
 1157000   0.78939675   -7.1599078    330.56011  0.023808708  0.023604807           10 
 1158000   0.78333985   -7.1578947      330.118  0.023756333  0.023589028            6 
 1159000   0.78589675   -7.1875028    330.63993  0.023773363  0.023573252           11 
 1160000   0.80549572    -7.204947    330.37413  0.023733774  0.023557383            7 
 1161000   0.79306815   -7.1718419    330.08469  0.023692556  0.023541458           13 
 1162000   0.77603593   -7.1778406    330.25205  0.023684169  0.023525442            3 
 1163000   0.78407584   -7.1565674    330.68044    0.0236945  0.023509372            6 
 1164000   0.79411426   -7.1692272    330.51173  0.023662065  0.023493439            6 
 1165000   0.79444051   -7.1799448    330.84438   0.02366555  0.023477557           20 
 1166000    0.7977491   -7.2087102    329.88954  0.023577011  0.023461639            9 
 1167000    0.7857589   -7.1979332    330.87368  0.023627084  0.023445624            5 
 1168000   0.76860265    -7.220049     330.6457  0.023590589  0.023429698            8 
 1169000   0.79060626   -7.1741095    331.42887  0.023626238  0.023413877           13 
 1170000    0.7660043    -7.187054    331.25596   0.02359373  0.023397973            8 
 1171000   0.77134807   -7.1715061    330.41095  0.023513446  0.023382056           12 
 1172000   0.77865545   -7.1811675    331.69121  0.023584415  0.023366167           11 
 1173000   0.79253182    -7.183225    330.48559  0.023478658  0.023350153            7 
 1174000   0.79282963   -7.2019414    330.71324  0.023474818   0.02333417           13 
 1175000   0.78899542   -7.1926348    330.26511  0.023423057  0.023318131           12 
 1176000    0.7737403   -7.1982556    331.09283  0.023461794  0.023302183            7 
 1177000   0.79302707    -7.177983    331.30924  0.023457182  0.023286335           15 
 1178000    0.7941813   -7.1763495    331.34407  0.023439734  0.023270489           17 
 1179000   0.79066337   -7.1869751    331.49644  0.023430622   0.02325464            7 
 1180000   0.76316036   -7.1874965    331.28231  0.023395643  0.023238725            9 
 1181000   0.79245492   -7.2116604     331.0775  0.023361382  0.023222652           10 
 1182000   0.77023972   -7.1964883    332.42272  0.023436458   0.02320668            4 
 1183000    0.7725216    -7.204462     330.6697   0.02329316  0.023190781            6 
 1184000   0.78849111   -7.1923143    331.03632   0.02329929  0.023174735           11 
 1185000   0.77283879   -7.1925903    331.92672  0.023342245  0.023158763           10 
 1186000   0.77077312   -7.1867409     331.2832  0.023277347  0.023142722            8 
 1187000   0.79380372   -7.2084505    331.96734  0.023305767  0.023126648            6 
 1188000   0.78941564   -7.1727366    331.31896  0.023240668  0.023110609            6 
 1189000   0.77997041   -7.2007555     331.7578  0.023251878  0.023094597            9 
 1190000   0.75814471   -7.2162533    330.86159  0.023169579  0.023078535            7 
 1191000    0.7694669   -7.1831443    331.54808  0.023198158  0.023062462            5 
 1192000   0.76994245   -7.1916014    331.84688  0.023199586  0.023046444            7 
 1193000   0.76526271   -7.2303399    331.91536  0.023184923  0.023030324            8 
 1194000   0.79512192   -7.1795581    332.18342  0.023184214  0.023014337            6 
 1195000   0.76984396   -7.1926852     332.7063  0.023201276  0.022998518            5 
 1196000   0.78635029   -7.2030022    332.12219  0.023141178  0.022982693            4 
 1197000   0.77517742   -7.1932478    332.67986   0.02316067  0.022966919            9 
 1198000   0.77582816   -7.1947516    332.57831  0.023134273  0.022951127            5 
 1199000   0.79401972   -7.2073454    332.31225  0.023096487  0.022935325            9 
 1200000    0.7550258   -7.2113522    332.43608  0.023085839  0.022919422           10 
 1201000   0.76545971   -7.2246677    331.97604  0.023034696  0.022903467           20 
 1202000    0.7814945   -7.2068007    332.01147  0.023017989  0.022887488           12 
 1203000   0.78225141    -7.209343    332.10251  0.023005162  0.022871458            9 
 1204000   0.77419416   -7.2140459    332.60533  0.023020856  0.022855446            6 
 1205000   0.77056428   -7.2073278    332.32772  0.022982553  0.022839365            4 
 1206000   0.77511792   -7.2208804    332.39609  0.022968221  0.022823284            7 
 1207000   0.77081252   -7.2341558    332.71925  0.022971503  0.022807321           10 
 1208000   0.76567713   -7.2248055    331.90329  0.022896198  0.022791341           11 
 1209000   0.78083492   -7.2359669    332.30445  0.022904911  0.022775358           10 
 1210000   0.77658468   -7.2486454    332.56838  0.022904158  0.022759349            6 
 1211000   0.77348443   -7.2319436    333.08574  0.022920846  0.022743374            7 
 1212000   0.77944958   -7.2451185    333.61518  0.022938337  0.022727414           16 
 1213000   0.77081707    -7.256007    333.04532  0.022880278  0.022711468           13 
 1214000   0.76133667    -7.232608    333.45327  0.022889434  0.022695476            9 
 1215000   0.77591183    -7.219089    333.39849  0.022866837   0.02267956            7 
 1216000   0.77139253   -7.2255585    333.95243  0.022885995  0.022663563            5 
 1217000   0.78057394   -7.2108611    333.20435  0.022815965  0.022647613            9 
 1218000   0.77351537   -7.2287295     332.9673  0.022781014   0.02263166           12 
 1219000   0.77406139   -7.2619514    332.67652  0.022742447   0.02261569           11 
 1220000   0.74817756   -7.2436688    333.54902  0.022783403  0.022599731           13 
 1221000   0.76121748   -7.2474074    333.10549  0.022734473  0.022583746            7 
 1222000   0.76185851   -7.2201401    333.11574  0.022716567  0.022567826           10 
 1223000   0.76791663   -7.2392608    333.80162  0.022744727  0.022551901            6 
 1224000   0.76256609   -7.2220954    333.13688  0.022680888  0.022536001            8 
 1225000   0.78116416   -7.2308681    333.83847    0.0227101  0.022520092            7 
 1226000   0.75937117   -7.2189141    334.30497  0.022723285  0.022504261            9 
 1227000   0.77809357   -7.2373452    333.66439   0.02266126  0.022488415           13 
 1228000   0.75885606   -7.2374515    334.42302  0.022694287   0.02247258           11 
 1229000   0.77952164   -7.2526152    332.98856  0.022578557  0.022456759            5 
 1230000   0.76917017   -7.2552202    334.16347  0.022639802  0.022440927            6 
 1231000   0.76617427   -7.2335883    335.19759  0.022691416  0.022425216            6 
 1232000   0.78524553   -7.2541436    333.89469  0.022584868  0.022409441           10 
 1233000   0.76495324   -7.2483014    334.19009  0.022586516  0.022393605            7 
 1234000   0.75962731   -7.2426673     334.3586  0.022579592  0.022377794           14 
 1235000   0.78662243   -7.2444461    334.25491  0.022554313  0.022362102            7 
 1236000   0.75312525   -7.2323178    335.19534   0.02259947  0.022346433            6 
 1237000   0.75342657   -7.2561045     334.6049  0.022541424  0.022330693           15 
 1238000   0.76195759   -7.2280332    334.75601  0.022533388  0.022314905           14 
 1239000     0.764738   -7.2560131      333.806  0.022451305  0.022299118            5 
 1240000   0.75616928   -7.2597928    334.04567  0.022449306  0.022283342            6 
 1241000   0.77033292   -7.2721744    334.66523   0.02247282  0.022267577            7 
 1242000   0.76433199   -7.2312875    335.89027  0.022536921  0.022251946           10 
 1243000   0.75790787   -7.2347201    335.16178  0.022469951  0.022236333           13 
 1244000   0.74779313   -7.2657262    334.32746  0.022395998  0.022220701           15 
 1245000   0.76084797   -7.2571297    334.79285   0.02240916  0.022205108            9 
 1246000   0.75216541   -7.2792655    336.01847  0.022473145  0.022189524           20 
 1247000   0.75637018   -7.2529077      335.162  0.022397888  0.022173918            5 
 1248000   0.75079423   -7.2649807    334.93226  0.022364601  0.022158251           17 
 1249000   0.75266583   -7.2438194    334.92396  0.022346141  0.022142658            6 
 1250000   0.75097234   -7.2465873    335.68258  0.022378839  0.022127074           10 
 1251000   0.77257196   -7.2700115    335.55027  0.022352137  0.022111445            9 
 1252000   0.74541255   -7.2570217    334.97255   0.02229583  0.022095869           11 
 1253000   0.76939224   -7.2704034    335.27743  0.022298313  0.022080253           10 
 1254000    0.7574325   -7.2762435    335.39111  0.022288085  0.022064582            9 
 1255000   0.77108807   -7.2745987    335.13563  0.022253362  0.022048977            4 
 1256000    0.7442911   -7.2721784    335.81708  0.022280858  0.022033345           10 
 1257000   0.75001025   -7.2713485    336.03966  0.022277888  0.022017822            9 
 1258000   0.73632924   -7.2564914    335.88491  0.022249928  0.022002316            8 
 1259000   0.74789118   -7.2574292    336.64866  0.022282808  0.021986877           10 
 1260000   0.76101648   -7.2821438    335.92536  0.022217286  0.021971381            4 
 1261000   0.76199081   -7.2666544    336.40453  0.022231333  0.021955899            7 
 1262000   0.76023062     -7.27073     335.7956  0.022173507  0.021940426           10 
 1263000   0.75329666   -7.2657328    335.97196  0.022167588  0.021924997            5 
 1264000   0.74451507   -7.2567191    336.00786  0.022152417  0.021909588            9 
 1265000   0.73757997    -7.251605    336.82686  0.022188858  0.021894272            4 
 1266000    0.7420147   -7.2701892    336.23824  0.022132586  0.021878935            5 
 1267000   0.75190243    -7.263692    336.78983  0.022151396  0.021863595            7 
 1268000   0.74030498   -7.2699709    336.59666  0.022121231  0.021848309            8 
 1269000   0.73998466   -7.2953944    337.06619  0.022134633  0.021832987            5 
 1270000   0.75994718   -7.2779591    336.78683  0.022098873  0.021817719           10 
 1271000   0.73884797   -7.2932957    336.23343  0.022045203  0.021802521            8 
 1272000    0.7460566   -7.2966732    337.16655  0.022089004  0.021787243           14 
 1273000   0.75419988   -7.2661719    337.21817  0.022075031  0.021772012            7 
 1274000   0.75087717   -7.2523417    338.10594  0.022115773  0.021756852           11 
 1275000   0.73671742   -7.2703517    337.05057  0.022029449  0.021741612            8 
 1276000    0.7459758   -7.2800566    337.65098  0.022051396  0.021726356            5 
 1277000   0.72913028   -7.2670269    337.46189  0.022021789  0.021711184           13 
 1278000   0.73797633   -7.2897985    336.54096  0.021944507  0.021695939           10 
 1279000    0.7516699   -7.2862545     337.2896  0.021976127   0.02168069           13 
 1280000   0.73090425   -7.2742814    337.78359  0.021991119  0.021665451            6 
 1281000   0.74716082    -7.279773    338.03154  0.021990082  0.021650329           11 
 1282000    0.7405606   -7.2898256    338.21652  0.021984953  0.021635197            9 
 1283000   0.74529266    -7.304748    337.69203  0.021933751  0.021619989           19 
 1284000   0.74696417   -7.2994737    337.90997  0.021930813  0.021604872           10 
 1285000   0.72636872   -7.2916683    338.69868  0.021964895   0.02158985           10 
 1286000   0.72206836   -7.3018363    338.51973  0.021936219  0.021574844           20 
 1287000    0.7378847   -7.2509544    338.42956  0.021913336  0.021559856           14 
 1288000   0.73696137   -7.2975324    338.33674  0.021890317  0.021544909            6 
 1289000   0.73730183   -7.3098538    338.68377   0.02189577  0.021529904            9 
 1290000   0.75162119   -7.3008524     338.1358  0.021843398  0.021514824            5 
 1291000   0.74869233   -7.3183052    338.70716  0.021863359  0.021499756           18 
 1292000   0.74493838   -7.3000659    338.73981  0.021848543  0.021484746            9 
 1293000    0.7416654   -7.2877668    338.82282  0.021836995   0.02146976            5 
 1294000   0.74755278   -7.2918113    338.71353  0.021813082  0.021454775            9 
 1295000   0.73465628   -7.2906797    338.74277  0.021798119  0.021439829            9 
 1296000   0.75265942   -7.2877885    339.04778  0.021800912  0.021424907            8 
 1297000   0.73904866   -7.2570098    338.64809  0.021758423  0.021409928            6 
 1298000   0.73914203   -7.2617843    338.98629  0.021763373  0.021395021            4 
 1299000   0.73277347   -7.2732014    339.17472  0.021758707  0.021380077            3 
 1300000   0.74789378   -7.2971603    338.34267  0.021688633   0.02136502            8 
 1301000   0.74736882   -7.2985831    338.15348  0.021659844  0.021349919            7 
 1302000   0.72898983   -7.3171945    338.71481  0.021679135  0.021334826            5 
 1303000   0.73299914   -7.3049381    338.14122  0.021625813   0.02131979            6 
 1304000   0.74596131   -7.3102371    337.84158   0.02159008  0.021304737            9 
 1305000   0.73530143   -7.2909556    338.52373  0.021617096  0.021289713            5 
 1306000   0.74276523   -7.2707154    338.54376  0.021601823  0.021274719            6 
 1307000   0.75197619   -7.2774897    338.78724  0.021600819   0.02125978            7 
 1308000   0.73183733   -7.2912551    339.15168  0.021607523  0.021244723            9 
 1309000   0.70838085   -7.2960449    339.22419  0.021595632  0.021229766            3 
 1310000   0.72085484   -7.3028942    338.94708  0.021561519  0.021214794           14 
 1311000   0.73043386   -7.3196867    339.02463  0.021550002  0.021199823            6 
 1312000   0.73272307   -7.3121078    339.23106  0.021546688   0.02118489           12 
 1313000    0.7244739   -7.2808888    339.32402  0.021536178  0.021169969           15 
 1314000    0.7218999   -7.3140579    338.96375   0.02149694   0.02115505           10 
 1315000    0.7304896   -7.2863721    339.75077  0.021530467  0.021140107           13 
 1316000   0.73985279   -7.3232586    339.32331  0.021487039  0.021125183            9 
 1317000   0.73969925    -7.304365    338.94487  0.021446777  0.021110294           10 
 1318000   0.72651363   -7.3022903    339.01997  0.021435254   0.02109539            8 
 1319000   0.72357768    -7.294778    339.64098  0.021458237   0.02108054            9 
 1320000   0.71753216   -7.2771696    340.17292  0.021475563  0.021065781            8 
 1321000   0.72984171   -7.3049702    340.00894  0.021448961  0.021051061            6 
 1322000   0.73369152   -7.2953116    339.79097  0.021418997  0.021036322           11 
 1323000   0.71612402   -7.2925179    340.36311  0.021438845  0.021021585            9 
 1324000     0.704228    -7.325103    339.77022  0.021385336  0.021006848            5 
 1325000   0.71714427   -7.3312956    339.83983  0.021373574  0.020992047            8 
 1326000   0.72253364   -7.3355078    339.54383  0.021338853   0.02097718            9 
 1327000    0.7304578   -7.3247283    340.28298   0.02136919  0.020962313           15 
 1328000   0.72334752   -7.3074727    340.04663  0.021338267  0.020947398           16 
 1329000   0.73825964   -7.3121125    339.89764  0.021312869  0.020932501            7 
 1330000   0.72974231   -7.3395089    339.64439  0.021280977  0.020917499            5 
 1331000   0.72439455   -7.3225388    339.24504  0.021239985  0.020902494           12 
 1332000   0.69964569   -7.3274017    339.76213   0.02125639  0.020887495            8 
 1333000   0.73031503   -7.3395461    338.95898  0.021190234  0.020872528            8 
 1334000   0.71659996   -7.3315599    338.97088  0.021175093  0.020857541            7 
 1335000   0.70894636   -7.3280945    339.07326  0.021165621  0.020842532            9 
 1336000   0.72691293   -7.3435571    339.59464  0.021182301  0.020827584            8 
 1337000   0.70437009   -7.3197983    339.38556  0.021153425   0.02081263            7 
 1338000   0.71248619   -7.3138541    339.92337  0.021171112  0.020797706            7 
 1339000   0.72005297   -7.3150025    339.30901  0.021117066  0.020782769            9 
 1340000   0.72230963   -7.3252281    339.74306    0.0211283  0.020767917           12 
 1341000   0.72071373   -7.3073831    340.25727  0.021144499  0.020753047           13 
 1342000   0.71096229   -7.3386111    340.10734  0.021119432  0.020738071            7 
 1343000   0.70751434   -7.3473894    339.44851  0.021062826  0.020723151           11 
 1344000   0.73249594   -7.3156848    340.06563  0.021085418  0.020708228            7 
 1345000    0.7241601    -7.353117    339.55963  0.021038391  0.020693299           10 
 1346000   0.72407313   -7.3512318    339.96489  0.021047851  0.020678428            7 
 1347000   0.70793773   -7.3484012    339.45605  0.021000745  0.020663542            9 
 1348000   0.72199228   -7.3335768    340.80253  0.021068406  0.020648737            6 
 1349000    0.7418235   -7.3453892    340.10756  0.021009856  0.020633907            5 
 1350000   0.70167085   -7.3410285    340.44053  0.021014847  0.020619087            8 
 1351000   0.68960197   -7.3587972    340.56769  0.021007136  0.020604202            5 
 1352000   0.70919951   -7.3666316    340.18587  0.020968064  0.020589331            8 
 1353000    0.6991966   -7.3451663    339.38443  0.020903205  0.020574444            9 
 1354000   0.71988257   -7.3505131    340.73991  0.020971191  0.020559574            5 
 1355000    0.7131573   -7.3507966    340.17507  0.020920976   0.02054471           11 
 1356000   0.69594062   -7.3496231    339.47871  0.020862753  0.020529865            8 
 1357000   0.70017045   -7.3378423    340.42385   0.02090542  0.020515028            5 
 1358000   0.72065641   -7.3498715    340.44096  0.020891075  0.020500254            7 
 1359000      0.70767   -7.3527875     339.9857  0.020847786  0.020485448           12 
 1360000   0.70511213     -7.36758    339.74169  0.020817505  0.020470677           17 
 1361000   0.71260658   -7.3489259    340.77961  0.020865761  0.020455865           11 
 1362000    0.7234068   -7.3374641    340.64357  0.020842118  0.020441077            8 
 1363000   0.71094043   -7.3449136    340.68573  0.020829404  0.020426352            6 
 1364000   0.69499521   -7.3574523    340.18797  0.020783722  0.020411635           11 
 1365000   0.70916835   -7.3631201    340.50309  0.020787734  0.020396878           12 
 1366000   0.69149758   -7.3409729    340.94964  0.020799759  0.020382202            4 
 1367000   0.69232051   -7.3376242    341.01302  0.020788407  0.020367602           13 
 1368000   0.70599695   -7.3640004    340.78773  0.020759486  0.020352964           11 
 1369000   0.70170837   -7.3371046    341.29203   0.02077502  0.020338296           15 
 1370000   0.71254973   -7.3527371    340.92358  0.020737444   0.02032368           17 
 1371000     0.708509   -7.3535057    340.05722  0.020669659  0.020308987           15 
 1372000   0.70679747   -7.3692918    340.97396  0.020710274  0.020294364           13 
 1373000   0.69444239   -7.3627402    341.47048  0.020725326   0.02027969           24 
 1374000   0.69879729   -7.3594328    340.95407  0.020678922  0.020264989           25 
 1375000   0.71129722   -7.3641086    341.13041   0.02067457  0.020250267           14 
 1376000   0.70018579   -7.3591392    340.58307  0.020626397  0.020235551           19 
 1377000   0.71501348     -7.35612    341.13643  0.020644906  0.020220842           24 
 1378000   0.70747951   -7.3732896    340.67659  0.020602116  0.020206113           21 
 1379000   0.70342469   -7.3733731     340.6471  0.020585394  0.020191382           24 
 1380000   0.68561413   -7.3472449    341.07298  0.020596195  0.020176736           13 
 1381000   0.70162143   -7.3841682     340.6336  0.020554767  0.020162114           15 
 1382000   0.70768424   -7.3465929    340.78853  0.020549236  0.020147436           14 
 1383000   0.70200253   -7.3727095    341.19506  0.020558873  0.020132796            6 
 1384000   0.70679221   -7.3873465    341.56737  0.020566436  0.020118176           13 
 1385000    0.7038136   -7.3851837     341.4178  0.020542587  0.020103499            8 
 1386000   0.70537278   -7.3830789    340.60393  0.020478832  0.020088876           35 
 1387000   0.69784878   -7.3862867    340.50076  0.020457868  0.020074235           36 
 1388000   0.68090846   -7.4016591    341.55172  0.020506227  0.020059614           23 
 1389000   0.69691263   -7.3746122    341.03057  0.020460197  0.020044986           14 
 1390000   0.69923333    -7.355743    341.63266  0.020481574  0.020030372           12 
 1391000    0.6999689   -7.3852446    341.53365  0.020460918  0.020015754           16 
 1392000   0.70589704   -7.3852399    341.48855   0.02044352  0.020001206           12 
 1393000   0.69878739   -7.4115007     341.7089  0.020442025  0.019986615            4 
 1394000   0.71161127   -7.4088523    341.17005  0.020395149  0.019972019           19 
 1395000   0.68680607   -7.3912878    341.39402  0.020393908  0.019957423           17 
 1396000   0.69556008   -7.3929881    340.78038  0.020342668  0.019942867           20 
 1397000   0.68983202    -7.385195    341.69057  0.020382401  0.019928346           20 
 1398000   0.70344827   -7.4208361    341.37617   0.02034908  0.019913804           12 
 1399000   0.69641505   -7.4016416    341.74835  0.020356704  0.019899273           10 
 1400000   0.69060649   -7.4079722    342.19039  0.020368476  0.019884746            8 
 1401000   0.70745307   -7.3842058    341.78436  0.020329786  0.019870237            6 
 1402000   0.69088311    -7.401393    341.13916  0.020276935  0.019855774           11 
 1403000   0.69079266   -7.4013734    342.26936  0.020329613  0.019841314           10 
 1404000   0.69710623   -7.3706957     341.4084  0.020264031  0.019826901           10 
 1405000   0.69427013   -7.3878147    341.61867   0.02026208  0.019812468           11 
 1406000   0.68933206   -7.3893618    342.16247    0.0202799  0.019797999           15 
 1407000   0.68138955   -7.3951935    342.24144  0.020270163  0.019783569           23 
 1408000   0.69228876    -7.380746    342.26576  0.020257206  0.019769197           22 
 1409000   0.68785379   -7.3928538    342.37726  0.020249424  0.019754822           18 
 1410000   0.68026818   -7.3927163    341.80631  0.020201318  0.019740474           16 
 1411000   0.69126651   -7.3998135    342.75919  0.020243278   0.01972611           11 
 1412000   0.70281334   -7.4013319    341.44798  0.020151557  0.019711747           17 
 1413000   0.69171553   -7.3791105    341.63994  0.020148617  0.019697386           22 
 1414000   0.69499391   -7.4091438    341.85261    0.0201469  0.019682946            6 
 1415000   0.68112295   -7.3872644    342.21853  0.020154213  0.019668554            5 
 1416000   0.69097348   -7.3715473     341.1776   0.02007872  0.019654178           17 
 1417000    0.6918337   -7.3796973    342.55796  0.020145728   0.01963983            8 
 1418000    0.6714035   -7.3620567    341.74906  0.020083983  0.019625537            9 
 1419000   0.68026603   -7.3849085    341.94193  0.020081156  0.019611232           13 
 1420000   0.68783294    -7.405469    342.04183  0.020072877   0.01959688            9 
 1421000   0.68158333   -7.3882732    342.07465  0.020060676   0.01958257            9 
 1422000   0.67886201   -7.3990022    341.83952   0.02003279  0.019568255            6 
 1423000   0.68233598   -7.3864534    342.49538   0.02005712  0.019553997           15 
 1424000   0.69653106   -7.4104356    342.01478   0.02001491  0.019539691           16 
 1425000   0.70330681   -7.3987054    342.59532  0.020034814  0.019525382           12 
 1426000   0.70033395   -7.4300983    342.21809   0.01999872  0.019511033            9 
 1427000   0.68524205    -7.410422    341.72903  0.019956145  0.019496685            8 
 1428000   0.69500799   -7.4031286    341.91754  0.019953171  0.019482371           13 
 1429000   0.70142927   -7.4320417    342.16735  0.019953776  0.019468085           11 
 1430000   0.67839402   -7.4271898    342.62386  0.019966426  0.019453711            9 
 1431000   0.68315859   -7.4154944    341.61403  0.019893666  0.019439344           12 
 1432000    0.6814707   -7.4189268    341.42608  0.019868836  0.019424993            9 
 1433000   0.66573776   -7.3911747    342.15926  0.019897607  0.019410653            7 
 1434000    0.6888134   -7.4232543    341.69598   0.01985681  0.019396322           10 
 1435000   0.68255341   -7.3992972     342.1765  0.019870877  0.019381998           13 
 1436000   0.67516755   -7.4062913    342.46632  0.019873858  0.019367709            5 
 1437000   0.68847533   -7.3930576    342.29389  0.019850029  0.019353443            8 
 1438000   0.67781526   -7.4208213    341.58622  0.019795215  0.019339147           14 
 1439000   0.67148618   -7.4293125    342.06577  0.019809229  0.019324838           10 
 1440000   0.67479118   -7.4019409    342.06792  0.019795597  0.019310557           11 
 1441000   0.68580325   -7.4234163    342.40967  0.019801623   0.01929624           16 
 1442000    0.6789662   -7.4137693    342.44242  0.019789784  0.019281969           12 
 1443000   0.68673086   -7.4503831    341.46699  0.019719739   0.01926773           20 
 1444000    0.6715182   -7.4300753    342.17289   0.01974682  0.019253497           13 
 1445000   0.68221698   -7.4034445    343.01184  0.019781536  0.019239305           15 
 1446000   0.67379182   -7.4282043    341.73387  0.019694207  0.019225071           10 
 1447000   0.67966889   -7.4357097    342.30712   0.01971361  0.019210853           17 
 1448000   0.68806784   -7.4237949    341.50367  0.019653756  0.019196585           15 
 1449000   0.65468195   -7.4227983     341.9464  0.019665655  0.019182341            9 
 1450000    0.6798277   -7.4141098    342.52114  0.019685123  0.019168069           13 
 1451000   0.68955158   -7.4195431    341.96834  0.019639808  0.019153831           13 
 1452000   0.66137098   -7.4136554    342.76286  0.019671881  0.019139636            8 
 1453000   0.69956853   -7.4245567    342.04195  0.019616997  0.019125381           15 
 1454000   0.67663428   -7.4401628    342.04701  0.019603794  0.019111148            7 
 1455000   0.67464198   -7.4216299     342.2893  0.019604198  0.019096874            7 
 1456000   0.67240167   -7.4417439    342.02819  0.019575789  0.019082629           15 
 1457000    0.6614805   -7.4150863    342.35688  0.019581153  0.019068386           17 
 1458000    0.6794088   -7.4458724    341.69835  0.019530084  0.019054205           13 
 1459000   0.66508284   -7.4566711    342.59393  0.019567851  0.019039991            7 
 1460000   0.66261185    -7.452225    342.37257  0.019541814  0.019025724           11 
 1461000   0.65646859   -7.4475434    341.66217  0.019487918    0.0190115            8 
 1462000   0.67093492   -7.4501599    341.58922   0.01947043  0.018997268           12 
 1463000   0.67580651   -7.4604686    343.06293  0.019541064  0.018983046           22 
 1464000   0.66327165   -7.4570291    342.39211  0.019489533  0.018968872           20 
 1465000   0.66755975   -7.4400771    342.94375  0.019507608  0.018954705           23 
 1466000   0.67758382   -7.4442418    342.49091   0.01946856  0.018940541           16 
 1467000   0.66350985   -7.4438075    341.91044  0.019422316  0.018926404           15 
 1468000   0.66482604   -7.4336517    343.23093  0.019484044  0.018912289           17 
 1469000   0.66509265   -7.4416358     342.6318  0.019436794  0.018898219            9 
 1470000   0.67018508   -7.4513983    342.56106  0.019419561  0.018884123           10 
 1471000   0.66985262   -7.4437892    342.02898  0.019376217  0.018870019           10 
 1472000   0.67035405   -7.4354499    342.36638  0.019382155  0.018855935           13 
 1473000   0.66944294   -7.4630936    342.42893  0.019372535  0.018841828            8 
 1474000   0.67138641   -7.4665127    342.38194  0.019356736  0.018827753           12 
 1475000   0.66738669   -7.4496954    343.17274   0.01938829  0.018813671            7 
 1476000   0.65495005   -7.4492207    342.42012  0.019332663  0.018799573           22 
 1477000   0.66161455    -7.427679    343.06083  0.019355723  0.018785527           14 
 1478000   0.65878526   -7.4565347    342.77997  0.019326791  0.018771505           12 
 1479000   0.67038831   -7.4810384    342.77667  0.019313538  0.018757436           18 
 1480000   0.65391548   -7.4553344    343.00381  0.019313277  0.018743373            6 
 1481000   0.65690236   -7.4562691    342.67463  0.019281714  0.018729387            5 
 1482000    0.6627943   -7.4652507    342.70632  0.019270486  0.018715366           21 
 1483000   0.67595131   -7.4530308    342.57008  0.019249836  0.018701365           20 
 1484000   0.66536035   -7.4313313    342.65597  0.019241687  0.018687383            9 
 1485000   0.65514197   -7.4641657    342.92103  0.019243604  0.018673446           16 
 1486000   0.67753549   -7.4292967    342.85644  0.019227032  0.018659523           18 
 1487000   0.67105654   -7.4530449    342.51844   0.01919516  0.018645601           18 
 1488000   0.66055712   -7.4480623    342.45152  0.019178513  0.018631702           16 
 1489000   0.66204227   -7.4464897    343.09881  0.019201859  0.018617806           12 
 1490000   0.66551768   -7.4653072    342.00251  0.019127657  0.018603933           14 
 1491000   0.64928172   -7.4644732     343.4073  0.019193343  0.018590058           11 
 1492000   0.65321223   -7.4684293      343.381   0.01917901  0.018576196           11 
 1493000   0.66836843   -7.4558405    343.34114  0.019163939   0.01856235           10 
 1494000   0.65842731   -7.4613558    343.03248  0.019133896  0.018548481           12 
 1495000   0.65803117   -7.4701492    342.75196  0.019105461  0.018534645            8 
 1496000   0.64943947   -7.4739455    342.64872  0.019086938  0.018520756           10 
 1497000   0.64896674   -7.4847384    342.82415  0.019083954   0.01850689            6 
 1498000   0.64511482   -7.5113072    343.05315  0.019083954  0.018492989           12 
 1499000   0.64873683   -7.4797866    343.14984  0.019076598  0.018479126           12 
 1500000   0.65624324   -7.4611293    343.14637  0.019063687  0.018465302            8 
 1501000   0.65238592   -7.4556555    343.14529  0.019050927  0.018451514            8 
 1502000   0.65307903   -7.4810254    342.74635  0.019016109  0.018437709           15 
 1503000   0.64640625   -7.4669623    342.75956  0.019004189  0.018423906            9 
 1504000   0.65124355   -7.4704855    343.37905  0.019025878  0.018410116            7 
 1505000   0.64673768   -7.4753517    342.98455  0.018991393  0.018396325           13 
 1506000    0.6334602   -7.4549292    343.20399  0.018990925  0.018382549            8 
 1507000   0.65770662   -7.4689891    342.73345  0.018952303    0.0183688            7 
 1508000    0.6537381   -7.4965156    343.09798   0.01895988  0.018355036           12 
 1509000   0.65373447   -7.4895011     342.9667  0.018940065   0.01834127           16 
 1510000   0.65423988   -7.4657825    343.08607   0.01893411  0.018327526           10 
 1511000   0.66757003   -7.4703027    343.18955  0.018927286  0.018313752           12 
 1512000   0.65466679   -7.4706077    343.15089  0.018912637  0.018299993           10 
 1513000   0.65348731   -7.4831054    344.20053   0.01895795  0.018286248            5 
 1514000   0.65858492   -7.4998108    342.84808  0.018870986  0.018272509           13 
 1515000   0.63929755   -7.4832604    342.98386  0.018865999  0.018258795           13 
 1516000   0.64510287    -7.491762    343.28915  0.018870336  0.018245122            8 
 1517000   0.64327338   -7.5013576    343.49645  0.018869284   0.01823144           11 
 1518000   0.65004418   -7.4955057    343.27122   0.01884449  0.018217764           15 
 1519000   0.65196031   -7.4813831    342.95413  0.018814688  0.018204074           21 
 1520000   0.65072944   -7.4857358    343.05286  0.018807722  0.018190383           17 
 1521000    0.6499601   -7.4887871    343.44086  0.018816615  0.018176688            9 
 1522000   0.64793394   -7.4990438    342.87893  0.018773485  0.018163024            5 
 1523000   0.64574965   -7.4948485     342.9498  0.018765036  0.018149333           23 
 1524000   0.64997764   -7.4929391    342.65912  0.018736829  0.018135682            7 
 1525000   0.64696372   -7.4690913    343.10287  0.018748791  0.018122039            8 
 1526000   0.65178285   -7.4889718     343.6151  0.018764477  0.018108414           18 
 1527000   0.66267881   -7.5004267    342.68682  0.018701529  0.018094778           20 
 1528000    0.6475145   -7.5059451    343.21546  0.018718121  0.018081169           31 
 1529000   0.63890377   -7.4855917    342.65385   0.01867527  0.018067584           15 
 1530000   0.66282382   -7.5187077    342.87691  0.018675213  0.018054003           16 
 1531000   0.65062367   -7.5159186    342.77288  0.018657353  0.018040419           15 
 1532000   0.64717309   -7.4991592     343.0263  0.018658959   0.01802686           10 
 1533000   0.65357548   -7.4905976    343.10965  0.018651318  0.018013266           12 
 1534000   0.64669998   -7.4960101    342.88016  0.018626693  0.017999645           10 
 1535000   0.64851226   -7.5088809    343.21971  0.018632992  0.017986082           18 
 1536000   0.65619354   -7.4888738    342.47273  0.018580334  0.017972517           11 
 1537000   0.62156166   -7.5022656    342.85025  0.018588715  0.017958965            9 
 1538000   0.63653553   -7.4853229    343.29835  0.018600907  0.017945416           12 
 1539000   0.65485046   -7.5238868    342.96644  0.018570849  0.017931868           12 
 1540000   0.62867482    -7.535486     342.9144  0.018555974  0.017918296           19 
 1541000   0.63750377    -7.505234    342.37163  0.018514581  0.017904753           12 
 1542000   0.63378018   -7.5151076    343.21855  0.018548344  0.017891221           10 
 1543000   0.62686032   -7.4960998    343.38083  0.018545087  0.017877672           12 
 1544000   0.63843721   -7.5056066    343.10632   0.01851826  0.017864178           19 
 1545000   0.62319008   -7.5097893    343.62138  0.018534055   0.01785066           13 
 1546000   0.63668969   -7.5225254    343.54513  0.018517956  0.017837189           17 
 1547000   0.63844822   -7.5194574    342.73453  0.018462321  0.017823675           13 
 1548000    0.6494695   -7.5246652    343.24346  0.018477792  0.017810134           11 
 1549000   0.62896119   -7.5242641    342.23431  0.018411572  0.017796595           21 
 1550000   0.65452881   -7.5220379    342.57541  0.018418033  0.017783064           12 
 1551000   0.63057684   -7.5266642      342.662   0.01841081  0.017769539           12 
 1552000    0.6289745    -7.515252    342.24418  0.018376513  0.017756003           13 
 1553000   0.62841396   -7.5153022    343.24257  0.018418253  0.017742513           28 
 1554000   0.63345868   -7.5273981    342.96264   0.01839139  0.017729045           13 
 1555000   0.63704669   -7.5147369     343.6576  0.018416806  0.017715575           15 
 1556000   0.64698251   -7.5154218    342.76502  0.018357167   0.01770216           12 
 1557000   0.63081591   -7.5224592    342.75401  0.018344788  0.017688746           20 
 1558000   0.64372286    -7.501243    344.03947  0.018401769   0.01767536           13 
 1559000   0.62202078   -7.5171456    342.99605  0.018334191  0.017661995           10 
 1560000    0.6314087   -7.4896558    343.49936  0.018349325  0.017648637           14 
 1561000   0.63869673   -7.4790603    343.05645  0.018313925   0.01763529           37 
 1562000     0.631668   -7.5232199    343.41953  0.018321571   0.01762193           14 
 1563000   0.63718129   -7.5079108    342.81681  0.018277714  0.017608547           48 
 1564000   0.64231008   -7.5380906    343.32598  0.018293158  0.017595202           28 
 1565000   0.61814122   -7.5265671    342.76987  0.018251857  0.017581822           27 
 1566000   0.63977969   -7.5203023    342.48762  0.018225182  0.017568473           23 
 1567000   0.62281402   -7.5406523    343.21857  0.018252423  0.017555115           15 
 1568000   0.62346394   -7.5406837    343.55347  0.018258582  0.017541768           20 
 1569000   0.61926543   -7.5329722    342.92597  0.018213616   0.01752843           24 
 1570000   0.61754491   -7.5334818    342.90004  0.018200639  0.017515122           17 
 1571000   0.62449541   -7.5391848    342.64811   0.01817569  0.017501795           17 
 1572000   0.61310087     -7.53721    342.58222  0.018160635  0.017488494           22 
 1573000    0.6291786   -7.5380785    342.78237  0.018159693  0.017475172           20 
 1574000   0.61634288   -7.5635823    343.51813   0.01818711  0.017461859           23 
 1575000   0.61658704   -7.5438187    342.49843   0.01812161  0.017448528           17 
 1576000   0.61694652   -7.5389856    342.26032  0.018097521  0.017435179           38 
 1577000   0.62479824   -7.5644119    342.23138  0.018084516  0.017421854           30 
 1578000   0.61035086   -7.5683747    343.59051  0.018144831  0.017408545           33 
 1579000   0.60678822   -7.5465885    343.00758  0.018102574  0.017395225           54 
 1580000    0.6129929   -7.5281336    343.45898  0.018114925  0.017381923           41 
 1581000   0.62582209   -7.5332494    342.92085  0.018075103  0.017368642           35 
 1582000   0.62968146   -7.5379427    342.97464  0.018066511  0.017355413           54 
 1583000   0.62945516   -7.5440647    343.48653  0.018082045  0.017342204           38 
 1584000   0.61374862   -7.5530033    342.98088  0.018044028  0.017328976           41 
 1585000   0.61602223   -7.5305026    343.05009  0.018036283  0.017315755           22 
 1586000   0.61361215   -7.5425731    342.44636  0.017993188  0.017302526           30 
 1587000   0.60308224   -7.4994774    342.97517  0.018009618   0.01728931           76 
 1588000   0.62428543   -7.5705939    343.00006  0.017999583  0.017276078           35 
 1589000   0.64097762   -7.5771939    342.83173  0.017979428  0.017262839           46 
 1590000   0.61254355   -7.5517204    342.27118  0.017938741  0.017249633           52 
 1591000   0.62461808   -7.5511121    342.03414   0.01791505  0.017236398           50 
 1592000   0.61036495   -7.5780313    342.45031  0.017925582  0.017223193           57 
 1593000    0.6268862   -7.5642167    342.90988   0.01793837  0.017209998           44 
 1594000   0.62911114   -7.5562607    342.78668  0.017920676  0.017196786           23 
 1595000   0.63311397   -7.5514987     342.6564  0.017902633  0.017183591           71 
 1596000   0.61898537   -7.5611397    342.23071  0.017869189  0.017170422           49 
 1597000   0.59963989   -7.5769476     343.3754  0.017917731  0.017157224           67 
 1598000   0.62263479   -7.5793329    342.63834  0.017868082  0.017144088           34 
 1599000   0.62076837   -7.5748128    342.61594   0.01785574  0.017130946           36 
 1600000     0.619499   -7.5666289     342.8032  0.017854334  0.017117822           20 
 1601000   0.62798383   -7.5669574    342.57224   0.01783116   0.01710468           32 
 1602000   0.61281029   -7.5689913    342.82733  0.017833299  0.017091555           34 
 1603000   0.61111171   -7.5721174    342.76865  0.017819123   0.01707846           18 
 1604000   0.61563485   -7.5835804    342.57984  0.017798204  0.017065364           10 
 1605000   0.60248411   -7.5518204    342.99494  0.017808668  0.017052269           26 
 1606000   0.60706349   -7.5574722    342.33419  0.017763294  0.017039179           16 
 1607000   0.61619018    -7.556561    342.76783  0.017774727  0.017026107           21 
 1608000   0.61137245   -7.5722455    342.32154  0.017740544  0.017013055           36 
 1609000   0.60139242   -7.5456871    342.68663  0.017748427  0.017000023           43 
 1610000   0.62736527   -7.5621056    343.25655  0.017766902  0.016987003           39 
 1611000   0.60612197   -7.5823153     342.5871  0.017721245  0.016973991           31 
 1612000   0.60356103   -7.5561343    342.47797   0.01770461  0.016960975           58 
 1613000   0.61722135   -7.5748469    342.53445  0.017696551  0.016947957           24 
 1614000    0.6082152   -7.5550311     342.9536  0.017707228  0.016934954           32 
 1615000   0.61968699   -7.5935034    342.49711   0.01767271  0.016921969           34 
 1616000   0.60555841   -7.5696531    342.66539  0.017670451  0.016908974           36 
 1617000   0.60422052   -7.5773246    342.83507  0.017668268  0.016896003           26 
 1618000   0.61973897   -7.5896814    342.95139  0.017663339   0.01688303           37 
 1619000   0.59981132   -7.5598449    342.44161  0.017626189  0.016870076           25 
 1620000   0.61205031   -7.5566687    343.84781  0.017687644   0.01685712           28 
 1621000   0.61124578   -7.5932279    342.61423  0.017613316  0.016844178           58 
 1622000   0.59883082   -7.5933577    342.97336  0.017620908  0.016831233           53 
 1623000   0.60600812   -7.5850231    342.09922  0.017565168  0.016818311           51 
 1624000   0.59805413   -7.5893184    343.11847  0.017606654  0.016805405           39 
 1625000   0.60379267    -7.599931      342.694  0.017574051  0.016792503           61 
 1626000   0.60861193   -7.6035893    342.75837  0.017566542  0.016779627           51 
 1627000   0.60524011   -7.5713235    342.30956  0.017532758  0.016766758           58 
 1628000    0.6098745   -7.5967956     342.6774  0.017540817  0.016753879           51 
 1629000   0.61624557   -7.5908283    342.88614  0.017540727  0.016741013           34 
 1630000   0.59720919   -7.5875734    342.51138  0.017510807  0.016728163           48 
 1631000   0.60230728   -7.5927693    342.64191   0.01750674  0.016715323           46 
 1632000   0.61329905   -7.5607249    342.32615  0.017479889  0.016702471           30 
 1633000   0.60164892   -7.5830597    342.43806  0.017474896  0.016689635           32 
 1634000   0.60089527   -7.6046427    342.82933  0.017484156  0.016676814           48 
 1635000   0.59374713   -7.5994904    342.37417  0.017450263  0.016663999           44 
 1636000   0.60430137   -7.6115398    342.87143  0.017464926   0.01665117           30 
 1637000   0.61211881   -7.6063445     342.0422  0.017412045  0.016638344           36 
 1638000   0.60746443   -7.5958291    342.75493  0.017437675  0.016625523           42 
 1639000   0.59913371   -7.5930843    342.38916  0.017408438  0.016612724           31 
 1640000   0.59831625   -7.5738288    342.62597  0.017409856  0.016599956           35 
 1641000   0.59158561   -7.5986051    343.37354   0.01743721    0.0165872           13 
 1642000   0.59138674   -7.5983699    342.68017  0.017391401  0.016574442           27 
 1643000   0.58928151   -7.5796455    342.85303  0.017389584  0.016561711           43 
 1644000   0.59555856   -7.5850317    343.20307  0.017396749  0.016548982           40 
 1645000    0.5877187   -7.6066836    342.75151  0.017363298   0.01653627           27 
 1646000   0.59240588   -7.5765993    343.03948  0.017367329  0.016523581           30 
 1647000   0.58985802   -7.5842646    342.61069  0.017335089  0.016510889           29 
 1648000   0.59545781    -7.571217    343.11401  0.017350021  0.016498203           19 
 1649000    0.5868511   -7.5855526    343.09292  0.017338433  0.016485499           21 
 1650000   0.59124463   -7.5942076    342.38828  0.017292338  0.016472814           29 
 1651000   0.58311954   -7.5810017    342.51058  0.017288036   0.01646015           24 
 1652000   0.59505814   -7.6027708    342.46034  0.017275037  0.016447503           19 
 1653000    0.5897561    -7.606574    342.55004  0.017269109  0.016434852           19 
 1654000   0.59939859   -7.5915801    342.74149  0.017268314   0.01642219           18 
 1655000   0.58635835   -7.6029691    343.38469  0.017290266  0.016409535           16 
 1656000   0.59977474   -7.6116606    342.80319  0.017250563  0.016396922           12 
 1657000   0.59391264   -7.5982104    341.99179  0.017199346  0.016384287           12 
 1658000   0.58401423   -7.6036507    342.75438  0.017227301   0.01637166           19 
 1659000   0.59835938   -7.6121801    342.32615  0.017195406  0.016359049           27 
 1660000   0.58872675   -7.6072003    342.61234  0.017199415  0.016346444           10 
 1661000   0.58953994   -7.6101448    342.17064    0.0171669  0.016333868           16 
 1662000   0.58608448   -7.6012775    342.74685  0.017185462    0.0163213           21 
 1663000   0.57919388    -7.612527    342.51677  0.017163598  0.016308711           17 
 1664000   0.58663711    -7.610735    342.22456   0.01713865   0.01629614           16 
 1665000   0.56827361   -7.6055107     342.5145  0.017142868  0.016283556           15 
 1666000   0.58969532   -7.6054732    342.37145  0.017125423  0.016271005           30 
 1667000   0.58566337   -7.6073683    342.15518  0.017104338  0.016258478           16 
 1668000   0.59114894   -7.6053724    342.83755  0.017128175  0.016245934           16 
 1669000   0.58789632   -7.6316622    342.64136  0.017108117  0.016233405           17 
 1670000   0.60048374   -7.6175524    342.37793  0.017084727  0.016220889           16 
 1671000   0.58048958   -7.6160635    342.43082  0.017077141   0.01620836           19 
 1672000    0.5759636   -7.6257812    341.61081  0.017026057    0.0161958           20 
 1673000    0.5807472   -7.6334909    342.02938   0.01703673  0.016183266           22 
 1674000   0.58079464   -7.6424827    342.13535  0.017031827  0.016170744           27 
 1675000   0.59056115    -7.612475    341.85475  0.017007699  0.016158212           21 
 1676000   0.57582677   -7.6315415    341.92812  0.017001199  0.016145704           15 
 1677000   0.59003386   -7.6242344    341.78534  0.016983966  0.016133191           19 
 1678000   0.56495871   -7.6115777     342.0151  0.016985255  0.016120708            9 
 1679000   0.58423482   -7.6169884    342.39405  0.016993947  0.016108213           17 
 1680000   0.57949521   -7.6095342    342.44972  0.016986593  0.016095744           22 
 1681000   0.58488859   -7.6223509    342.65897  0.016986861  0.016083269           13 
 1682000    0.5685439   -7.6235535    341.94259   0.01694127  0.016070775           14 
 1683000   0.58122699   -7.6480601    341.96418  0.016932273  0.016058268           14 
 1684000   0.58870769   -7.6453473    342.36946  0.016942273  0.016045791           10 
 1685000   0.57270551   -7.6553902    341.68884  0.016898558  0.016033323           34 
 1686000   0.56642954   -7.6438539    341.79952  0.016894005  0.016020836           18 
 1687000   0.58580374   -7.6085049    342.16014  0.016901805   0.01600837           44 
 1688000   0.58056431   -7.6434614    341.26745  0.016847722  0.015995924           38 
 1689000   0.57772307   -7.6441135    341.60009  0.016854159  0.015983464           15 
 1690000   0.58702573    -7.630054    341.74686  0.016851423  0.015971014           16 
 1691000   0.57253718   -7.6430664    341.59654   0.01683405  0.015958577           15 
 1692000   0.58043949   -7.6371902    341.64184  0.016826332  0.015946132           13 
 1693000   0.57766673   -7.6553735    341.23649  0.016796441  0.015933713           15 
 1694000   0.59019535   -7.6610208    341.30438  0.016789865  0.015921297           20 
 1695000   0.57977143   -7.6471645    341.72791  0.016800782   0.01590891           19 
 1696000   0.57265662   -7.6318564    341.94617    0.0168016  0.015896549           12 
 1697000   0.57092682    -7.632415    341.51012  0.016770287  0.015884181           16 
 1698000   0.58452515   -7.6232401    341.42903  0.016756431  0.015871829           23 
 1699000   0.58138139   -7.6314984    342.14851  0.016781858  0.015859486           24 
 1700000   0.57128579   -7.6276742    341.81373  0.016755575  0.015847168           13 
 1701000   0.57403651   -7.6378839    341.59731  0.016735122  0.015834829           13 
 1702000      0.57181   -7.6577987    342.14259  0.016751988  0.015822498           21 
 1703000   0.58713922   -7.6526347    341.80027    0.0167254  0.015810199           12 
 1704000    0.5853436   -7.6638913     341.1432  0.016683451  0.015797896           26 
 1705000   0.57508265   -7.6475996    341.73829  0.016702751  0.015785598           18 
 1706000    0.5675331   -7.6409185    341.51074  0.016681845  0.015773301           17 
 1707000   0.57441936   -7.6547925    341.74737  0.016683625  0.015761009           26 
 1708000   0.57975608   -7.6582795    341.69183  0.016671147  0.015748729           13 
 1709000    0.5624656   -7.6401575    341.22699  0.016638726  0.015736441           20 
 1710000   0.57703681   -7.6586502    341.29529  0.016632324   0.01572418           15 
 1711000    0.5680254   -7.6363093    341.37722  0.016626594  0.015711933           21 
 1712000   0.57347507   -7.6394193    342.01483  0.016647918  0.015699693           19 
 1713000   0.56748486   -7.6521949    341.79079  0.016627301  0.015687472           12 
 1714000   0.55894549   -7.6413483    341.77386  0.016616777  0.015675279            9 
 1715000   0.58098142   -7.6567509    341.82583  0.016609613  0.015663089           23 
 1716000   0.57386842   -7.6486162    341.08594  0.016564002  0.015650882           13 
 1717000   0.57409802   -7.6547285    341.21642  0.016560688  0.015638659           20 
 1718000    0.5723548    -7.650639    341.55068  0.016567262  0.015626457           19 
 1719000   0.57529891   -7.6611121    341.59897  0.016559965   0.01561427           15 
 1720000   0.57259708   -7.6721871    341.36091  0.016538804  0.015602083           14 
 1721000   0.56961275   -7.6543467     341.3365  0.016528012  0.015589948           15 
 1722000   0.56219706   -7.6852774    341.22445  0.016512991  0.015577781           16 
 1723000    0.5676648   -7.6473532    341.53491  0.016518423   0.01556563           17 
 1724000   0.57140707   -7.6735995    341.11162  0.016488381  0.015553484           20 
 1725000   0.57096017   -7.6566046    341.67351  0.016505967  0.015541353           15 
 1726000   0.55691441   -7.6560986    341.11257  0.016469321  0.015529227           18 
 1727000   0.56706477   -7.6768862    342.26763  0.016515519  0.015517124           26 
 1728000   0.56452403   -7.6550831    341.65677  0.016476503   0.01550502           18 
 1729000   0.55926086   -7.6613642    341.54991  0.016461823  0.015492933           24 
 1730000    0.5516679   -7.6533718    341.62389  0.016455871  0.015480852           13 
 1731000   0.55234669   -7.6520926    340.87245  0.016410189  0.015468786           11 
 1732000   0.57127961   -7.6592552    341.32942  0.016422701  0.015456713           13 
 1733000   0.56099274   -7.6712622    341.12551   0.01640342  0.015444662           22 
 1734000   0.54912604   -7.6805969    341.45097  0.016409601  0.015432621           18 
 1735000   0.57485178   -7.6519025    341.52836   0.01640386    0.0154206           15 
 1736000   0.55567169   -7.6734577    341.66265  0.016400857  0.015408585           20 
 1737000   0.56314311   -7.6655478    341.86118  0.016400939  0.015396566           13 
 1738000   0.55341127   -7.6817285    341.23745  0.016361596  0.015384576           18 
 1739000   0.55288975   -7.6651272    341.75182  0.016376836  0.015372592           12 
 1740000   0.56331545   -7.6694544    341.13415  0.016337843  0.015360613           11 
 1741000   0.55348303   -7.6605986     341.3186  0.016337287  0.015348664           12 
 1742000    0.5481555   -7.6690004    341.01063  0.016313176  0.015336689           16 
 1743000   0.55354558   -7.6567822    341.63627  0.016333729  0.015324718           17 
 1744000   0.55598206   -7.6800766    341.77598  0.016331039  0.015312761           14 
 1745000   0.56281415   -7.6682411    341.38011  0.016302775  0.015300814           12 
 1746000   0.56525781   -7.6735438    341.45514  0.016297019  0.015288866           14 
 1747000   0.55721593   -7.6691189    341.24138  0.016277494  0.015276934           14 
 1748000   0.55346894   -7.6655446    341.38875  0.016275207  0.015265029           17 
 1749000   0.55764211   -7.6459633    341.15441  0.016254737  0.015253131           19 
 1750000    0.5660184   -7.6684239    341.08947  0.016242356  0.015241245            9 
 1751000   0.55572748   -7.6775394    341.21073  0.016238851  0.015229346           15 
 1752000   0.54841776   -7.6719211    341.73494  0.016254516  0.015217463           19 
 1753000   0.55022364   -7.6717387    341.47053  0.016232674  0.015205598           14 
 1754000   0.55457255   -7.6700681    341.19393  0.016210278  0.015193751            8 
 1755000   0.55646663   -7.6758863    340.64933  0.016175182  0.015181911           20 
 1756000   0.54819005   -7.6797855     341.2755  0.016195686  0.015170067           17 
 1757000    0.5542898    -7.673162    341.42179  0.016193407  0.015158234           18 
 1758000    0.5380854   -7.6472929    341.39861  0.016183097  0.015146409           13 
 1759000   0.55385048   -7.6957613    341.66977  0.016186743  0.015134604           15 
 1760000   0.54348427   -7.6820122    340.86513  0.016139448  0.015122792           18 
 1761000   0.55454122    -7.659323    341.32782  0.016152178  0.015110992           14 
 1762000   0.54309305   -7.6880012     341.0061  0.016127795    0.0150992           14 
 1763000   0.56336449   -7.6711952    341.39001  0.016136794  0.015087422           26 
 1764000   0.55509047   -7.6738274    340.85856  0.016102539  0.015075646           35 
 1765000   0.54065457   -7.6864691    341.02738  0.016101387  0.015063883           16 
 1766000   0.54648576   -7.6760534    341.00815  0.016091362  0.015052121           12 
 1767000   0.53414036    -7.678443    341.23724   0.01609306  0.015040364           11 
 1768000   0.54667277   -7.6818391    340.77213  0.016062035  0.015028592           20 
 1769000     0.545154   -7.6933351    341.17586  0.016071974  0.015016836           12 
 1770000   0.54495868   -7.7010956     341.3735  0.016072198  0.015005099           11 
 1771000    0.5490999   -7.6908312    341.18819  0.016054404  0.014993349           20 
 1772000   0.54288173   -7.6984776    341.06611  0.016039603  0.014981635           21 
 1773000   0.54851169   -7.6966215    340.84736  0.016020274  0.014969924           11 
 1774000   0.54124559   -7.6926601    340.47394  0.015993703  0.014958218           28 
 1775000   0.55325851   -7.7002485    340.21425    0.0159725  0.014946515           15 
 1776000   0.53896026    -7.688361    340.97955  0.015999416  0.014934827            9 
 1777000   0.55334495   -7.7029053    340.82848  0.015983328   0.01492315           14 
 1778000    0.5498538   -7.6927781    341.09134  0.015986658  0.014911499           26 
 1779000   0.54359953   -7.6986816    340.75184  0.015961769  0.014899844           13 
 1780000   0.54290828   -7.6993759    340.46814   0.01593952  0.014888192           19 
 1781000   0.55012892    -7.697414    340.77628  0.015944988   0.01487657           15 
 1782000    0.5423759   -7.6891935    340.31489  0.015914463  0.014864939           14 
 1783000   0.54882618   -7.6911067    340.94262  0.015934876  0.014853335           17 
 1784000   0.53579633    -7.701447     340.6589  0.015912692  0.014841729           17 
 1785000   0.53153659   -7.6887211     340.6631  0.015903973  0.014830147           10 
 1786000   0.55163228   -7.6929856    340.67404  0.015895579  0.014818561           14 
 1787000   0.53201966   -7.6895028    340.66095  0.015886073  0.014806991           20 
 1788000   0.54452735   -7.7089778    340.68249  0.015878192  0.014795421            8 
 1789000   0.54593917   -7.7017616    340.91325  0.015880066   0.01478386           21 
 1790000    0.5301399   -7.7071189     340.8459  0.015868059  0.014772311           25 
 1791000   0.53656832   -7.6902792    340.89727  0.015861589  0.014760777           20 
 1792000   0.53580894   -7.6949918    340.55651  0.015836891  0.014749239           18 
 1793000   0.54421266   -7.6966615    341.34085  0.015864512  0.014737714           16 
 1794000   0.54815403   -7.7137151    340.60034  0.015821272  0.014726211           16 
 1795000    0.5422048   -7.7021392    340.93268  0.015827887  0.014714703           30 
 1796000   0.51802368   -7.6858918    340.47329  0.015797758  0.014703227           13 
 1797000   0.53113803   -7.7076451    340.79343  0.015803813  0.014691762           10 
 1798000   0.53598261   -7.7006166    339.94038  0.015755487  0.014680282           12 
 1799000   0.53168445   -7.7060212    340.42974  0.015769397  0.014668827           18 
 1800000   0.53422199   -7.7160421    340.53604  0.015765558  0.014657376           23 
 1801000   0.54343643   -7.7255139    340.78405  0.015768279  0.014645927           28 
 1802000   0.53933361   -7.7128439    340.63053  0.015752429  0.014634492           13 
 1803000   0.53157399   -7.7198838    340.86706  0.015754625  0.014623063           12 
 1804000   0.54454125   -7.6965372     340.3847   0.01572361  0.014611637           17 
 1805000   0.54294684     -7.72911    340.85846  0.015736771  0.014600235           15 
 1806000   0.52276413   -7.7119552    341.05633  0.015737187   0.01458883           15 
 1807000   0.52080693   -7.7122181    340.73241   0.01571354  0.014577443           19 
 1808000   0.52827754   -7.7055809    340.47012   0.01569276  0.014566054           24 
 1809000    0.5435742   -7.7136005    340.72709  0.015695923  0.014554676            9 
 1810000   0.51810892   -7.7313978     340.3012  0.015667643  0.014543298           11 
 1811000   0.53005061   -7.7197942    340.06583  0.015648161  0.014531924           13 
 1812000   0.53221859   -7.7120676    340.36473  0.015653271  0.014520561           14 
 1813000   0.53982306    -7.731617    340.10789  0.015632832  0.014509204            9 
 1814000   0.53707316   -7.7377247    340.39945  0.015637608  0.014497866            8 
 1815000   0.52741544    -7.724318    340.87403  0.015650782  0.014486516           13 
 1816000   0.54258715   -7.7399829    340.77071  0.015637423  0.014475192           12 
 1817000   0.52516395   -7.7395173    340.33021  0.015608613  0.014463875           16 
 1818000   0.52282961    -7.718217    340.71457  0.015617646  0.014452569           16 
 1819000   0.53017583   -7.7240937    340.65629   0.01560639  0.014441269           10 
 1820000   0.52575024   -7.7311812    340.29687  0.015581359  0.014429973           15 
 1821000   0.52652878   -7.7411047    339.66765  0.015544007  0.014418692           20 
 1822000   0.52848037   -7.7241574    340.35655  0.015566985  0.014407416           11 
 1823000   0.53225716   -7.7508801    340.10995  0.015547173  0.014396157           18 
 1824000   0.52481918   -7.7150853    340.22988  0.015544128  0.014384899           41 
 1825000   0.53897131   -7.7237345    340.19941   0.01553422  0.014373661           11 
 1826000   0.51462665   -7.7416602    340.21798   0.01552656   0.01436243           15 
 1827000   0.53036522   -7.7396828    340.49825  0.015530845   0.01435122           12 
 1828000   0.52640948   -7.7282643    340.39712  0.015517739  0.014340002           13 
 1829000   0.51784791   -7.7476548     339.7446  0.015479524   0.01432879            8 
 1830000   0.51944886   -7.7415936    340.35012  0.015498639  0.014317584           16 
 1831000    0.5286484   -7.7489052    339.96791  0.015472779  0.014306389           20 
 1832000   0.52213003      -7.7444    340.22646  0.015476095  0.014295207           19 
 1833000   0.52531976   -7.7374576     340.1954  0.015466239  0.014284036           20 
 1834000   0.50849271    -7.748501    339.63901  0.015432525  0.014272869           35 
 1835000   0.52087397   -7.7430668      340.103  0.015445186  0.014261723           19 
 1836000   0.51118869   -7.7549851    339.86768  0.015426093  0.014250581           21 
 1837000   0.51953426   -7.7529627    340.54973  0.015448636   0.01423946           13 
 1838000   0.51380609   -7.7350192    340.12738  0.015421082  0.014228338           20 
 1839000   0.52733294   -7.7440887    340.16033  0.015414189  0.014217243           15 
 1840000   0.52027624    -7.749956    339.91268  0.015394596   0.01420615           28 
 1841000   0.51793382   -7.7500885    340.54238  0.015414738  0.014195059           16 
 1842000   0.51747459   -7.7369923    340.03371  0.015383357   0.01418397           19 
 1843000   0.51414734   -7.7410907    340.31004  0.015387504  0.014172888           16 
 1844000    0.5248292   -7.7753074    339.86733  0.015359153  0.014161824           25 
 1845000   0.51868917   -7.7451771    340.39645  0.015374727  0.014150769           17 
 1846000   0.52009032   -7.7512177    340.05913   0.01535117   0.01413973           17 
 1847000   0.51524952   -7.7466737    339.94675  0.015337789  0.014128694           10 
 1848000   0.50544842   -7.7455326    340.01557  0.015332592  0.014117664           32 
 1849000   0.51156028   -7.7410984    339.69653  0.015309921  0.014106645           34 
 1850000   0.52307114   -7.7643802     340.2388  0.015326072  0.014095627           23 
 1851000   0.51860626   -7.7645632     339.9664  0.015305529  0.014084624           13 
 1852000   0.51797049   -7.7511152    339.63383    0.0152823  0.014073621           18 
 1853000   0.51578669   -7.7459305    339.88757  0.015285464  0.014062646           15 
 1854000   0.51233756   -7.7329751    339.48087  0.015258939   0.01405167           21 
 1855000   0.50709995   -7.7672753    339.91727  0.015270318  0.014040694           18 
 1856000   0.50970777   -7.7364007    339.82343  0.015257877  0.014029747           12 
 1857000    0.5170906     -7.75642    339.08109  0.015216348  0.014018795           16 
 1858000   0.51780101   -7.7472924    340.09547  0.015253654  0.014007848           15 
 1859000   0.50854238    -7.756594    340.13043  0.015247016  0.013996919           20 
 1860000   0.50750098   -7.7566195    340.02369  0.015234036   0.01398598           14 
 1861000   0.50507814   -7.7550861     339.7018  0.015211436   0.01397505           24 
 1862000   0.51348647   -7.7554948    339.88234  0.015211347  0.013964139           22 
 1863000   0.50365514   -7.7793637    339.91704  0.015204734   0.01395324           22 
 1864000   0.50983112   -7.7622375    339.55337  0.015180319  0.013942356           24 
 1865000    0.5050864   -7.7632842    339.80237  0.015183305  0.013931476           25 
 1866000   0.50796198   -7.7553728    339.75163  0.015172902  0.013920593           24 
 1867000   0.49978613    -7.776599    339.57244  0.015156777  0.013909732           30 
 1868000   0.50214866   -7.7663768    339.86422   0.01516168  0.013898875           25 
 1869000   0.49555496   -7.7732978    339.58648  0.015141184  0.013888034           21 
 1870000   0.51174544   -7.7633847    339.88768   0.01514651  0.013877192           28 
 1871000   0.50914254   -7.7615394    339.51347  0.015121747   0.01386637           29 
 1872000   0.50473996   -7.7597435    339.76521  0.015124876  0.013855563           26 
 1873000   0.50059755    -7.769546    339.52781  0.015106238  0.013844765           28 
 1874000   0.50989067   -7.7516097    339.84072  0.015112092  0.013833977           26 
 1875000   0.48801213   -7.7493715    338.98464  0.015065984  0.013823202           17 
 1876000   0.50820127    -7.767952    339.23138  0.015068913  0.013812433           19 
 1877000   0.51195325   -7.7803054    339.16277  0.015057839  0.013801667           38 
 1878000   0.50557193    -7.762488    339.51431   0.01506542  0.013790902           22 
 1879000   0.49847754    -7.780989     340.0455  0.015080961  0.013780144           18 
 1880000   0.49909644   -7.7605548    338.93668  0.015023789  0.013769411           15 
 1881000   0.50389275   -7.7947952    339.66323   0.01504799  0.013758693           20 
 1882000   0.50146423   -7.7497139    339.75706  0.015044149  0.013747977           19 
 1883000   0.49513433   -7.7698522    339.51037  0.015025242  0.013737278           23 
 1884000   0.49709724   -7.7818441    339.98565  0.015038289  0.013726565           23 
 1885000   0.50207503   -7.7686542     339.6569  0.015015778  0.013715871           25 
 1886000   0.50783543   -7.7843196    339.37724  0.014995459  0.013705192           19 
 1887000   0.51493083   -7.7715737    339.31657  0.014984834  0.013694524           27 
 1888000   0.50286794   -7.7587516    339.21456  0.014972394  0.013683858           16 
 1889000   0.49395319    -7.770507    339.26042  0.014966491  0.013673211           25 
 1890000   0.50838167   -7.7661718    339.09322    0.0149512  0.013662573           14 
 1891000   0.49587779   -7.7930318    339.17709   0.01494699  0.013651944           19 
 1892000   0.50340161   -7.7748867    339.11384  0.014936304  0.013641318           23 
 1893000   0.49144539   -7.7917661     339.4289  0.014942283  0.013630698           14 
 1894000   0.51035126   -7.7917182    339.42378  0.014934168  0.013620088           18 
 1895000   0.48904175   -7.7799564    339.72005  0.014939316  0.013609489           18 
 1896000   0.49202179   -7.7905921     339.5601  0.014924406  0.013598907           23 
 1897000   0.50233791    -7.793268    339.21384  0.014901328  0.013588334           14 
 1898000   0.49830311   -7.7900925    340.14382  0.014934309  0.013577775           23 
 1899000   0.49460879   -7.7797454    339.55456  0.014900586  0.013567215           23 
 1900000    0.5045553    -7.783877    339.12068  0.014873714  0.013556655           32 
 1901000   0.49159244   -7.7906565    339.16422  0.014867799    0.0135461           24 
 1902000   0.48593753   -7.7884203    339.32356  0.014866963  0.013535582           19 
 1903000   0.48673874   -7.7874904    339.64048  0.014873028  0.013525068           21 
 1904000   0.48909358   -7.7701914    339.25829   0.01484849  0.013514565           14 
 1905000   0.48711218   -7.7794596    339.58096   0.01485481  0.013504063           15 
 1906000     0.478362   -7.7777508    338.95692  0.014819732   0.01349357           23 
 1907000   0.49030226   -7.7905858    339.42077  0.014832231  0.013483085           24 
 1908000   0.49228043   -7.7852217    339.54557  0.014829908  0.013472624           12 
 1909000   0.49922395   -7.7878526    339.11046  0.014803146  0.013462156           24 
 1910000   0.48878344   -7.7889322    338.87821  0.014785262  0.013451696           25 
 1911000   0.48073576   -7.7930621    339.28155  0.014795114  0.013441252           23 
 1912000   0.49242602   -7.8030882    339.62876  0.014802509   0.01343081           32 
 1913000   0.48259948    -7.792644    339.25604  0.014778534  0.013420377           28 
 1914000   0.49899081    -7.776716    339.38464  0.014776412  0.013409956           28 
 1915000   0.48229921   -7.7951216     338.7876  0.014742716  0.013399543           21 
 1916000   0.48916845   -7.7887064    339.02804  0.014745478  0.013389132           46 
 1917000   0.48681841   -7.7883246    339.57683  0.014761643  0.013378725           13 
 1918000   0.48708609    -7.794406    339.34228  0.014743756  0.013368344           27 
 1919000   0.48833852   -7.8056219    339.40875  0.014738959  0.013357977           24 
 1920000   0.47776772    -7.776379    339.18314  0.014721491  0.013347614           31 
 1921000   0.48927829   -7.8113328    339.23418  0.014716041  0.013337249           23 
 1922000    0.4907742   -7.7830256    338.95658  0.014696349  0.013326892           38 
 1923000   0.48922626   -7.8061029    339.09154  0.014694555  0.013316547           30 
 1924000   0.48677086   -7.7879955    339.07362  0.014686141  0.013306225           41 
 1925000   0.49128132   -7.7981668    339.47665  0.014695959  0.013295898           27 
 1926000   0.47957472   -7.7951339    339.26819  0.014679309  0.013285578           46 
 1927000   0.48679084   -7.8041622    338.97968  0.014659215  0.013275269           31 
 1928000   0.48299617   -7.8045634    338.92731  0.014649348   0.01326496           36 
 1929000   0.48871317   -7.8020303    338.68828  0.014631427  0.013254667           33 
 1930000    0.4972351   -7.7944457    338.69996  0.014624351  0.013244382           38 
 1931000   0.48879377   -7.8094462    338.46291  0.014606547  0.013234106           28 
 1932000   0.47808198   -7.8319187    338.77734  0.014612549  0.013223828           49 
 1933000     0.489999   -7.8072187    338.71845  0.014602451  0.013213567           31 
 1934000   0.47645513   -7.7951415    338.29784  0.014576777  0.013203315           31 
 1935000   0.48296166   -7.8051079      339.047  0.014601507  0.013193073           30 
 1936000   0.48081434   -7.7936796    338.06577  0.014551729  0.013182841           45 
 1937000   0.47863169   -7.8006921    338.44292  0.014560442  0.013172616           32 
 1938000   0.48495877   -7.7995667    338.85909  0.014570824  0.013162403           29 
 1939000   0.47390015   -7.8075054    339.05233  0.014571615  0.013152199           31 
 1940000   0.47563923   -7.7974147     338.9263   0.01455869  0.013142002           27 
 1941000   0.48132797   -7.8138598    338.43327  0.014530022  0.013131819           37 
 1942000   0.49055238   -7.8102016    339.20277   0.01455556  0.013121644           21 
 1943000   0.48705535   -7.8111727    338.82631  0.014531923   0.01311148           24 
 1944000    0.4636106   -7.8094554    338.71279  0.014519581  0.013101328           40 
 1945000   0.47185868   -7.8150885    338.80209  0.014515942  0.013091174           49 
 1946000   0.48254519   -7.8323496    339.31802  0.014530576  0.013081042           36 
 1947000   0.48121702   -7.8172524     338.5769  0.014491393  0.013070911           32 
 1948000   0.48208304   -7.8149429    338.52985  0.014481941  0.013060789           48 
 1949000   0.47483692   -7.8315759    338.01617  0.014452547  0.013050675           39 
 1950000   0.47567403   -7.7994561    338.64541  0.014472026  0.013040555           32 
 1951000   0.47745382   -7.8274935    338.67724  0.014465968  0.013030454           41 
 1952000    0.4827279   -7.8169202    339.28039  0.014484306  0.013020359           43 
 1953000   0.47674472   -7.8233024    338.65244  0.014450095  0.013010274           28 
 1954000   0.46862464   -7.8113832    338.68296  0.014444002  0.013000202           40 
 1955000   0.46596279   -7.8199761    338.61868  0.014433874  0.012990141           34 
 1956000   0.47721941   -7.8127015    338.94725  0.014440493  0.012980087           41 
 1957000   0.47538097   -7.8113153    338.61274   0.01441887  0.012970035           47 
 1958000   0.47185855   -7.8127109    338.58587  0.014410362  0.012959996           41 
 1959000   0.45826113    -7.823109    338.99974  0.014420612  0.012949968           36 
 1960000   0.48211651   -7.8128929    339.03865  0.014414908  0.012939953           33 
 1961000   0.47343735   -7.8274288    338.49752  0.014384562  0.012929941           52 
 1962000   0.46239348   -7.8250217     339.0573  0.014401006  0.012919934           27 
 1963000   0.48098991   -7.8248682    338.42982  0.014367033  0.012909943           44 
 1964000   0.46401672   -7.8119063    338.39796  0.014358365  0.012899967           29 
 1965000   0.47235178   -7.8015819    338.66439  0.014362358  0.012889999           31 
 1966000   0.47835526   -7.8372376    338.49351  0.014347809  0.012880041           24 
 1967000   0.47600301   -7.8118769    338.48872  0.014340312  0.012870088           35 
 1968000   0.47137599    -7.819929    338.50634  0.014333771  0.012860152           37 
 1969000   0.47129883   -7.8314279    338.81035  0.014339358  0.012850215           44 
 1970000   0.46201004   -7.8344113    338.43957  0.014316395   0.01284029           61 
 1971000   0.46738849   -7.8260699    338.75978   0.01432267  0.012830364           33 
 1972000   0.46787461   -7.8228252    338.50952  0.014304831  0.012820457           39 
 1973000   0.46598475   -7.8314645    338.15219  0.014282488  0.012810555           35 
 1974000   0.48195097   -7.8398877    338.53722  0.014291507  0.012800667           36 
 1975000   0.46620844   -7.8313294    338.96301  0.014302237  0.012790778           36 
 1976000    0.4648315   -7.8292835    338.80883  0.014288497  0.012780899           31 
 1977000   0.45777119   -7.8343208    338.52835  0.014269447  0.012771027           27 
 1978000   0.46576334   -7.8318126    338.72763  0.014270628  0.012761176           42 
 1979000   0.46862914   -7.8123907    338.06676  0.014235589   0.01275133           50 
 1980000   0.46679939   -7.8330732    338.88721   0.01426293  0.012741495           39 
 1981000   0.45797999   -7.8214347     338.2336  0.014228235  0.012731671           29 
 1982000    0.4557909   -7.8271189    338.06248  0.014213861  0.012721849           30 
 1983000   0.46215004   -7.8304389    338.30913  0.014217059  0.012712039           27 
 1984000   0.46068248   -7.8259663    338.65356   0.01422436  0.012702238           35 
 1985000   0.46605707   -7.8413629    338.40352  0.014206697  0.012692452           48 
 1986000   0.46451944   -7.8469338    338.02692  0.014183741  0.012682674           40 
 1987000   0.45626405   -7.8289496    338.54891  0.014198495  0.012672908           40 
 1988000    0.4672856   -7.8347354    338.26505  0.014179454  0.012663149           28 
 1989000   0.46213751   -7.8330724    338.09172  0.014165063  0.012653395           33 
 1990000   0.45736758   -7.8408351    338.29164  0.014166317  0.012643663           33 
 1991000   0.45066761   -7.8393653    338.44435  0.014165593  0.012633938           23 
 1992000   0.45288678   -7.8324811    338.55507  0.014163114  0.012624216           33 
 1993000   0.45634466   -7.8305102    338.54032  0.014155391  0.012614501           77 
 1994000   0.46001765   -7.8453601    337.97428  0.014124636  0.012604797           39 
 1995000   0.45705573   -7.8329988    338.27262  0.014130018  0.012595099           47 
 1996000   0.46183036    -7.831014    338.44727   0.01413023  0.012585417           44 
 1997000   0.45666064   -7.8283805    338.52383  0.014126349  0.012575742           52 
 1998000   0.45526201   -7.8423118     338.1499  0.014103683  0.012566081           20 
 1999000   0.46031964   -7.8336291    338.44342  0.014108864  0.012556428           27 
 2000000   0.44231082   -7.8319591    338.47243  0.014103018  0.012546782           37 
 2001000   0.45289587   -7.8440536    338.45779   0.01409536  0.012537133           35 
 2002000   0.46367265   -7.8544344    338.73763  0.014099968  0.012527504           39 
 2003000   0.44834614   -7.8292085     338.4241  0.014079884  0.012517875           28 
 2004000    0.4481282   -7.8435769    338.47137  0.014074824  0.012508256           41 
 2005000   0.45138883   -7.8377346    338.26452  0.014059207  0.012498638           39 
 2006000   0.44146831   -7.8454466    338.20137  0.014049575  0.012489028           36 
 2007000   0.46143826   -7.8362867    338.03193  0.014035539  0.012479424           28 
 2008000   0.45936421   -7.8400224    338.32912  0.014040883  0.012469844           37 
 2009000   0.45062003   -7.8515691    337.65764  0.014006041  0.012460277           40 
 2010000   0.45302747    -7.868613    339.07596  0.014057876  0.012450697           51 
 2011000   0.45628813   -7.8626632    337.64686  0.013991665  0.012441137           47 
 2012000   0.45597501   -7.8410185    338.41716  0.014016615  0.012431582           37 
Loop time of 4408.54 on 48 procs for 2000000 steps with 4000 atoms

Performance: 78393.214 tau/day, 453.664 timesteps/s
99.4% CPU use with 48 MPI tasks x no OpenMP threads

MPI task timing breakdown:
Section |  min time  |  avg time  |  max time  |%varavg| %total
---------------------------------------------------------------
Pair    | 286.41     | 304.44     | 323.86     |  51.2 |  6.91
Neigh   | 27.808     | 28.343     | 28.908     |   5.2 |  0.64
Comm    | 253.96     | 268.51     | 283.97     |  48.6 |  6.09
Output  | 3.9684     | 3.9701     | 4.0106     |   0.3 |  0.09
Modify  | 3736.5     | 3753.8     | 3772.7     |  13.1 | 85.15
Other   |            | 49.47      |            |       |  1.12

Nlocal:        83.3333 ave          93 max          71 min
Histogram: 1 1 1 5 9 12 10 5 2 2
Nghost:        1827.52 ave        1850 max        1804 min
Histogram: 1 2 4 7 7 9 9 5 3 1
Neighs:        11323.9 ave       13267 max        9878 min
Histogram: 3 6 2 10 11 8 2 4 1 1
FullNghs:      22649.1 ave       25745 max       18898 min
Histogram: 1 1 1 6 9 12 10 5 2 1

Total # of neighbors = 1087158
Ave neighs/atom = 271.78950
Neighbor list builds = 107660
Dangerous builds = 0

#clear
#
#next RN
#
#jump SELF
Total wall time: 1:13:31
