
units lj                  # Use reduced LJ style units
atom_style atomic         # Uncharged point particles
atom_modify map hash      # Needed for indexing of clusters etc
                          # Used to be able to find where atoms are in relation to each other.

lattice fcc 1.0 spacing 1 1 1
Lattice spacing in x,y,z = 1.5874011 1.5874011 1.5874011
region box block 0 10 0 10 0 10 units lattice
create_box 2 box
Created orthogonal box = (0.0000000 0.0000000 0.0000000) to (15.874011 15.874011 15.874011)
  3 by 4 by 4 MPI processor grid
create_atoms 1 box
Created 4000 atoms
  using lattice units in orthogonal box = (0.0000000 0.0000000 0.0000000) to (15.874011 15.874011 15.874011)
  create_atoms CPU = 0.002 seconds
set type 1 type/fraction 2 0.69 78393
Setting atom values ...
  2781 settings made for type/fraction
mass 1 1.0
mass 2 1.0
pair_style lj/cut  3.5
pair_modify tail  yes
pair_coeff 1  1  1.0  1.0   # Intearaction between 1 and 1 set with epsilon = 1 and sigma = 1
pair_coeff 1  2  1.5  0.8
pair_coeff 2  2  0.5  0.88

write_data data.0
System init for write_data ...
Neighbor list info ...
  update every 1 steps, delay 10 steps, check yes
  max neighbors/atom: 2000, page size: 100000
  master list distance cutoff = 3.8
  ghost atom cutoff = 3.8
  binsize = 1.9, bins = 9 9 9
  1 neighbor lists, perpetual/occasional/extra = 1 0 0
  (1) pair lj/cut, perpetual
      attributes: half, newton on
      pair build: half/bin/atomonly/newton
      stencil: half/bin/3d
      bin: standard
WARNING: Not all mixed pair coeffs generated from mixing. Use write_data with 'pair ij' option to store all pair coeffs. (../write_data.cpp:312)


#############################
#   M E L T   S Y S T E M   #
#############################

velocity all create 2.4 3143649 mom yes dist gaussian # Assign velocities
                                                    # Temperature 2.4, random number seed, zero linear momentum
                                                                                # Gaussian distribution

timestep 0.002   # simulation timestep
thermo 1000       # output thermodynamic data every 1000 steps bf 100

# Define a fix  in this case with index 1 applied to all
# particles in the simulation. This fix is for simulations
# in the anisotropic NPT ensemble. Note that we use the MTK
# correction.
fix 1 all npt temp 2.4 2.4 0.1 iso 5.68 5.68 0.5 mtk yes tchain 5 pchain 5 # Use NPT ensemble
                                                                         # Set temperature and pressure and damping
                                                                         # Numbers of thermostats in chain and in barostat
run 10000          # run for 10000 steps
Per MPI rank memory allocation (min/avg/max) = 3.642 | 3.644 | 3.648 Mbytes
Step Temp E_pair E_mol TotEng Press Volume 
       0          2.4    -4.227286            0  -0.62818599   -3.7882121         4000 
    1000    2.3843612   -3.8398467            0  -0.26419913     5.973841    3641.0685 
    2000    2.4086842   -3.8539255            0  -0.24180243    5.8857863    3627.7385 
    3000    2.4049338   -3.8288025            0  -0.22230365    6.3271004    3616.1071 
    4000    2.3582909   -3.8488966            0  -0.31234462    5.6275318    3658.8481 
    5000    2.3857956   -3.8687455            0  -0.29094684    5.5569764    3656.4784 
    6000    2.4386478   -3.9403583            0  -0.28330106    5.3153267    3642.8226 
    7000    2.4370629   -3.8482334            0  -0.19355294    5.9950819    3634.6685 
    8000     2.372112    -3.840384            0  -0.28310547    5.4247097    3688.7148 
    9000    2.4188688   -3.8846384            0   -0.2572422    5.7955321    3626.1364 
   10000    2.4033227   -3.8378352            0  -0.23375229    5.7345272    3646.7957 
Loop time of 2.72571 on 48 procs for 10000 steps with 4000 atoms

Performance: 633964.211 tau/day, 3668.774 timesteps/s
99.6% CPU use with 48 MPI tasks x no OpenMP threads

MPI task timing breakdown:
Section |  min time  |  avg time  |  max time  |%varavg| %total
---------------------------------------------------------------
Pair    | 1.217      | 1.27       | 1.3794     |   3.2 | 46.59
Neigh   | 0.21631    | 0.22392    | 0.24773    |   1.3 |  8.22
Comm    | 0.82561    | 0.93881    | 1.0149     |   5.2 | 34.44
Output  | 0.00024718 | 0.00025316 | 0.00032048 |   0.0 |  0.01
Modify  | 0.2464     | 0.27695    | 0.3407     |   6.0 | 10.16
Other   |            | 0.01582    |            |       |  0.58

Nlocal:        83.3333 ave          89 max          75 min
Histogram: 3 1 4 4 1 8 3 14 3 7
Nghost:        1748.69 ave        1776 max        1728 min
Histogram: 5 2 12 4 6 6 6 2 4 1
Neighs:        10473.4 ave       11399 max        9125 min
Histogram: 3 3 3 3 3 6 5 12 7 3

Total # of neighbors = 502722
Ave neighs/atom = 125.68050
Neighbor list builds = 901
Dangerous builds = 201

# Equilibrate just above the melting temperature to avoid step fn in T

fix 1 all npt temp 1.25 1.25 0.1 iso 5.68 5.68 0.5 mtk yes tchain 5 pchain 5
run 2000
Per MPI rank memory allocation (min/avg/max) = 3.644 | 3.646 | 3.650 Mbytes
Step Temp E_pair E_mol TotEng Press Volume 
   10000    2.4033227   -3.8378352            0  -0.23375229    5.7345272    3646.7957 
   11000    1.2558161   -5.6906912            0    -3.807438    5.9178123    2781.6911 
   12000    1.2277861   -5.7379615            0   -3.8967428    5.9836598    2762.2963 
Loop time of 0.669665 on 48 procs for 2000 steps with 4000 atoms

Performance: 516079.004 tau/day, 2986.568 timesteps/s
99.6% CPU use with 48 MPI tasks x no OpenMP threads

MPI task timing breakdown:
Section |  min time  |  avg time  |  max time  |%varavg| %total
---------------------------------------------------------------
Pair    | 0.29859    | 0.32629    | 0.36486    |   2.3 | 48.72
Neigh   | 0.043166   | 0.045432   | 0.051607   |   0.8 |  6.78
Comm    | 0.20425    | 0.24842    | 0.27652    |   3.0 | 37.10
Output  | 5.24e-05   | 5.4041e-05 | 6.9958e-05 |   0.0 |  0.01
Modify  | 0.039515   | 0.044657   | 0.049388   |   1.4 |  6.67
Other   |            | 0.004807   |            |       |  0.72

Nlocal:        83.3333 ave          91 max          76 min
Histogram: 4 1 8 3 6 8 9 3 3 3
Nghost:        2105.25 ave        2123 max        2086 min
Histogram: 2 2 6 4 9 5 9 4 4 3
Neighs:        13819.4 ave       15914 max       11805 min
Histogram: 1 1 5 9 11 9 4 4 3 1

Total # of neighbors = 663331
Ave neighs/atom = 165.83275
Neighbor list builds = 147
Dangerous builds = 11

#############################
# L I N E A R  Q U E N C H  #
#############################

# Define solid atoms. This closely follows ten Wolde  Ruiz-Montero and Frenkel  Faraday Discuss  1996  104  93-110
# Compute components of the per-atom q6 vector
compute q6 all orientorder/atom degrees 1 6 components 6 nnn NULL cutoff 1.3 # compute the Q6 parameter.
                                                                             # Use all neighbours within 1.3 unit cell.

# get number of connections
compute coord_number all coord/atom orientorder q6 0.5

# An atom is solid if it has 8 or more connections (of a possible 14)
variable is_solid atom c_coord_number>=8
group solid dynamic all var is_solid    # Must be dynamic to update
dynamic group solid defined

# do clustering
compute cluster solid cluster/atom 1.3 # Create a cluster where all atoms within are solid and max 1.3 units from another member

# define chunks one chunk per cluster
compute clus_chunks solid chunk/atom c_cluster nchunk every compress yes  # Says which atoms are in which chunk

# count the size of each chunk
compute size_chunks solid property/chunk clus_chunks count


# Find the maximum entry in the vector of chunk sizes
variable max_n equal max(c_size_chunks)


# Thermo style which includes this variable
# thermo_style custom step temp pe vol v_max_n

thermo ${N}  # Print the thermo information every 100 steps
thermo 1000  

# Reset the npt fix at a lower temperature (below freezing)
fix 1  all npt temp  ${temp} ${temp}  0.1  iso  5.68  5.68  0.5  mtk yes tchain  5  pchain  5
fix 1  all npt temp  0.45 ${temp}  0.1  iso  5.68  5.68  0.5  mtk yes tchain  5  pchain  5
fix 1  all npt temp  0.45 0.45  0.1  iso  5.68  5.68  0.5  mtk yes tchain  5  pchain  5

dump dmp2 all dcd ${N} traj.dcd
dump dmp2 all dcd 1000 traj.dcd


compute msd all msd com yes
variable twopoint equal c_msd[4]/6/(step*dt+1.0e-6)
fix 9 all vector 10 c_msd[4]
variable fit equal slope(f_9)/6/(10*dt)
thermo_style custom step temp pe c_msd[4] v_twopoint v_fit v_max_n

fix 1 all npt temp 1.25 ${temp} 0.1 iso 5.68 5.68 0.5 mtk yes tchain 5 pchain 5
fix 1 all npt temp 1.25 0.45 0.1 iso 5.68 5.68 0.5 mtk yes tchain 5 pchain 5
run 500000 # 5000000  # Run for this many steps
Neighbor list info ...
  update every 1 steps, delay 10 steps, check yes
  max neighbors/atom: 2000, page size: 100000
  master list distance cutoff = 3.8
  ghost atom cutoff = 3.8
  binsize = 1.9, bins = 8 8 8
  4 neighbor lists, perpetual/occasional/extra = 1 3 0
  (1) pair lj/cut, perpetual
      attributes: half, newton on
      pair build: half/bin/atomonly/newton
      stencil: half/bin/3d
      bin: standard
  (2) compute orientorder/atom, occasional
      attributes: full, newton on
      pair build: full/bin/atomonly
      stencil: full/bin/3d
      bin: standard
  (3) compute coord/atom, occasional
      attributes: full, newton on
      pair build: full/bin/atomonly
      stencil: full/bin/3d
      bin: standard
  (4) compute cluster/atom, occasional
      attributes: full, newton on
      pair build: full/bin/atomonly
      stencil: full/bin/3d
      bin: standard
Per MPI rank memory allocation (min/avg/max) = 9.847 | 9.850 | 9.854 Mbytes
Step Temp PotEng c_msd[4] v_twopoint v_fit v_max_n 
   12000    1.2277861   -5.7379615 7.5099558e-31 5.2152469e-33 8.3333333e+20            1 
   13000    1.2668856   -5.7231957   0.62048797 0.0039774868  0.050940281            2 
   14000     1.263109    -5.762496    1.1882267 0.0070727776  0.049413558            3 
   15000     1.231349    -5.758164    1.8250121  0.010138956  0.049546199            2 
   16000    1.2326394   -5.7409238    2.3973444  0.012486168   0.04960495            3 
   17000    1.2417008   -5.7766392    2.9855115   0.01463486  0.049500059            5 
   18000      1.24037   -5.7911025    3.5983594  0.016659071  0.049589495            2 
   19000    1.2138975    -5.744867    4.2054376  0.018444901  0.049845908            3 
   20000    1.2264952   -5.8041242    4.8632211  0.020263421   0.05015298            2 
   21000    1.2410326   -5.7436818    5.4676307  0.021696947  0.050418879            2 
   22000    1.2155144   -5.7596728     6.073719  0.023006511  0.050591622            3 
   23000    1.2238738   -5.7707272     6.616565  0.023973061  0.050573349            3 
   24000    1.2283892   -5.8673094    7.1507808  0.024829099   0.05032731            3 
   25000    1.1942987   -5.8158928    7.7493988  0.025831329  0.050134567            2 
   26000    1.2719611   -5.7958251    8.3374434  0.026722574    0.0499432            2 
   27000    1.2276448   -5.8125329    8.8536381  0.027326043  0.049730534            2 
   28000    1.2104223    -5.839063     9.298423  0.027673878  0.049443998            2 
   29000    1.2280112   -5.7881095       9.9538  0.028602873   0.04911558            3 
   30000    1.1967964   -5.8380632    10.477652  0.029104589  0.048878119            1 
   31000    1.2050346   -5.8132726    11.146606  0.029963995  0.048665173            3 
   32000    1.1975496   -5.8410995    11.749011  0.030596384  0.048610244            2 
   33000    1.2332965    -5.828913    12.171764  0.030736777  0.048525211            3 
   34000    1.2283457   -5.7872416    12.685428  0.031091734  0.048301641            2 
   35000    1.1802844   -5.8311549    13.235046  0.031512013  0.048109243            1 
   36000    1.1999462   -5.7996199    13.910796  0.032200916  0.047973513            3 
   37000    1.2101093   -5.8329616    14.405356  0.032444495   0.04786542            2 
   38000    1.2243526   -5.8458718    14.901701  0.032679169  0.047766886            1 
   39000    1.2025356   -5.8586111    15.381244  0.032865905  0.047660723            2 
   40000    1.1931394   -5.8236504    16.056228  0.033450474   0.04753503            3 
   41000    1.1952469    -5.819378    16.601132  0.033742138  0.047439183            2 
   42000    1.2189485   -5.8797332     17.04687  0.033823155  0.047326987            2 
   43000    1.2454431    -5.805991    17.633097  0.034172668   0.04724505            1 
   44000    1.2293135   -5.8497432    18.122759  0.034323406   0.04713251            2 
   45000    1.1945378   -5.8439701     18.61836  0.034478444  0.046999729            2 
   46000    1.2232666   -5.8845636    19.096863  0.034595766  0.046877379            3 
   47000    1.2034131   -5.8913328    19.503661  0.034580959  0.046732767            2 
   48000    1.1957903   -5.9025256    19.973183  0.034675665  0.046571515            2 
   49000    1.2095587   -5.8703065    20.473334  0.034818595  0.046420401            2 
   50000    1.1882515   -5.9000132    20.829757  0.034716261  0.046214979            2 
   51000    1.1927872   -5.9040014    21.195476  0.034633131  0.045998809            2 
   52000    1.1784412   -5.8912261    21.650849  0.034696873  0.045768795            2 
   53000    1.1946894   -5.8820407    22.329879  0.035109872  0.045573855            4 
   54000    1.2025907   -5.8995614    22.764967  0.035131122  0.045416375            3 
   55000    1.1713045   -5.9597899    23.219165  0.035180553  0.045267198            5 
   56000    1.1968374   -5.9409088    23.628298  0.035161157  0.045108673            2 
   57000    1.1611837   -5.9130675    24.176586  0.035345885  0.044926158            3 
   58000    1.1760884   -5.9054293     24.52002  0.035229913  0.044748324            2 
   59000    1.1681876   -5.9444513     25.16003  0.035536766  0.044591122            4 
   60000    1.1783124   -5.8808009       25.499  0.035415278  0.044440133            2 
   61000    1.1798922   -5.9255452    25.917493  0.035406411  0.044285731            1 
   62000    1.1583816   -5.9404103    26.430933  0.035525448  0.044125508            2 
   63000    1.1678788   -5.9637953    26.770721  0.035411006  0.043966318            2 
   64000    1.1930002   -5.9283203     27.35283  0.035615664  0.043808315            2 
   65000    1.1549328   -5.9633875    27.857016  0.035714123  0.043665014            4 
   66000    1.1348874   -5.9328993    28.316292  0.035752893  0.043524338            2 
   67000    1.1478685   -5.9581559    28.895921    0.0359402  0.043409862            4 
   68000    1.1353245   -5.9710921    29.443138  0.036082277   0.04331364            4 
   69000    1.1547754   -5.9539485     29.87446  0.036080266   0.04322032            3 
   70000    1.1623612   -5.9705651    30.281377  0.036049258  0.043130439            4 
   71000    1.1511961   -5.9419758    30.859856  0.036220488  0.043042345            2 
   72000    1.1199337   -5.9795407    31.274424   0.03619725  0.042963038            4 
   73000    1.1394109   -5.9813024    31.642188  0.036121219  0.042881075            4 
   74000    1.1293555   -5.9899882    32.054515  0.036097426  0.042785431            2 
   75000    1.1401914    -5.972065    32.676168  0.036306853  0.042688501            3 
   76000    1.1442838   -6.0017562    32.904021  0.036078971  0.042587057            3 
   77000    1.1536023   -5.9679501    33.330199  0.036071644  0.042480643            6 
   78000    1.1222904   -5.9790564    33.881543  0.036198229  0.042371655            3 
   79000    1.1240295   -6.0314808    34.257544  0.036136649  0.042271726            5 
   80000    1.0995261   -5.9749292    34.636951  0.036080157  0.042173932            1 
   81000     1.131829   -6.0131658    35.187717  0.036201355   0.04207247            3 
   82000     1.147067   -6.0029075     35.57018  0.036148557  0.041966109            2 
   83000    1.1225001   -6.0007381    35.712356  0.035855779  0.041861115            1 
   84000    1.1236673   -6.0284284    36.188764  0.035901551  0.041751104            2 
   85000    1.1260354    -6.024634    36.624335   0.03590621  0.041638527            3 
   86000    1.1205672    -6.009982    37.258918  0.036103603  0.041532898            2 
   87000    1.1219278   -6.0005129    37.706604  0.036117436  0.041439486            2 
   88000    1.1177517   -5.9649488    38.129572   0.03610755  0.041355477            2 
   89000    1.1163976    -5.968569    38.546438   0.03609217   0.04126493            4 
   90000    1.1080657   -6.0482649    38.913253   0.03603079  0.041170065            5 
   91000    1.1115773    -5.988789    39.410537  0.036090236  0.041077435            2 
   92000    1.1125073   -6.0691873    39.683269   0.03594499  0.040991392            2 
   93000    1.1477619   -6.0915587    40.162555  0.035987952  0.040903305            5 
   94000    1.1503594   -6.0306027    40.640677  0.036028969  0.040825885            6 
   95000    1.1107357   -6.0197474    41.242471  0.036177606  0.040747084            2 
   96000    1.1011254   -6.0286359    41.626919  0.036134478  0.040672626            2 
   97000     1.099833   -6.0744069    41.818667   0.03592669  0.040595153            3 
   98000      1.11778   -6.0696871    42.381809  0.036038953  0.040511813            3 
   99000    1.1147231   -6.0639029    42.863989  0.036080799  0.040433075            8 
  100000    1.1255976    -6.082749    43.178968  0.035982473  0.040362396            4 
  101000    1.1325804    -6.054359    43.550372   0.03593265  0.040285721            6 
  102000    1.1214075   -6.1007527    43.902882  0.035868367  0.040212249            4 
  103000    1.1067757    -6.057642    44.476015  0.035983831  0.040135911            2 
  104000    1.1121801   -6.0977784    44.703146  0.035819828  0.040060874            3 
  105000    1.0897431   -6.0613036    45.192284  0.035866892  0.039982666            3 
  106000    1.0835561    -6.100636      45.6439  0.035883569  0.039902651            4 
  107000    1.0902129   -6.1072303    45.947014  0.035784278  0.039824951            3 
  108000    1.1180702    -6.053693    46.446765  0.035838553  0.039747433            3 
  109000     1.091368   -6.0898206    46.646113  0.035662166  0.039663793            4 
  110000    1.0820528   -6.0740758    46.962584  0.035577715  0.039576699            2 
  111000    1.1236332   -6.0989504    47.256848  0.035478114  0.039485814            4 
  112000    1.1074243   -6.1278517     47.49096  0.035335536  0.039394837            6 
  113000    1.0740808   -6.1493466    47.791135    0.0352442  0.039299737            4 
  114000    1.1066631    -6.113946    48.261994  0.035279235  0.039197931            3 
  115000    1.0993152    -6.106349    48.758472  0.035332226  0.039106269            2 
  116000    1.1014209   -6.1502292    49.018931  0.035214749  0.039016774            2 
  117000    1.0881685   -6.1627686    49.235845  0.035068266  0.038919987            3 
  118000    1.0495064   -6.1333074    49.642539   0.03505829  0.038822565            2 
  119000    1.0738634   -6.0992104    49.957799  0.034984453  0.038727376            5 
  120000    1.0883089   -6.1319823    50.118396  0.034804441  0.038627518            6 
  121000    1.0753849     -6.12341    50.615921   0.03485945  0.038528875            1 
  122000    1.0780565   -6.1140438    50.881523  0.034755139  0.038430228            6 
  123000    1.0774133   -6.1766989    51.097868  0.034619152  0.038329154            3 
  124000      1.06394   -6.1944128    51.247933  0.034440815  0.038224273            3 
  125000    1.0605617   -6.1612837    51.852632  0.034568421  0.038120586            6 
  126000    1.0770729   -6.1775345    52.187425  0.034515492  0.038020897            2 
  127000    1.0717918    -6.179938    52.665498  0.034557413  0.037925378            2 
  128000    1.0656169   -6.1946483    52.975658   0.03448936  0.037831905            2 
  129000    1.0549963   -6.2073938    53.423037  0.034511006   0.03773505            7 
  130000    1.0684952   -6.1482891     53.54869  0.034326083  0.037645091            4 
  131000    1.0435137   -6.2403793    53.848012   0.03425446  0.037551919            3 
  132000    1.0630403   -6.2202071    54.208545  0.034222566  0.037456352            2 
  133000    1.0784775    -6.185425    54.916363  0.034408748  0.037369821            4 
  134000    1.0683056   -6.1984469    55.249559  0.034359179  0.037290914            3 
  135000    1.0509657   -6.2100988    55.342996  0.034162343  0.037208779            3 
  136000    1.0543575   -6.1984501    55.629353  0.034086613  0.037122327            6 
  137000    1.0594659   -6.2166165    55.903447  0.034004529  0.037038397            4 
  138000    1.0353722   -6.2312904    56.470492  0.034100538  0.036953766           10 
  139000    1.0753899   -6.2417613    56.768924  0.034034127  0.036871424            4 
  140000    1.0433722   -6.2255841     57.31393  0.034115435  0.036794245            2 
  141000    1.0570107    -6.204406    57.880193  0.034208152  0.036721587            4 
  142000    1.0479499   -6.1880637    58.358345  0.034247855  0.036652995            4 
  143000    1.0273206   -6.2519124    58.171257  0.033899334  0.036580897            5 
  144000    1.0336708   -6.2065909    58.742592  0.033994556  0.036505982            6 
  145000    1.0263032   -6.2992145    58.612337  0.033685251  0.036429047            3 
  146000    1.0216948   -6.2398337    59.227957  0.033805912  0.036350162            4 
  147000    1.0215697    -6.260325    59.552779  0.033760078  0.036272269            4 
  148000     1.029162   -6.2619302    59.567383  0.033540193  0.036191788            3 
  149000    1.0420128   -6.2834267    60.118344  0.033623235  0.036111189            2 
  150000    1.0375795   -6.2481251    60.358257  0.033532365  0.036032052            4 
  151000    1.0281656   -6.2678403    60.484451   0.03337994  0.035951539            5 
  152000    1.0123003   -6.2428347    61.127609  0.033512943  0.035873485            3 
  153000    1.0258711   -6.3033135    61.170411  0.033317217  0.035795691            3 
  154000    1.0226566   -6.2872923    61.353333  0.033199856  0.035712342            3 
  155000    1.0268975   -6.2370514     62.08884  0.033381096  0.035632844            4 
  156000    1.0069189   -6.3041495    61.990112  0.033114376  0.035551001            4 
  157000    1.0131963   -6.2838657    62.499454  0.033173808   0.03547022            9 
  158000   0.99898168   -6.2862501    62.830754  0.033138583  0.035393813            5 
  159000    1.0179776   -6.2815932    62.883905  0.032958021  0.035315141            4 
  160000     1.034128   -6.3183368    63.138014  0.032884382  0.035235295            4 
  161000      1.01896   -6.3220467    63.394984  0.032813139  0.035154314            5 
  162000    1.0096186   -6.2975137    63.793656  0.032815667  0.035075537            3 
  163000    1.0081325   -6.3347138    64.263295  0.032854445  0.034999351            7 
  164000   0.99021691     -6.31723    64.550812  0.032800209    0.0349249            7 
  165000     1.000924   -6.3003142    64.828863   0.03274185  0.034849501            3 
  166000    1.0051827   -6.3126574    65.206024  0.032733948  0.034773097            5 
  167000   0.97808067   -6.2948285    65.578482  0.032723793  0.034699623            2 
  168000    1.0158139   -6.2931257    65.831715   0.03265462  0.034629264            7 
  169000   0.99119704   -6.3175359    65.923767  0.032506789   0.03455375            2 
  170000    1.0095586   -6.2916951    66.396359  0.032547235  0.034479731            7 
  171000   0.98635233    -6.390561    66.262843  0.032291834  0.034404138            7 
  172000    1.0085667   -6.3396236    66.677145  0.032304818  0.034328791            3 
  173000    1.0042331   -6.3211329      67.2517  0.032394846  0.034255414            2 
  174000   0.98278936   -6.3542193    67.296799  0.032230267  0.034180784            4 
  175000    1.0055532   -6.3696268    67.761539  0.032267399  0.034108463            5 
  176000   0.99860129   -6.3434878    67.813563  0.032108694  0.034035829            5 
  177000   0.98559873   -6.3207259    67.954338  0.031993568  0.033960576            4 
  178000    1.0042045   -6.3387806    68.448718   0.03204528  0.033886205            7 
  179000    1.0022079   -6.3627229    68.459554  0.031871301  0.033809813            7 
  180000   0.98455059   -6.3955214    68.767283  0.031836705  0.033731955            3 
  181000   0.97022337   -6.4107234    68.904963    0.0317242  0.033653544            6 
  182000   0.97126241   -6.3364105    69.252612  0.031709071  0.033573578            5 
  183000   0.97308412   -6.4056677    69.456959  0.031628852  0.033495503            9 
  184000   0.95596483   -6.4100153    69.781776  0.031604065  0.033417915            8 
  185000   0.98314568   -6.3954762    69.913023  0.031492353  0.033341138            7 
  186000   0.96299725   -6.3816697     70.34571  0.031516895  0.033263719            6 
  187000   0.95376863   -6.3786137    70.388633  0.031367483  0.033185074            5 
  188000   0.96115999   -6.3924081    70.727297  0.031350752  0.033106993            4 
  189000   0.94420824   -6.4071057    70.950427  0.031283257  0.033031154            3 
  190000   0.95916697   -6.4227769    70.949937  0.031118393  0.032954993           14 
  191000   0.96664144   -6.4332506    71.578267   0.03122961  0.032877806            4 
  192000   0.96340147   -6.4534157    71.507633  0.031036299  0.032799863            6 
  193000   0.95981832   -6.4414466    71.994986  0.031085918  0.032722831            5 
  194000   0.97347819   -6.4487355    72.079744  0.030962089   0.03264887            6 
  195000   0.98766821   -6.4451813    72.538815  0.030999493  0.032573736            4 
  196000   0.97903991   -6.4398454    72.462129  0.030808728  0.032497308            4 
  197000   0.96584295     -6.44398    72.550594   0.03068976  0.032420612            3 
  198000   0.97679778   -6.4592883    72.837402  0.030655472  0.032343195            6 
  199000   0.96160542   -6.4644469    73.109842  0.030615512  0.032265468            3 
  200000   0.94977408   -6.4636773    73.254491  0.030522705  0.032187621            9 
  201000   0.95873825   -6.4384048    73.543599  0.030490712   0.03211119            6 
  202000   0.93613779   -6.4328435    74.565154  0.030761202  0.032037146            3 
  203000   0.94557713   -6.4337109    74.451474  0.030563002  0.031964435            5 
  204000     0.946512   -6.4995414    73.982612  0.030221655  0.031889325            3 
  205000   0.94466071     -6.47324    74.391464  0.030240432  0.031811573            4 
  206000   0.94322838   -6.4779972    74.706491  0.030221072  0.031733673            3 
  207000   0.94293412   -6.4813061    74.598086  0.030031436  0.031653011            3 
  208000   0.93320898   -6.5311207    74.461988  0.029832527  0.031569988            7 
  209000   0.94224707   -6.4916613    74.909067  0.029868049  0.031487389            4 
  210000   0.92879545   -6.5020996     74.77236  0.029671571  0.031404443            5 
  211000   0.92798619   -6.5422157    74.933231  0.029594483  0.031320097            4 
  212000   0.94485965   -6.4638389    75.739757  0.029771917  0.031238028            3 
  213000   0.94039781   -6.5207661    75.683147  0.029609995  0.031156979            4 
  214000   0.93534757    -6.510637    75.842594   0.02953372  0.031075705            6 
  215000   0.92639009   -6.5097279    75.937048  0.029432964    0.0309954            5 
  216000   0.89859478   -6.5284829    76.337376  0.029451148  0.030914946            4 
  217000   0.90199275   -6.5572537    76.216774  0.029269114  0.030834793            5 
  218000   0.92868717   -6.5860098    76.374074  0.029194982  0.030753827            6 
  219000   0.91360649   -6.5141737    76.533058  0.029122168   0.03067157            2 
  220000   0.92825207   -6.5286622    76.808987  0.029094313  0.030590308           10 
  221000   0.91787476    -6.511334    77.161266    0.0290955  0.030508747            7 
  222000   0.91890421   -6.5677901     76.88519  0.028860807  0.030426709            8 
  223000   0.89704543   -6.5557018      77.1079  0.028814611  0.030343858            3 
  224000   0.91131511   -6.5754397    77.214961  0.028725804  0.030260181            3 
  225000   0.92156557   -6.5463631    77.669639  0.028766533  0.030177776            5 
  226000   0.92186446   -6.5629078    77.951913  0.028743331  0.030095915            4 
  227000   0.91000999   -6.5751378    78.269618   0.02873334  0.030015039            6 
  228000   0.90122465   -6.5614981    78.344085  0.028634534  0.029935674            7 
  229000   0.92929274    -6.554308    78.587466  0.028598059  0.029856468            5 
  230000   0.91811187    -6.520068    78.584984   0.02847282  0.029778603            2 
  231000   0.89029611   -6.5659272    78.515775  0.028324594  0.029699702            4 
  232000   0.90366554   -6.5853528    78.575131  0.028223826  0.029619787            9 
  233000   0.89420873   -6.5736357    78.758858  0.028168404    0.0295393           10 
  234000   0.89942487   -6.5815082       78.794  0.028060541  0.029458355           11 
  235000   0.87741161   -6.5803383    79.039339  0.028028134  0.029377106            5 
  236000   0.90681174   -6.6198927    79.224608  0.027974791  0.029296258            7 
  237000   0.92174187   -6.5963722    79.142052  0.027827726   0.02921467           10 
  238000   0.89886091   -6.5996334    79.408586  0.027804127  0.029132824            4 
  239000   0.90907577   -6.5942641     79.54541  0.027735498  0.029052424            4 
  240000   0.88641229   -6.5977095    79.723794  0.027681873  0.028972593            5 
  241000   0.88378444    -6.637235    79.968488  0.027651621  0.028892157            8 
  242000   0.88397634   -6.6199161    79.912517  0.027518084  0.028810836            4 
  243000   0.88186176   -6.6327723    80.147013  0.027485258  0.028730025            3 
  244000   0.88168456   -6.6320514    80.381363  0.027452651    0.0286487            3 
  245000   0.87567778   -6.6180153    80.510182  0.027384416  0.028567904            5 
  246000   0.87363365   -6.6460325    80.767615  0.027360303  0.028487561            5 
  247000   0.90987638    -6.667035    80.285289  0.027086804  0.028407074            8 
  248000   0.87664842   -6.6586962    80.837472  0.027163129  0.028326784            5 
  249000   0.85957186   -6.6636994    80.800428  0.027041642  0.028247393            5 
  250000   0.87196866   -6.6459042    81.047216  0.027015739  0.028167637            3 
  251000   0.86942747   -6.6493727    81.394606  0.027023441   0.02808786            5 
  252000   0.85824235   -6.6608917    81.353023  0.026902455  0.028009345            8 
  253000   0.85108243   -6.6452983    81.723599  0.026918182  0.027930693            4 
  254000   0.86239381   -6.7195397    81.362388  0.026693697   0.02785242            8 
  255000   0.86270472   -6.7252988    81.776816   0.02672445  0.027774734            4 
  256000   0.85573133   -6.7236145    81.810522  0.026631029  0.027696501           12 
  257000    0.8590285   -6.7274584    81.849172  0.026539939  0.027617485            8 
  258000   0.85976884   -6.6868296    82.047225  0.026501042  0.027539109            6 
  259000   0.88330921    -6.700048    82.153204   0.02643282  0.027460813           10 
  260000   0.85645437   -6.6662744    82.424669  0.026418163  0.027383537            4 
  261000   0.85168765   -6.7095264    82.370739  0.026299725  0.027306384           10 
  262000   0.85597926   -6.7138105    82.432341  0.026218938  0.027228885            8 
  263000   0.86622089   -6.7225538    82.503195  0.026141697  0.027150512            5 
  264000    0.8454406   -6.7660918    82.637544  0.026085083  0.027072636           12 
  265000    0.8498453   -6.7642082    82.567238   0.02596454  0.026993444            6 
  266000   0.87355662   -6.7463002    82.685825   0.02590408  0.026914688           11 
  267000   0.85192335   -6.7841494     82.76044   0.02583035  0.026834874            6 
  268000   0.84809426   -6.7393414    83.207262  0.025872905  0.026755771           10 
  269000   0.83158529   -6.7651028    83.042089  0.025725554  0.026676811            6 
  270000   0.83756213   -6.7250643    83.135408  0.025659076  0.026597745           15 
  271000   0.84174652   -6.7740017    83.147657   0.02556816  0.026518667            6 
  272000   0.84440486   -6.7653858    83.135785  0.025470522  0.026440179           12 
  273000   0.84171617   -6.8014277     83.23474   0.02540743  0.026361581           15 
  274000   0.84547892   -6.7903481    83.226189  0.025312101  0.026282149           20 
  275000   0.82411119   -6.7648657    83.712428  0.025367402  0.026204479            9 
  276000   0.80865474   -6.7895829    83.333791  0.025161169   0.02612627           11 
  277000   0.82104532   -6.7685077    83.790965  0.025207872  0.026047902            9 
  278000   0.81692478   -6.8133927    83.397246  0.024999174  0.025969534            8 
  279000   0.83753485   -6.7865488    83.799368   0.02502968  0.025890955            5 
  280000   0.82160935   -6.8149442    83.803055  0.024941385   0.02581301            7 
  281000   0.81722495   -6.8020158    84.149465  0.024955357   0.02573566           19 
  282000    0.8124546   -6.8335373     84.23424  0.024891915  0.025658975           11 
  283000   0.82223102   -6.8320795     84.03355  0.024744862  0.025582184            9 
  284000   0.80821257   -6.8434058    84.103662  0.024678304  0.025503712           11 
  285000   0.81996995   -6.8726419    84.249079  0.024634234  0.025426035            8 
  286000   0.81211409    -6.828769     84.28428  0.024558357  0.025348646           13 
  287000   0.80120178   -6.8530238    84.233577  0.024458065   0.02527143            8 
  288000   0.81866026   -6.8376669    84.476059  0.024443304  0.025194345           14 
  289000   0.80754776   -6.8525455    84.264642  0.024297763  0.025117902            9 
  290000   0.79511864   -6.8331066    84.574432  0.024302998  0.025041389            7 
  291000   0.84006642   -6.8681373    84.520133  0.024203933  0.024964945            5 
  292000   0.78993726   -6.8530725    84.714979  0.024176649  0.024888743            6 
  293000    0.7927772   -6.8989684    84.461819  0.024022133  0.024812108           31 
  294000   0.79925146   -6.8594618    84.705109  0.024009384  0.024735506           14 
  295000    0.7910699   -6.8738879    84.850547  0.023969081    0.0246594           12 
  296000   0.77603511   -6.8632507    85.133519   0.02396777   0.02458452           14 
  297000   0.79149941   -6.8385226    85.037575   0.02386015  0.024509416           17 
  298000   0.81123934   -6.8956831     84.98255  0.023764695  0.024433726           10 
  299000   0.78736729   -6.8830596    85.069759   0.02370952  0.024358407           14 
  300000   0.78796623   -6.8668715    85.228408  0.023674558  0.024283503           13 
  301000   0.79546657   -6.8997467    85.462338  0.023660669   0.02420884           10 
  302000   0.77469715    -6.903935    85.314267  0.023541464  0.024134098            5 
  303000     0.779083    -6.915767    85.522356     0.023521  0.024059306            9 
  304000    0.7900528   -6.9266049    85.303776  0.023383711  0.023984839           25 
  305000   0.77097859   -6.9175527    85.463551  0.023350697  0.023910365            5 
  306000   0.77919326   -6.8926158    85.395882  0.023255959  0.023835553            7 
  307000   0.78185403   -6.9103547    85.494101  0.023206868   0.02376101           11 
  308000   0.79259689   -6.9125097    85.409791   0.02310871   0.02368613            8 
  309000   0.76620989   -6.9270323    85.650413  0.023098817  0.023612488            8 
  310000   0.77240511   -6.9407581    85.852074  0.023078515  0.023539505           11 
  311000   0.76585421    -6.917916    85.937858  0.023027293  0.023466536            7 
  312000   0.77946385   -6.9437409    85.911574  0.022946467  0.023393327           11 
  313000   0.74418258   -6.9531299    85.824997  0.022850106  0.023320007           12 
  314000    0.7713371   -6.9355472    85.816662  0.022775122  0.023246039           14 
  315000   0.77864424   -6.9625899     85.87368  0.022717905   0.02317278           27 
  316000   0.75922723   -6.9720564    85.999636  0.022679229   0.02310003           17 
  317000   0.77841208   -6.9678765     85.96003  0.022597274  0.023027616           23 
  318000   0.77906162   -6.9831888    86.097233  0.022562168  0.022955605           12 
  319000    0.7671495    -6.974489     85.86521  0.022430828  0.022882978           13 
  320000    0.7497416   -6.9358935    86.037876  0.022405697  0.022810379           12 
  321000   0.75721224   -6.9789529    86.267497  0.022395508  0.022738384            9 
  322000   0.75464613   -6.9852311    86.193966  0.022306927  0.022666381            9 
  323000   0.73599462   -7.0160895     86.12127   0.02221911  0.022594217           20 
  324000   0.73431961   -7.0054566    86.123163  0.022151019  0.022522353            6 
  325000   0.74491262   -7.0139048    86.346442  0.022140113  0.022450842           15 
  326000   0.75416832    -7.001736    86.324489  0.022066587  0.022379433           21 
  327000   0.75293834   -7.0195544    86.301534  0.021993255  0.022308326           16 
  328000   0.73533759   -7.0128702    86.524401  0.021982825  0.022237616            9 
  329000   0.74427545   -7.0354101    86.209307  0.021836197  0.022166795            9 
  330000   0.74647277   -7.0164261    86.381697   0.02181356  0.022096127           22 
  331000    0.7395135    -7.027465    86.261601  0.021717422  0.022025623           22 
  332000    0.7558998   -7.0533947    86.560402  0.021727009  0.021955182            8 
  333000   0.72609314   -7.0507278    86.563381  0.021662508  0.021885055           45 
  334000   0.73814966   -7.0146893    86.584554  0.021602933  0.021814958            8 
  335000   0.74469617   -7.0606768     86.49244  0.021515532  0.021744757           18 
  336000   0.75743796   -7.0524032    86.458123  0.021442987  0.021674817            8 
  337000   0.74247344   -7.0233681     86.47242  0.021382893  0.021605096            8 
  338000   0.72596327   -7.0393431    86.593863  0.021349572  0.021535518           20 
  339000   0.72326629   -7.0509379    86.549913   0.02127579     0.021466           25 
  340000   0.73381858   -7.0674959    86.438716   0.02118596   0.02139679           12 
  341000   0.73427496   -7.0464556    86.662577  0.021178538  0.021327857           10 
  342000   0.73964108   -7.0743311    86.595396  0.021100243  0.021258663           13 
  343000   0.72704363   -7.0817137    86.605793  0.021041252  0.021189308           15 
  344000   0.72158948   -7.0954176     86.62174  0.020983949   0.02112022            8 
  345000   0.71189426    -7.083348    86.478691  0.020888573  0.021051427           16 
  346000   0.71853082   -7.0913395    86.605777  0.020858809  0.020983007           12 
  347000   0.69051931   -7.1089265    86.718704  0.020825817  0.020914833           11 
  348000   0.71232743   -7.1041353    86.936783  0.020818195  0.020846833           37 
  349000   0.70255417    -7.109389    86.759469  0.020716206  0.020779433           34 
  350000   0.70014049   -7.1066304     86.88747  0.020687493  0.020711686           37 
  351000   0.71822879   -7.1196904    86.587848  0.020557419  0.020644053           14 
  352000   0.71399032    -7.113441     86.85977  0.020563393  0.020576678           42 
  353000    0.7008277   -7.1420425    86.643024  0.020453972  0.020509078           31 
  354000   0.70952502    -7.176309    86.548472  0.020373934  0.020441967           52 
  355000   0.69846624   -7.1452865    86.692103  0.020350259  0.020374719           17 
  356000   0.69938038   -7.1658159    86.768886  0.020311069  0.020307635           17 
  357000   0.70201073   -7.1599436    86.548856  0.020202814  0.020240745           39 
  358000   0.70097698   -7.1567677    86.574542  0.020152361  0.020173686           35 
  359000   0.71008976   -7.1796499    86.510466  0.020081352  0.020106705           24 
  360000   0.68994136   -7.1690764    86.796285  0.020091733  0.020040204           47 
  361000   0.69225214   -7.1996629    86.617842  0.019994885  0.019973865           34 
  362000   0.68252093    -7.170446    86.905978   0.02000598  0.019907486           17 
  363000   0.68494864   -7.1711112    86.869365  0.019942462  0.019841338           29 
  364000   0.68938553   -7.1686972     86.69732  0.019848288  0.019775269           60 
  365000   0.68205559   -7.1920324    86.656413  0.019784569   0.01970957           23 
  366000   0.67987636   -7.1712444    86.687129  0.019737507  0.019644148           23 
  367000   0.66998344     -7.16457     86.79821  0.019708949  0.019579287           31 
  368000   0.67016656   -7.1509784     86.70293  0.019633816  0.019514338           12 
  369000   0.67045677   -7.1769609    86.799355  0.019602384  0.019449657           33 
  370000   0.68065637   -7.1796214      86.8911  0.019570068  0.019385276           24 
  371000   0.68343708   -7.2002595    86.884805  0.019515904  0.019321212           21 
  372000   0.67758267   -7.2047689    86.605467  0.019400866  0.019257161           17 
  373000   0.66914837   -7.1668069    87.040942  0.019446144  0.019193133           22 
  374000   0.66315668   -7.2013039    86.949324  0.019373735  0.019129503           16 
  375000   0.68420249   -7.2122001    86.857062  0.019301569   0.01906587           38 
  376000    0.6653412   -7.2281718    86.860401  0.019250975  0.019002605           53 
  377000   0.67516792   -7.2317609     86.82851  0.019192863  0.018939444           32 
  378000   0.68180606   -7.2335591    86.776782  0.019130684  0.018876235           37 
  379000    0.6606419   -7.2487852    86.777956  0.019080465  0.018813413           17 
  380000   0.66041334   -7.2291214      86.8622  0.019048728   0.01875108           27 
  381000   0.65538111   -7.2351762    86.950894  0.019018131  0.018689157           30 
  382000   0.64704546   -7.2283887    86.935751  0.018965042  0.018627363           22 
  383000   0.66848615   -7.2473763    87.054678  0.018941401  0.018565785           27 
  384000   0.67446953   -7.2652543    86.918288  0.018862476  0.018504021           27 
  385000   0.64462311   -7.2676348    86.950784  0.018820516  0.018442274           34 
  386000   0.65870296    -7.279708     86.83622  0.018747025  0.018380529           27 
  387000   0.66054554   -7.2898366    86.744768  0.018678891  0.018319163           42 
  388000   0.66257973   -7.3164086    86.602077  0.018600102  0.018258067           34 
  389000   0.65364056   -7.3162255    86.770935  0.018588461  0.018197013           34 
  390000   0.66115971    -7.296082    86.931698  0.018575149  0.018136034           43 
  391000   0.64999257   -7.2912389    86.904868  0.018521924  0.018075484           18 
  392000   0.63685722   -7.3223999    86.663003  0.018423257  0.018014952           55 
  393000   0.65011946   -7.2925668     87.01817   0.01845169  0.017954628           65 
  394000   0.65136134   -7.3092392    86.754873  0.018349169  0.017894563           62 
  395000   0.63347147   -7.3498964    86.639962  0.018278473  0.017834723          174 
  396000   0.63844353   -7.3143094    86.738115   0.01825297  0.017774978          106 
  397000   0.64628832    -7.324276     86.80476  0.018220982    0.0177155          108 
  398000   0.65005756   -7.3406118    86.707927  0.018154926  0.017656598           87 
  399000   0.64227442   -7.3149778    86.903582  0.018150289  0.017597811           68 
  400000   0.64062592   -7.3775913    86.692491  0.018060936   0.01753923           64 
  401000   0.62662427   -7.3263957    86.867155  0.018052193  0.017480775          114 
  402000   0.61212718   -7.3336473    86.928617  0.018020028  0.017422715          116 
  403000   0.61910207   -7.3492412    86.745628  0.017937475  0.017364607           98 
  404000   0.62267746   -7.3203016    86.858765  0.017916412  0.017306778           75 
  405000   0.60729463   -7.3513782    86.908787  0.017882466  0.017249159           83 
  406000   0.62338292   -7.3430247    86.756529  0.017807169   0.01719174          141 
  407000   0.62271519   -7.3689962    86.640419  0.017739644  0.017134385          198 
  408000   0.61408175   -7.3816022    86.708477  0.017710065  0.017077018          133 
  409000   0.61939805   -7.3971088    86.765908  0.017678465  0.017019683          196 
  410000   0.61548204   -7.4101155     86.66251  0.017614331  0.016962619           69 
  411000   0.59728155   -7.3933705    86.649755  0.017568888  0.016905785           38 
  412000   0.60889766    -7.403512    86.454159  0.017486683  0.016849062          189 
  413000   0.60609168   -7.3916911    86.699211  0.017493787  0.016792465          106 
  414000   0.59928699   -7.4202006     86.54801  0.017421097  0.016736228          163 
  415000   0.61016638   -7.4163186    86.634662  0.017396518  0.016680093          189 
  416000   0.59702547   -7.4248214    86.560923  0.017339928  0.016624272          127 
  417000    0.5969636   -7.4136608    86.760283  0.017338186  0.016568711           89 
  418000    0.6143885   -7.4163398    86.563944  0.017257565  0.016513149          121 
  419000   0.59118282   -7.4307278    86.589892  0.017221538  0.016457761          140 
  420000   0.59918034   -7.4345925    86.573289   0.01717724  0.016402423          167 
  421000   0.61750923   -7.4334973    86.413801  0.017104869   0.01634737          112 
  422000   0.59567915   -7.4244234    86.585254  0.017098194  0.016292628          112 
  423000   0.58790904   -7.4249996    86.536161  0.017048101  0.016237974          131 
  424000   0.59447157    -7.434059    86.588611  0.017018202  0.016183516          100 
  425000   0.59850493   -7.4531624     86.57329  0.016975155  0.016129294          259 
  426000   0.58629361    -7.437643    86.422331  0.016905777  0.016075297          257 
  427000   0.58805332   -7.4253119    86.611394  0.016903082  0.016021387          317 
  428000   0.58786438   -7.4508273    86.588234   0.01685908  0.015967805          223 
  429000   0.58331637   -7.4676936    86.434998  0.016790015  0.015914216          354 
  430000   0.57943742   -7.4656036     86.53598  0.016770539  0.015860722          302 
  431000   0.57723934   -7.4603744    86.490531  0.016722841  0.015807488          355 
  432000    0.5817741   -7.4462862    86.528172  0.016691391  0.015754513          254 
  433000    0.5850127   -7.4734419    86.291981  0.016607387  0.015701719          343 
  434000    0.5656082   -7.4699739    86.540647  0.016616868     0.015649          234 
  435000   0.58683921   -7.4652932    86.311337  0.016534739  0.015596393          244 
  436000   0.57023133   -7.4803068    86.291073  0.016492942  0.015544032          262 
  437000   0.57403522   -7.4992798    86.175158  0.016433097  0.015491712          271 
  438000   0.57773323   -7.4820844    86.175071  0.016395561   0.01543945          211 
  439000   0.56480139   -7.4771281    86.253586  0.016373118  0.015387349          168 
  440000     0.568051   -7.4912833    86.224256  0.016330351  0.015335442          200 
  441000   0.56950073   -7.5064104    86.129396  0.016275396  0.015283771          354 
  442000   0.55763152   -7.5063301    86.223498  0.016256316  0.015232352          366 
  443000   0.56308171   -7.4964645    85.967856   0.01617153  0.015181088          192 
  444000   0.57362574   -7.5284084     85.98941  0.016139154  0.015129909          427 
  445000   0.55211701   -7.5203222    86.164732  0.016135718  0.015078997          217 
  446000    0.5702802   -7.5071445     86.09425   0.01608637  0.015028269          206 
  447000    0.5504422   -7.5395831    86.104581  0.016052308  0.014977628          219 
  448000   0.55825984   -7.5277405    86.000345  0.015997088  0.014927122          350 
  449000   0.54832321   -7.5247511     86.06228  0.015972955  0.014876787          203 
  450000   0.55726226   -7.5344218    86.200547  0.015963064  0.014826723          299 
  451000   0.55303804   -7.5137511     86.01888  0.015894102  0.014776876          422 
  452000   0.56399214   -7.5377652    85.851839  0.015828141   0.01472722          360 
  453000   0.53623472   -7.5308988    86.092232  0.015837423  0.014677714          223 
  454000   0.54662989   -7.5400943    85.813224  0.015751326  0.014628429          397 
  455000   0.53033193   -7.5362922    86.095405  0.015768389  0.014579348          353 
  456000   0.54028927   -7.5591362    86.024171  0.015720791   0.01453052          293 
  457000   0.53363757   -7.5377287    85.835453  0.015651979  0.014481882          284 
  458000   0.54197246   -7.5527994    85.991953   0.01564628  0.014433448          330 
  459000   0.53146824   -7.5522348    85.994089   0.01561258   0.01438517          139 
  460000   0.53776919   -7.5808171    85.983874  0.015576789  0.014337032          245 
  461000   0.53392632    -7.559668    85.920556  0.015531554   0.01428913          412 
  462000   0.52101412   -7.5810058    85.979518  0.015508571  0.014241436          309 
  463000   0.52714686   -7.5717859    86.066095  0.015490658  0.014193928          398 
  464000   0.52948255   -7.5649139    86.008026  0.015446844  0.014146656          343 
  465000   0.52290166   -7.5600142    85.892267  0.015392879  0.014099498          347 
  466000   0.51857131   -7.5843877    85.828787  0.015348496  0.014052529          518 
  467000   0.51996497   -7.5837291    86.001566  0.015346461  0.014005754          404 
  468000   0.52687993   -7.5908975    85.832684  0.015283598  0.013959162          547 
  469000   0.50905808     -7.59782    85.655705  0.015219564   0.01391265          471 
  470000   0.53211522   -7.5805581    85.832543  0.015218536  0.013866416          337 
  471000   0.52562832   -7.5880604    85.754485  0.015172414  0.013820399          389 
  472000   0.51745087   -7.5960642    85.826438  0.015152973  0.013774487          502 
  473000    0.5290241   -7.5957626    85.831951  0.015121908  0.013728843          395 
  474000   0.50537383   -7.6104453    85.891703   0.01510051  0.013683276          374 
  475000   0.51077199   -7.6001692    85.711395  0.015037087  0.013637939          350 
  476000   0.51199758    -7.576577    85.792663  0.015019724  0.013592772          455 
  477000   0.49562497   -7.6125566    85.625909  0.014959104  0.013547817          478 
  478000   0.50607643   -7.5989489    85.792208  0.014956801  0.013503123          368 
  479000   0.49364403   -7.6191616     85.76409  0.014920684   0.01345865          362 
  480000   0.50255181   -7.6185748    85.782212  0.014892745  0.013414375          394 
  481000   0.49815093    -7.640877    85.773362   0.01486025  0.013370156          409 
  482000   0.50031798   -7.6151623    85.707752  0.014818076  0.013326122          427 
  483000    0.4915986   -7.6050692    85.620786  0.014772392  0.013282178          400 
  484000   0.49909537   -7.6332362    85.781194  0.014769489  0.013238394          413 
  485000   0.48816372   -7.6134729    85.658983  0.014718038  0.013194869          578 
  486000   0.48072115   -7.6316034    85.609031  0.014679189  0.013151521          430 
  487000   0.48944266   -7.6496719    85.578482   0.01464382  0.013108395          383 
  488000   0.48962699   -7.6295534    85.695031  0.014633714  0.013065339          454 
  489000   0.48574724   -7.6578951    85.709953  0.014606331  0.013022509          425 
  490000    0.4861769   -7.6387113    85.590818  0.014556262  0.012979767          488 
  491000   0.48040873   -7.6404878    85.637206  0.014534488  0.012937235          413 
  492000   0.48993012   -7.6473671    85.521564   0.01448536  0.012894806          502 
  493000   0.48343306    -7.649609     85.62343  0.014473196  0.012852613          465 
  494000   0.47866342   -7.6490496    85.636673  0.014446132  0.012810545          338 
  495000   0.47985679   -7.6404447    85.595774  0.014410063  0.012768706          558 
  496000   0.47919772   -7.6812725    85.446003  0.014355847  0.012726945          550 
  497000   0.47760169   -7.6751607    85.477316  0.014332213  0.012685329          529 
  498000   0.47203433   -7.6868463    85.678798  0.014337148  0.012643894          299 
  499000   0.47112142   -7.6766621    85.511392   0.01428046  0.012602649          523 
  500000   0.46884693   -7.6778185    85.423164  0.014237194  0.012561588          541 
  501000   0.46876827    -7.678469    85.412918  0.014207072   0.01252074          555 
  502000   0.45649061   -7.6734375    85.315183  0.014162547  0.012480092          546 
  503000   0.46480305    -7.681013    85.668313  0.014192895  0.012439593          467 
  504000    0.4656838   -7.6729271    85.474892  0.014132753  0.012399265          570 
  505000   0.45270213   -7.6855997    85.415497  0.014094966  0.012359055          623 
  506000   0.46402855   -7.6933337    85.455139  0.014073639  0.012319015          582 
  507000   0.45324403   -7.6842546    85.359934  0.014030232  0.012279118          390 
  508000   0.45483411   -7.6843177    85.536167  0.014031524  0.012239458          528 
  509000   0.45428011   -7.7092279    85.444626   0.01398897  0.012199954          523 
  510000    0.4511138    -7.706776     85.38257    0.0139514  0.012160541          420 
  511000    0.4449579   -7.6920991    85.373403  0.013922603  0.012121323          539 
  512000    0.4416365    -7.698565    85.301496  0.013883707  0.012082192          394 
Loop time of 1309 on 48 procs for 500000 steps with 4000 atoms

Performance: 66004.774 tau/day, 381.972 timesteps/s
99.4% CPU use with 48 MPI tasks x no OpenMP threads

MPI task timing breakdown:
Section |  min time  |  avg time  |  max time  |%varavg| %total
---------------------------------------------------------------
Pair    | 90.819     | 99.847     | 108.42     |  37.4 |  7.63
Neigh   | 9.026      | 9.479      | 10.064     |   6.8 |  0.72
Comm    | 81.429     | 90.137     | 98.254     |  38.8 |  6.89
Output  | 1.0404     | 1.0412     | 1.0638     |   0.3 |  0.08
Modify  | 1092.7     | 1096.4     | 1099.5     |   5.0 | 83.76
Other   |            | 12.07      |            |       |  0.92

Nlocal:        83.3333 ave          89 max          78 min
Histogram: 4 0 9 7 4 10 4 5 2 3
Nghost:        2412.90 ave        2432 max        2394 min
Histogram: 2 2 4 9 7 9 4 7 2 2
Neighs:        16727.6 ave       18999 max       14454 min
Histogram: 1 6 6 6 7 6 4 3 5 4
FullNghs:      33456.1 ave       35903 max       31275 min
Histogram: 4 0 8 8 5 10 7 1 3 2

Total # of neighbors = 1605893
Ave neighs/atom = 401.47325
Neighbor list builds = 26714
Dangerous builds = 0

#clear
#
#next RN
#
#jump SELF
Total wall time: 0:21:52
