
units lj                  # Use reduced LJ style units
atom_style atomic         # Uncharged point particles
atom_modify map hash      # Needed for indexing of clusters etc
                          # Used to be able to find where atoms are in relation to each other.

lattice fcc 1.0 spacing 1 1 1
Lattice spacing in x,y,z = 1.5874011 1.5874011 1.5874011
region box block 0 10 0 10 0 10 units lattice
create_box 2 box
Created orthogonal box = (0.0000000 0.0000000 0.0000000) to (15.874011 15.874011 15.874011)
  3 by 4 by 4 MPI processor grid
create_atoms 1 box
Created 4000 atoms
  using lattice units in orthogonal box = (0.0000000 0.0000000 0.0000000) to (15.874011 15.874011 15.874011)
  create_atoms CPU = 0.003 seconds
set type 1 type/fraction 2 0.63 78393
Setting atom values ...
  2531 settings made for type/fraction
mass 1 1.0
mass 2 1.0
pair_style lj/cut  3.5
pair_modify tail  yes
pair_coeff 1  1  1.0  1.0   # Intearaction between 1 and 1 set with epsilon = 1 and sigma = 1
pair_coeff 1  2  1.5  0.8
pair_coeff 2  2  0.5  0.88

write_data data.0
System init for write_data ...
Neighbor list info ...
  update every 1 steps, delay 10 steps, check yes
  max neighbors/atom: 2000, page size: 100000
  master list distance cutoff = 3.8
  ghost atom cutoff = 3.8
  binsize = 1.9, bins = 9 9 9
  1 neighbor lists, perpetual/occasional/extra = 1 0 0
  (1) pair lj/cut, perpetual
      attributes: half, newton on
      pair build: half/bin/atomonly/newton
      stencil: half/bin/3d
      bin: standard
WARNING: Not all mixed pair coeffs generated from mixing. Use write_data with 'pair ij' option to store all pair coeffs. (../write_data.cpp:312)


#############################
#   M E L T   S Y S T E M   #
#############################

velocity all create 2.4 5833274 mom yes dist gaussian # Assign velocities
                                                    # Temperature 2.4, random number seed, zero linear momentum
                                                                                # Gaussian distribution

timestep 0.002   # simulation timestep
thermo 1000       # output thermodynamic data every 1000 steps bf 100

# Define a fix  in this case with index 1 applied to all
# particles in the simulation. This fix is for simulations
# in the anisotropic NPT ensemble. Note that we use the MTK
# correction.
fix 1 all npt temp 2.4 2.4 0.1 iso 5.68 5.68 0.5 mtk yes tchain 5 pchain 5 # Use NPT ensemble
                                                                         # Set temperature and pressure and damping
                                                                         # Numbers of thermostats in chain and in barostat
run 10000          # run for 10000 steps
Per MPI rank memory allocation (min/avg/max) = 3.642 | 3.644 | 3.648 Mbytes
Step Temp E_pair E_mol TotEng Press Volume 
       0          2.4    -4.562992            0  -0.96389204   -3.9987934         4000 
    1000    2.3759864    -4.274149            0   -0.7110604    5.8290401    3609.0851 
    2000    2.4228562   -4.2937653            0  -0.66038956    5.7201045    3610.6044 
    3000    2.4054206   -4.2556886            0  -0.64845973    5.9756991    3606.0634 
    4000    2.3824579   -4.2667702            0  -0.69397675    5.9593941    3605.9942 
    5000    2.3689427   -4.3054996            0  -0.75297389    5.8498351    3594.9427 
    6000    2.4026626   -4.2851834            0  -0.68209051    5.6106163    3625.8924 
    7000    2.3782112   -4.3166957            0  -0.75027063    5.6056291    3609.2162 
    8000    2.3998504   -4.2636574            0  -0.66478177    5.5113528    3635.2445 
    9000    2.4653399   -4.3321184            0  -0.63503296    5.6606519    3599.7967 
   10000    2.3795241   -4.2811423            0  -0.71274847    5.4929169    3632.9884 
Loop time of 2.67681 on 48 procs for 10000 steps with 4000 atoms

Performance: 645544.092 tau/day, 3735.788 timesteps/s
99.7% CPU use with 48 MPI tasks x no OpenMP threads

MPI task timing breakdown:
Section |  min time  |  avg time  |  max time  |%varavg| %total
---------------------------------------------------------------
Pair    | 1.2116     | 1.2756     | 1.3856     |   3.8 | 47.65
Neigh   | 0.21605    | 0.22499    | 0.24244    |   1.4 |  8.41
Comm    | 0.78719    | 0.91358    | 1.004      |   5.1 | 34.13
Output  | 0.00024352 | 0.00024914 | 0.00031576 |   0.0 |  0.01
Modify  | 0.21218    | 0.24667    | 0.28227    |   3.3 |  9.22
Other   |            | 0.01573    |            |       |  0.59

Nlocal:        83.3333 ave          92 max          75 min
Histogram: 1 2 7 6 8 7 10 5 1 1
Nghost:        1748.17 ave        1777 max        1717 min
Histogram: 2 3 1 11 7 4 6 8 3 3
Neighs:        10499.6 ave       11934 max        9048 min
Histogram: 1 2 4 9 9 6 10 6 0 1

Total # of neighbors = 503979
Ave neighs/atom = 125.99475
Neighbor list builds = 902
Dangerous builds = 195

# Equilibrate just above the melting temperature to avoid step fn in T

fix 1 all npt temp 1.25 1.25 0.1 iso 5.68 5.68 0.5 mtk yes tchain 5 pchain 5
run 2000
Per MPI rank memory allocation (min/avg/max) = 3.644 | 3.646 | 3.650 Mbytes
Step Temp E_pair E_mol TotEng Press Volume 
   10000    2.3795241   -4.2811423            0  -0.71274847    5.4929169    3632.9884 
   11000    1.2486336   -6.2819045            0   -4.4094223    5.7562051    2768.8531 
   12000    1.2359139   -6.3816009            0   -4.5281934     5.798763    2739.5866 
Loop time of 0.657719 on 48 procs for 2000 steps with 4000 atoms

Performance: 525452.724 tau/day, 3040.814 timesteps/s
99.7% CPU use with 48 MPI tasks x no OpenMP threads

MPI task timing breakdown:
Section |  min time  |  avg time  |  max time  |%varavg| %total
---------------------------------------------------------------
Pair    | 0.29774    | 0.32194    | 0.36647    |   2.6 | 48.95
Neigh   | 0.041854   | 0.043936   | 0.049776   |   0.7 |  6.68
Comm    | 0.19472    | 0.24388    | 0.27354    |   3.3 | 37.08
Output  | 4.9611e-05 | 5.1294e-05 | 6.4978e-05 |   0.0 |  0.01
Modify  | 0.038099   | 0.043123   | 0.047987   |   1.4 |  6.56
Other   |            | 0.004796   |            |       |  0.73

Nlocal:        83.3333 ave          93 max          77 min
Histogram: 3 6 7 11 2 13 3 1 1 1
Nghost:        2121.44 ave        2141 max        2103 min
Histogram: 2 2 9 8 3 7 8 4 3 2
Neighs:        13908.3 ave       15875 max       12264 min
Histogram: 2 2 5 9 14 7 4 2 1 2

Total # of neighbors = 667600
Ave neighs/atom = 166.90000
Neighbor list builds = 144
Dangerous builds = 9

#############################
# L I N E A R  Q U E N C H  #
#############################

# Define solid atoms. This closely follows ten Wolde  Ruiz-Montero and Frenkel  Faraday Discuss  1996  104  93-110
# Compute components of the per-atom q6 vector
compute q6 all orientorder/atom degrees 1 6 components 6 nnn NULL cutoff 1.3 # compute the Q6 parameter.
                                                                             # Use all neighbours within 1.3 unit cell.

# get number of connections
compute coord_number all coord/atom orientorder q6 0.5

# An atom is solid if it has 8 or more connections (of a possible 14)
variable is_solid atom c_coord_number>=8
group solid dynamic all var is_solid    # Must be dynamic to update
dynamic group solid defined

# do clustering
compute cluster solid cluster/atom 1.3 # Create a cluster where all atoms within are solid and max 1.3 units from another member

# define chunks one chunk per cluster
compute clus_chunks solid chunk/atom c_cluster nchunk every compress yes  # Says which atoms are in which chunk

# count the size of each chunk
compute size_chunks solid property/chunk clus_chunks count


# Find the maximum entry in the vector of chunk sizes
variable max_n equal max(c_size_chunks)


# Thermo style which includes this variable
# thermo_style custom step temp pe vol v_max_n

thermo ${N}  # Print the thermo information every 100 steps
thermo 1000  

# Reset the npt fix at a lower temperature (below freezing)
fix 1  all npt temp  ${temp} ${temp}  0.1  iso  5.68  5.68  0.5  mtk yes tchain  5  pchain  5
fix 1  all npt temp  0.45 ${temp}  0.1  iso  5.68  5.68  0.5  mtk yes tchain  5  pchain  5
fix 1  all npt temp  0.45 0.45  0.1  iso  5.68  5.68  0.5  mtk yes tchain  5  pchain  5

dump dmp2 all dcd ${N} traj.dcd
dump dmp2 all dcd 1000 traj.dcd


compute msd all msd com yes
variable twopoint equal c_msd[4]/6/(step*dt+1.0e-6)
fix 9 all vector 10 c_msd[4]
variable fit equal slope(f_9)/6/(10*dt)
thermo_style custom step temp pe c_msd[4] v_twopoint v_fit v_max_n

fix 1 all npt temp 1.25 ${temp} 0.1 iso 5.68 5.68 0.5 mtk yes tchain 5 pchain 5
fix 1 all npt temp 1.25 0.45 0.1 iso 5.68 5.68 0.5 mtk yes tchain 5 pchain 5
run 500000 # 5000000  # Run for this many steps
Neighbor list info ...
  update every 1 steps, delay 10 steps, check yes
  max neighbors/atom: 2000, page size: 100000
  master list distance cutoff = 3.8
  ghost atom cutoff = 3.8
  binsize = 1.9, bins = 8 8 8
  4 neighbor lists, perpetual/occasional/extra = 1 3 0
  (1) pair lj/cut, perpetual
      attributes: half, newton on
      pair build: half/bin/atomonly/newton
      stencil: half/bin/3d
      bin: standard
  (2) compute orientorder/atom, occasional
      attributes: full, newton on
      pair build: full/bin/atomonly
      stencil: full/bin/3d
      bin: standard
  (3) compute coord/atom, occasional
      attributes: full, newton on
      pair build: full/bin/atomonly
      stencil: full/bin/3d
      bin: standard
  (4) compute cluster/atom, occasional
      attributes: full, newton on
      pair build: full/bin/atomonly
      stencil: full/bin/3d
      bin: standard
Per MPI rank memory allocation (min/avg/max) = 9.848 | 9.853 | 9.857 Mbytes
Step Temp PotEng c_msd[4] v_twopoint v_fit v_max_n 
   12000    1.2359139   -6.3816009 4.976529e-30 3.4559228e-32 8.3333333e+20           10 
   13000    1.2611138   -6.3401587   0.52710934 0.0033789059  0.043386567            3 
   14000    1.2682423   -6.3384666   0.99715648  0.005935455  0.040234914            2 
   15000     1.224834   -6.3987948    1.4454716 0.0080303977  0.039071259            2 
   16000    1.2586278    -6.393948    1.8773903  0.009778074  0.038552854            1 
   17000    1.2143662   -6.3891103    2.3683379  0.011609499  0.038546671            3 
   18000    1.2406776   -6.4371128    2.9175408  0.013507133  0.039051691            1 
   19000    1.2489812   -6.4161023     3.427315  0.015032083  0.039801628            2 
   20000    1.2625022   -6.3740971    3.9089331  0.016287221  0.040234626            1 
   21000    1.2499015   -6.4103641    4.3562522  0.017286715  0.040249444            2 
   22000    1.2447554   -6.4221659    4.8023212   0.01819061  0.040153236            3 
   23000    1.2493435   -6.4319688    5.2470561  0.019011072  0.039943901            2 
   24000    1.2174137   -6.4429199     5.766068  0.020021069    0.0399253            1 
   25000    1.2282405   -6.4296533     6.220456  0.020734853  0.039897425            3 
   26000    1.2275461   -6.4460385    6.6971575  0.021465248  0.039804095            3 
   27000    1.2076597   -6.4443083    7.1500296  0.022067992  0.039739536            1 
   28000    1.2359763     -6.43384    7.5986098   0.02261491  0.039709108            5 
   29000    1.2340111   -6.4477851    8.0096598  0.023016263  0.039559224            2 
   30000    1.1948526   -6.4909555    8.6058499  0.023905138  0.039526324            2 
   31000    1.2058448   -6.3988694    9.0960091  0.024451637   0.03954401            2 
   32000    1.2335411   -6.4588874    9.5788208  0.024944846  0.039571851            1 
   33000     1.193054   -6.4160868    9.9411253  0.025103851  0.039529696            4 
   34000    1.2260293   -6.4819592    10.323292  0.025302187  0.039427748            2 
   35000    1.2312367    -6.474423    10.686543   0.02544415  0.039256368            2 
   36000    1.2223649   -6.4682671    11.193681  0.025911298  0.039076665            3 
   37000    1.2251871   -6.5121077    11.592912  0.026110162  0.038927638            2 
   38000    1.2145996   -6.4541249    12.075779  0.026481971  0.038793594            2 
   39000    1.1978056   -6.4678988    12.479147  0.026664844  0.038679291            1 
   40000    1.1933738   -6.4884373    12.799035  0.026664656  0.038545448            2 
   41000    1.1826223   -6.4947141     13.30941  0.027051645  0.038376068            4 
   42000    1.2104273   -6.5045419    13.779582   0.02734044  0.038269932            3 
   43000    1.2094123    -6.536463    14.064716  0.027257201  0.038138974            4 
   44000     1.176907    -6.445169    14.556583  0.027569286  0.038003567            4 
   45000     1.176602   -6.5531018    14.861106  0.027520566  0.037861814            3 
   46000    1.2184759    -6.547285    15.195189  0.027527515  0.037689448            3 
   47000    1.1993585   -6.5192239    15.667522  0.027779294  0.037507838            7 
   48000    1.1833767   -6.5186325    15.889005  0.027585078  0.037326564            2 
   49000    1.2055088   -6.5796584    16.238338  0.027616221  0.037135395            2 
   50000    1.2034063   -6.5648464    16.692458  0.027820764  0.036947736            4 
   51000    1.1776646   -6.5531228    17.145339  0.028015259  0.036790108            2 
   52000    1.1762479   -6.5364402     17.46916  0.027995449  0.036630843            1 
   53000    1.2015826    -6.580674    17.831765  0.028037365  0.036474589            5 
   54000    1.1983805   -6.5630873    18.093603  0.027922226  0.036296446            1 
   55000    1.1837523     -6.54888    18.528533  0.028073535  0.036126581            3 
   56000    1.1521979   -6.5944944    18.917558  0.028151127  0.035972569            3 
   57000    1.1786269   -6.5667874    19.422264  0.028395122   0.03584626            4 
   58000    1.1699113   -6.5429426    19.958856  0.028676518  0.035746088            6 
   59000    1.1801214   -6.5696077    20.527111  0.028993095  0.035679184            6 
   60000    1.1689185   -6.5322715    20.822968  0.028920789  0.035622357            3 
   61000    1.1921018    -6.587363    21.012027  0.028704955  0.035536841            3 
   62000     1.188452   -6.6109464    21.452559  0.028834084  0.035444792            2 
   63000    1.1714898   -6.6083156    21.686483  0.028685824  0.035352558            4 
   64000    1.1599527   -6.5519878    22.083715  0.028754837  0.035241319            3 
   65000    1.1645139   -6.5953908    22.471062  0.028809053  0.035140196            2 
   66000    1.1457735   -6.6179704    22.713056  0.028678101  0.035030745            4 
   67000    1.1909616   -6.5993422    23.150296    0.0287939  0.034928454            3 
   68000    1.1761714     -6.59856    23.486733  0.028782761  0.034823192            2 
   69000    1.1518379   -6.6327199    23.822622  0.028771282  0.034717034            3 
   70000     1.147328   -6.5950174    24.174201  0.028778811  0.034622599            1 
   71000    1.1442462   -6.6395763    24.506165  0.028763105  0.034523045            2 
   72000    1.1615414   -6.6508611    24.709029  0.028598413  0.034409304            3 
   73000    1.1541045   -6.6201591    25.087675  0.028638898  0.034299865            1 
   74000    1.1532717   -6.5958969    25.607197  0.028836933  0.034187011            3 
   75000    1.1328098   -6.6626702    25.814517  0.028682796  0.034080453            4 
   76000    1.1398659   -6.6633208    26.038993  0.028551527  0.033973222            6 
   77000     1.137612   -6.6189656    26.554273   0.02873839   0.03385254            4 
   78000    1.1560524   -6.6446268    26.800536  0.028633052  0.033749339            6 
   79000    1.1291381   -6.6646528    27.113564  0.028600806  0.033645394            5 
   80000    1.1525382   -6.6926132    27.431556  0.028574537  0.033542766            4 
   81000    1.1371382   -6.6827371    27.790345  0.028590889  0.033439432            2 
   82000    1.1206771   -6.6454159    28.004725  0.028460086  0.033334818            2 
   83000    1.1044916   -6.6463656    28.384984   0.02849898  0.033229089            3 
   84000    1.1350132   -6.6476866    28.840786   0.02861189  0.033124299            3 
   85000    1.1346135   -6.6358184    29.359405   0.02878373  0.033038962            2 
   86000    1.1514247   -6.6887802    29.444617  0.028531605  0.032952214            5 
   87000    1.1200614   -6.6736543    29.880433  0.028621104  0.032867079            2 
   88000    1.1465754   -6.7027949    30.120764  0.028523451  0.032777368            3 
   89000    1.1472898   -6.6859315    30.306988  0.028377329  0.032679591            2 
   90000    1.1282885   -6.7126072    30.638089  0.028368601  0.032583555            3 
   91000    1.1026267   -6.7346122    31.038644  0.028423667  0.032494519            3 
   92000     1.127516   -6.6983376    31.389269  0.028432309   0.03240727            1 
   93000    1.1541064   -6.7392334    31.771855  0.028469404   0.03232336            4 
   94000    1.1193795   -6.7473328    31.925258  0.028302533  0.032233256            4 
   95000     1.092443   -6.7453956    32.200217  0.028245804  0.032140626            7 
   96000    1.1092797   -6.8033955    32.406892  0.028130982  0.032037559            2 
   97000    1.1327171    -6.720024    32.704627  0.028096759  0.031937257            3 
   98000    1.1157437   -6.7906069    32.962146  0.028029036   0.03184051            2 
   99000    1.0902736   -6.7881594    33.088069   0.02785191  0.031741228            6 
  100000    1.1192342    -6.737949    33.564015  0.027970012  0.031638014            2 
  101000    1.1198641   -6.7605114    33.705117  0.027809502  0.031536262            7 
  102000    1.1100597   -6.7636325    34.088845  0.027850364  0.031433328            5 
  103000    1.0920383   -6.7470916    34.293974  0.027745934   0.03133556            2 
  104000    1.1145808   -6.7234403    34.660456  0.027772801  0.031233286            3 
  105000    1.1132541   -6.7541484    34.781458  0.027604331   0.03112966            3 
  106000    1.1131262   -6.8106592     35.02857  0.027538184  0.031025605            5 
  107000    1.1096616   -6.7809069    35.467064  0.027622324  0.030924733            3 
  108000    1.0939449   -6.7693134    35.653703  0.027510573   0.03082561            3 
  109000    1.0952688   -6.7736376    35.777546  0.027352864  0.030725973            3 
  110000    1.0943965   -6.8229111    36.047583  0.027308775  0.030625575            2 
  111000    1.1021635   -6.7738497     36.54112  0.027433274  0.030532625            5 
  112000     1.116015   -6.7705311    36.639414  0.027261468  0.030431998            7 
  113000      1.08948   -6.8078508    36.964847  0.027260212  0.030331418            2 
  114000    1.0820593   -6.8166635    37.164909  0.027167331  0.030233481            4 
  115000    1.1135945   -6.7856962    37.473814  0.027154938  0.030140841            2 
  116000    1.0647052   -6.8487034    37.630647  0.027033511  0.030039402            2 
  117000    1.0685824   -6.8285437    37.843069  0.026953753  0.029941874            8 
  118000    1.0711534   -6.7942175    38.054895  0.026874925  0.029842834            3 
  119000    1.0727023   -6.8453008    38.268326  0.026798547  0.029745352            3 
  120000    1.0990456   -6.8219683    38.606893  0.026810342  0.029646484            3 
  121000    1.0751429   -6.8202055    38.790927  0.026715514  0.029549327            2 
  122000    1.0574446   -6.8059702    39.160323  0.026748854   0.02945426            9 
  123000    1.0738676   -6.8519172    39.713654  0.026906269  0.029364522            3 
  124000     1.082543   -6.8639403    39.849152  0.026780344  0.029278684            4 
  125000    1.0775231   -6.8892111    39.798869  0.026532579  0.029189633            2 
  126000    1.0586401   -6.8616056    40.218516  0.026599548  0.029099162            5 
  127000    1.0813364   -6.8543189    40.451518  0.026542991  0.029010062            4 
  128000    1.0822839   -6.8771702     40.78468  0.026552526  0.028925084            6 
  129000    1.0562116   -6.8650206    40.819201  0.026368993  0.028838084            5 
  130000    1.0369202   -6.8840245    41.275878  0.026458896   0.02875279            2 
  131000    1.0987937   -6.8640181    41.746972  0.026556598  0.028671991            1 
  132000     1.051607   -6.8926457    41.786319  0.026380252  0.028592943            2 
  133000     1.050289   -6.8508533    42.094778  0.026375174  0.028515933            2 
  134000    1.0708948   -6.8867887    42.439454  0.026392695  0.028441273            3 
  135000    1.0371571   -6.8897606    42.781318  0.026408221  0.028369182            4 
  136000    1.0674393   -6.8849185    43.094907  0.026406193  0.028299474            2 
  137000    1.0412261   -6.9074183    43.193405   0.02627336  0.028231078            6 
  138000    1.0393364   -6.9194177    43.370266  0.026189774  0.028159556            5 
  139000    1.0468007   -6.9341283    43.522602  0.026092687  0.028084704            2 
  140000    1.0308515   -6.8879317    43.837838  0.026093951  0.028009188            2 
  141000    1.0274281   -6.9385162    43.961428  0.025981931  0.027935925            2 
  142000     1.042175   -6.8905879    44.121254  0.025892755   0.02785947            9 
  143000    1.0351827   -6.9289796     44.49006  0.025926609   0.02778383            2 
  144000    1.0180198   -6.9802757    44.696588  0.025866081  0.027709557            3 
  145000    1.0227474   -6.8850381    45.005301  0.025865115  0.027635942            6 
  146000    1.0487753   -6.9034924    45.065764  0.025722468  0.027559903            4 
  147000    1.0785267   -6.9426306    45.266386  0.025661216  0.027482565            5 
  148000    1.0198656   -6.9476564    45.558768   0.02565246   0.02740715            5 
  149000    1.0218355   -6.9734001    45.726768  0.025574255  0.027331935            3 
  150000    1.0470853   -6.9744764    45.938699  0.025521499  0.027258687            5 
  151000    1.0531895   -6.9660452    46.180825  0.025486107  0.027186021            8 
  152000    1.0303974   -7.0001036    46.507158  0.025497345  0.027115671            3 
  153000    1.0298591   -6.9988445    46.598877  0.025380652  0.027045963            3 
  154000    1.0027972   -6.9383357    46.937514  0.025399087  0.026975982            4 
  155000    1.0291994   -6.9847156     47.32974  0.025446096  0.026908106            3 
  156000    0.9918707   -6.9860098    47.425475  0.025334121  0.026841299            4 
  157000    1.0249173   -6.9824615    47.679749  0.025307723  0.026773464           10 
  158000    1.0348846   -7.0119579    47.823736  0.025223489  0.026705435            3 
  159000    1.0317198   -6.9809406    47.908393  0.025109221  0.026635318            3 
  160000    1.0019472   -6.9906012     48.04387  0.025022849  0.026563649            2 
  161000    1.0130235   -7.0190438    48.096793   0.02489482  0.026490146            4 
  162000     1.012868   -7.0309276    48.307404  0.024849487  0.026416107            4 
  163000    1.0038242    -7.060531    48.604054  0.024848698   0.02634255            6 
  164000    1.0048275   -7.0332217     48.75555  0.024774161  0.026270437            2 
  165000     1.004239   -7.0450888    48.742227  0.024617286  0.026196992            8 
  166000    1.0150058   -7.0374417    49.141376  0.024669365  0.026123219            5 
  167000    1.0031539   -7.0566335    49.142059  0.024521985  0.026049673            7 
  168000   0.99258384   -7.0228296    49.455207  0.024531352  0.025976809            7 
  169000   0.98587198   -7.0362717    49.655435  0.024484929  0.025903695            6 
  170000    1.0010278    -7.046916    49.704238  0.024364823  0.025829775            6 
  171000   0.99148693   -7.0939924     49.72353  0.024231739  0.025754522            3 
  172000   0.99920384   -7.0524593     50.00949  0.024229404  0.025678077            3 
  173000   0.99506557   -7.0340608    50.480112  0.024316046  0.025603229            6 
  174000   0.98624706   -7.0761788    50.424709  0.024149765  0.025530798            4 
  175000   0.97759793   -7.0682019    50.632581  0.024110753  0.025458457            4 
  176000    0.9876271   -7.0935589    50.670633  0.023991777  0.025385057            7 
  177000    0.9812987   -7.0979447     51.03153  0.024026144  0.025310212            4 
  178000   0.98318188   -7.0964929    50.881592   0.02382097  0.025237852            4 
  179000   0.98619579   -7.0534754    51.377725  0.023918866  0.025166312            3 
  180000   0.99190566   -7.0513872    51.681549  0.023926643  0.025096572            5 
  181000   0.97834583   -7.0928381    51.600999  0.023757366  0.025024994            5 
  182000   0.97568351   -7.1509957    51.738314  0.023689704  0.024954062           10 
  183000   0.98651714   -7.1523871    51.850809   0.02361148   0.02488296            3 
  184000   0.98962848   -7.1181991    52.304284  0.023688534    0.0248126            7 
  185000   0.98813849   -7.0821781    52.569604  0.023680002  0.024743465            3 
  186000    0.9867558   -7.1049435     52.70583  0.023613723  0.024676689            6 
  187000   0.97553955   -7.1112845    52.809344  0.023533576  0.024610154            8 
  188000   0.95989231    -7.120733    52.914732  0.023455112  0.024541896            8 
  189000   0.96589154    -7.193637    52.835512  0.023296081  0.024472309            6 
  190000    0.9389775   -7.1192721    53.104432  0.023291418  0.024401467            3 
  191000   0.95930293    -7.124131    53.411014  0.023303235  0.024333226            6 
  192000   0.95686802   -7.1144247    53.445886  0.023196999   0.02426275            2 
  193000   0.95922711   -7.1668477    53.518238  0.023108047  0.024193839            5 
  194000   0.98348507   -7.1531391    53.786117  0.023104002  0.024126289            3 
  195000   0.97993277    -7.173491    53.953611  0.023057099  0.024058934            6 
  196000   0.93319402   -7.1707124    54.126659  0.023013035  0.023990902            3 
  197000    0.9345917   -7.2047212    54.266517  0.022955379  0.023922835            3 
  198000   0.93762318   -7.1175551    54.383004   0.02288847   0.02385391            5 
  199000   0.94722471   -7.1762858    54.320378  0.022747227  0.023785024            4 
  200000   0.96419291   -7.1645921    54.588835  0.022745348  0.023715831            5 
  201000   0.95775484    -7.158588    54.763108  0.022704439  0.023645567            3 
  202000   0.94305679   -7.1723718    54.737606  0.022581521  0.023575026            5 
  203000   0.94455565   -7.1920286    54.780857  0.022488037  0.023503836           11 
  204000   0.96086252   -7.2142813    54.959761  0.022450883  0.023432833            4 
  205000   0.94445691   -7.1858063    55.230645  0.022451482   0.02336358            4 
  206000   0.96004388   -7.2053272    55.345115    0.0223888  0.023295934            7 
  207000   0.94442269   -7.1986105    55.447319  0.022321787  0.023227647            3 
  208000   0.93920109   -7.2172194    55.711576  0.022320343  0.023159816            4 
  209000   0.94544814     -7.24001    55.695021  0.022206946  0.023091522            4 
  210000   0.92212907   -7.2153354    56.010747  0.022226487  0.023024893            3 
  211000   0.94441525    -7.217751     56.11239  0.022161291  0.022959312            4 
  212000   0.93030859    -7.227407    56.332299  0.022143199  0.022894429            5 
  213000   0.92755914   -7.2735275    56.237024  0.022001965  0.022830255            6 
  214000   0.91980729    -7.254679    56.491612  0.021998291  0.022764844            4 
  215000   0.92722757   -7.2314668    56.525795  0.021909223  0.022698307            8 
  216000   0.91294003   -7.2606516    56.540931  0.021813631  0.022631704            5 
  217000   0.92628109   -7.2781443    56.898467   0.02185041  0.022565307            4 
  218000   0.93142682   -7.2939377    56.965995  0.021775992  0.022499021           19 
  219000    0.9273224   -7.2906607    57.233942  0.021778517  0.022433965            9 
  220000   0.92262247   -7.3055436    57.191743  0.021663539  0.022369839            7 
  221000   0.93328714   -7.2837203    57.493454  0.021679281   0.02230633           13 
  222000   0.91446839    -7.270132    57.459749  0.021568975  0.022242298           21 
  223000   0.90577972   -7.2946885    57.426075  0.021459669   0.02217739            7 
  224000   0.91232215   -7.2799446    57.735919  0.021479136  0.022112778            6 
  225000    0.9056379   -7.2938039    57.782664  0.021400986  0.022048549            5 
  226000   0.89605611   -7.2993507    58.002818   0.02138747  0.021984334            4 
  227000   0.91912768   -7.3086113    57.967043  0.021280118  0.021920639            4 
  228000    0.9080169    -7.330191    58.052839  0.021218143  0.021856159           10 
  229000   0.90846017   -7.3196698    58.139849   0.02115715  0.021791686           12 
  230000   0.90361158   -7.3487206    58.248189  0.021104416  0.021727016           10 
  231000   0.91051861   -7.3457728    58.291161  0.021028557  0.021662565            9 
  232000   0.90176241   -7.3687167    58.473999  0.021003592  0.021597756            8 
  233000   0.89733545   -7.3499512    58.427169  0.020896698  0.021534125            7 
  234000   0.89471839   -7.3599229     58.72863  0.020914754  0.021470182           13 
  235000   0.90035008   -7.3812164    58.876961  0.020878355  0.021408174            7 
  236000   0.88419889   -7.3855375    58.790672  0.020759418  0.021345177            6 
  237000   0.89108844   -7.3455746    58.839256  0.020688909  0.021281464            7 
  238000   0.87548265   -7.3144088    59.051969   0.02067646  0.021217831            8 
  239000   0.91309745   -7.3620759    59.154913  0.020625841  0.021153588            5 
  240000   0.88209768   -7.4178745    58.884266  0.020445926  0.021088406            6 
  241000   0.88208065   -7.4249995    59.140202  0.020449586  0.021023255            9 
  242000   0.87307882   -7.4098364    59.091474  0.020348304   0.02095703            5 
  243000   0.88284453   -7.4105791    59.075451  0.020259071  0.020890878           12 
  244000   0.86929438    -7.413255    59.155686  0.020203445  0.020824765            7 
  245000   0.88964521   -7.4142862    59.118267  0.020108254  0.020758309            9 
  246000   0.88390033   -7.4019707    59.286467  0.020083491   0.02069112            8 
  247000   0.86158541   -7.4246297    59.393806  0.020038396  0.020624454            6 
  248000   0.87071154   -7.4241943    59.513166  0.019997704  0.020557962           10 
  249000   0.86990002   -7.4396284    59.540251  0.019926456  0.020491735            6 
  250000   0.85774244   -7.4264871     59.65398   0.01988466  0.020426479            7 
  251000   0.88049972   -7.4531056    59.540573  0.019767786  0.020360295           14 
  252000   0.86219391   -7.4132502    59.601899  0.019709623  0.020293462           10 
  253000   0.87067653   -7.4617133    59.778756  0.019689972  0.020226597            3 
  254000   0.85478889   -7.4614622    59.736993  0.019598751  0.020160062            6 
  255000   0.85239476   -7.4782058    59.572495  0.019468136  0.020092616            5 
  256000   0.86095012   -7.4980255    59.816951  0.019471664  0.020025364           18 
  257000   0.86061728   -7.4720786    59.888256   0.01941902  0.019959489            5 
  258000   0.86994887   -7.4446281    60.103198  0.019413178  0.019894082           10 
  259000   0.86587857   -7.4942819    60.257677  0.019387927   0.01982943           12 
  260000   0.85325534   -7.4701722    60.129917  0.019272409  0.019764677            8 
  261000   0.83709363   -7.4879235    60.138006  0.019201151  0.019699672            5 
  262000    0.8479827   -7.4751834    60.279758  0.019172951  0.019634644           13 
  263000   0.85480656    -7.481281    60.259491  0.019093628  0.019570234           10 
  264000   0.83453018   -7.4894945    60.624568  0.019136543  0.019505888            5 
  265000   0.85489955   -7.5125403    60.405486  0.018995436  0.019441598           13 
  266000   0.82289497   -7.4980738    60.674126  0.019008185   0.01937817            8 
  267000   0.82831598   -7.4875115    60.711902  0.018948783  0.019315066            4 
  268000   0.83492712   -7.5154532    60.606462  0.018845293  0.019251814           11 
  269000   0.84759138   -7.5312433    60.801018  0.018835508  0.019188214           11 
  270000   0.85131081   -7.5261815    60.694058  0.018732734  0.019125213            7 
  271000   0.83341635   -7.5561734    60.642981  0.018647903    0.0190616           11 
  272000   0.84653968   -7.5214273    60.909391  0.018660965  0.018998279            9 
  273000    0.8192089   -7.5411672    60.891547  0.018587163  0.018935145            8 
  274000   0.81931402   -7.5738877    60.877149  0.018514948  0.018872243            7 
  275000   0.82400558    -7.546027    60.989051  0.018481531  0.018808904            6 
  276000   0.81634774   -7.5446923    61.104013  0.018449279  0.018745641            6 
  277000   0.81744582   -7.5783527    61.074638  0.018373838  0.018682499            8 
  278000   0.81358636   -7.5601632    61.229779   0.01835425  0.018619419           11 
  279000   0.82561201   -7.5921879    60.949236   0.01820467  0.018556272           20 
  280000   0.82103763   -7.5599333     61.10037  0.018184634  0.018493247           12 
  281000   0.81604989   -7.5807411     61.11068  0.018122977  0.018430141           10 
  282000   0.81842837   -7.5805785    61.163473  0.018074312  0.018367204           14 
  283000   0.80870647   -7.5972117    61.355976  0.018067131  0.018304345           20 
  284000   0.81853123   -7.6280345    61.079473   0.01792238  0.018241295           17 
  285000   0.81625865   -7.6176914    61.064263  0.017855048  0.018178376           12 
  286000   0.80115621     -7.63622    61.115887  0.017807659  0.018115302           14 
  287000   0.82298907   -7.6032331    61.173278  0.017762276  0.018051984           10 
  288000   0.79042191   -7.6370235    61.179756  0.017702476  0.017988391           19 
  289000   0.81978001   -7.6265589     61.33769  0.017686762  0.017924862           20 
  290000   0.81048572   -7.6498437    61.200177  0.017586258  0.017861325           17 
  291000    0.8057886   -7.6319602     61.21444  0.017529908  0.017798212            7 
  292000   0.82043199   -7.6399102    61.258045  0.017482319  0.017735023            6 
  293000   0.79555951   -7.6033706    61.438937    0.0174741  0.017672275           17 
  294000   0.78696697   -7.6383143    61.245921  0.017359955  0.017610081            9 
  295000   0.78636824   -7.6301611    61.128823  0.017268029  0.017547322            8 
  296000   0.79943734   -7.6606498    61.457044  0.017302096  0.017484876           14 
  297000   0.77317734   -7.6434874    61.330353  0.017208292  0.017423031           10 
  298000   0.78932569    -7.656923    61.303415  0.017143013   0.01736159            9 
  299000   0.80625162   -7.6605998    61.403251  0.017113504  0.017300024           14 
  300000   0.79931129   -7.6742033    61.507244  0.017085346  0.017238502            9 
  301000   0.79665503   -7.6766646    61.434818  0.017008532  0.017177378           26 
  302000   0.78982221   -7.6965652    61.656125   0.01701328  0.017116739           24 
  303000   0.80175566   -7.6910527    61.556051  0.016929607  0.017056088           28 
  304000    0.7738572   -7.6770483    61.562104  0.016875577  0.016995482           39 
  305000   0.77707812   -7.6989053    61.617728  0.016835445  0.016934682           31 
  306000   0.77884179   -7.7024975    61.622166  0.016781636  0.016873841           33 
  307000   0.77850763   -7.7162526    61.476377  0.016687399  0.016813353           12 
  308000   0.76303501   -7.6935393    61.487977  0.016636357  0.016752893           21 
  309000   0.78533969   -7.7235842    61.595059  0.016611397  0.016692422           11 
  310000   0.76933653   -7.6954155    61.462694  0.016522229  0.016632273           13 
  311000   0.78693676   -7.7509276    61.395367  0.016451063  0.016572158           17 
  312000   0.77456664   -7.7447547    61.601101  0.016453285  0.016511932           21 
  313000    0.7592631   -7.7481651    61.433768  0.016356168  0.016451637           32 
  314000    0.7714203   -7.7738245    61.559979  0.016337574  0.016391535           49 
  315000   0.75548916   -7.7787941    61.576841   0.01629017  0.016331668           41 
  316000   0.77092437    -7.791556    61.567093  0.016236048  0.016271817           19 
  317000   0.75473651   -7.7559889    61.606262  0.016195127  0.016212397           42 
  318000   0.75452274   -7.8058118    61.413867  0.016093781  0.016152906           24 
  319000   0.75179581   -7.8014704     61.58164  0.016087158  0.016093186           80 
  320000   0.75698349   -7.7958535     61.70776  0.016069729  0.016033979           52 
  321000   0.76493205   -7.8133257    61.595005  0.015990396   0.01597455           43 
  322000   0.76503208   -7.8308828    61.636166  0.015951389  0.015915434           30 
  323000   0.75312723   -7.8249238    61.579693  0.015887434  0.015856574           40 
  324000   0.75231355   -7.8254365    61.435577  0.015801332  0.015797722           28 
  325000   0.75474847   -7.8604678    61.442468  0.015754479  0.015739044           32 
  326000   0.75280133   -7.8460145    61.534299  0.015729627  0.015680185           58 
  327000   0.73987995   -7.8435162    61.405612  0.015648729  0.015621616           47 
  328000     0.753125   -7.8576187    61.416173  0.015603702  0.015563357           49 
  329000   0.73508608   -7.8648687    61.316619  0.015531058  0.015505134           42 
  330000   0.74415698   -7.8511416    61.466781  0.015521914  0.015447184           62 
  331000   0.72606053   -7.8484672    61.426754  0.015464943  0.015389339           53 
  332000   0.72320845   -7.8619794    61.473996   0.01543022  0.015331656           48 
  333000   0.74292017   -7.8645695    61.427728  0.015372304  0.015274103           59 
  334000   0.73855498   -7.8680381    61.566721  0.015360958  0.015216776           35 
  335000   0.74290438   -7.8670574     61.51176  0.015301433  0.015159975           54 
  336000   0.73305528   -7.8967094    61.623864  0.015283696  0.015103454           66 
  337000   0.74132715   -7.8938793    61.613084  0.015235679     0.015047           55 
  338000   0.73527698   -7.8971409    61.335347  0.015122127   0.01499047           62 
  339000    0.7274738   -7.8860004    61.445184  0.015104519  0.014934236           50 
  340000   0.73122609   -7.8900114    61.365963  0.015040677   0.01487839           63 
  341000   0.71628673   -7.8893618    61.505955  0.015030781  0.014822528           59 
  342000   0.71951648   -7.9064257    61.650259  0.015021993  0.014767122           42 
  343000   0.73324701   -7.8973635    61.561159   0.01495655  0.014711825           48 
  344000   0.71013915   -7.9137385    61.592959  0.014920775  0.014656933           57 
  345000   0.71332584   -7.9280882    61.579486  0.014874272  0.014602106           62 
  346000   0.71614249   -7.9019141    61.490907  0.014809949  0.014547542          112 
  347000   0.72121618   -7.9368033    61.540473  0.014779172   0.01449304           69 
  348000    0.6908083   -7.9264358    61.470047  0.014719839  0.014438619           85 
  349000   0.70046517   -7.9406727    61.394107  0.014659529  0.014384416           75 
  350000   0.71450151   -7.9392546    61.499479  0.014642733  0.014330502           69 
  351000   0.71681387   -7.9435114    61.468452   0.01459365  0.014276679           85 
  352000   0.71341281   -7.9647209    61.352633  0.014524771  0.014222897           52 
  353000   0.70930015    -7.967026    61.423031  0.014500243  0.014169325           90 
  354000   0.70206533   -7.9666675    61.511542  0.014480118  0.014116086           64 
  355000   0.70983459   -7.9657958    61.387207  0.014410143  0.014062926          102 
  356000   0.71630797    -7.959365    61.530622  0.014403235      0.01401          155 
  357000    0.7015151   -7.9764768    61.567787  0.014371566  0.013957363          120 
  358000   0.69538492   -7.9848642    61.531509  0.014322977  0.013904941           83 
  359000   0.69617135   -7.9809644      61.4786  0.014270799  0.013852408           57 
  360000   0.68321832   -8.0136938    61.292818  0.014188152   0.01380021           78 
  361000   0.69550418   -8.0083776    61.322949  0.014155805  0.013748121           54 
  362000   0.69307414   -7.9828812    61.334027  0.014119251  0.013696074           67 
  363000   0.70013907   -7.9997711    61.440421   0.01410478  0.013644319          100 
  364000   0.68858563   -7.9942592    61.295623  0.014032881  0.013592828           95 
  365000   0.69118339   -8.0101599    61.432644  0.014025718  0.013541387           78 
  366000    0.6802453   -8.0221753    61.273515  0.013951165  0.013490392          117 
  367000    0.6904453   -8.0329597     61.29298   0.01391757  0.013439366           88 
  368000   0.67426968   -8.0184867    61.274844  0.013875644  0.013388552           62 
  369000   0.67555607   -8.0386602    61.245579  0.013831432  0.013337834           77 
  370000   0.67044861   -8.0311849    61.364542  0.013820843    0.0132874           79 
  371000   0.68091991   -8.0575481    61.319534   0.01377348  0.013237161           76 
  372000   0.68454024   -8.0093652    61.407015  0.013756052  0.013187177          113 
  373000   0.67558623   -8.0563897    61.316439  0.013698936  0.013137437          101 
  374000   0.67611658    -8.062472    61.353684  0.013670607  0.013087768           87 
  375000   0.66574187   -8.0735822    61.317382  0.013626085  0.013038294           90 
  376000   0.67850237   -8.0538204    61.345097  0.013595988  0.012989222           77 
  377000   0.67573671   -8.0763648    61.418966  0.013576252  0.012940261          257 
  378000   0.67820414   -8.0801418    61.165445  0.013484445  0.012891521           83 
  379000   0.64916814   -8.0702272    61.284837  0.013475118  0.012842965          111 
  380000   0.65486843   -8.0715277    61.258701  0.013433926  0.012794744          102 
  381000   0.67261303   -8.0624266    61.311732  0.013410265  0.012746743           84 
  382000    0.6634228   -8.0683652    61.228136  0.013356923  0.012698802           85 
  383000   0.65684014   -8.0789095     61.31347  0.013340616  0.012651046          106 
  384000   0.67697125   -8.0876567    61.136944  0.013267566  0.012603452           74 
  385000   0.65058009   -8.0969056    61.272561  0.013262459  0.012555995          118 
  386000    0.6608966   -8.1065505    61.249935  0.013223216  0.012508841          104 
  387000   0.65483019   -8.1056942    61.337114  0.013207819  0.012461885          203 
  388000   0.63851039    -8.088363    61.187393  0.013141622  0.012414984          117 
  389000   0.65172051   -8.0833568    61.301731  0.013132333  0.012368459           90 
  390000   0.65753155     -8.09876    61.286019  0.013095303  0.012322097          107 
  391000   0.66108453   -8.0955083    61.304939  0.013065844  0.012275948           96 
  392000   0.64184682   -8.0916997    61.292114  0.013029786  0.012230017           94 
  393000   0.63174773   -8.1092265    61.155111  0.012967581  0.012184112          118 
  394000   0.63846304   -8.1240648    61.216225  0.012947594  0.012138336           78 
  395000   0.63101034   -8.1333544    61.194989  0.012910335  0.012092833          116 
  396000   0.62601642   -8.1123431    61.172711  0.012873045  0.012047588          209 
  397000   0.62934015   -8.1226368    61.183992  0.012842987  0.012002465          149 
  398000    0.6282288   -8.1311931    61.066707  0.012786162  0.011957678           91 
  399000   0.64116923    -8.128005    61.112776  0.012763738  0.011912947          117 
  400000    0.6180575   -8.1196288    61.277883  0.012766226  0.011868546          131 
  401000   0.63217185   -8.1491879    61.158357   0.01270955  0.011824263           86 
  402000   0.61895627   -8.1513851    61.279796  0.012703109  0.011780263          112 
  403000   0.64362742   -8.1338966    61.204495  0.012656016  0.011736382          214 
  404000   0.61130118   -8.1666328      61.1574  0.012614975    0.0116926           95 
  405000   0.62140651   -8.1631344    61.056508  0.012563067  0.011649117          195 
  406000   0.62604185   -8.1600817    61.193562  0.012560255  0.011605863          105 
  407000   0.60806792   -8.1347009     61.15777  0.012522066  0.011562701          130 
  408000   0.62166351   -8.1593703    61.162827  0.012492407  0.011519689          278 
  409000   0.62085701   -8.1648444    61.146781  0.012458594  0.011476783          198 
  410000   0.61119898   -8.1689114    61.003332  0.012399051  0.011434156          217 
  411000   0.61009835   -8.1685784    61.160144  0.012400678  0.011391609          159 
  412000   0.60353436   -8.1969113       60.901  0.012318163  0.011349425          135 
  413000   0.60925417   -8.1926621    61.010361  0.012310404  0.011307243          127 
  414000   0.60692317   -8.1836767     61.10664  0.012300048  0.011265364          240 
  415000   0.59831367   -8.1982028    61.093793   0.01226783  0.011223643          254 
  416000   0.60531327   -8.1833518    61.083247  0.012236227  0.011182352          236 
  417000   0.59913003   -8.1682291    61.105746   0.01221138  0.011140988          176 
  418000   0.60391587   -8.1953561    60.921684  0.012145471  0.011099852          272 
  419000   0.58083782   -8.2007129     60.95669  0.012123447   0.01105885          218 
  420000   0.59549075   -8.1901491    60.998891  0.012102955  0.011018023          214 
  421000   0.58801959   -8.1971571    61.006577  0.012075728   0.01097743          190 
  422000   0.60533455   -8.2296793    60.960183  0.012037951  0.010936961          186 
  423000    0.5912393   -8.1925378    61.040587  0.012025332  0.010896741          223 
  424000   0.59430815   -8.2099638    61.026131  0.011994129   0.01085669          348 
  425000   0.58262292    -8.217043    60.913436  0.011943811  0.010816785          335 
  426000   0.59626913   -8.2163358    60.922951  0.011917635  0.010777044          202 
  427000   0.58368991   -8.2157387    60.939884   0.01189303  0.010737578          103 
  428000   0.57961664   -8.2335692    60.841981   0.01184618  0.010698243          114 
  429000   0.57218024   -8.2517416    60.929288  0.011835526  0.010659161          242 
  430000   0.58639845   -8.2265335    61.007948  0.011823246  0.010620048          200 
  431000   0.56725432   -8.2359045    60.919059  0.011778627  0.010581235          214 
  432000    0.5753518   -8.2463882    60.896414  0.011746993  0.010542473          204 
  433000   0.58170378   -8.2461975    61.021325  0.011743904  0.010503921          222 
  434000   0.58012796   -8.2458781    60.936288  0.011700516  0.010465615          138 
  435000   0.57070965    -8.238896    60.970887  0.011680246  0.010427449          282 
  436000   0.59479653   -8.2195406     60.95316  0.011650069  0.010389469          211 
  437000   0.56409264   -8.2459488    60.873753  0.011608267  0.010351646          199 
  438000   0.57217096   -8.2604117     60.94285   0.01159491   0.01031402          220 
  439000   0.58142311   -8.2463545    60.839758  0.011548929  0.010276517          450 
  440000     0.566991   -8.2650199    60.796181  0.011514428   0.01023925          368 
  441000     0.565693   -8.2811579    60.830207  0.011494748  0.010202017          290 
  442000   0.56634689   -8.2809832    60.903348  0.011482532  0.010164925          358 
  443000   0.55812592   -8.2803012    60.819626  0.011440863  0.010128064          205 
  444000    0.5502113    -8.281417    60.900974  0.011430363  0.010091301          235 
  445000    0.5588852    -8.283089    60.813311  0.011388261  0.010054749          249 
  446000   0.55094421   -8.2740501     60.85621  0.011370742   0.01001838          220 
  447000   0.55302764   -8.2750994    60.775806  0.011330314 0.0099821864          275 
  448000   0.55186888   -8.2720582    60.907314  0.011329486 0.0099461582          233 
  449000   0.55716599   -8.2883707    60.746913  0.011274483 0.0099102807          230 
  450000   0.54758006    -8.279712    60.688727  0.011238653 0.0098746077          401 
  451000   0.54913956   -8.2917031    60.670593  0.011210383 0.0098390906          463 
  452000   0.52972723   -8.3033913    60.782369  0.011206189 0.0098036731          315 
  453000    0.5364595   -8.3120997    60.681375  0.011162872 0.0097684735          327 
  454000      0.55059   -8.2876784    60.748247  0.011150559 0.0097334924          398 
  455000   0.54181735    -8.329293    60.685595  0.011114578   0.00969854          359 
  456000   0.53799622   -8.2960541     60.72999  0.011098317 0.0096637789          279 
  457000   0.53601492   -8.3057595     60.68745  0.011066275 0.0096291553          272 
  458000   0.54338531   -8.3305603     60.68437  0.011041552 0.0095946829          471 
  459000   0.52737957   -8.2933099     60.56584  0.010995977  0.009560335          549 
  460000   0.54020707   -8.3166516    60.716364  0.010999341 0.0095261629          373 
  461000   0.53732682   -8.3300742     60.63471  0.010960721 0.0094920842          393 
  462000   0.52444815   -8.3350904    60.587081  0.010928406 0.0094582348          428 
  463000    0.5256614   -8.3070452    60.708697  0.010926691 0.0094245063          335 
  464000   0.52347841   -8.3413938    60.574127  0.010878974 0.0093909291          424 
  465000   0.53115013   -8.3343759    60.628339  0.010865294 0.0093574754          379 
  466000    0.5408622    -8.338589     60.61966  0.010840426 0.0093241864          397 
  467000    0.5259451   -8.3313816    60.645866  0.010821889 0.0092910866          180 
  468000   0.52065896   -8.3504869     60.67761  0.010804418 0.0092581304          321 
  469000   0.51326758   -8.3491942    60.618166  0.010770818 0.0092252875          358 
  470000   0.51654863   -8.3376421     60.76548  0.010774021 0.0091926527          487 
  471000   0.52346036   -8.3258255    60.621886  0.010725741 0.0091600908          370 
  472000   0.51441356   -8.3389607    60.514451  0.010684049 0.0091276931          305 
  473000   0.51725786   -8.3470616    60.571384  0.010671491 0.0090954228          362 
  474000   0.50591358   -8.3532607    60.572576  0.010649187 0.0090633446          244 
  475000   0.51234339   -8.3701731    60.500905  0.010614194  0.009031358          295 
  476000   0.50828613   -8.3501859    60.565769  0.010603251 0.0089995625          304 
  477000   0.50705087    -8.358269    60.675588  0.010600208 0.0089678546          220 
  478000   0.50929261   -8.3776901    60.523808   0.01055157 0.0089363509          470 
  479000   0.51197119   -8.3693279     60.47487  0.010521028 0.0089049419          509 
  480000   0.49885466   -8.3650362    60.454234  0.010495527 0.0088736666          340 
  481000   0.49726902   -8.3756632    60.478522  0.010477914 0.0088425358          485 
  482000   0.48960987   -8.3751297    60.451576  0.010451517 0.0088115461          460 
  483000   0.49226975   -8.3801839    60.394485  0.010420028 0.0087807108          443 
  484000   0.48716382   -8.3802908    60.458775  0.010409569 0.0087499873          341 
  485000   0.48709932   -8.3770633    60.463199  0.010388866 0.0087194196          376 
  486000   0.48840722   -8.3874496    60.479957  0.010370363 0.0086889833          328 
  487000   0.48148572   -8.3813473    60.487299  0.010350325 0.0086587215          430 
  488000   0.48210939   -8.3804349    60.531371  0.010336641 0.0086285384          511 
  489000   0.49483492   -8.4098276    60.471767  0.010305345 0.0085984923          346 
  490000   0.48933051   -8.3895108    60.413003   0.01027432 0.0085686619          341 
  491000   0.48712302   -8.3882148    60.445315  0.010258879 0.0085389529          307 
  492000   0.47900249    -8.397414      60.4499  0.010238804 0.0085093561          316 
  493000   0.48225867   -8.4038015    60.462907  0.010220234  0.008479865          411 
  494000   0.47496111   -8.4127306     60.43604  0.010195014 0.0084505025          336 
  495000   0.47674445   -8.4062574    60.376627  0.010164415 0.0084213106          303 
  496000   0.47717178   -8.4203292     60.43192  0.010153212 0.0083922365          373 
  497000   0.48170013   -8.3959577    60.381313  0.010124298  0.008363292          376 
  498000   0.47503485   -8.4115809    60.408803  0.010108568 0.0083344291          358 
  499000    0.4665565   -8.4155418    60.337225  0.010076357 0.0083057329          436 
  500000   0.46625519   -8.4107452    60.350883  0.010058481 0.0082771379          309 
  501000   0.47470854   -8.4290153    60.405137  0.010047428 0.0082486935          365 
  502000   0.46037198   -8.4326888    60.407189  0.010027754 0.0082204084          444 
  503000    0.4555788   -8.4282757     60.28518 0.0099876043 0.0081922266          433 
  504000   0.46736405   -8.4255824    60.327587 0.0099747995 0.0081641555          245 
  505000   0.46872076   -8.4213936    60.292973 0.0099493355 0.0081361725          293 
  506000   0.45935439   -8.4230065    60.313296 0.0099330197 0.0081083153          425 
  507000   0.45217812   -8.4406378    60.373868  0.009923384  0.008080583          376 
  508000   0.45391742   -8.4284046    60.262141 0.0098855218 0.0080529985          402 
  509000   0.45665137   -8.4287796    60.328659 0.0098769907 0.0080255192          391 
  510000   0.45593123   -8.4490308    60.281485 0.0098499158 0.0079982023          210 
  511000   0.45495924   -8.4484871    60.262603 0.0098275607 0.0079709579          418 
  512000   0.45206776   -8.4538256    60.376832 0.0098269583 0.0079438941          471 
Loop time of 1313.46 on 48 procs for 500000 steps with 4000 atoms

Performance: 65780.433 tau/day, 380.674 timesteps/s
99.4% CPU use with 48 MPI tasks x no OpenMP threads

MPI task timing breakdown:
Section |  min time  |  avg time  |  max time  |%varavg| %total
---------------------------------------------------------------
Pair    | 93.365     | 102.23     | 111.07     |  37.8 |  7.78
Neigh   | 9.2023     | 9.533      | 10.014     |   6.0 |  0.73
Comm    | 88.064     | 96.262     | 105.74     |  41.2 |  7.33
Output  | 1.0061     | 1.0069     | 1.0323     |   0.4 |  0.08
Modify  | 1085.5     | 1091.3     | 1096.4     |   7.7 | 83.09
Other   |            | 13.14      |            |       |  1.00

Nlocal:        83.3333 ave          90 max          76 min
Histogram: 1 1 6 4 6 13 7 6 2 2
Nghost:        2409.94 ave        2431 max        2389 min
Histogram: 1 0 7 8 7 10 8 5 0 2
Neighs:        16730.9 ave       19255 max       14778 min
Histogram: 4 8 7 6 6 2 2 8 2 3
FullNghs:      33462.0 ave       36320 max       30582 min
Histogram: 1 3 4 6 10 9 7 4 3 1

Total # of neighbors = 1606176
Ave neighs/atom = 401.54400
Neighbor list builds = 26634
Dangerous builds = 0

#clear
#
#next RN
#
#jump SELF
Total wall time: 0:21:57
