
units lj                  # Use reduced LJ style units
atom_style atomic         # Uncharged point particles
atom_modify map hash      # Needed for indexing of clusters etc
                          # Used to be able to find where atoms are in relation to each other.

lattice fcc 1.0 spacing 1 1 1
Lattice spacing in x,y,z = 1.5874011 1.5874011 1.5874011
region box block 0 10 0 10 0 10 units lattice
create_box 2 box
Created orthogonal box = (0.0000000 0.0000000 0.0000000) to (15.874011 15.874011 15.874011)
  3 by 4 by 4 MPI processor grid
create_atoms 1 box
Created 4000 atoms
  using lattice units in orthogonal box = (0.0000000 0.0000000 0.0000000) to (15.874011 15.874011 15.874011)
  create_atoms CPU = 0.016 seconds
set type 1 type/fraction 2 0.72 78393
Setting atom values ...
  2894 settings made for type/fraction
mass 1 1.0
mass 2 1.0
pair_style lj/cut  3.5
pair_modify tail  yes
pair_coeff 1  1  1.0  1.0   # Intearaction between 1 and 1 set with epsilon = 1 and sigma = 1
pair_coeff 1  2  1.5  0.8
pair_coeff 2  2  0.5  0.88

write_data data.0
System init for write_data ...
Neighbor list info ...
  update every 1 steps, delay 10 steps, check yes
  max neighbors/atom: 2000, page size: 100000
  master list distance cutoff = 3.8
  ghost atom cutoff = 3.8
  binsize = 1.9, bins = 9 9 9
  1 neighbor lists, perpetual/occasional/extra = 1 0 0
  (1) pair lj/cut, perpetual
      attributes: half, newton on
      pair build: half/bin/atomonly/newton
      stencil: half/bin/3d
      bin: standard
WARNING: Not all mixed pair coeffs generated from mixing. Use write_data with 'pair ij' option to store all pair coeffs. (../write_data.cpp:312)


#############################
#   M E L T   S Y S T E M   #
#############################

velocity all create 2.4 1741580 mom yes dist gaussian # Assign velocities
                                                    # Temperature 2.4, random number seed, zero linear momentum
                                                                                # Gaussian distribution

timestep 0.002   # simulation timestep
thermo 1000       # output thermodynamic data every 1000 steps bf 100

# Define a fix  in this case with index 1 applied to all
# particles in the simulation. This fix is for simulations
# in the anisotropic NPT ensemble. Note that we use the MTK
# correction.
fix 1 all npt temp 2.4 2.4 0.1 iso 5.68 5.68 0.5 mtk yes tchain 5 pchain 5 # Use NPT ensemble
                                                                         # Set temperature and pressure and damping
                                                                         # Numbers of thermostats in chain and in barostat
run 10000          # run for 10000 steps
Per MPI rank memory allocation (min/avg/max) = 3.642 | 3.644 | 3.648 Mbytes
Step Temp E_pair E_mol TotEng Press Volume 
       0          2.4   -4.0785584            0  -0.47945841   -3.6688173         4000 
    1000    2.3800507   -3.6631033            0 -0.093919777     5.522338    3692.9416 
    2000    2.4889648   -3.6017088            0   0.13080511    5.9168659    3685.8527 
    3000    2.3853743   -3.6010809            0 -0.023913956    5.7889312    3699.2116 
    4000    2.3559516   -3.6268795            0  -0.09383556     5.400365    3714.6568 
    5000    2.3485118    -3.620655            0 -0.098767903    5.7815393    3683.5893 
    6000    2.3373301   -3.6324073            0  -0.12728868    5.2657793    3713.9842 
    7000    2.4276059   -3.6703949            0 -0.029896391    5.6740046    3677.5914 
    8000    2.3998166   -3.6450738            0 -0.046248848    5.5932936    3698.7212 
    9000    2.4263945   -3.6561818            0 -0.017500005    5.7710871      3668.15 
   10000    2.4127427    -3.643014            0 -0.024804663    6.0182323    3646.7213 
Loop time of 2.69936 on 48 procs for 10000 steps with 4000 atoms

Performance: 640151.129 tau/day, 3704.578 timesteps/s
99.6% CPU use with 48 MPI tasks x no OpenMP threads

MPI task timing breakdown:
Section |  min time  |  avg time  |  max time  |%varavg| %total
---------------------------------------------------------------
Pair    | 1.182      | 1.2601     | 1.4967     |   4.0 | 46.68
Neigh   | 0.21536    | 0.22572    | 0.26127    |   1.5 |  8.36
Comm    | 0.6967     | 0.92172    | 1.0191     |   6.6 | 34.15
Output  | 0.00025129 | 0.00025793 | 0.00033062 |   0.0 |  0.01
Modify  | 0.21366    | 0.27595    | 0.35594    |   8.7 | 10.22
Other   |            | 0.0156     |            |       |  0.58

Nlocal:        83.3333 ave          93 max          75 min
Histogram: 1 6 3 11 5 9 5 6 1 1
Nghost:        1742.10 ave        1767 max        1715 min
Histogram: 1 5 3 4 8 8 9 4 4 2
Neighs:        10461.9 ave       11799 max        8804 min
Histogram: 1 2 2 5 9 11 7 6 3 2

Total # of neighbors = 502173
Ave neighs/atom = 125.54325
Neighbor list builds = 910
Dangerous builds = 221

# Equilibrate just above the melting temperature to avoid step fn in T

fix 1 all npt temp 1.25 1.25 0.1 iso 5.68 5.68 0.5 mtk yes tchain 5 pchain 5
run 2000
Per MPI rank memory allocation (min/avg/max) = 3.644 | 3.646 | 3.649 Mbytes
Step Temp E_pair E_mol TotEng Press Volume 
   10000    2.4127427    -3.643014            0 -0.024804663    6.0182323    3646.7213 
   11000    1.2308064   -5.3857333            0   -3.5399852    5.6147764     2814.093 
   12000    1.2619341   -5.4338318            0   -3.5414038    5.9188362    2779.3663 
Loop time of 0.660385 on 48 procs for 2000 steps with 4000 atoms

Performance: 523331.398 tau/day, 3028.538 timesteps/s
99.6% CPU use with 48 MPI tasks x no OpenMP threads

MPI task timing breakdown:
Section |  min time  |  avg time  |  max time  |%varavg| %total
---------------------------------------------------------------
Pair    | 0.30689    | 0.32428    | 0.3536     |   2.0 | 49.10
Neigh   | 0.043183   | 0.044838   | 0.048155   |   0.5 |  6.79
Comm    | 0.20841    | 0.24034    | 0.26224    |   2.6 | 36.39
Output  | 5.2733e-05 | 5.3994e-05 | 7.0406e-05 |   0.0 |  0.01
Modify  | 0.041558   | 0.045934   | 0.050921   |   1.2 |  6.96
Other   |            | 0.004933   |            |       |  0.75

Nlocal:        83.3333 ave          90 max          73 min
Histogram: 1 0 3 0 10 10 4 10 8 2
Nghost:        2101.40 ave        2120 max        2084 min
Histogram: 1 4 5 7 8 9 6 4 1 3
Neighs:        13744.3 ave       15154 max       11966 min
Histogram: 2 2 2 4 9 8 8 6 3 4

Total # of neighbors = 659728
Ave neighs/atom = 164.93200
Neighbor list builds = 146
Dangerous builds = 16

#############################
# L I N E A R  Q U E N C H  #
#############################

# Define solid atoms. This closely follows ten Wolde  Ruiz-Montero and Frenkel  Faraday Discuss  1996  104  93-110
# Compute components of the per-atom q6 vector
compute q6 all orientorder/atom degrees 1 6 components 6 nnn NULL cutoff 1.3 # compute the Q6 parameter.
                                                                             # Use all neighbours within 1.3 unit cell.

# get number of connections
compute coord_number all coord/atom orientorder q6 0.5

# An atom is solid if it has 8 or more connections (of a possible 14)
variable is_solid atom c_coord_number>=8
group solid dynamic all var is_solid    # Must be dynamic to update
dynamic group solid defined

# do clustering
compute cluster solid cluster/atom 1.3 # Create a cluster where all atoms within are solid and max 1.3 units from another member

# define chunks one chunk per cluster
compute clus_chunks solid chunk/atom c_cluster nchunk every compress yes  # Says which atoms are in which chunk

# count the size of each chunk
compute size_chunks solid property/chunk clus_chunks count


# Find the maximum entry in the vector of chunk sizes
variable max_n equal max(c_size_chunks)


# Thermo style which includes this variable
# thermo_style custom step temp pe vol v_max_n

thermo ${N}  # Print the thermo information every 100 steps
thermo 1000  

# Reset the npt fix at a lower temperature (below freezing)
fix 1  all npt temp  ${temp} ${temp}  0.1  iso  5.68  5.68  0.5  mtk yes tchain  5  pchain  5
fix 1  all npt temp  0.45 ${temp}  0.1  iso  5.68  5.68  0.5  mtk yes tchain  5  pchain  5
fix 1  all npt temp  0.45 0.45  0.1  iso  5.68  5.68  0.5  mtk yes tchain  5  pchain  5

dump dmp2 all dcd ${N} traj.dcd
dump dmp2 all dcd 1000 traj.dcd


compute msd all msd com yes
variable twopoint equal c_msd[4]/6/(step*dt+1.0e-6)
fix 9 all vector 10 c_msd[4]
variable fit equal slope(f_9)/6/(10*dt)
thermo_style custom step temp pe c_msd[4] v_twopoint v_fit v_max_n

fix 1 all npt temp 1.25 ${temp} 0.1 iso 5.68 5.68 0.5 mtk yes tchain 5 pchain 5
fix 1 all npt temp 1.25 0.45 0.1 iso 5.68 5.68 0.5 mtk yes tchain 5 pchain 5
run 2000000 # 5000000  # Run for this many steps
Neighbor list info ...
  update every 1 steps, delay 10 steps, check yes
  max neighbors/atom: 2000, page size: 100000
  master list distance cutoff = 3.8
  ghost atom cutoff = 3.8
  binsize = 1.9, bins = 8 8 8
  4 neighbor lists, perpetual/occasional/extra = 1 3 0
  (1) pair lj/cut, perpetual
      attributes: half, newton on
      pair build: half/bin/atomonly/newton
      stencil: half/bin/3d
      bin: standard
  (2) compute orientorder/atom, occasional
      attributes: full, newton on
      pair build: full/bin/atomonly
      stencil: full/bin/3d
      bin: standard
  (3) compute coord/atom, occasional
      attributes: full, newton on
      pair build: full/bin/atomonly
      stencil: full/bin/3d
      bin: standard
  (4) compute cluster/atom, occasional
      attributes: full, newton on
      pair build: full/bin/atomonly
      stencil: full/bin/3d
      bin: standard
Per MPI rank memory allocation (min/avg/max) = 9.844 | 9.851 | 9.855 Mbytes
Step Temp PotEng c_msd[4] v_twopoint v_fit v_max_n 
   12000    1.2619341   -5.4338318            0            0 8.3333333e+20            4 
   13000    1.2761004   -5.3851001   0.66492507   0.00426234  0.055065066            1 
   14000     1.256982   -5.4170908    1.3301343 0.0079174656  0.055265507            2 
   15000       1.2478   -5.3997135    1.9825945  0.011014413  0.054722453            2 
   16000    1.2380154   -5.3921283    2.6379139  0.013739134   0.05498715            3 
   17000    1.2461142   -5.4331181    3.3148775  0.016249399  0.054894646            1 
   18000    1.2554586   -5.3968541    3.9264834  0.018178163   0.05475696            2 
   19000    1.2632699   -5.4045171    4.5899182   0.02013122  0.054410448            3 
   20000    1.2278325   -5.4343289    5.2979094  0.022074622  0.054488458            2 
   21000    1.2536923   -5.4485395     5.845563  0.023196678  0.054501097            1 
   22000    1.2595886   -5.4195068    6.4635139  0.024483007   0.05411062            1 
   23000    1.2261247     -5.43577     7.079479  0.025650286  0.053789795            2 
   24000    1.2323711   -5.3824882    7.7959926  0.027069418  0.053636584            3 
   25000    1.2431845   -5.4065205    8.3318315  0.027772771  0.053450762            4 
   26000    1.2309915   -5.4554858    8.8638261  0.028409698  0.053146863            2 
   27000    1.2403338   -5.4310029    9.4992809  0.029318768  0.052795973            3 
   28000    1.2420215   -5.4431825    10.127138  0.030140292  0.052553553            1 
   29000     1.237832    -5.464365    10.751019  0.030893731  0.052480603            3 
   30000    1.2198805    -5.419318    11.519006  0.031997239  0.052473048            4 
   31000    1.2676111   -5.4267056    12.218523  0.032845493  0.052633441            1 
   32000     1.263399   -5.4581857    12.935212  0.033685448  0.052831484            2 
   33000    1.2529178    -5.438074    13.558124  0.034237687  0.053040446            2 
   34000    1.2369018   -5.4429875    14.097215  0.034551997  0.053090062            6 
   35000     1.233692   -5.4870506    14.551326  0.034646013  0.053032606            3 
   36000    1.2554564   -5.4121442     15.16407  0.035102014  0.052905011            2 
   37000    1.2377029   -5.4449718    15.773482  0.035525859  0.052773219            4 
   38000    1.2187383   -5.4550628    16.313069  0.035774275  0.052594109            4 
   39000    1.2075853   -5.4744153    16.902765  0.036117019  0.052424284            2 
   40000    1.2383964     -5.42857    17.534957   0.03653116  0.052286372            2 
   41000    1.2396464   -5.4583623    17.949852  0.036483438  0.052140416            2 
   42000    1.2315407   -5.4394039    18.643171  0.036990418  0.051960374            2 
   43000    1.2556613   -5.4491918    19.364198  0.037527516  0.051859511            4 
   44000    1.2324354    -5.436582    20.133106  0.038130882   0.05181286            2 
   45000    1.2350981   -5.5217112    20.474442  0.037915634  0.051760778            4 
   46000    1.2842338   -5.4809722     21.00689   0.03805596  0.051668946            3 
   47000    1.2713315   -5.4358406     21.68242  0.038444008  0.051559045            1 
   48000    1.2647548   -5.4653304    22.230397  0.038594438   0.05146965            2 
   49000    1.2421389   -5.3821934    22.964614  0.039055465  0.051402358            1 
   50000    1.1974166    -5.445389    23.703488  0.039505812  0.051372235            2 
   51000     1.215391   -5.4912589    24.109797  0.039395092  0.051326077            2 
   52000    1.2500155    -5.425963    24.990354  0.040048645  0.051288941            1 
   53000    1.2513426   -5.4136378    25.473853  0.040053227    0.0512681            1 
   54000    1.2369638    -5.487549    26.022666  0.040158435  0.051232071            2 
   55000    1.2217858   -5.4539096    26.772859  0.040564938  0.051217556            5 
   56000    1.2436476   -5.4802821    27.150127  0.040401974  0.051208697            2 
   57000    1.2467373   -5.5154625    27.745295  0.040563296  0.051186167            3 
   58000    1.2298445     -5.47706    28.426724  0.040842994  0.051159022            3 
   59000     1.208092   -5.4781259    28.986822  0.040941839  0.051146203            5 
   60000    1.2384478    -5.441122    29.623093  0.041143185  0.051119525            1 
   61000     1.230735    -5.434799    30.301689   0.04139575  0.051084593            1 
   62000    1.2165252   -5.4436857    30.716018   0.04128497  0.051057154            3 
   63000    1.2235858   -5.4683137    31.385525  0.041515244  0.051016296            3 
   64000    1.2301624   -5.4520158    32.241367  0.041980946   0.05099166            2 
   65000    1.2104199   -5.4626726     32.50249  0.041669859  0.050952903            2 
   66000    1.2122721   -5.4912094    32.906218  0.041548254  0.050906459            4 
   67000    1.2065679   -5.4876058    33.551988  0.041731328  0.050848644            3 
   68000    1.2411026   -5.4687245    34.169026  0.041873806  0.050788241            2 
   69000    1.2216685   -5.4763015    34.701158  0.041909611  0.050720386            3 
   70000    1.2260387    -5.471726    35.300691  0.042024632  0.050657861            3 
   71000    1.2430457   -5.4800155    35.925064  0.042165568  0.050597589            1 
   72000    1.2307812   -5.4479164    36.559923  0.042314725  0.050553717            2 
   73000     1.244132   -5.4502435    37.056079   0.04230146  0.050496464            1 
   74000    1.2239467    -5.502777    37.536393  0.042270713  0.050445419            4 
   75000    1.2237189   -5.4770814    38.272915  0.042525461  0.050403246            2 
   76000    1.2419993   -5.4383307    39.060488  0.042829482  0.050378052            1 
   77000    1.2160693   -5.4629623    39.670483  0.042933423  0.050371531            3 
   78000    1.2296135   -5.4092183    40.303879    0.0430597   0.05036272            2 
   79000    1.2211555   -5.4682914    40.783247  0.043020302  0.050342915            1 
   80000    1.2117948   -5.4860994    41.441033  0.043167743  0.050332665            3 
   81000    1.2311784   -5.4339022     41.95106  0.043159526  0.050307503            3 
   82000    1.2099616   -5.4832464    42.557876  0.043249874    0.0502789            2 
   83000    1.2411354   -5.5007119    43.245028  0.043418702  0.050262638            3 
   84000    1.1949084   -5.4931869    43.959162   0.04361028  0.050269063            3 
   85000    1.2302379   -5.4454606     44.65984  0.043784156   0.05028204            1 
   86000    1.1904921   -5.4762273    45.202943  0.043801301  0.050289766            3 
   87000    1.2321018   -5.4385128    46.074892  0.044133038  0.050307797            2 
   88000    1.2189621   -5.3957158    46.573489  0.044103683  0.050317338            4 
   89000    1.2367561   -5.4724759    46.966738  0.043976346  0.050325017            1 
   90000    1.2083351   -5.5340574    47.264258  0.043763201  0.050303405            2 
   91000    1.2147343   -5.5002447    47.762195  0.043738274   0.05028512            5 
   92000    1.2262396   -5.4742131    48.396674  0.043837567  0.050256904            3 
   93000    1.1884618   -5.4669805    49.247376  0.044128473  0.050235947            2 
   94000    1.1912379   -5.4659761    50.120618  0.044433172  0.050230648            2 
   95000    1.2061402   -5.5283157    50.518846  0.044314777  0.050239615            4 
   96000    1.2019508   -5.4871701    51.050771  0.044314905  0.050234173            2 
   97000    1.2186019   -5.4444226    51.628196   0.04435412  0.050220443            1 
   98000    1.1952926   -5.4810642    52.259014  0.044437937   0.05021285            1 
   99000    1.2168536   -5.5022397    52.823922   0.04446458  0.050203458            2 
  100000    1.1944237   -5.5070715     53.56495  0.044637458  0.050193908            1 
  101000    1.2137212   -5.5409938    54.036799  0.044584817  0.050189232            1 
  102000    1.2074087   -5.4696207    54.578881  0.044590589  0.050181636            3 
  103000    1.2260274   -5.4792105    55.337541  0.044771473  0.050172321            3 
  104000    1.2280242   -5.5263606    55.572756  0.044529451  0.050162676            4 
  105000    1.2262374   -5.4727474    56.364918  0.044734062   0.05014532            1 
  106000    1.2063059   -5.4730167    56.906902   0.04473813  0.050127988            1 
  107000    1.2331427   -5.4948754    57.324489  0.044645241   0.05011627            4 
  108000    1.1789606   -5.4883403    58.213013  0.044917448  0.050110887            1 
  109000      1.20576   -5.5441944    58.760811  0.044924167  0.050106987            4 
  110000    1.2080746   -5.5305102    59.476564  0.045058003  0.050103508            4 
  111000     1.202797   -5.4739899    60.097765  0.045118442  0.050103498            2 
  112000    1.1957676   -5.5433523    60.578561  0.045073334  0.050098699            4 
  113000    1.2226797    -5.490081    61.337354  0.045234036  0.050100242            4 
  114000    1.2131794   -5.5347268    62.033541  0.045346155  0.050108553            3 
  115000    1.2015253   -5.5074748    63.007826  0.045657845  0.050123451            5 
  116000    1.2165437   -5.4936202     63.39593  0.045543053  0.050135189            2 
  117000    1.1907673   -5.5072336    63.784494  0.045430551  0.050142473            4 
  118000    1.2124591   -5.4625157    64.525369  0.045568763   0.05014019            3 
  119000    1.2114027   -5.5225228    64.799194  0.045377587  0.050143735            2 
  120000    1.1930167   -5.4901549    65.456087  0.045455616    0.0501427            1 
  121000    1.2093092   -5.5027081     65.86557  0.045361963  0.050140792            2 
  122000    1.2010729   -5.4973259    66.444823  0.045385808  0.050127748            5 
  123000    1.1978491   -5.5687848     66.85949  0.045297757  0.050113238            2 
  124000    1.2155122   -5.5055907    67.582031  0.045418031  0.050102472            1 
  125000    1.1900738   -5.4852053     68.41746   0.04561164   0.05010458            5 
  126000    1.2003478   -5.5094844    69.238077  0.045792379  0.050108853            2 
  127000    1.2084545   -5.5335179    69.822938  0.045815576  0.050109293            4 
  128000    1.1882713   -5.5223753    70.082427   0.04562658  0.050103158            5 
  129000    1.2110179   -5.5569832    70.503343  0.045544795  0.050096346            3 
  130000    1.2138992   -5.5210859    71.092706  0.045572247  0.050085672            3 
  131000    1.2257739   -5.5293548    72.005032  0.045804728  0.050082192            2 
  132000    1.1864915   -5.4883308    72.325966  0.045660332  0.050078485            1 
  133000    1.2158262   -5.5165211    72.957561  0.045712757  0.050066583            3 
  134000    1.2003587    -5.567883     73.34841  0.045614683  0.050052869            2 
  135000    1.2130832   -5.5429504     73.76232  0.045532296  0.050034927            3 
  136000    1.1819475   -5.5359934    74.696924  0.045770174  0.050021937            6 
  137000    1.1784054   -5.5781911     75.30784  0.045807689  0.050015574            4 
  138000    1.1903128   -5.5427732    75.968964  0.045874978   0.05001332            3 
  139000     1.195162   -5.5290032    76.803493   0.04604526  0.050011534            5 
  140000    1.1799739   -5.5532815    77.507856  0.046135629  0.050014435            2 
  141000     1.205132   -5.5079854     78.29421  0.046273174  0.050015004            3 
  142000    1.1730619   -5.5060586     78.49274  0.046063814  0.050013577            8 
  143000    1.1994566   -5.5032884    79.483351  0.046318969  0.050013021            2 
  144000    1.1649422   -5.5211714    79.935326  0.046258869   0.05001627            4 
  145000    1.2035037   -5.5532855    80.518868  0.046275211  0.050022759            2 
  146000    1.1978848   -5.4915273    81.141126  0.046313428  0.050019051            2 
  147000    1.2081111   -5.4833384    81.593981  0.046255091  0.050012376            4 
  148000    1.2073623   -5.5596807    81.548404  0.045916894  0.049998009            1 
  149000    1.1742067   -5.5051818     82.53924  0.046162886  0.049983848            3 
  150000    1.2061192   -5.5551362    82.422719  0.045790399  0.049967805            2 
  151000    1.1759174     -5.54932    83.186495  0.045908661  0.049949115            4 
  152000    1.1985325     -5.50963    83.905215  0.046000666  0.049929378            3 
  153000    1.1921935   -5.5670299    84.362993  0.045949342  0.049911235            7 
  154000     1.179369   -5.5330988    85.109087  0.046054701  0.049898057            4 
  155000    1.2105085    -5.552579    85.729537  0.046091149  0.049884906            4 
  156000    1.1556677   -5.5714156    86.102584   0.04599497   0.04987066            3 
  157000    1.2115683   -5.5262871    86.554789  0.045942032  0.049854224            3 
  158000    1.2008595   -5.5412615    87.434541  0.046115264  0.049840756            2 
  159000    1.1841504   -5.5698883    87.904934  0.046071768  0.049825743            2 
  160000    1.1762387   -5.5471298    88.816086  0.046258378  0.049808611            3 
  161000    1.1917508   -5.5359501    89.283156  0.046212814   0.04979226            1 
  162000    1.1773214    -5.515948    89.713697  0.046149021  0.049779172            3 
  163000    1.2284349   -5.5295684    90.048247  0.046036936  0.049768012            2 
  164000    1.1697626   -5.5441211    90.591227  0.046032127  0.049750773            7 
  165000    1.2251104   -5.5414612    92.076317   0.04650319  0.049741619            2 
  166000     1.186875    -5.592576    92.036505  0.046203065   0.04973362            4 
  167000    1.1948969   -5.5287737    93.274061  0.046543942   0.04972542            4 
  168000    1.1750035   -5.5394876    93.549432  0.046403488  0.049718529            4 
  169000    1.2098981   -5.5349463      94.2645  0.046481509   0.04971051            1 
  170000    1.1592145   -5.5620793     94.85802   0.04649903  0.049703432            5 
  171000    1.1869241   -5.5490138    95.402915  0.046492649     0.049697            1 
  172000    1.1802318    -5.516315     95.59241  0.046314152  0.049685312            2 
  173000    1.2108904   -5.5359557    96.076973  0.046279852  0.049678111            2 
  174000    1.2131968   -5.5722149    96.973007  0.046443011  0.049667327            2 
  175000    1.1930939   -5.5823056     97.13152  0.046253105  0.049655712            5 
  176000     1.204942   -5.5525619    98.173356  0.046483597  0.049646468            3 
  177000    1.1648292   -5.5366533    99.179308  0.046694589  0.049645122            3 
  178000    1.1778504   -5.5798313    99.511175  0.046587629  0.049640693            5 
  179000     1.181199   -5.5797773    100.08956  0.046596629  0.049636997            4 
  180000    1.1935964   -5.5182768     100.9215  0.046722918  0.049634599            3 
  181000    1.1775525   -5.5371249    101.24756  0.046614898  0.049631069            4 
  182000    1.1822657    -5.586924    102.12013  0.046758299  0.049628581            2 
  183000    1.1794935   -5.5512658    102.17569  0.046528091  0.049621816            1 
  184000    1.1581487   -5.5798313    102.73606  0.046529011  0.049609033            2 
  185000    1.1834986   -5.5875363    102.84602  0.046327034  0.049597818            1 
  186000    1.1691119   -5.5366497    104.00211  0.046595926  0.049589035            2 
  187000    1.1992216   -5.5997255    104.35872  0.046505668  0.049580563            3 
  188000    1.1774786   -5.6125704    104.52455  0.046331805  0.049569704            1 
  189000     1.197589   -5.5803902    104.99045  0.046292085  0.049556451            1 
  190000    1.1935364   -5.5977241    105.40173   0.04622883  0.049539029            2 
  191000     1.170494    -5.582028    106.05511  0.046271862  0.049519988            3 
  192000    1.1960467   -5.5558867    106.80005  0.046354186  0.049502655            1 
  193000    1.1660768   -5.6006652    106.78017  0.046105429  0.049483709            3 
  194000    1.1765343    -5.581043    107.38365  0.046126999  0.049464666            4 
  195000    1.2007014   -5.5791391    108.25766  0.046263957  0.049447439            2 
  196000    1.1771092   -5.5719852    108.84424  0.046277314  0.049430933            2 
  197000    1.1824216   -5.6170055    109.71364  0.046410171  0.049411585            4 
  198000    1.1711491   -5.5869931    110.27014  0.046409993  0.049396128            2 
  199000    1.1837001   -5.6272612    110.37091  0.046218975  0.049382061            4 
  200000     1.184449   -5.5982693    110.93014  0.046220893  0.049364794            2 
  201000    1.1779071   -5.5954912    111.80897  0.046355293  0.049347346            4 
  202000    1.1587016   -5.5920811    112.18119  0.046279367  0.049331929            4 
  203000    1.1661696   -5.5784865    112.55275  0.046203919  0.049315196            1 
  204000    1.1825575   -5.5825556     113.5613   0.04638942  0.049297656            2 
  205000    1.1864986   -5.6007239    113.56418  0.046164299  0.049280276            1 
  206000    1.1867436   -5.5875565    114.20986    0.0462014  0.049260422            3 
  207000    1.1503443   -5.5730604    115.04698  0.046315208  0.049239745            2 
  208000    1.1849606   -5.5408102    115.69368  0.046351634  0.049219362            2 
  209000    1.1816686   -5.6162119    115.62012  0.046100526  0.049200547            2 
  210000    1.1711642    -5.611716    116.29222  0.046147707  0.049180613            1 
  211000    1.1610225   -5.5501361     116.7864  0.046124172  0.049162402            1 
  212000     1.157474      -5.5865     117.2854  0.046102751  0.049142397            2 
  213000     1.161097   -5.6069343    118.08456  0.046198967  0.049121256            3 
  214000    1.1823027   -5.6021285    118.04952  0.045969439  0.049097552            5 
  215000    1.1670648   -5.5910534     118.4602  0.045914806  0.049068441            7 
  216000    1.1819124   -5.5340119    119.00175  0.045911168  0.049038702            2 
  217000    1.1497699   -5.5885414    119.37003  0.045841024  0.049008498            3 
  218000    1.1619337   -5.6224501    119.56834   0.04570655  0.048975142            3 
  219000    1.1735488   -5.6037179    119.64215  0.045525933  0.048940079            3 
  220000    1.1328929    -5.567444    120.46149  0.045629351  0.048906044            3 
  221000    1.1821737   -5.5843326    121.32509  0.045748524  0.048871949            1 
  222000    1.1729182   -5.6349403    120.79455  0.045343298   0.04883656            2 
  223000    1.1554256   -5.5724182    121.95106  0.045572144  0.048800206            2 
  224000    1.1259193   -5.6003851    122.40374  0.045537107  0.048765178            3 
  225000    1.1486922   -5.5880499     122.9362  0.045531927  0.048728868            4 
  226000    1.1616945   -5.5809226    123.27213  0.045454325   0.04869192            4 
  227000    1.1570245   -5.6187938    123.51598  0.045343605  0.048652469            2 
  228000    1.1793605   -5.6002993    124.38809  0.045463484  0.048617262            2 
  229000    1.1701573   -5.5896474    124.95644  0.045471777  0.048581856            2 
  230000    1.1597813   -5.6199637    125.33436  0.045411001  0.048548171            1 
  231000     1.150259   -5.6126406    125.94512  0.045434746  0.048516304            1 
  232000    1.1381116   -5.6295108     126.5842  0.045468463  0.048484549            1 
  233000    1.1592855   -5.5664012    127.62143  0.045644289  0.048456143            1 
  234000     1.158481   -5.6210072    128.11824  0.045626154  0.048426788            1 
  235000    1.1736379   -5.6032977    128.45482  0.045551354  0.048397349            2 
  236000    1.1667168   -5.5991982    128.84313  0.045495457  0.048367749            4 
  237000     1.151299   -5.6099248    129.59479   0.04556779  0.048339733            3 
  238000     1.171974   -5.6080415    130.01395  0.045523091  0.048312157            3 
  239000    1.1598445   -5.5986158     130.6866  0.045567156  0.048285264            3 
  240000    1.1603229   -5.6046769    131.06291  0.045507955  0.048257012            3 
  241000    1.1757242   -5.6498982    130.92755  0.045272322  0.048226774            2 
  242000    1.1641767   -5.6145283    131.94058  0.045434082  0.048197044            3 
  243000    1.1600854   -5.6232037    132.67028  0.045497353  0.048167056            1 
  244000    1.1448119   -5.6103456    132.99726   0.04542256  0.048138155            3 
  245000     1.128705   -5.6077658    133.98671  0.045573712  0.048112161            4 
  246000    1.1483303   -5.6171819     134.3203  0.045501455  0.048088694            4 
  247000    1.1320761   -5.5958927    134.97196    0.0455371   0.04806642            4 
  248000    1.1618636   -5.5978804    136.23082  0.045776486  0.048043547            4 
  249000    1.1495993   -5.5900129     136.8505  0.045800034  0.048023807            3 
  250000    1.1719615   -5.6481269    136.66405  0.045554685  0.048003607            2 
  251000     1.174568   -5.6571192    137.42893  0.045627136  0.047980324            2 
  252000    1.1713829   -5.6831648    137.55373  0.045487345  0.047957386            2 
  253000    1.1609565   -5.6271073     138.4768  0.045611594  0.047935544            1 
  254000    1.1376329   -5.5968791    139.13191  0.045646951  0.047913718            2 
  255000    1.1452211    -5.611217    139.36939  0.045545551   0.04789359            3 
  256000    1.1616474   -5.6226994    140.16234  0.045625761   0.04787128            2 
  257000    1.1676751   -5.6021466    140.26442  0.045481329  0.047847703            3 
  258000    1.1445758    -5.663691     140.7853  0.045473287  0.047823348            2 
  259000    1.1579245    -5.618403    141.14009   0.04541187  0.047800561            4 
  260000     1.148567   -5.6551233    142.24148  0.045590218  0.047777395            2 
  261000    1.1486302   -5.6352672    142.01387  0.045342869  0.047754794            3 
  262000    1.1629615   -5.6189497    143.52719  0.045651142  0.047734377            4 
  263000     1.140516    -5.608662    143.42577  0.045445427   0.04771507            3 
  264000    1.1447604   -5.6329648    144.14061  0.045498928   0.04769427            2 
  265000    1.1588504   -5.6583234    144.12714  0.045322999  0.047670735            3 
  266000    1.1581962     -5.58541    144.90999  0.045397866  0.047646521            2 
  267000    1.1264781   -5.6667081    145.23419  0.045329022  0.047623252            2 
  268000    1.1709011   -5.6448665    145.56083  0.045261454    0.0475998            4 
  269000    1.1417884   -5.6295511    146.50298  0.045385061  0.047575276            3 
  270000    1.1278959   -5.6399266    146.95994  0.045358007  0.047550313            2 
  271000    1.1610605   -5.6166533    147.51884  0.045362498  0.047527512            3 
  272000    1.1385664   -5.6524671    148.08396  0.045368861  0.047505022            3 
  273000    1.1732851   -5.6358836    148.51926  0.045335551  0.047482733            3 
  274000    1.1490906   -5.6492828    148.34609  0.045117422  0.047459121            9 
  275000    1.1689112   -5.6281967    149.41476  0.045277199  0.047434879            3 
  276000    1.1539789   -5.6761486    149.14717  0.045032358   0.04741114            4 
  277000    1.1312703   -5.6694926    150.17682  0.045179548  0.047385984            3 
  278000    1.1328949   -5.5972553     151.5335   0.04542371  0.047362013            3 
  279000      1.16437   -5.6118609    150.78819  0.045038289  0.047335071            2 
  280000     1.151464   -5.6416008     151.0564  0.044957262  0.047306122            2 
  281000     1.154759   -5.5843653    152.32517  0.045173538   0.04727993            2 
  282000    1.1390436   -5.6093792    152.07884  0.044940555  0.047254689            1 
  283000    1.1364479    -5.626693    152.76234  0.044983021  0.047228911            4 
  284000    1.1274389   -5.6684527    153.09448  0.044922089  0.047202497            4 
  285000    1.1283609   -5.6412364    154.10138  0.045058884  0.047177284            2 
  286000    1.1495693   -5.6383487    154.26546  0.044949144  0.047153602            2 
  287000    1.1163461   -5.6192376    154.99917  0.045005566  0.047127706            4 
  288000    1.1525258    -5.620782     154.7271  0.044770572  0.047101882            2 
  289000    1.1499274   -5.6561654    155.64209  0.044879495    0.0470746            3 
  290000    1.1266342   -5.6262957    155.72722  0.044749201  0.047046685            6 
  291000    1.1491972   -5.6401937    156.50078  0.044816948  0.047019033            5 
  292000    1.1381842   -5.6482028    157.28263  0.044886594  0.046992564            3 
  293000    1.1288598   -5.6491964    157.54199  0.044807163  0.046966114            3 
  294000    1.1251274   -5.6363585    157.98648  0.044780749  0.046938475            1 
  295000    1.1471803   -5.6887713    157.77325  0.044568715  0.046910455            4 
  296000    1.1501411   -5.6589632    158.94309  0.044747493  0.046882766            2 
  297000    1.1327832   -5.6759464    159.17223  0.044661118  0.046854507            3 
  298000    1.1201614   -5.6505165    159.50225  0.044603537  0.046826853            2 
  299000    1.1325237   -5.6612923    160.79651  0.044815081  0.046801634            4 
  300000    1.1190774   -5.6650591    161.01354  0.044725982  0.046776359            3 
  301000    1.1415962   -5.6697057    160.97003  0.044565346  0.046749226            3 
  302000    1.1197504   -5.6582601    161.58493  0.044587454  0.046722215            3 
  303000    1.1137594   -5.6699086     161.9794   0.04454879  0.046694556            2 
  304000     1.132963   -5.6665348    162.31358  0.044493855  0.046664506            2 
  305000    1.1209199   -5.6732805    162.57733  0.044420035  0.046633882            5 
  306000    1.1401961   -5.6624627    163.14946  0.044430681  0.046604821            4 
  307000     1.152112   -5.6789968    163.39942  0.044353805  0.046576413            2 
  308000     1.143593   -5.6650613    163.67218  0.044283599   0.04654631            3 
  309000    1.1193495   -5.6517628    165.09897  0.044525074  0.046518111            2 
  310000    1.1242132   -5.7255696     164.7645  0.044291531  0.046490873            3 
  311000     1.125187    -5.651952    166.25619  0.044548818  0.046464487            4 
  312000    1.1298784   -5.6151997    167.36803  0.044702999  0.046437484            2 
  313000     1.122671   -5.6879589    167.07111  0.044481127  0.046412947            2 
  314000    1.1292754   -5.6549292    167.59528  0.044478577  0.046386593            6 
  315000     1.110421   -5.6789373    167.44656  0.044298032  0.046359593            2 
  316000    1.1570247   -5.6595459    168.40143  0.044409659    0.0463325            4 
  317000    1.1118163   -5.6902022    168.20952  0.044219118  0.046306575            3 
  318000    1.1180907   -5.7101381    169.28269  0.044361292  0.046279793            2 
  319000    1.1322706   -5.6529507    169.76547  0.044348347  0.046252678            3 
  320000    1.1184234     -5.67509    170.56239  0.044417289  0.046227045            4 
  321000    1.1230542   -5.6703196    170.21015  0.044187474  0.046201603            2 
  322000     1.111522   -5.6888696    171.21908  0.044311356  0.046175174            6 
  323000    1.1251288   -5.6794853    170.54603  0.044000524  0.046146533            3 
  324000    1.1512877    -5.660192    171.75881  0.044176649  0.046117202            3 
  325000    1.1095146   -5.6806193    172.45136  0.044218298  0.046089503            2 
  326000    1.1024652   -5.6376734    172.54159  0.044105724  0.046062152            4 
  327000     1.129675   -5.7400731    172.28293  0.043904926  0.046033827            1 
  328000    1.1194358   -5.6934041    172.92643  0.043934559  0.046004417            3 
  329000    1.1211301   -5.7199613    173.46803  0.043938203  0.045975098            3 
  330000    1.1392577    -5.722775    173.28881  0.043759801   0.04594654            4 
  331000    1.1196189   -5.6839883    174.45195  0.043920431    0.0459159            2 
  332000      1.13237   -5.6564701    174.94437  0.043911739  0.045887534            1 
  333000    1.1112771   -5.6934809    175.21159  0.043846745  0.045859512            5 
  334000    1.1151703   -5.7038594    175.67307  0.043830606  0.045831466            4 
  335000    1.1253872   -5.6969517    176.76844  0.043972248  0.045803859            2 
  336000    1.1228632   -5.6838541    176.89913  0.043873793  0.045778304            4 
  337000    1.1393322   -5.6851584     177.8851  0.043987413  0.045752478            1 
  338000    1.1229172   -5.6762161    178.54405  0.044019736   0.04572767            3 
  339000    1.1151722   -5.6948951    179.00284  0.044002665   0.04570361            6 
  340000    1.1167763   -5.7024765    179.11555   0.04390087  0.045678887            2 
  341000    1.0916017   -5.6908609     179.4675  0.043858138   0.04565288            5 
  342000    1.1172152   -5.6962495    179.34696  0.043700526  0.045627139            4 
  343000    1.1046093   -5.7136401    180.26849   0.04379701   0.04560156            2 
  344000    1.1262116   -5.6667393    181.46063  0.043958486  0.045576096            2 
  345000    1.1273261   -5.6769785    182.28861  0.044031065   0.04555166            4 
  346000    1.1054715   -5.7008468    182.21887  0.043887011  0.045527348            2 
  347000    1.1105786    -5.646294    183.80795  0.044142158  0.045504971            2 
  348000    1.0917238   -5.6981443    183.05219  0.043834337  0.045483063            3 
  349000    1.1357437   -5.7156282     183.6794    0.0438585  0.045461522            2 
  350000    1.0934377   -5.7427029    183.82666  0.043768253  0.045438473            3 
  351000    1.0998923   -5.6973956    184.47689  0.043797933  0.045414631            2 
  352000    1.0793626   -5.6830765    184.77367  0.043743767  0.045391323            3 
  353000    1.1295298   -5.6899011    185.48742  0.043788342  0.045368177            2 
  354000    1.1010555   -5.6901373    186.03673  0.043793957  0.045345312            5 
  355000    1.0988776   -5.6883971    187.06573  0.043912144  0.045323932            3 
  356000    1.1117032   -5.7369015    186.85738  0.043740022   0.04530234           10 
  357000    1.1108697   -5.7209185     186.8586  0.043617787    0.0452787            4 
  358000    1.0907082   -5.6873841    188.19023   0.04380592  0.045254947            2 
  359000    1.1311311   -5.6803547    189.23085  0.043925451  0.045232956            3 
  360000    1.1440277   -5.7018462    189.04154  0.043759615  0.045211431            3 
  361000    1.1119999    -5.716351    189.45125  0.043732976  0.045189865            5 
  362000    1.1165902   -5.7346284    189.61682  0.043650281  0.045166435            4 
  363000     1.098541   -5.6779433    190.15863  0.043654415  0.045143164            2 
  364000    1.1186379   -5.6873832    190.84055  0.043690603  0.045121594            1 
  365000    1.1144099   -5.7086994    190.90101  0.043584706  0.045098403            2 
  366000    1.0924947    -5.721212    190.96216  0.043479544  0.045076003            5 
  367000    1.1076502    -5.741001    192.25555  0.043654757  0.045054129            3 
  368000    1.1266534   -5.7467426    191.71844  0.043414502  0.045031089            3 
  369000    1.0951909   -5.7086358    192.34161  0.043437581  0.045008459            2 
  370000    1.0946889   -5.7272456    193.05984  0.043481946  0.044984391            3 
  371000    1.0860708   -5.7145909    193.14394  0.043383635  0.044960154            2 
  372000    1.1152144   -5.7185451    194.32944   0.04353258  0.044935053            1 
  373000    1.1003634    -5.753319    194.34661  0.043419708  0.044910424            3 
  374000    1.0939969   -5.7869875    194.66826   0.04337528  0.044886241            3 
  375000    1.1032022   -5.7339647    194.96239  0.043324975  0.044861709            1 
  376000    1.0980488   -5.7057365    195.67604  0.043367917  0.044837341            3 
  377000    1.1063223   -5.7279835    195.88376  0.043298796   0.04481303            3 
  378000    1.0875234   -5.6877893    196.84231  0.043395571  0.044788215            7 
  379000    1.1085277   -5.7144336    196.33075   0.04316859   0.04476377            2 
  380000    1.0861038   -5.7695542    196.76907  0.043151113  0.044739584            5 
  381000    1.1237585   -5.7414741    197.75291  0.043253043  0.044714674            5 
  382000     1.115928   -5.7167756    197.45453  0.043074723  0.044690055            2 
  383000    1.0996553   -5.7430425    197.88205  0.043055276  0.044665042            3 
  384000    1.1245743   -5.7132922    198.73722  0.043128737  0.044640658            5 
  385000    1.1065895   -5.7381762     198.5653  0.042979502  0.044615231            1 
  386000    1.0792271   -5.7358083    199.26964  0.043020215  0.044588803            5 
  387000    1.1220322   -5.7567167    199.83581  0.043030966  0.044563302            2 
  388000     1.096252   -5.7122649    201.11188  0.043194132  0.044538508            6 
  389000    1.0768985   -5.7407315    201.55267  0.043177522  0.044514982            2 
  390000    1.0995104   -5.7331199    202.59647  0.043289843  0.044492137            3 
  391000    1.1148492   -5.7503615    202.70555  0.043202375  0.044469231            2 
  392000    1.1177012   -5.7706007    202.35964   0.04301863  0.044445929            4 
  393000    1.1220128   -5.7187843    202.42041  0.042922054  0.044422535            3 
  394000    1.0809063   -5.8168492    202.74875  0.042882561  0.044398319            5 
  395000    1.1021562   -5.7557998      203.337  0.042898101  0.044374346            4 
  396000    1.1099319   -5.7386779    204.95154  0.043129533   0.04435183            2 
  397000    1.0910261   -5.7475386    204.50168  0.042926464  0.044329087            3 
  398000    1.0882617   -5.7674363    204.98974    0.0429208  0.044306019            3 
  399000    1.0906437   -5.7741199    205.62398  0.042945694  0.044282547            3 
  400000    1.1314278   -5.7298113    206.73889  0.043070603  0.044259565            2 
  401000    1.1048591   -5.7300719    207.10387  0.043039042  0.044238003            4 
  402000    1.1068805   -5.7458537    207.05134  0.042921091  0.044216562            4 
  403000    1.1155975   -5.7479734     207.3079  0.042867639  0.044194403            4 
  404000     1.083429   -5.7591824    207.56794   0.04281517  0.044171758            2 
  405000    1.1071628   -5.7770882    207.58232  0.042712411   0.04414895            2 
  406000    1.0780298   -5.7862801    208.21523  0.042737117  0.044125686            2 
  407000    1.1000603    -5.749562    208.57064  0.042704881  0.044102592            3 
  408000    1.1070905    -5.708433    209.29861  0.042748899  0.044078994            7 
  409000    1.0861883   -5.7389018    209.34568  0.042653969  0.044055328            3 
  410000    1.0797162   -5.8182124    208.69516  0.042417715  0.044029786            3 
  411000    1.1012157   -5.7499146    210.12001  0.042603409  0.044004141            4 
  412000    1.1275642     -5.78343    209.60206  0.042395239  0.043978457            4 
  413000    1.1257037   -5.7787421    210.58311   0.04249054  0.043951632            4 
  414000    1.0852298   -5.7891081    210.25916  0.042322698  0.043924145            5 
  415000     1.107645   -5.7786417    211.15449  0.042400501  0.043896888            1 
  416000    1.0861492   -5.7754392      211.503  0.042368389      0.04387            2 
  417000    1.0830775    -5.744266    211.76606  0.042319356  0.043842483            2 
  418000    1.0802301   -5.7672902    212.05772   0.04227626  0.043815881            2 
  419000      1.07639   -5.7276704    214.18263  0.042597978  0.043789692            2 
  420000    1.0770161   -5.7836606    213.20709  0.042302993  0.043763334            8 
  421000    1.0757283   -5.7581756    213.64323  0.042288842  0.043737696            3 
  422000    1.0785053   -5.8167326    212.46422   0.04195581  0.043709099            3 
  423000    1.0836231   -5.7616455    214.43068  0.042244027  0.043681068            3 
  424000    1.0864801   -5.7563669    213.85169  0.042030599  0.043652011            3 
  425000    1.0702956   -5.7828673    213.67952  0.041897945  0.043623661            2 
  426000    1.0957771   -5.7533141    214.75556  0.042010086  0.043593331            4 
  427000    1.0795718   -5.7493954    214.94778  0.041949216  0.043564051            2 
  428000    1.0721276   -5.8177026    215.11019  0.041882826  0.043534669            3 
  429000    1.0579858   -5.7667148    215.41812  0.041845011  0.043504821            4 
  430000    1.0873659   -5.7853677    215.62921  0.041788607  0.043474304            3 
  431000    1.1047011   -5.7852923     215.5401  0.041674419   0.04344253            2 
  432000    1.0783296   -5.7810133    216.20933  0.041707046  0.043410777            2 
  433000    1.0907377    -5.803643    215.58351  0.041490283  0.043378676            2 
  434000    1.1049145    -5.816557    216.39539  0.041550574  0.043346751            4 
  435000    1.0746305   -5.7535147    217.41999   0.04165134  0.043314989            7 
  436000    1.0900484   -5.7754252    217.61209  0.041592524  0.043283789            2 
  437000    1.0722158   -5.7471933    218.18313   0.04160624   0.04325253            2 
  438000    1.0809756   -5.8234774    217.75281  0.041429378  0.043220689            4 
  439000    1.0832347   -5.7772266    218.39867  0.041457606  0.043188477            4 
  440000    1.0697419   -5.7491212    220.13082  0.041691443   0.04315758            3 
  441000    1.0923057   -5.7633705    219.00692  0.041384527  0.043127627            1 
  442000    1.0697942   -5.7639747    221.05307  0.041676671  0.043097972            2 
  443000    1.0553621   -5.7586266    220.64404   0.04150565  0.043068351            3 
  444000    1.0696289     -5.78638    221.24866  0.041525649  0.043039035            3 
  445000    1.0601006   -5.7569434    222.77329  0.041717844  0.043010537            6 
  446000    1.0990956   -5.8055543    221.28972  0.041347107  0.042982016            2 
  447000     1.114586   -5.7969454    222.26659  0.041436725  0.042953925            3 
  448000    1.0882405   -5.7782332     222.9125  0.041464378  0.042925896            2 
  449000     1.086522   -5.8137308    223.28312  0.041440817  0.042897719            5 
  450000    1.0827758   -5.7984283    224.05859  0.041492332  0.042869266            3 
  451000    1.0927912   -5.8123833      223.985  0.041386733   0.04283953            2 
  452000    1.0769365   -5.8111078     224.5051  0.041391058  0.042811528            2 
  453000    1.0594446   -5.8092928    225.03931  0.041397959  0.042782685            4 
  454000    1.0949491   -5.8293757    224.28243  0.041167846  0.042754451            4 
  455000    1.0647925   -5.7500348    226.02906  0.041397264  0.042726766            4 
  456000    1.0504547   -5.7763759    225.81693  0.041267713  0.042698993            3 
  457000     1.081098   -5.7804789    225.84073  0.041181752  0.042670259            8 
  458000    1.0791499   -5.7760533    226.51849  0.041215154  0.042640988            2 
  459000    1.0536355   -5.8231889    226.85834  0.041187062  0.042612639            8 
  460000    1.0727103   -5.8022452    227.77669  0.041263893  0.042584466            2 
  461000    1.0567439   -5.8108354    227.96411  0.041208263  0.042557727            4 
  462000    1.0852949   -5.7918365    228.77485  0.041265304  0.042529851            4 
  463000    1.0738935   -5.8023186    228.08126  0.041051342  0.042501864            4 
  464000     1.072604   -5.7985354    228.81168  0.041094051  0.042474293            3 
  465000    1.0793066   -5.8129936    230.19843  0.041254198   0.04244725            2 
  466000    1.0597535   -5.8600123     228.4779  0.040857993   0.04241885            7 
  467000     1.077471   -5.7901825    230.61667  0.041152153   0.04239131            9 
  468000    1.0768188   -5.7779016    230.67057   0.04107382  0.042364289            2 
  469000    1.0836044   -5.7732503    231.32577   0.04110266  0.042336976            2 
  470000    1.0488911   -5.7800429    231.34158  0.041018011   0.04230938            2 
  471000    1.0907705   -5.8167127    232.30786  0.041101886  0.042282975            5 
  472000    1.0522234   -5.8240628    231.90558  0.040943782  0.042255564            3 
  473000    1.0550963   -5.8089916    232.08799  0.040889356  0.042228811            4 
  474000    1.0257565    -5.805901    232.62684  0.040897827  0.042201536            2 
  475000    1.0822804   -5.8152797    233.28521  0.040927229  0.042173746            4 
  476000    1.0686202   -5.8218349    234.38263  0.041033373  0.042147868            5 
  477000    1.0399897   -5.8138622    234.98218  0.041052092  0.042121809            2 
  478000    1.0662102   -5.8147179    234.38729  0.040862499  0.042095446            2 
  479000    1.0776266   -5.8280936    234.97238   0.04087898  0.042069202            3 
  480000    1.0770476   -5.8534877      235.021  0.040802257   0.04204322            3 
  481000      1.04645   -5.8065539    236.35419  0.040948404  0.042017123            5 
  482000    1.0792268   -5.8218271    236.11894  0.040822776  0.041990695           10 
  483000    1.0461611   -5.8406099    235.42393  0.040618345  0.041963069            4 
  484000    1.0680836   -5.8252886    236.93583  0.040794736  0.041935361            4 
  485000    1.0482553   -5.8225343    236.65168    0.0406618  0.041908289            3 
  486000    1.0639979   -5.8510834    236.66331  0.040580129  0.041880982            3 
  487000    1.0467274   -5.8195154    237.01928  0.040557714  0.041852656            7 
  488000    1.0600018   -5.8393604    236.92047  0.040457731  0.041823866            3 
  489000    1.0620968   -5.8381154     237.3004   0.04043974  0.041795715            2 
  490000    1.0596151   -5.8132736     238.4166   0.04054704  0.041767944            2 
  491000    1.0801404   -5.8536061    237.62559  0.040330208  0.041739817            4 
  492000     1.043618   -5.8078607    239.26786  0.040526399  0.041711727            2 
  493000    1.0534743   -5.8187842     239.6392  0.040506964  0.041684155            4 
  494000    1.0798659   -5.8136506    240.53077  0.040575367  0.041657184            2 
  495000    1.0508062   -5.8666517    239.35074  0.040294737  0.041630756            2 
  496000    1.0311416   -5.8345864     240.2899  0.040371287  0.041603237            3 
  497000    1.0533843   -5.8796583    240.67359  0.040354392  0.041576457           10 
  498000    1.0501843   -5.8584877    241.63103  0.040433572  0.041549423            3 
  499000    1.0746706   -5.8533281    241.63375  0.040352997  0.041522691            4 
  500000    1.0821034    -5.814424    242.26073  0.040376788  0.041495544            4 
  501000    1.0674795   -5.8344797    242.16722  0.040280641  0.041468305            2 
  502000    1.0562802   -5.8257807    243.61375   0.04044053  0.041442171            3 
  503000    1.0560828   -5.8437867      243.137  0.040281147  0.041415467            3 
  504000    1.0523146   -5.8408467    243.95231   0.04033603  0.041388485            5 
  505000    1.0599551   -5.8366214    244.43504  0.040335816  0.041362125            3 
  506000    1.0556347   -5.8695525      244.264  0.040227932   0.04133564           11 
  507000     1.056923       -5.826     244.0922  0.040120349  0.041309141            3 
  508000    1.0474285   -5.8377029    244.80687  0.040158607  0.041282996            4 
  509000    1.0520528   -5.8313438    245.72905  0.040230689  0.041257049            2 
  510000    1.0588427   -5.8476575    246.08452  0.040209888   0.04123122            6 
  511000    1.0337774   -5.8505633    246.54073  0.040205598  0.041205907            2 
  512000    1.0387407   -5.8435233    246.95163  0.040193949    0.0411808            4 
  513000    1.0636298   -5.8417657    247.73926  0.040243544   0.04115585            4 
  514000    1.0450658   -5.8419249    248.49668  0.040288048  0.041131725            4 
  515000      1.02164   -5.8427296    249.11061   0.04030916  0.041108144            5 
  516000    1.0631645   -5.8877748    248.40807  0.040117582  0.041085022            3 
  517000    1.0501344   -5.8533007    249.59394  0.040231132  0.041061312            5 
  518000     1.058466   -5.8795058    249.61002  0.040156052  0.041038031            4 
  519000    1.0417929   -5.8635241    250.52662  0.040225854  0.041014672            5 
  520000    1.0387948   -5.8647459    250.87467  0.040204275  0.040991607            2 
  521000    1.0394314   -5.8288108    250.40443  0.040051891  0.040968112            2 
  522000    1.0432114   -5.8511562    251.14916  0.040094054  0.040944975            4 
  523000    1.0476699   -5.8345416     251.6902    0.0401036  0.040920949            5 
  524000    1.0418223   -5.8483826     252.6601  0.040181313   0.04089805            3 
  525000    1.0503416   -5.8670518    251.44787  0.039912361  0.040874638            3 
  526000    1.0364386   -5.8556493    252.05791  0.039933129  0.040850225            8 
  527000    1.0458916   -5.8809141    251.44329  0.039760166  0.040826022            4 
  528000    1.0303342   -5.8560294    253.25423   0.03997068  0.040802001            4 
  529000    1.0720619   -5.8597643    252.68149  0.039804897  0.040778276            6 
  530000     1.046003   -5.8661393    253.63277  0.039879366   0.04075398            2 
  531000    1.0170206   -5.8504691    253.82956  0.039835147  0.040730611            2 
  532000    1.0259073   -5.8587075    255.10009  0.039959287  0.040706676            4 
  533000    1.0497431   -5.8572184    254.90623  0.039854007  0.040682774            1 
  534000    1.0331642   -5.8801244    255.26507  0.039835372  0.040659539            3 
  535000     1.039326   -5.8945574    255.45747  0.039790883  0.040636115            2 
  536000    1.0338979   -5.8510477    255.90074  0.039785563  0.040611603            3 
  537000    1.0320121   -5.8599014    255.67372  0.039676245  0.040587871            4 
  538000    1.0399377     -5.91473    256.10259  0.039668926   0.04056367            5 
  539000      1.04063   -5.8921146    256.71889  0.039690613  0.040539481            2 
  540000    1.0439852   -5.8912907    256.75305  0.039622384  0.040515328            3 
  541000    1.0492478   -5.8661426    257.29672   0.03963289   0.04049179            3 
  542000     1.032615   -5.8900688    257.16305  0.039539215  0.040467284            3 
  543000    1.0461447   -5.8890682    257.24744   0.03947935  0.040442407            2 
  544000    1.0381142   -5.8633308    258.33882  0.039573962  0.040417226            4 
  545000    1.0275328   -5.9229169    257.54571  0.039380078  0.040391974            5 
  546000    1.0380459   -5.8856082    258.11834  0.039395351  0.040367177            6 
  547000    1.0632824   -5.8900169      258.187   0.03933379  0.040342257            5 
  548000    1.0370045    -5.857358    258.80586  0.039356123   0.04031733            5 
  549000    1.0235603   -5.8884631     259.9921  0.039464496  0.040292193            3 
  550000     1.026607    -5.898226    260.65409  0.039493044  0.040268052            4 
  551000     1.039562   -5.8841117    259.73327  0.039282104  0.040242929            7 
  552000    1.0306423   -5.8489613    260.78279  0.039369382  0.040218844            2 
  553000    1.0183523   -5.9269438    260.54019  0.039261633  0.040193819            4 
  554000    1.0506771     -5.90218    260.49031  0.039183259   0.04016852            5 
  555000    1.0229844   -5.9161159    260.93234   0.03917903   0.04014256            2 
  556000    1.0380854    -5.902433    261.32215  0.039166989  0.040116503            4 
  557000    1.0262188   -5.9280484    260.93296  0.039038443   0.04009117            3 
  558000     1.040397   -5.9272074    260.49062  0.038902423  0.040065825            2 
  559000    1.0428294   -5.8788802    262.51286  0.039134296  0.040040649            8 
  560000    1.0360404    -5.919516    262.08457   0.03900068  0.040015389            2 
  561000    1.0087731   -5.9211711    262.53152  0.038997551  0.039989894            3 
  562000    1.0422497   -5.8859441    263.84616  0.039123096  0.039965308            2 
  563000    1.0134705   -5.8684548    264.05246  0.039084141  0.039940757            3 
  564000    1.0261185   -5.8816339    265.75194  0.039265949    0.0399168            5 
  565000    1.0173301   -5.8920582    265.63966  0.039179891   0.03989281           11 
  566000    1.0252182   -5.8831661    265.80556  0.039135094  0.039868448            4 
  567000    1.0118535   -5.8910443     266.1926  0.039122957   0.03984515            4 
  568000    1.0253424   -5.9315625    265.22012  0.038911403  0.039820955            4 
  569000    1.0295698   -5.9294224    265.95618  0.038950818  0.039797095            5 
  570000    1.0156394   -5.8600708     267.1512  0.039057193   0.03977332            4 
  571000    1.0198209    -5.898683    267.36184  0.039019534  0.039749196            8 
  572000    1.0216883   -5.9378947    266.89191  0.038882855   0.03972463            6 
  573000    1.0514218   -5.8971543    268.42556   0.03903804  0.039700813            5 
  574000    1.0178721   -5.9206309    267.90672  0.038894704  0.039676945            5 
  575000     1.040838   -5.8800686    267.96344  0.038835281  0.039653365            2 
  576000    1.0264746   -5.9217256    267.64504  0.038721795  0.039629845            3 
  577000    1.0079039   -5.8975402    269.10755  0.038865909  0.039606218            3 
  578000     1.022477   -5.9328848    268.85675  0.038762508  0.039581988            2 
  579000    1.0334404   -5.9017954    268.91422  0.038703832  0.039557663            3 
  580000    1.0355079   -5.8917038    270.63018  0.038883647  0.039533978            4 
  581000    1.0169164    -5.908305    270.38594   0.03878169  0.039509737            4 
  582000    1.0035443   -5.8792944    270.75191  0.038767455  0.039485649            3 
  583000    1.0110833   -5.9595393    270.15766  0.038616017  0.039461959            5 
  584000    1.0214196   -5.9263839    271.68674  0.038768085  0.039438467            2 
  585000    1.0357583   -5.9287702    272.41462  0.038805502  0.039415793            5 
  586000    1.0252225   -5.9321069    272.52558   0.03875506  0.039393267            5 
  587000     1.027374    -5.927827    272.17636   0.03863946  0.039369758            4 
  588000    1.0179422   -5.8973921    273.29901  0.038732853  0.039345907            4 
  589000    1.0141252   -5.9642865    272.13657  0.038502628  0.039321659            4 
  590000    1.0221751   -5.9504635    272.89442   0.03854441  0.039297065            2 
  591000    1.0249932   -5.9422113    272.24678  0.038387871  0.039272922            1 
  592000    1.0239138   -5.9611622    272.96845  0.038424613  0.039248487            4 
  593000    1.0232661   -5.9393258    273.58161  0.038445982  0.039223821            6 
  594000    1.0026688   -5.9298924    272.74823  0.038264341  0.039199388            4 
  595000    1.0066245   -5.9141601    275.53756  0.038590694  0.039175637            3 
  596000    1.0097781   -5.9723547    275.08846  0.038463151  0.039151751            5 
  597000    1.0121241   -5.9319038    275.38016  0.038439441  0.039128309            9 
  598000     1.013134   -5.9207584    276.12661  0.038479181  0.039105652            3 
  599000    1.0375259   -5.9252383    275.12259  0.038275263  0.039082818            6 
  600000    1.0085545   -5.9329973    276.28405  0.038372785  0.039059408            5 
  601000     1.014968   -5.9486965    276.10998    0.0382848  0.039035725            7 
  602000    1.0241839   -5.9596082    276.98667  0.038342563  0.039012008            6 
  603000    1.0362177   -5.9516359      277.927  0.038408928  0.038989276            3 
  604000    1.0105213   -5.9144288    277.86652  0.038336992  0.038966349            6 
  605000   0.99841394   -5.9300456    278.03874  0.038297347  0.038943224            3 
  606000    1.0062584   -5.9624295    278.17751  0.038253233  0.038919901            3 
  607000    1.0076491   -5.9270948    278.30946  0.038208328  0.038896518           10 
  608000   0.98332288   -5.9440066    277.99688  0.038102642  0.038873104            4 
  609000    1.0080077   -5.9571375    278.12791  0.038058006   0.03884908            3 
  610000   0.98894146   -5.9448036    278.20533  0.038006193  0.038825011            5 
  611000    1.0136111   -5.9575171    278.05088  0.037922924  0.038800487            2 
  612000   0.99916641   -5.8924975    280.39147  0.038179667  0.038776791            3 
  613000    1.0421495   -5.9762499    278.23704  0.037824503  0.038752717            3 
  614000   0.99100353    -5.933468    279.88479  0.037986535   0.03872826            8 
  615000    1.0170405   -5.9265782    279.73618  0.037904632  0.038703688            5 
  616000    1.0028769   -5.9415885    279.93824  0.037870432  0.038679111            9 
  617000   0.98189183   -5.9621089    279.82845  0.037794226  0.038654507            2 
  618000    1.0045455   -5.9219989    281.37825   0.03794205   0.03862969            5 
  619000    1.0195502   -5.9786783    281.55728  0.037904857  0.038605128            6 
  620000   0.99474843   -5.9794958    281.49203  0.037834951  0.038580626            3 
  621000    1.0189632   -5.9568433    282.36234  0.037890814  0.038556108            3 
  622000   0.99469395    -5.923286    282.57844  0.037858848  0.038531726            3 
  623000    1.0119746   -5.9554857    284.28831  0.038026794  0.038508264            5 
  624000    1.0094661   -5.9718258    282.46282  0.037722065  0.038484767            7 
  625000    1.0048618   -5.9584316     283.1967   0.03775956  0.038461309            2 
  626000   0.99394611   -5.9515298    283.79546  0.037778948  0.038437662            6 
  627000    1.0150099   -5.9737171    284.06441  0.037754441  0.038414275            5 
  628000    1.0043803   -5.9526299    285.41625  0.037873706  0.038391099            4 
  629000    1.0077468    -5.964565    285.79324   0.03786344  0.038367865            4 
  630000   0.98779551   -5.9652353    285.21442  0.037726775   0.03834481            2 
  631000    1.0081347    -5.952501    285.80662  0.037745196  0.038322059            4 
  632000    1.0044623   -5.9984469    284.90361  0.037566405  0.038299173            6 
  633000    1.0004101   -5.9693036    286.50664  0.037718094   0.03827535            7 
  634000   0.98735984   -6.0130405    285.41498  0.037515113  0.038251675            5 
  635000    1.0129965    -5.928674    287.92704    0.0377857  0.038228331            5 
  636000    1.0055608   -5.9725157    286.83471  0.037583164  0.038205738            3 
  637000   0.99643216   -5.9627569    287.79632  0.037649963  0.038183004            2 
  638000   0.98713852   -6.0024023    286.64023  0.037439946  0.038160154            7 
  639000    1.0033589   -5.9953294    288.03535  0.037563296   0.03813696            4 
  640000   0.99443826   -5.9887115    288.62291  0.037581108  0.038114073            3 
  641000   0.99773042    -5.978322    289.00015  0.037571523  0.038091658            4 
  642000   0.99936795   -5.9809184    288.43319  0.037439407  0.038068589            3 
  643000    1.0093323   -6.0097344     289.2175  0.037482828  0.038045973            4 
  644000    1.0135451     -5.95568    290.28376  0.037562598   0.03802333            4 
  645000   0.99361267   -5.9219734    291.21183  0.037624268  0.038001089            4 
  646000    1.0035205   -5.9809281    289.48714  0.037343542   0.03797891            2 
  647000    1.0010695   -5.9818611    289.46786   0.03728334    0.0379563            5 
  648000   0.99976381   -5.9862256    290.89517  0.037409358  0.037933288            6 
  649000   0.98175693   -5.9833915      290.871  0.037348613  0.037910187            2 
  650000   0.98705041   -5.9803461    291.53968  0.037376882  0.037887732            4 
  651000    1.0027433   -5.9399906     292.8842  0.037491577  0.037865429            5 
  652000    1.0326401   -5.9345687    292.85543  0.037430397  0.037843336            2 
  653000   0.98376425   -5.9600989    292.85466  0.037372978  0.037821192            4 
  654000   0.98996345   -5.9778579    293.00055  0.037334423  0.037798656            4 
  655000    1.0047316   -5.9854836    292.95623  0.037271784  0.037775376            3 
  656000   0.99138741   -6.0021018    293.01193  0.037222045  0.037752897            4 
  657000   0.97545894   -5.9859602    293.58794  0.037238449  0.037730336            4 
  658000    0.9932614   -5.9470764    293.98247  0.037231822  0.037707692            6 
  659000    1.0002316   -5.9910311    293.78543  0.037150408  0.037685323            2 
  660000    0.9948413   -6.0021549    294.24991  0.037152767  0.037662495            5 
  661000   0.97555997   -5.9988413    294.52219  0.037130886  0.037639763            5 
  662000    1.0033553   -6.0016473    294.54379  0.037077516  0.037616745            5 
  663000   0.95954273   -5.9969331    294.79381  0.037053018  0.037594071            3 
  664000   0.99347884   -6.0206303    294.79076  0.036996833  0.037571708            2 
  665000   0.96516367   -6.0109544    294.65683  0.036924415  0.037549092            3 
  666000   0.98149768   -5.9966908     296.1034  0.037049975  0.037526596            7 
  667000   0.98335993    -5.999162    295.82601  0.036959772  0.037504278            3 
  668000    1.0009444   -5.9601649    297.05587  0.037057868   0.03748198            2 
  669000   0.97245502   -5.9963469      296.624   0.03694868  0.037459954            3 
  670000    0.9778494   -6.0039889    297.66357  0.037022832  0.037437336           10 
  671000   0.99107211   -6.0244786    296.32355  0.036801235  0.037414637            6 
  672000   0.97334835   -6.0047266    297.23797  0.036859867  0.037391938            4 
  673000    0.9908124   -6.0096216    298.63166   0.03697767  0.037369617            5 
  674000    1.0006886   -5.9822756     298.7858  0.036941865  0.037347532            3 
  675000   0.98549101   -5.9728613    299.08985  0.036924673  0.037325486            4 
  676000   0.95973968   -5.9788363    300.11686  0.036996654  0.037303187            4 
  677000      1.01131   -6.0108656     298.8848  0.036790349  0.037281053            2 
  678000    0.9845545   -6.0357749    298.69104  0.036712272  0.037258526            3 
  679000   0.97077241   -6.0240693    299.06506  0.036704106  0.037235712            3 
  680000   0.99431012   -5.9974451    299.57126  0.036712164  0.037213357            3 
  681000    0.9748605   -6.0319671    299.62278   0.03666456  0.037190577            3 
  682000   0.98953545   -6.0328913    300.41466  0.036707559   0.03716797            3 
  683000   0.97947971   -6.0135135    300.38269  0.036649913  0.037146018            6 
  684000   0.97374532   -6.0346303    300.27761  0.036583529  0.037123502            3 
  685000    1.0029995   -6.0072467    301.42361  0.036669539  0.037101035            9 
  686000   0.99185556   -6.0195484    301.23802  0.036593539  0.037078646            4 
  687000   0.98511465   -6.0221121    301.89089  0.036619467  0.037056299            9 
  688000   0.98140912   -6.0049306    301.84849  0.036561105  0.037033827            4 
  689000     0.978788   -5.9964855     302.8234  0.036625956  0.037011874           11 
  690000   0.97307782    -6.019716    301.87877  0.036458789  0.036989412            4 
  691000   0.99146017   -5.9998802    303.12044  0.036555769  0.036966614            4 
  692000   0.98451549   -6.0474425    303.38665  0.036535001  0.036944265            6 
  693000   0.97325695   -6.0647408    302.20328  0.036339981  0.036921505            6 
  694000   0.96814944   -6.0029505    303.49643  0.036442896   0.03689887            2 
  695000   0.96401629   -6.0219604    303.63945  0.036407608  0.036876833            3 
  696000   0.98780491   -6.0643149    302.97836  0.036276145  0.036854792            4 
  697000   0.97785316   -6.0224914    305.21544  0.036491564  0.036832783            7 
  698000   0.97257786   -6.0481327    304.37242  0.036338636  0.036810436            5 
  699000   0.94696915   -6.0035738    305.94636  0.036474292  0.036788296            2 
  700000   0.98343338   -6.0358086    305.75427  0.036399318  0.036765947            4 
  701000   0.97497929   -6.0362122    304.88456  0.036244004  0.036743421            7 
  702000   0.98740828   -6.0120225    306.33072  0.036364046  0.036720667            4 
  703000   0.96661542   -5.9819329     305.8164  0.036251351  0.036698017            2 
  704000    0.9604017   -6.0311778     305.9921  0.036220656  0.036675262            5 
  705000   0.98599625   -6.0541721    305.35358  0.036093803  0.036652131            7 
  706000   0.96303653   -6.0351913    305.56048  0.036067102  0.036629335            6 
  707000   0.95855487   -6.0334755    307.62604  0.036259552  0.036606289            4 
  708000   0.99272466   -6.0318283    305.84864  0.035999133   0.03658308            2 
  709000   0.98142796   -5.9811084      307.033  0.036087564  0.036560405            4 
  710000   0.97414268   -6.0299156    307.51231  0.036092994  0.036537972            3 
  711000   0.97299656   -6.0529501    307.90908  0.036088734  0.036515231            6 
  712000   0.96861118   -6.0280963    308.50246  0.036107497  0.036492396            3 
  713000   0.94478336   -6.0643105    307.22721  0.035907809  0.036469758            5 
  714000   0.97130294   -6.0619879     308.7165  0.036031338  0.036447362            5 
  715000   0.97824924   -6.0373436    309.39014  0.036059456  0.036425428            3 
  716000   0.96385414     -6.02554     309.5196  0.036024162  0.036403927            2 
  717000   0.98248067   -6.0497066     308.7505   0.03588453  0.036381855            7 
  718000   0.98433153   -6.0442136    308.88063  0.035849655  0.036359804            5 
  719000     0.974276   -6.0429564    310.59816  0.035998859  0.036337867            5 
  720000   0.97263394   -6.0400226    310.57332  0.035945986  0.036315921            3 
  721000   0.98106642   -6.0595978    310.58521  0.035897505    0.0362939            4 
  722000   0.96348629   -6.0477495    311.92105  0.036001968   0.03627211            5 
  723000   0.94636627   -6.0609306    311.65674  0.035921708  0.036250757            3 
  724000   0.96476231    -6.049371    312.71395  0.035993779   0.03622905            7 
  725000   0.94765143   -6.0752089    312.15067  0.035879388  0.036207237            6 
  726000   0.96861036   -6.0752675    311.32117  0.035734754  0.036185545            5 
  727000   0.94716792   -6.0539584    312.80641  0.035855847  0.036164216           10 
  728000   0.96833025   -6.0506098     313.0484  0.035834295  0.036142432           10 
  729000   0.96806079   -6.0485772    312.90917  0.035769224  0.036121431            5 
  730000   0.96918824   -6.0615426    314.30963  0.035880094  0.036099723            4 
  731000    0.9715329   -6.0287525    314.04182  0.035800481  0.036078127            6 
  732000   0.94336659      -6.0882     312.8731  0.035618522  0.036056316            3 
  733000   0.98131664   -6.0336424    314.43257  0.035747223  0.036034622            4 
  734000   0.94584203   -6.0299393    315.38552  0.035806712  0.036013516            5 
  735000   0.96090548   -6.0452103    314.36112   0.03564185  0.035991848            5 
  736000   0.95194443   -6.0550716    314.19684  0.035574824  0.035969903            4 
  737000    0.9765015   -6.0953076    314.30123  0.035538357  0.035947586            5 
  738000   0.95198388   -6.0822833    314.36341  0.035497224  0.035925125            3 
  739000   0.95063799   -6.0699128    315.26517  0.035550876  0.035902725            2 
  740000   0.96809744     -6.05308    315.72505  0.035554623  0.035880633            2 
  741000   0.97023168   -6.0330085    314.53156   0.03537242  0.035858753            3 
  742000   0.96296538   -6.0600299    315.99608  0.035489227  0.035836884            3 
  743000   0.95333759   -6.0347797    316.24049  0.035468875  0.035814595            7 
  744000    0.9809718   -6.0737275    315.78382  0.035370052  0.035792488            5 
  745000   0.96148671    -6.033791    316.96467   0.03545466   0.03577022            4 
  746000    0.9552006    -6.062412    316.29504  0.035332333  0.035747725            5 
  747000   0.95897299   -6.0740867    316.50134  0.035308048    0.0357254            5 
  748000   0.96286453   -6.0891392    316.68601  0.035281418  0.035702988            6 
  749000   0.95526855   -6.1084281    317.04833  0.035274625  0.035680859            6 
  750000   0.95158591   -6.0502776    317.29695  0.035255216  0.035658528            3 
  751000   0.97202402   -6.0563601    316.96657  0.035171612  0.035636015            4 
  752000   0.94814286    -6.057787    318.02398  0.035242019  0.035613471            6 
  753000   0.94864989   -6.0500463    318.83409  0.035284871  0.035591336            4 
  754000   0.95515644   -6.1070135    316.73198  0.035005744  0.035568622            4 
  755000   0.96774382    -6.072785    317.67162  0.035063092  0.035545994           10 
  756000   0.95629211    -6.049631     318.7546  0.035136089  0.035523383            6 
  757000   0.97179723   -6.0806604    317.43293   0.03494418  0.035500912            6 
  758000   0.95039879   -6.1074141    317.87528   0.03494671  0.035477705            5 
  759000   0.94966536    -6.080214    318.32652   0.03495021  0.035454306            3 
  760000   0.93643598    -6.077239    318.48574  0.034921682  0.035430597            5 
  761000   0.93613755   -6.0832052    317.93865  0.034815883   0.03540703            5 
  762000   0.95003854   -6.0891686    319.52179  0.034943328  0.035383545            7 
  763000   0.94224639   -6.0898553    319.57928   0.03490381  0.035359927            5 
  764000   0.94955551   -6.1136945    319.25189  0.034822414  0.035336817            4 
  765000   0.94113878   -6.1269686    319.60713  0.034815591  0.035313709            9 
  766000   0.94649919   -6.0529675    321.27303  0.034951374  0.035290715            4 
  767000   0.91823443   -6.0687864    320.45125   0.03481652  0.035267642            3 
  768000   0.94011091   -6.0607565     321.8053   0.03491811  0.035244735            3 
  769000   0.95887627   -6.0850515    322.55888  0.034954365  0.035222097            8 
  770000   0.93473838   -6.0683897    322.36406  0.034887885  0.035199889           13 
  771000   0.94642895   -6.0775203    322.20171  0.034825088  0.035177463            4 
  772000    0.9490816   -6.0900792    321.58433  0.034713335  0.035154962            7 
  773000   0.95521235   -6.0757311    322.34721   0.03475067  0.035132399            5 
  774000   0.94901124   -6.1154053    322.10803  0.034680021  0.035109598            4 
  775000   0.94909899   -6.1052833    322.30378   0.03465632  0.035086803            4 
  776000   0.92866258   -6.0944807     323.3227   0.03472108  0.035064416            4 
  777000   0.95514569   -6.1109514    322.89404   0.03463042  0.035041787            6 
  778000   0.97767961   -6.0804147    323.95353  0.034699393  0.035019365            3 
  779000   0.92166239   -6.0996532    323.61143  0.034618253  0.034997232            6 
  780000   0.95543367   -6.0957817    323.72717  0.034586236  0.034974948            7 
  781000   0.94144657   -6.0916018    323.82906  0.034552824  0.034952691            3 
  782000   0.93857433   -6.1325384      323.881  0.034514173  0.034930166            3 
  783000    0.9419789   -6.0668456    325.42247   0.03463415  0.034907783            2 
  784000   0.98834937   -6.1075436    325.58029  0.034606749   0.03488561            4 
  785000   0.92953403   -6.1691221    324.22065  0.034418328   0.03486316            9 
  786000   0.94714058   -6.1002777    325.52517  0.034512847  0.034840363            4 
  787000   0.94155199   -6.0851337    326.24777  0.034545507  0.034817973            4 
  788000   0.95397688   -6.0858884    325.27342  0.034398628  0.034795419            3 
  789000   0.93321966   -6.1055466    326.05866  0.034437966  0.034772923            4 
  790000   0.95416231   -6.1005133    325.54928  0.034340641  0.034750479            5 
  791000   0.94150898   -6.1278813    325.68001     0.034311  0.034728027            3 
  792000   0.93281035   -6.0820136    326.92938  0.034399135  0.034705576            8 
  793000   0.93601925   -6.1192171    326.35157  0.034295037  0.034683026            4 
  794000   0.93653359   -6.1278201    327.30667  0.034352086  0.034660328            6 
  795000   0.95359447   -6.1185134    327.05823  0.034282833  0.034638155            5 
  796000   0.93674714   -6.1058073    327.74209  0.034311358   0.03461574            5 
  797000   0.95146685   -6.1156058    327.75159  0.034269301  0.034593605            4 
  798000    0.9379076   -6.1251111    327.19855  0.034168604  0.034571029            3 
  799000   0.94214556   -6.1307741    328.33718  0.034244596  0.034548525            7 
  800000   0.94307478   -6.1038511    328.82446  0.034252548  0.034525874            4 
  801000   0.95686365   -6.1679948    327.70773  0.034093605  0.034503328           14 
  802000   0.92882471   -6.1346295    327.67957  0.034048168  0.034480328            9 
  803000   0.93452139   -6.1536995    328.09811  0.034049202  0.034457589            4 
  804000   0.92553669   -6.1193399     329.1922  0.034120253  0.034434824            5 
  805000   0.91303494   -6.1100572    330.07502  0.034169257  0.034412634            3 
  806000   0.93359438   -6.1629489    328.50161  0.033964186  0.034390305            6 
  807000   0.91354652   -6.1171935    330.32736  0.034110632  0.034367778            6 
  808000   0.92583379    -6.156213    328.98196  0.033929657  0.034345278            4 
  809000   0.92713415   -6.1134256    329.99296  0.033991858  0.034322629            4 
  810000   0.91335158   -6.1261568    329.82714  0.033932834  0.034299816            6 
  811000    0.9388339   -6.1354815    329.89033  0.033897486  0.034276919            4 
  812000    0.9432139    -6.157271    329.19095  0.033783964  0.034254283            3 
  813000   0.91922656   -6.1148984    331.55212  0.033984432  0.034231747            3 
  814000   0.92372056   -6.1739937    330.19448  0.033803693    0.0342094            7 
  815000   0.93681044   -6.1474023     330.1157  0.033754162  0.034186809            6 
  816000   0.94185282   -6.1376133    331.77857  0.033882615  0.034164393            4 
  817000   0.93696105    -6.132187    330.99155  0.033760868  0.034141759            6 
  818000   0.92047134   -6.1691509    330.55895  0.033675524  0.034119078            6 
  819000   0.90598416   -6.1742526    331.74277  0.033754861  0.034096402            6 
  820000   0.91969092   -6.1493273    332.19642  0.033759798  0.034074211            5 
  821000    0.9343622    -6.116444    334.13931  0.033915886  0.034051843            4 
  822000   0.93837405   -6.1259046     333.0984    0.0337691  0.034029765            9 
  823000   0.92965321   -6.1566187    332.99538  0.033717637  0.034007563           12 
  824000   0.93191392   -6.1573077    332.94463  0.033671584  0.033985403            4 
  825000   0.93706482   -6.1546527    332.15833  0.033551346  0.033963261            5 
  826000   0.92744153   -6.1860878    332.90787  0.033586347  0.033940899           10 
  827000   0.94014308   -6.1321777     333.2085  0.033576028  0.033918338            7 
  828000   0.93261945   -6.1463091    333.14785  0.033529373  0.033896269            5 
  829000   0.90799527   -6.1143896    334.18537  0.033593222  0.033874052            4 
  830000   0.89089491   -6.1580732    333.43107  0.033477015  0.033851888            4 
  831000   0.92887753   -6.1169436    334.59567  0.033553517  0.033829598            6 
  832000   0.89194641   -6.1707517    333.89407  0.033442915  0.033807333            5 
  833000   0.90199021   -6.1822041    334.51175  0.033464561  0.033784848            4 
  834000   0.91094286   -6.1511495    334.73705  0.033446948  0.033762381            3 
  835000   0.92528972   -6.1690414    335.26266  0.033459347  0.033740057            7 
  836000   0.92149943   -6.1450273    335.38487  0.033431506  0.033717743            6 
  837000   0.90989895   -6.1824651    334.22318  0.033275904  0.033695471            6 
  838000   0.89924265   -6.1701655    334.73633  0.033287224  0.033672696            2 
  839000    0.9321788   -6.1465605    336.14395  0.033387361  0.033650284            5 
  840000   0.90557869   -6.1552869    335.17136  0.033251127  0.033627715            3 
  841000   0.92330705   -6.1709073    335.86533  0.033280354  0.033605041           10 
  842000   0.92274196   -6.1311758    336.61837  0.033315357  0.033582533            7 
  843000   0.91715167   -6.1603755    335.70129  0.033185181   0.03356008            4 
  844000   0.88859133   -6.1618963    335.76843  0.033152491  0.033537536            3 
  845000    0.9019123   -6.1353965     336.8634  0.033221243  0.033515036            5 
  846000   0.93036455   -6.1884625    336.19373  0.033116009  0.033492718            8 
  847000   0.91942868   -6.1578522    336.21328  0.033078836  0.033470274            3 
  848000   0.91407046   -6.1684641    336.46476   0.03306454  0.033447948            6 
  849000   0.91342693   -6.1797862    337.94536  0.033170923  0.033425362            4 
  850000    0.9179691   -6.1769549    337.19315  0.033058152   0.03340292            7 
  851000   0.92316758   -6.1857346    337.53468   0.03305275  0.033380379            2 
  852000   0.92948165   -6.1784333    337.20706  0.032981912  0.033357853           12 
  853000    0.9009086   -6.1798955    338.02018  0.033022683  0.033335313            3 
  854000   0.91502495   -6.2116498    337.57102  0.032940186  0.033312649            7 
  855000   0.90934128   -6.1754912       337.88  0.032931774   0.03329026            6 
  856000   0.91519532   -6.1288133    339.42474  0.033043685  0.033267808            6 
  857000   0.91721748   -6.1887727    338.08834  0.032875179   0.03324546            6 
  858000     0.906657   -6.1795223    338.62588  0.032889071  0.033222637            3 
  859000   0.89398043   -6.2106419    337.83217  0.032773784  0.033199909            9 
  860000   0.89917628   -6.1833356    338.41876  0.032792515  0.033177289            7 
  861000   0.90809869   -6.1538438    339.57958  0.032866781  0.033155313            3 
  862000   0.90640409   -6.1772257    339.46467  0.032817543  0.033133196            4 
  863000   0.91631543   -6.1760201    339.68934  0.032801211  0.033111074            4 
  864000   0.90571628   -6.1683357    340.85965  0.032876124  0.033088775            4 
  865000    0.9220042   -6.1990529    339.69683  0.032726091  0.033066222            7 
  866000   0.90958048   -6.1817676    340.02523  0.032719903   0.03304357            5 
  867000   0.94322874   -6.1639467    340.04094  0.032683674    0.0330209            7 
  868000   0.90621595   -6.2074702    339.83881  0.032626613   0.03299785            6 
  869000    0.9265592    -6.204921    339.67889  0.032573733  0.032974851            6 
  870000   0.91380537   -6.1980736    339.77537  0.032545533  0.032951963            6 
  871000   0.89869546   -6.1700168    339.95484  0.032525339  0.032928936            4 
  872000   0.90923522   -6.1851359    339.98883  0.032491287  0.032905857            5 
  873000   0.89763594   -6.1574691    341.24397   0.03257388  0.032883103            6 
  874000   0.91406327   -6.2038145     340.7733  0.032491734  0.032860357            6 
  875000   0.91741581   -6.2222072    340.25881  0.032405601  0.032837247            3 
  876000   0.91814994   -6.2272411    341.09691  0.032448337  0.032814311            7 
  877000   0.90119847   -6.1937495    340.18697  0.032324874  0.032791247            5 
  878000   0.90422567   -6.2307843    340.34296  0.032302863  0.032767919            8 
  879000   0.88234801   -6.2239905    340.15079  0.032247894  0.032744276            7 
  880000   0.88700203   -6.2132432    341.09345  0.032300516   0.03272107            7 
  881000   0.90966973   -6.1940341    341.52185  0.032304375  0.032697946            7 
  882000   0.91396268   -6.2136603    341.76146  0.032290388  0.032674931            4 
  883000   0.90306298   -6.2136803    341.27181  0.032207608   0.03265185           11 
  884000   0.88823771   -6.2303916    341.87925  0.032228437  0.032628659            5 
  885000   0.89088089   -6.1752588    342.18986  0.032221267  0.032605451            3 
  886000   0.90207435   -6.2267313    342.11157  0.032177537  0.032582378            5 
  887000   0.89984121   -6.2200467    342.16998  0.032146748  0.032558894            2 
  888000   0.89997696   -6.2192833    341.38308  0.032036701  0.032535527            6 
  889000    0.8919477   -6.2107188    342.97121  0.032149532  0.032512225            5 
  890000   0.90970948   -6.1791963    343.72052   0.03218357   0.03248922            8 
  891000   0.87919229   -6.2161497     342.8769  0.032068547  0.032466557            6 
  892000    0.8894766   -6.2434654     342.8256  0.032027803   0.03244348           12 
  893000   0.90671824   -6.2392316    343.37439   0.03204315  0.032420369            5 
  894000   0.87348221   -6.2209706    344.01299  0.032066833  0.032397353            5 
  895000   0.87336403   -6.2003309    343.51363  0.031984509  0.032374657           13 
  896000   0.89092946   -6.1946276    345.22781  0.032108241  0.032351961            5 
  897000   0.87934908   -6.2064599    344.48159  0.032003121  0.032329287            3 
  898000   0.89528325   -6.2343622    345.03983  0.032019286  0.032306664            5 
  899000   0.88578941   -6.2187259    344.09662  0.031896238  0.032283791            4 
  900000   0.88655128   -6.2306245    344.48117  0.031896404  0.032261133            5 
  901000   0.88841131   -6.2055023    345.50143  0.031955367  0.032238469            6 
  902000   0.87967957   -6.2317486    345.70761  0.031938988   0.03221582            7 
  903000   0.89712302   -6.2015739    345.03373  0.031841429  0.032193349            8 
  904000   0.89403029   -6.2090592    345.44581  0.031844193  0.032170861            3 
  905000    0.8878481   -6.2247075    345.83406  0.031844757  0.032148204            3 
  906000   0.90058142   -6.2210199    346.89642  0.031907323  0.032125927            8 
  907000   0.89790458    -6.212255     345.6964  0.031761889  0.032103491            8 
  908000   0.87847861   -6.2212394    347.17783  0.031862869  0.032081076            9 
  909000   0.89473211   -6.2571641    346.00435  0.031720237  0.032058354            6 
  910000   0.90481502   -6.2771759     346.0601  0.031690485  0.032035494            2 
  911000   0.89322458    -6.247315    346.44232  0.031690662  0.032012812            7 
  912000   0.89792127     -6.21657    346.94691   0.03170202  0.031990091            9 
  913000   0.89018524   -6.2207626    347.83743  0.031748579  0.031967382            3 
  914000   0.86732935   -6.2480555    346.91276  0.031629537  0.031944787            6 
  915000   0.87381304   -6.2577461    346.29331  0.031538553  0.031922195            6 
  916000   0.86626437    -6.240279    348.39808  0.031695604  0.031899297            7 
  917000   0.88653322   -6.2317652    347.41987  0.031572144  0.031876909            4 
  918000   0.91634429   -6.2741205    347.17738  0.031515739   0.03185459            4 
  919000   0.87619045    -6.258875    347.77512  0.031535647  0.031832211            5 
  920000   0.88318325   -6.2541258    348.71446  0.031586455  0.031810028            3 
  921000   0.88598734   -6.2472813    349.06002  0.031583425  0.031787931            6 
  922000    0.8934631   -6.2368777    348.80692  0.031526294  0.031766062            8 
  923000   0.87913674   -6.2146572    350.25592  0.031622961  0.031744313           12 
  924000   0.89126617   -6.2280725    349.65457  0.031534503  0.031722508            7 
  925000   0.88234302   -6.2717551    349.02872  0.031444028  0.031700525            4 
  926000   0.86476294   -6.2498004    349.96728  0.031494535  0.031678344            3 
  927000   0.87682883   -6.2488636    349.36963  0.031406835  0.031656027            2 
  928000   0.88473011   -6.2469045    350.17384  0.031445208  0.031633898            4 
  929000   0.90301719   -6.3005372    349.50501  0.031351365  0.031611685           12 
  930000   0.88740868   -6.2579304    350.49703  0.031406544  0.031589435           13 
  931000   0.87868892   -6.2691099    351.25292  0.031440469  0.031567334            3 
  932000   0.88722062   -6.2266601    350.43893  0.031333953  0.031545129            4 
  933000   0.90392426   -6.2489251    351.45743  0.031391339  0.031522954            5 
  934000   0.89535777   -6.2504583    351.01117  0.031317913   0.03150094            7 
  935000   0.86959769   -6.2348962    351.54241  0.031331766   0.03147889            5 
  936000   0.88422814   -6.2269835    350.89969  0.031241069  0.031456811            4 
  937000   0.88588621   -6.2432086    350.86376  0.031204532  0.031434711            7 
  938000   0.88091373   -6.2653151    350.66871  0.031153937  0.031412712           14 
  939000   0.86087343   -6.2398044    351.46873  0.031191758  0.031390632           10 
  940000   0.88965399   -6.2682173    351.11897  0.031127568  0.031368607            4 
  941000   0.88628592   -6.2770162    351.78262  0.031153261  0.031346653            9 
  942000   0.85241808    -6.254032    352.54218  0.031187384  0.031324768            4 
  943000   0.88236522   -6.2624106    351.36408  0.031050202  0.031302846           20 
  944000   0.86992753   -6.2424091    352.69838  0.031135097  0.031281005            5 
  945000   0.88290328   -6.2875796    352.82402  0.031113229  0.031259144            3 
  946000   0.87113114   -6.2695798    352.57588  0.031058481  0.031237037            4 
  947000   0.85621701   -6.2824868    352.18012  0.030990859  0.031215083            5 
  948000   0.88370188   -6.3229674    353.02679  0.031032594  0.031193155            4 
  949000   0.85817621   -6.3260387    351.57482  0.030872394  0.031171014           10 
  950000   0.87401601   -6.2735326    354.14079  0.031064982  0.031148958           11 
  951000   0.85463741   -6.2777813    354.14494   0.03103268  0.031127209            9 
  952000   0.86581037   -6.2412197    354.01569  0.030988769  0.031105433            7 
  953000     0.856701   -6.2877512     353.5208  0.030912977  0.031084032            7 
  954000    0.8858412   -6.2736653    355.17329  0.031024921  0.031062306            4 
  955000   0.85892519   -6.2886963    354.84121  0.030963456  0.031040744            9 
  956000    0.8876413   -6.2917034    353.05029  0.030774956  0.031019347            5 
  957000   0.86907772   -6.2444199    354.63002  0.030880357  0.030997717           11 
  958000   0.87594386   -6.2720214    353.73182  0.030769991  0.030976012            5 
  959000   0.87744609   -6.3325794    354.41263  0.030797066  0.030954358            6 
  960000   0.86632902   -6.2859758    354.31735  0.030756714  0.030932435            9 
  961000   0.87644829   -6.3038741    354.70389  0.030758229    0.0309106            8 
  962000   0.87273839   -6.3203285    354.81394  0.030735789  0.030888881            4 
  963000    0.8674472   -6.2847977    355.03617  0.030723102  0.030867015            9 
  964000   0.88460654   -6.2574644    355.61536    0.0307413  0.030845288            4 
  965000   0.87016094   -6.2750061    354.53277  0.030615956  0.030823712            4 
  966000   0.86664368   -6.3116205    354.07861  0.030545084   0.03080176           14 
  967000   0.86622511   -6.3341768    354.84676  0.030579693  0.030779805           11 
  968000    0.8412945   -6.2936717    356.07174  0.030653559  0.030757664            5 
  969000   0.87814563   -6.2693109    355.99929  0.030615694  0.030735817            6 
  970000   0.86674323   -6.2506703    356.52678  0.030629449  0.030714087            5 
  971000   0.85742201   -6.2769859    355.86168  0.030540824  0.030692342            7 
  972000   0.85199869   -6.2936648    356.46775  0.030561364  0.030670454            6 
  973000   0.86566659   -6.2962427    356.28162  0.030514013  0.030648626            6 
  974000   0.86137832   -6.2916974    356.47025  0.030498824  0.030626804           10 
  975000   0.85857963   -6.3133063    356.83684  0.030498876  0.030605186           11 
  976000   0.86126655   -6.2976059    356.26322  0.030418649  0.030583642           10 
  977000   0.85966538   -6.3381689    356.55535  0.030412432  0.030561799            4 
  978000   0.86397867   -6.3080965    356.52995  0.030379171  0.030540097            4 
  979000   0.87969868   -6.3088978    356.30915  0.030329345  0.030518388           19 
  980000   0.86274927   -6.2919246    356.62573  0.030325317  0.030496702            6 
  981000   0.87205123   -6.2936651    357.72822  0.030388058  0.030475201            4 
  982000   0.84872494   -6.2855005    356.92439  0.030288899   0.03045358            3 
  983000   0.85101441   -6.2904724    357.73223  0.030326571  0.030432054            5 
  984000   0.87308788   -6.3166436    357.94988  0.030314184  0.030410377            7 
  985000   0.86435446   -6.3131339    358.97488  0.030370125  0.030389113            9 
  986000   0.87135237   -6.3321886    358.21821  0.030275373  0.030367879           11 
  987000   0.83527607    -6.288388    358.40718  0.030260654  0.030346466            6 
  988000   0.86464748    -6.305593    358.52348  0.030239835  0.030325003           14 
  989000   0.86965215   -6.3456504    359.31023   0.03027555  0.030303574            8 
  990000   0.87400658   -6.3115438    358.99741  0.030218637  0.030282024            3 
  991000   0.84444073   -6.3405308    358.38568  0.030136704  0.030260481            7 
  992000   0.84637055   -6.3001211    359.22314  0.030176675  0.030239171            7 
  993000   0.87125334   -6.3128365     359.2291  0.030146785   0.03021775            3 
  994000   0.85200425   -6.3395357    359.04941  0.030101392  0.030196315            9 
  995000   0.85414117   -6.3079923    360.47264  0.030190338  0.030174968            9 
  996000    0.8390897    -6.337791    359.68794  0.030094372  0.030153611           21 
  997000   0.85491487   -6.3074938    360.81049  0.030158015  0.030132521            7 
  998000   0.86197002   -6.3277583    359.41974  0.030011668  0.030111542           12 
  999000   0.85709476   -6.3384741    359.52176  0.029990137  0.030090177            7 
 1000000   0.84434679    -6.313598    359.50626  0.029958855   0.03006866            7 
 1001000   0.86192204    -6.349052    360.47026  0.030009179  0.030047339            4 
 1002000   0.86078473   -6.3130749    360.84735  0.030010591  0.030026099           10 
 1003000   0.84527298   -6.2861726    360.73837  0.029971616  0.030004847            9 
 1004000   0.84087807    -6.360557    360.20237  0.029897275  0.029983694            6 
 1005000   0.85887076    -6.320974    361.15238    0.0299463  0.029962536            4 
 1006000   0.85320269   -6.3335126    360.73856  0.029882253  0.029941531            6 
 1007000   0.83596335   -6.3367205     361.0464  0.029878054  0.029920393            6 
 1008000   0.85325723   -6.3586004    360.95791  0.029841097  0.029899046            5 
 1009000   0.86768802   -6.3173564    361.60763  0.029865183  0.029877821            5 
 1010000    0.8590683   -6.3542194    360.64288  0.029756013  0.029856463            5 
 1011000   0.86785705   -6.3753892    361.14536  0.029767999     0.029835            7 
 1012000   0.85457363   -6.3632147    360.42365  0.029679155  0.029813519            7 
 1013000   0.86114056   -6.3527814    361.32914  0.029724345  0.029792224            9 
 1014000   0.86094066   -6.3668527    360.88158  0.029658249  0.029770742            6 
 1015000   0.84891528   -6.3659918    362.12068  0.029730762  0.029749209            5 
 1016000   0.84340665    -6.345511    361.60375  0.029659101  0.029727812            5 
 1017000   0.84663026   -6.3391337    361.71823  0.029639318  0.029706694            7 
 1018000   0.84519549   -6.3148983    362.64819  0.029686328  0.029685521           10 
 1019000    0.8482663   -6.3513207    361.64739  0.029575351  0.029664188            4 
 1020000   0.85458842   -6.3302563    362.35476  0.029604147  0.029643058            5 
 1021000   0.83990178   -6.3570463    362.94734  0.029623518  0.029621696           11 
 1022000   0.84250724   -6.3432682    363.07566  0.029604995  0.029600289            8 
 1023000   0.84839098   -6.3406164    362.64439  0.029540925   0.02957906            3 
 1024000    0.8281469    -6.323214    363.27485  0.029563383  0.029557707           11 
 1025000   0.85201817   -6.3457105    363.77974  0.029575589  0.029536456            2 
 1026000   0.85388174   -6.3700291    362.92168  0.029477069  0.029515136           10 
 1027000    0.8535214   -6.3483522    363.57082   0.02950104  0.029493905            4 
 1028000   0.87559745    -6.302248    363.99676  0.029506871  0.029473077           12 
 1029000   0.86045662   -6.3801593    362.62631   0.02936721  0.029452261            5 
 1030000   0.83576053   -6.3306041    363.77648  0.029431754  0.029431082            9 
 1031000   0.84714766    -6.372723    363.38041  0.029371194  0.029409905           17 
 1032000   0.84146348   -6.3495828    363.46797  0.029349803  0.029388754            8 
 1033000   0.83273531   -6.3716613    363.26404   0.02930494  0.029367404           14 
 1034000   0.83209378   -6.3524671     364.8431  0.029403861  0.029346313           10 
 1035000   0.85362602   -6.3917145     364.0194  0.029309131  0.029325253            6 
 1036000   0.83814518   -6.3536396    364.35416  0.029307767  0.029304204            7 
 1037000   0.84144937    -6.363937    365.16425  0.029344604  0.029283429            6 
 1038000   0.85496431   -6.3679905    365.24597  0.029322894  0.029262475            5 
 1039000   0.85069738    -6.351812    365.65543  0.029327512  0.029242003            3 
 1040000   0.83397612   -6.3617805    365.35882  0.029275546  0.029221399            8 
 1041000   0.82891517   -6.3848935    364.61972  0.029188258  0.029200668            7 
 1042000   0.83359569   -6.3808519    366.04848  0.029274511   0.02917974            5 
 1043000    0.8411512   -6.3928795    364.15223  0.029094937  0.029158828            6 
 1044000   0.82022783   -6.3464269    366.01138  0.029215468  0.029138156            8 
 1045000   0.83641963   -6.3611835     366.8609  0.029255255  0.029117508            6 
 1046000   0.82890943   -6.3409545    367.30644  0.029262782  0.029097058           11 
 1047000   0.84533592   -6.3548798    366.09611    0.0291385  0.029076499            5 
 1048000     0.844515   -6.3760947    365.16411  0.029036586  0.029055963            9 
 1049000   0.82003157   -6.3504777    367.30265  0.029178793  0.029035541           12 
 1050000   0.84391176   -6.3958222     367.6084   0.02917527  0.029015009           11 
 1051000   0.83520534   -6.3547096    367.86542  0.029167889  0.028994558            7 
 1052000   0.83544285   -6.3727275    367.39503  0.029102902   0.02897412           17 
 1053000   0.83534522   -6.3792804    367.04307   0.02904741  0.028953583            4 
 1054000   0.84284434    -6.346886    368.86735  0.029164085  0.028933212            8 
 1055000   0.82776773   -6.3738607    367.98423  0.029066685  0.028912993            3 
 1056000   0.83199263   -6.3664785    367.54775  0.029004715  0.028892737            9 
 1057000   0.83117506   -6.3730156    367.70769  0.028989884  0.028872585           13 
 1058000    0.8400562   -6.3943229     368.5942   0.02903231  0.028852408            6 
 1059000   0.84119485   -6.3975992    369.31854  0.029061893    0.0288322            6 
 1060000   0.82536962   -6.3851565    368.76782  0.028991181   0.02881214            4 
 1061000   0.80997881   -6.3763253     368.6325  0.028953228  0.028792089            5 
 1062000   0.83006618   -6.3977889    368.44363  0.028911145  0.028771964            6 
 1063000   0.82715876   -6.4238229    367.68497  0.028824472  0.028751779           10 
 1064000   0.83530306   -6.4113833    368.54777  0.028864957  0.028731705           12 
 1065000   0.81499717   -6.4209624    369.07494  0.028879103  0.028711586           10 
 1066000    0.8351111   -6.3811804    369.74633  0.028904497  0.028691399            3 
 1067000   0.81992538   -6.3784983    369.49265  0.028857595  0.028671467            7 
 1068000   0.82759665   -6.3812374    370.09368  0.028877472  0.028651597           11 
 1069000   0.83706664   -6.3958364    370.99771  0.028920931  0.028631732            6 
 1070000   0.82833489   -6.3846717    370.10722   0.02882455  0.028611579           11 
 1071000   0.83262812   -6.4163118    368.28912  0.028656172  0.028591527           26 
 1072000   0.82430026   -6.4158736    369.15344  0.028696629  0.028571624            7 
 1073000   0.83398664   -6.3847658    370.56116  0.028779214  0.028551605            9 
 1074000   0.82728401   -6.3977759    370.85034  0.028774856  0.028531801            9 
 1075000   0.80653246   -6.3845045    370.60925    0.0287294  0.028511805            7 
 1076000   0.81426505   -6.4067501    370.59598  0.028701672  0.028491966            6 
 1077000   0.80834898   -6.4073164    370.45282  0.028663945  0.028472046            7 
 1078000   0.82397632   -6.4041573    371.48048  0.028716796  0.028452354            6 
 1079000   0.83533344   -6.4118416    370.35749  0.028603451  0.028432766           11 
 1080000   0.81714252   -6.3985862      371.904  0.028696296  0.028413036            3 
 1081000   0.83726197   -6.3989681    371.70154  0.028654143  0.028393327            6 
 1082000   0.84228537   -6.4028135    370.48735  0.028534146  0.028373731            7 
 1083000   0.81686473   -6.3792227    371.88022  0.028614976  0.028354071           11 
 1084000   0.81268098   -6.4109542    371.59436  0.028566602  0.028334533            4 
 1085000   0.81607052   -6.4017801    371.84528  0.028559545   0.02831504            5 
 1086000    0.8201208   -6.4260967    371.81904  0.028531234   0.02829545            8 
 1087000   0.81552631   -6.4035085    372.65191  0.028568837  0.028275991            5 
 1088000   0.80749469   -6.3865475     372.1886  0.028507092  0.028256598            9 
 1089000   0.82069763   -6.4049688    373.11975  0.028552169  0.028237136           14 
 1090000   0.81988563   -6.4169605    370.88322  0.028354986  0.028217596            6 
 1091000   0.81620366   -6.4535458    371.04126  0.028341068  0.028197866            7 
 1092000   0.81676423   -6.4013691    373.33072  0.028489829  0.028178228           14 
 1093000   0.82202463   -6.4137612    372.74531   0.02841913  0.028158598           14 
 1094000   0.82446039   -6.4070619    371.52337  0.028300074  0.028138776           13 
 1095000   0.81812558   -6.3734428    373.30627  0.028409914  0.028119087           10 
 1096000   0.80103409   -6.4203194     372.6827   0.02833658  0.028099627            4 
 1097000   0.82087749   -6.3975167    372.76521  0.028317017  0.028079845            4 
 1098000   0.81560827   -6.4375939    373.63288  0.028357079  0.028060483            4 
 1099000   0.81613368   -6.4119749    373.40335  0.028313873   0.02804104            6 
 1100000   0.81502593    -6.411106    373.29468    0.0282799  0.028021601            7 
 1101000   0.81714484    -6.428662    373.19834  0.028246922   0.02800203           11 
 1102000   0.85491805   -6.4199211     373.0785  0.028212227  0.027982405           16 
 1103000   0.82548861   -6.4306025    373.55534  0.028222676  0.027963128            5 
 1104000   0.81680045    -6.397791    373.35583  0.028182052  0.027943626           10 
 1105000    0.7993418   -6.4099206    374.12441  0.028214511  0.027924139           11 
 1106000   0.81787676   -6.4011381     374.3179  0.028203579  0.027904658            7 
 1107000   0.81413425   -6.4350766    373.87646  0.028144871   0.02788523            3 
 1108000   0.81895851   -6.4049593    374.68514   0.02818029  0.027865774            4 
 1109000     0.797661   -6.4485146    374.20357  0.028118693   0.02784636           14 
 1110000   0.81453677   -6.4259671    374.67365  0.028128652  0.027826922            7 
 1111000   0.81098433   -6.4525912    374.35857    0.0280797  0.027807345            7 
 1112000   0.80304692   -6.4283283    374.75047  0.028083818  0.027787849            9 
 1113000   0.81513412   -6.4497082    374.44855   0.02803598  0.027768234            6 
 1114000   0.79594751    -6.453237    373.94451  0.027973108  0.027748491            8 
 1115000   0.80241047   -6.4358998    375.02179  0.028028535  0.027728909           13 
 1116000   0.81311193   -6.4193385    373.68817  0.027903836  0.027709471            6 
 1117000   0.80114683   -6.4605672    374.42627  0.027933921  0.027689871            8 
 1118000   0.80749435   -6.4300432    374.25741  0.027896348  0.027670174            9 
 1119000    0.8161538   -6.4363241    374.26698  0.027872132  0.027650463            7 
 1120000   0.79332095   -6.4726618    373.57349  0.027795646  0.027630695            6 
 1121000   0.82658266   -6.4675167    373.47438  0.027763483  0.027610876            7 
 1122000   0.81088315    -6.448365    375.52536   0.02789107  0.027591174           12 
 1123000   0.81793077    -6.489545    374.16925  0.027765602  0.027571531           20 
 1124000   0.79590098   -6.4487744    374.84224  0.027790794  0.027551947            9 
 1125000   0.81592531   -6.4606511    374.36689  0.027730881  0.027532292            6 
 1126000   0.81007939    -6.416909    375.54009   0.02779308  0.027512951            5 
 1127000   0.80798478    -6.469317     374.0918  0.027661328  0.027493486            9 
 1128000   0.78887559   -6.4533156    375.99408   0.02777734  0.027473913           11 
 1129000   0.82045619   -6.4096272    376.96981  0.027824757  0.027454652            4 
 1130000   0.81415289   -6.4649121    375.95828  0.027725537   0.02743527           10 
 1131000    0.8112973   -6.4666375    375.98249  0.027702806   0.02741589            8 
 1132000   0.78483739   -6.4271583    377.02886  0.027755364  0.027396496           12 
 1133000   0.80619721   -6.4715069     374.9661  0.027579148  0.027377001            8 
 1134000   0.80424343   -6.4563543    376.04891    0.0276344  0.027357461            5 
 1135000   0.78805412   -6.4615073    376.57404  0.027648608  0.027337864           14 
 1136000   0.80578416   -6.4584542    375.77196  0.027565432  0.027318497            7 
 1137000   0.80162721   -6.4926713    376.25685  0.027576726  0.027299028           13 
 1138000   0.78854258   -6.4745518    377.33516  0.027631455  0.027279576            7 
 1139000   0.80544739   -6.5018426    377.27383   0.02760271  0.027260221           10 
 1140000   0.79606325   -6.5005521    376.30851  0.027507932  0.027240842            9 
 1141000   0.80087885   -6.4944195    377.18811  0.027548065  0.027221329            5 
 1142000   0.80454092   -6.4751914    376.82914  0.027497748  0.027201971           11 
 1143000   0.78452386   -6.4524323      377.327  0.027509988  0.027182657            7 
 1144000   0.80365531    -6.477547    377.14176  0.027472448  0.027163347            5 
 1145000   0.78005954   -6.4629143    377.15366   0.02744932  0.027143852            4 
 1146000   0.78414145   -6.4957618    377.08571  0.027420427   0.02712452            8 
 1147000    0.8032305   -6.4862515    377.25928  0.027409131  0.027105163            5 
 1148000   0.79618158   -6.4721889    377.16095  0.027378118   0.02708587           20 
 1149000   0.78483365   -6.4782305    378.06981  0.027420207  0.027066695            8 
 1150000   0.78902209   -6.4889172    377.82734  0.027378793  0.027047351            7 
 1151000   0.80331975   -6.4915725    377.70091  0.027345852    0.0270281            7 
 1152000   0.79308785   -6.4937072    377.15413  0.027282562  0.027008759            3 
 1153000   0.79154872   -6.4894575    376.49078  0.027210956  0.026989558            5 
 1154000   0.79909761   -6.4683838    378.12515  0.027305398  0.026970332            9 
 1155000   0.79912253   -6.4665275    378.03817  0.027275481  0.026951225           10 
 1156000   0.79407728   -6.4583304    378.96733  0.027318867  0.026932232           19 
 1157000   0.78184491   -6.4757153    378.37956  0.027252922  0.026913246           12 
 1158000   0.78982089   -6.5140944    378.36917  0.027228639  0.026894151           15 
 1159000   0.78210447   -6.4671465    380.02383  0.027324118  0.026875117            7 
 1160000   0.79804073   -6.4890236     378.7366  0.027208089  0.026855967            8 
 1161000   0.79653095   -6.5086545     377.9188  0.027125955  0.026836708            9 
 1162000   0.78136627   -6.5194271    377.79822  0.027093963  0.026817365           13 
 1163000   0.78661342   -6.5179135    377.80894  0.027071435  0.026798047            8 
 1164000   0.77951576   -6.5054257    377.61363  0.027034194  0.026778666            5 
 1165000   0.78084163   -6.4989296    378.17837  0.027051386  0.026759433            9 
 1166000   0.78808855   -6.5394019    377.75981  0.026998271  0.026740153            7 
 1167000   0.77390275   -6.5039507    378.85314  0.027053209  0.026720751           11 
 1168000   0.77227821   -6.4805378    378.52176  0.027006404  0.026701387            5 
 1169000   0.79336904   -6.4868507     378.6246  0.026990633  0.026682026            6 
 1170000   0.77542918    -6.495125    378.99744   0.02699412  0.026662732            7 
 1171000   0.78894468   -6.4946579    379.56362  0.027011359  0.026643495            8 
 1172000   0.79101243   -6.5137003    379.06834  0.026953096  0.026624276            6 
 1173000   0.80939006   -6.5110612    378.39478  0.026882267  0.026605014            6 
 1174000   0.77758477   -6.5122873    378.65476  0.026877822  0.026585768           11 
 1175000   0.80307525   -6.5070325      378.691  0.026857518  0.026566538           18 
 1176000   0.79275207   -6.4877902    379.78677  0.026912328  0.026547349           18 
 1177000   0.76964836   -6.4931972    379.94558  0.026900706  0.026528266           14 
 1178000   0.78959383   -6.5405916    378.68557  0.026788736  0.026509076           10 
 1179000   0.79514488   -6.5105371    380.05434  0.026862761  0.026489913            8 
 1180000   0.77639904   -6.5263978    379.75637  0.026818953   0.02647083            9 
 1181000     0.792149   -6.5040067    379.87207  0.026804408  0.026451585           11 
 1182000   0.78030507     -6.54699    378.71138    0.0266999  0.026432374            9 
 1183000   0.77956887    -6.525481    378.72849  0.026678536  0.026413151            8 
 1184000   0.78612441   -6.5183219    379.95821  0.026742554  0.026394089           31 
 1185000   0.78001939   -6.5171645    379.71546  0.026702915  0.026374835            7 
 1186000   0.78458336   -6.5084433    379.69723   0.02667912  0.026355634            7 
 1187000   0.78499885   -6.5192206    380.57301  0.026718128  0.026336518            8 
 1188000    0.7724901    -6.487549    379.45447  0.026617177  0.026317506           10 
 1189000   0.78453795   -6.5182375    380.09421  0.026639628  0.026298456            8 
 1190000   0.76088483   -6.5188996    379.49741  0.026575449  0.026279368           10 
 1191000   0.79154016     -6.52088     380.0097   0.02658898  0.026260268            8 
 1192000   0.77736883    -6.479065    381.75832   0.02668892  0.026241346           13 
 1193000   0.76342421   -6.5132421    379.95014  0.026540245  0.026222471            7 
 1194000   0.76620913   -6.5411151    379.74662  0.026503812  0.026203342            6 
 1195000   0.78664946   -6.5041775    381.11614  0.026577137  0.026184329           13 
 1196000   0.78262087   -6.5110173    381.43061  0.026576826  0.026165438            6 
 1197000   0.77671135   -6.5293887    380.53941  0.026492579   0.02614665           17 
 1198000   0.77533501   -6.5316048    380.43921  0.026463495  0.026127747            7 
 1199000   0.76662958   -6.4933256    381.28332  0.026500092  0.026108767           13 
 1200000   0.77229409   -6.5397067    381.02805  0.026460282  0.026089829           31 
 1201000   0.78923476   -6.5222719    381.86754  0.026496499  0.026070837           18 
 1202000    0.7869711   -6.5076832    381.81282  0.026470661  0.026051914            8 
 1203000   0.76635471   -6.4898007    381.40338  0.026420295  0.026033046            8 
 1204000   0.76709897   -6.5309505    380.52291  0.026337411  0.026014113            7 
 1205000   0.76574536   -6.5539756    380.40646  0.026307501  0.025995093            8 
 1206000   0.75532536   -6.5096038    380.97892  0.026325243  0.025975998            6 
 1207000   0.77439275   -6.5370037    380.25363  0.026253357  0.025956737            8 
 1208000   0.77466548   -6.5535174    380.05346  0.026217816  0.025937727           12 
 1209000   0.77541082   -6.5389733    381.87432  0.026321638  0.025918545           16 
 1210000   0.77490529   -6.5490015    379.55792  0.026140353  0.025899308            9 
 1211000    0.7425227   -6.5920583    380.29947  0.026169796  0.025880038            8 
 1212000   0.77458485   -6.5354508    380.59268  0.026168364  0.025860747            4 
 1213000   0.77181822   -6.5589215    380.83403  0.026163371  0.025841656           10 
 1214000    0.7580458   -6.5506038    380.39803  0.026111891  0.025822373            6 
 1215000   0.76055282   -6.5675297    380.28159  0.026082414  0.025803034           15 
 1216000   0.76189528    -6.550515    380.74665  0.026092835  0.025783746           13 
 1217000   0.73191662   -6.5194646    382.01579  0.026158299  0.025764617           12 
 1218000   0.77388783   -6.5876714    380.92846  0.026062429  0.025745333           12 
 1219000   0.77732468   -6.5460082    381.38614  0.026072337  0.025726052           13 
 1220000   0.77019742   -6.5794063    381.30407   0.02604536  0.025706854            9 
 1221000   0.75175933   -6.5942304     380.6499  0.025979381  0.025687629           12 
 1222000   0.78151858   -6.5484087    381.12185  0.025990306  0.025668432           16 
 1223000   0.75328251   -6.5503136    381.67108  0.026006479  0.025649343           13 
 1224000   0.75452018   -6.5620711    381.37193  0.025964864  0.025630263           10 
 1225000   0.77320532   -6.5659998    382.43726   0.02601614  0.025611123           10 
 1226000    0.7695379   -6.5593585    382.14486  0.025975045  0.025592042           11 
 1227000   0.77878174   -6.5776232    381.91984  0.025938593  0.025573132           10 
 1228000   0.77073028    -6.533769    382.77783  0.025975694  0.025554278            7 
 1229000   0.76175103   -6.5635454    381.80904  0.025888869  0.025535374           18 
 1230000   0.76418053   -6.5735722    382.18603  0.025893363  0.025516546            4 
 1231000   0.76912336   -6.5560039    381.59132  0.025832069  0.025497672            9 
 1232000   0.77396261   -6.5662271     382.0647  0.025843121  0.025478754            6 
 1233000   0.76760965    -6.579735    381.36901  0.025775143  0.025459755            6 
 1234000   0.74927262   -6.5685061    382.51855  0.025831884  0.025440704           12 
 1235000   0.76171242   -6.5810069    382.28828   0.02579543  0.025421702           16 
 1236000    0.7539187    -6.568349    382.27695  0.025773797  0.025402721            8 
 1237000   0.76580767   -6.5991999     382.0821  0.025739834  0.025383771           10 
 1238000   0.75488871   -6.6034927    382.60732  0.025754397  0.025364801           11 
 1239000   0.76707269   -6.5751266    382.41201  0.025720474  0.025345981           15 
 1240000   0.75702269   -6.5761298    382.11828  0.025679992  0.025327072           10 
 1241000   0.73938984   -6.5630231    383.63639   0.02576124  0.025308184           12 
 1242000   0.73936331   -6.6035274    382.87853  0.025689649  0.025289337            9 
 1243000   0.77062435   -6.5677887    382.87733  0.025668901  0.025270539           15 
 1244000   0.75223569   -6.5987477    382.29451  0.025609225  0.025251714           11 
 1245000   0.76733612   -6.5691216    383.98774  0.025701991  0.025233033            8 
 1246000   0.77373628   -6.5815427    383.47693  0.025647199  0.025214397           18 
 1247000   0.75928026   -6.5706998     383.9659  0.025659309  0.025195723            8 
 1248000   0.74370255   -6.5671527    382.90903  0.025568178  0.025177107           10 
 1249000   0.75445563   -6.5822895    384.34316  0.025643392  0.025158528            4 
 1250000   0.75031006   -6.5632954    383.80283  0.025586855  0.025139897           15 
 1251000   0.75812948   -6.5520209    382.97947  0.025511555  0.025121248           11 
 1252000   0.73368477   -6.5696197    383.15517  0.025502874  0.025102655           14 
 1253000   0.72900943   -6.5921706    383.36988    0.0254968  0.025083955           14 
 1254000   0.74994616   -6.5687839    385.30486  0.025605054  0.025065349           15 
 1255000   0.75243833   -6.5858781    383.27641  0.025449961  0.025046704            4 
 1256000   0.76049084   -6.5651323    383.63524  0.025453506  0.025028086            9 
 1257000   0.76703809   -6.5863835    384.15005  0.025467386  0.025009526            7 
 1258000   0.76095922   -6.5849523    383.25405  0.025387788  0.024990908           14 
 1259000   0.74312566   -6.5734676    384.79156  0.025469391  0.024972276           11 
 1260000   0.75107371   -6.5833929    383.06714  0.025335128  0.024953683           20 
 1261000   0.74452884    -6.597313    384.09319  0.025382844  0.024935036            9 
 1262000   0.73198365   -6.5941047    383.98204  0.025355391  0.024916503            5 
 1263000   0.75612878   -6.5767565    384.13275  0.025345259   0.02489802           15 
 1264000   0.76380828   -6.5763194    383.58156  0.025288869  0.024879498           29 
 1265000   0.74694632   -6.5964052    384.81462  0.025350107  0.024860978            8 
 1266000   0.74281205   -6.5863733    383.59834  0.025250022  0.024842453            8 
 1267000      0.76059   -6.5902785    384.43874  0.025285369  0.024823977            4 
 1268000   0.75105753   -6.5770269    384.79752  0.025289006  0.024805504           10 
 1269000    0.7346535   -6.6222912    383.87224  0.025208316  0.024786942           15 
 1270000   0.75159743   -6.6044914    384.04469  0.025199783  0.024768432            6 
 1271000   0.72814095   -6.6190258    384.21339  0.025191017  0.024749898            4 
 1272000   0.73792387   -6.6256366    384.54661  0.025193043  0.024731408           10 
 1273000    0.7415928   -6.6045656    384.58528  0.025175784  0.024712923           17 
 1274000   0.73816904   -6.5991699    385.08276  0.025188563  0.024694559            9 
 1275000   0.73708232   -6.5914903    385.12734  0.025171722  0.024676191           11 
 1276000   0.74577061    -6.622579    385.48469  0.025175332  0.024657867           16 
 1277000   0.75269353   -6.6227359     384.7736  0.025109214  0.024639508           21 
 1278000   0.73629126   -6.6305579    385.60579  0.025143831   0.02462118           16 
 1279000   0.75066185   -6.6223147    385.17968  0.025096408  0.024602819           15 
 1280000   0.74758016   -6.6174667    385.33076  0.025086638  0.024584484           16 
 1281000   0.76390856   -6.6427574    383.55107   0.02495128  0.024566012            9 
 1282000    0.7506526    -6.616723    384.52294  0.024994991  0.024547635           11 
 1283000   0.75180315    -6.622048     383.8035   0.02492878  0.024529232           17 
 1284000   0.73455235   -6.5807724    386.51607  0.025085415  0.024510961           14 
 1285000   0.73576678   -6.5851178    385.28537  0.024986081  0.024492724           12 
 1286000   0.73356091   -6.6336885    385.49726  0.024980383  0.024474332            7 
 1287000   0.73455071   -6.6121512    386.22354  0.025007999  0.024456006            8 
 1288000   0.74520157   -6.6002426    385.88676  0.024966794  0.024437874           14 
 1289000   0.73017338   -6.6145598    385.98266  0.024953624   0.02441974           13 
 1290000   0.74105786   -6.6263563    385.14139  0.024879934  0.024401643            9 
 1291000   0.74430415   -6.6377627     385.3514  0.024874219  0.024383371           10 
 1292000   0.72910064   -6.6367058    385.64729  0.024874051  0.024365081            8 
 1293000   0.73416107   -6.6137837    385.96565  0.024875332  0.024346872           22 
 1294000   0.73111822   -6.6047264    385.89039  0.024851262   0.02432867            8 
 1295000   0.73892567   -6.5947635    386.53824   0.02487376   0.02431049            5 
 1296000   0.75165153     -6.62097    386.07306  0.024824656  0.024292258           21 
 1297000   0.72705951   -6.6251523     385.0239  0.024738107  0.024273959           11 
 1298000   0.75409393   -6.6461558    385.61304  0.024756872  0.024255614           19 
 1299000   0.73847373   -6.6162207       384.77  0.024683731  0.024237272           18 
 1300000   0.72645706   -6.6236389    385.59793  0.024717816  0.024218887           10 
 1301000   0.74162011   -6.6152261    384.90485  0.024654423   0.02420059           11 
 1302000   0.74431142   -6.5927506    385.35756  0.024664462  0.024182326            6 
 1303000   0.74502969   -6.6189786    385.76497  0.024671589  0.024163969            8 
 1304000   0.73373825   -6.6110119    385.41843  0.024630523  0.024145522            8 
 1305000   0.73426258   -6.6282714    384.91946  0.024579787  0.024127187           11 
 1306000    0.7307895   -6.6584192    385.70995  0.024611406  0.024108766           21 
 1307000   0.75183856   -6.6621311    385.60204  0.024585695   0.02409034           31 
 1308000   0.73778839   -6.6546565    386.13695  0.024600978  0.024071973           10 
 1309000   0.73036855   -6.6734236    385.24781   0.02452558  0.024053572           22 
 1310000   0.72315989   -6.6708939    384.79914  0.024478317  0.024035142           12 
 1311000   0.72703774   -6.6539469    384.96694  0.024470312   0.02401672            8 
 1312000    0.7228216   -6.6262985    385.43939  0.024481669  0.023998331           20 
 1313000   0.72293194   -6.6647839    384.58098  0.024408541  0.023979964           11 
 1314000   0.73067702   -6.6373534    385.16982   0.02442731  0.023961685           20 
 1315000   0.72231942   -6.6576307    385.81974   0.02444992  0.023943448            9 
 1316000   0.72806038   -6.6413688    385.82864  0.024431905   0.02392519           28 
 1317000     0.718046   -6.6805473    385.36092  0.024383759  0.023907001           25 
 1318000   0.72261822   -6.6665545    385.65542  0.024383878  0.023888779           10 
 1319000   0.72005067   -6.6255764    386.01681  0.024388224  0.023870621           14 
 1320000   0.72566104   -6.6660214    386.06898  0.024373042  0.023852371           27 
 1321000   0.71521737   -6.6229229     386.7958  0.024400442  0.023834169           22 
 1322000   0.73406491   -6.6977426    385.14668  0.024278031  0.023815859           16 
 1323000   0.70895461   -6.6856984    385.87935  0.024305829  0.023797578           20 
 1324000   0.73530285   -6.6884527    384.45017  0.024197518  0.023779379            8 
 1325000   0.72516502   -6.6524097    384.55538  0.024185873  0.023761139            9 
 1326000   0.74101774   -6.6413297    385.90915  0.024252712   0.02374303           15 
 1327000   0.71107926   -6.6650032    386.17011  0.024250823  0.023724953           19 
 1328000   0.73564504   -6.6305348    386.70474  0.024266111  0.023706933           15 
 1329000   0.71274556   -6.6393062    387.36764  0.024289418  0.023689045            8 
 1330000   0.72084141   -6.6464507    386.84069  0.024238139  0.023671096            9 
 1331000    0.7281874   -6.6302931    387.15018  0.024239305  0.023653085           20 
 1332000   0.72480427   -6.6737899    386.29777  0.024167778   0.02363523           12 
 1333000   0.72896963   -6.7170097    385.80941  0.024119118   0.02361731           18 
 1334000   0.73738587   -6.6712581     386.7363  0.024158939   0.02359936            8 
 1335000   0.70925764   -6.6632724    387.53019  0.024190399  0.023581499            8 
 1336000   0.71560385   -6.6588279    387.56169  0.024174257  0.023563713           12 
 1337000   0.70706686   -6.6842913    386.62492  0.024097789  0.023545794           14 
 1338000   0.70919165   -6.6915171     386.9135  0.024097752  0.023527841           16 
 1339000    0.7270506   -6.6871747    386.29853  0.024041482  0.023509833            9 
 1340000    0.7245141   -6.6482174    387.23966  0.024082068  0.023491934           31 
 1341000   0.72213361   -6.6623511    386.46571  0.024016015  0.023474062           16 
 1342000    0.7106471   -6.6932731    386.67566  0.024011156  0.023456164           19 
 1343000   0.70976464   -6.6887002    386.44338  0.023978864  0.023438233           15 
 1344000   0.70502841   -6.6842866    386.59766  0.023970589  0.023420334           18 
 1345000   0.70843478   -6.7189286    386.39922  0.023940472  0.023402355           15 
 1346000    0.7162504   -6.6912897    385.41704  0.023861877  0.023384406           14 
 1347000   0.71687946   -6.6964761    386.65513  0.023920758  0.023366515           25 
 1348000    0.7225806   -6.7029284    387.47409  0.023953641  0.023348743           12 
 1349000    0.7108498   -6.6944901    387.31002  0.023925749  0.023330917           35 
 1350000   0.71037478    -6.706049     386.2736  0.023844049    0.0233131           20 
 1351000   0.72784085   -6.6872823    387.68152  0.023913244  0.023295181           18 
 1352000   0.70599362   -6.7220492    386.64493  0.023831665  0.023277352           23 
 1353000   0.72605251   -6.7072996    387.26099  0.023851995  0.023259604           18 
 1354000   0.73233267   -6.6677393    387.83669  0.023869811  0.023241844           14 
 1355000   0.71444787   -6.7089167    386.36745  0.023761836  0.023224023           24 
 1356000   0.72111401   -6.7200094    387.50272  0.023814081  0.023206241           28 
 1357000   0.70392881   -6.6841599    387.06099  0.023769405   0.02318847           21 
 1358000   0.70159404   -6.7279482    386.71923   0.02373093   0.02317058           51 
 1359000   0.70011142   -6.7365586    386.25348  0.023684908  0.023152584           15 
 1360000   0.70788845   -6.7297178     386.0152  0.023652892  0.023134617           28 
 1361000    0.7183358   -6.7143354    386.39418  0.023658718  0.023116599           21 
 1362000   0.69321739   -6.7393831    386.13836  0.023625695  0.023098646           10 
 1363000   0.68855912   -6.6930314    386.99201  0.023660553  0.023080749           19 
 1364000   0.72757889   -6.6883168    386.92429   0.02363907  0.023062868           14 
 1365000   0.71071839   -6.6635789    386.96725  0.023624374  0.023045003           29 
 1366000   0.71212159   -6.7119579    386.79654  0.023596665  0.023027198           11 
 1367000   0.73020612   -6.7199661     386.7454  0.023576286  0.023009225           22 
 1368000   0.70934175   -6.7281457    387.09028  0.023580061  0.022991313           10 
 1369000   0.70513871   -6.7414361    386.33362  0.023516777  0.022973346           17 
 1370000   0.70423972   -6.7323092    386.02475  0.023480824  0.022955369           38 
 1371000   0.70278226   -6.7202877     387.2658  0.023539132  0.022937468           29 
 1372000   0.72186068   -6.7447811    387.14118  0.023514406  0.022919595           26 
 1373000   0.72766957   -6.7168806    387.01958  0.023489899  0.022901766           34 
 1374000   0.70148544   -6.7234343     386.9405  0.023468007  0.022884016           13 
 1375000   0.69559816   -6.7210505     386.0358  0.023396109  0.022866271           19 
 1376000   0.71603783   -6.7070882     387.5444   0.02347047  0.022848533           17 
 1377000   0.70334368   -6.7263679    386.64598  0.023399055   0.02283071           17 
 1378000   0.70297503   -6.7252372    387.36314  0.023425444  0.022812845           26 
 1379000   0.71576173   -6.7217736    387.42682  0.023412305  0.022795023           14 
 1380000   0.70561378   -6.7606154    386.53005  0.023341187  0.022777249            6 
 1381000   0.70277297   -6.7634334    386.72006  0.023335751  0.022759462           11 
 1382000   0.70898113    -6.755814    386.12848  0.023283194  0.022741725           26 
 1383000    0.7093152   -6.7280178    387.78764  0.023366332  0.022723986           31 
 1384000   0.70651175   -6.7315474    386.53165  0.023273823  0.022706316           17 
 1385000   0.68898152   -6.7187273    387.33188  0.023305167   0.02268865           16 
 1386000   0.69935353     -6.72671    387.31407  0.023287282  0.022670944           32 
 1387000   0.71108596   -6.7346753    387.73344  0.023295688  0.022653402           18 
 1388000   0.69505477   -6.7361297    388.05478  0.023298198  0.022635833           18 
 1389000   0.69875481   -6.7563021    386.95456  0.023215417   0.02261824           15 
 1390000   0.68632515   -6.7522912    387.14878  0.023210358  0.022600573           32 
 1391000    0.7153122   -6.7640908    386.28584  0.023141975  0.022582907           39 
 1392000    0.6974799   -6.7790852    387.17463  0.023178558  0.022565274           14 
 1393000   0.68327938   -6.7543279    387.20872  0.023163958  0.022547607           12 
 1394000   0.69046137   -6.7344395    386.75604   0.02312028  0.022529967           29 
 1395000   0.68458904   -6.7443322     387.3734  0.023140585  0.022512349           41 
 1396000     0.700593   -6.7342297    387.32404  0.023121063  0.022494845           19 
 1397000   0.70432604   -6.7743551     386.7375  0.023069524  0.022477337           40 
 1398000   0.69763624   -6.7556257    387.12756  0.023076273  0.022459799           27 
 1399000   0.69786286    -6.768165    386.75449  0.023037556  0.022442274           57 
 1400000   0.68105868   -6.7826703    387.30264  0.023053729  0.022424788           41 
 1401000   0.68345759    -6.790368     387.1739  0.023029616  0.022407244           34 
 1402000   0.68937619   -6.7683852    387.55512  0.023035849  0.022389733           17 
 1403000   0.69613823   -6.7466139    388.04901  0.023048765  0.022372276           49 
 1404000   0.70297931   -6.7665996    387.77724  0.023016218  0.022354803           21 
 1405000   0.71226039   -6.7669572    387.81081  0.023001827  0.022337349           26 
 1406000   0.69031467   -6.7794038    387.57632   0.02297157  0.022319785           28 
 1407000   0.68505799   -6.7769709    387.06441  0.022924923   0.02230216           12 
 1408000   0.69939584   -6.7484578     388.5629  0.022997331  0.022284606           14 
 1409000   0.68716784   -6.7652771    387.88909  0.022941157  0.022267186           24 
 1410000   0.68168405   -6.7833381    386.87976  0.022865234  0.022249687           38 
 1411000   0.70118144   -6.7790683    387.27329  0.022872271  0.022232238           34 
 1412000   0.68285961   -6.8018751    386.88273  0.022833023  0.022214692           61 
 1413000   0.68719986   -6.7977236    386.95929  0.022821379  0.022197124           18 
 1414000   0.70442944   -6.7928959    387.35818  0.022828747  0.022179634           40 
 1415000   0.70581553   -6.8097111    387.13734  0.022799608  0.022162154           13 
 1416000    0.6957624   -6.7448347     387.5541  0.022808033  0.022144757           20 
 1417000   0.68302997   -6.8001743    388.20234   0.02283006  0.022127417           22 
 1418000   0.70395502   -6.7840413    387.84875   0.02279318  0.022110119           30 
 1419000   0.68870699   -6.7830001    388.43812  0.022811729  0.022092791           19 
 1420000   0.69472551   -6.7966636    387.07685  0.022715777  0.022075604           12 
 1421000   0.68220183   -6.7664987    387.61119  0.022731128  0.022058343           19 
 1422000   0.67900179   -6.7679303    387.27879  0.022695663  0.022041065           22 
 1423000   0.67566237   -6.7739203    387.87212   0.02271446  0.022023863           19 
 1424000   0.66368509   -6.7893528    387.62084  0.022683804  0.022006693           18 
 1425000   0.68215059   -6.8172158    386.51664  0.022603312  0.021989444           13 
 1426000   0.69190517   -6.7996473    388.25197  0.022688871  0.021972224           17 
 1427000   0.69355746   -6.7854325     387.5752   0.02263345  0.021955042           17 
 1428000   0.68847742   -6.7736112    387.76598  0.022628734   0.02193786           19 
 1429000   0.66286524   -6.7662792    387.72391  0.022610445  0.021920527           21 
 1430000   0.68322873   -6.7964282    387.57869  0.022586171  0.021903233           49 
 1431000   0.67524004   -6.7860817    388.66555   0.02263368  0.021886116           15 
 1432000   0.67467743   -6.7718346    387.82324  0.022568857  0.021869067           38 
 1433000   0.69570735   -6.7954286    387.93766  0.022559762  0.021851933           35 
 1434000   0.69112835   -6.7584499    388.20993  0.022559852  0.021834859           25 
 1435000   0.69452601   -6.8101388    389.21413  0.022602447  0.021817778           21 
 1436000   0.67939881   -6.7742812    388.29401  0.022533311   0.02180072           13 
 1437000   0.69066508    -6.813696     387.5038  0.022471805  0.021783587           51 
 1438000   0.67942592   -6.8189233    388.42618  0.022509631  0.021766482           23 
 1439000   0.66472516   -6.8136325    387.81767  0.022458748  0.021749385           77 
 1440000   0.67164084   -6.8228083    388.87548  0.022504368  0.021732258          108 
 1441000   0.67686939   -6.8099877     386.5788  0.022355933  0.021715113          101 
 1442000   0.67541948    -6.817176    387.92117  0.022418006   0.02169798           38 
 1443000   0.67244994   -6.8196882    388.07257  0.022411213  0.021681017           53 
 1444000   0.68650673    -6.813772    388.51354  0.022421141  0.021664002           50 
 1445000   0.67488949   -6.8068343    387.93558  0.022372294  0.021647018           98 
 1446000   0.66753559   -6.8258073    388.25434  0.022375192  0.021630061           65 
 1447000   0.66656482   -6.7884236    387.48897  0.022315652  0.021613107           45 
 1448000   0.68010014   -6.7895927    388.81536  0.022376575  0.021596211           66 
 1449000   0.67075843   -6.7947187    389.07018  0.022375787  0.021579318           32 
 1450000   0.67505728   -6.8194859    388.04182  0.022301254  0.021562398           21 
 1451000   0.67818506   -6.8233532    388.86271  0.022333029  0.021545499           51 
 1452000   0.68059147   -6.8049885    388.39135  0.022290596  0.021528695           86 
 1453000   0.68147282   -6.7875353    388.17726  0.022262977  0.021511792           44 
 1454000    0.6628245   -6.7974393    387.89834  0.022231679  0.021494928           45 
 1455000   0.66900646   -6.8115248     387.3898  0.022187274  0.021477967           36 
 1456000   0.67872018   -6.8340051    387.37377  0.022171118  0.021460951           38 
 1457000   0.68383168   -6.8215255    388.32831  0.022210496   0.02144393           52 
 1458000   0.68763942    -6.815624    387.70051   0.02215938   0.02142705           32 
 1459000   0.68179279   -6.8150941    387.32203  0.022122574  0.021410114           52 
 1460000   0.67594028   -6.8205454    387.88636  0.022139632  0.021393228           67 
 1461000   0.66122885   -6.8212752    387.83694   0.02212166  0.021376364           66 
 1462000    0.6776944    -6.817318    387.68306  0.022097758  0.021359512           44 
 1463000   0.68151659   -6.8381938    387.97423  0.022099239  0.021342654           82 
 1464000   0.66092505   -6.8360999    387.68645  0.022067762  0.021325802           52 
 1465000   0.67324339   -6.8144506    388.59387  0.022104315  0.021308981           57 
 1466000   0.66567029    -6.835065    388.77725  0.022099662  0.021292179           20 
 1467000   0.65162799   -6.8403174    388.73357  0.022082116  0.021275437           27 
 1468000   0.66773555   -6.8485949    388.08661  0.022030348  0.021258666           22 
 1469000    0.6580914   -6.8456461    388.09718  0.022015951  0.021241815           19 
 1470000   0.65427343   -6.8415092    387.20213  0.021950234  0.021224893           42 
 1471000   0.66403772   -6.8417087    387.25371  0.021938234  0.021207999           25 
 1472000   0.66926276   -6.8443507     387.5986  0.021942855  0.021191159           45 
 1473000   0.65300885   -6.8596005    387.42816  0.021918317  0.021174249           16 
 1474000   0.66234349   -6.8285535    387.85701  0.021927691  0.021157375           31 
 1475000   0.66755476    -6.881191     387.0655  0.021868107  0.021140473           59 
 1476000   0.66415149   -6.8410833    388.08351  0.021910767  0.021123689           30 
 1477000   0.67084602   -6.8413808      388.339  0.021910347  0.021106915           18 
 1478000   0.67995719   -6.8513206     388.3691   0.02189722  0.021090193           44 
 1479000   0.65493356   -6.8226923    387.90926  0.021856506  0.021073439           31 
 1480000   0.67672137   -6.8261751    387.55852  0.021821989  0.021056714           28 
 1481000   0.67787207   -6.8547088    387.72371  0.021816549  0.021040018           48 
 1482000   0.65754459   -6.8670221    387.13873  0.021768935   0.02102325           55 
 1483000   0.65135027   -6.8673751    387.70215  0.021785915  0.021006505           28 
 1484000   0.65928215   -6.8559822    387.19939  0.021743003  0.020989761           21 
 1485000    0.6765866   -6.8463321    387.83167  0.021763842  0.020972991           37 
 1486000   0.67356747   -6.8776372    387.45241  0.021727928  0.020956253           45 
 1487000   0.66157818   -6.8649934    386.81997  0.021677873  0.020939535           50 
 1488000   0.66445401   -6.8619358    387.90572  0.021724111  0.020922779           33 
 1489000   0.66928867   -6.8710831     387.9818  0.021713779  0.020906071           29 
 1490000    0.6555491   -6.8722779      387.267  0.021659228  0.020889369           89 
 1491000   0.67215318   -6.8643675    388.27291  0.021700923  0.020872661           37 
 1492000   0.65160032    -6.866188    387.86966  0.021663855  0.020855973           59 
 1493000   0.66417751   -6.8618292    387.89644  0.021650839  0.020839368           28 
 1494000   0.66299459    -6.854585    388.33657  0.021660898  0.020822775          102 
 1495000   0.66310354   -6.8638038    388.03895  0.021629819  0.020806202           87 
 1496000   0.66747814   -6.9019739    387.50271   0.02158549  0.020789561           39 
 1497000   0.64077806   -6.8635496    388.52843  0.021628169  0.020772926           45 
 1498000   0.64984777   -6.8463775    388.79036  0.021628302  0.020756359           47 
 1499000   0.66016115   -6.8735558    388.19244  0.021580634   0.02073978           55 
 1500000   0.64038768    -6.874216    387.35319  0.021519622    0.0207232           99 
 1501000   0.65865381   -6.8847277    387.76199  0.021527981  0.020706674          100 
 1502000   0.66541993   -6.8756323    387.62746  0.021506184  0.020690124           26 
 1503000   0.64663535   -6.8718281    388.23673  0.021525656  0.020673642           22 
 1504000   0.66281265    -6.888159    388.73388   0.02153889  0.020657104           48 
 1505000   0.65949322   -6.8833466    388.11073  0.021490074  0.020640591           36 
 1506000   0.64370165    -6.859409    387.27153  0.021429368  0.020624078           30 
 1507000   0.64421604   -6.8876853    387.49741  0.021427638  0.020607564           60 
 1508000   0.64466221   -6.8979105    387.68561  0.021423829  0.020591027           23 
 1509000   0.65048728   -6.8953647    387.84352  0.021418352  0.020574498          163 
 1510000   0.64671036   -6.8731908    388.86563  0.021460576  0.020558026           37 
 1511000   0.65643562   -6.8781919    387.14918  0.021351709  0.020541534           42 
 1512000   0.64817229   -6.9006544    387.56246  0.021360365  0.020524999           49 
 1513000   0.65217176   -6.8862495    387.07587  0.021319447  0.020508483           24 
 1514000   0.65200726   -6.8757597    387.26943  0.021316019  0.020491984           20 
 1515000   0.64318545   -6.8708888    388.17143  0.021351564  0.020475555           51 
 1516000   0.65079961   -6.8745876    387.65407  0.021309041  0.020459174           49 
 1517000   0.64589776   -6.9000762    388.20088  0.021325032  0.020442847           66 
 1518000   0.63855853   -6.8787124    387.90707  0.021294855   0.02042656           63 
 1519000   0.65535351   -6.8528246    388.11077  0.021292011  0.020410299           24 
 1520000   0.63811033   -6.8579571    389.06072  0.021330083  0.020393993           54 
 1521000     0.637156   -6.8722711    387.75958  0.021244772  0.020377721           53 
 1522000   0.63157145    -6.903502    387.75301  0.021230454  0.020361368           43 
 1523000   0.65436005   -6.8886835    388.52576  0.021258796  0.020345025           35 
 1524000   0.63849297   -6.8905129    387.41366  0.021184036  0.020328672           22 
 1525000   0.64170405   -6.8871529     387.6816  0.021184787  0.020312308           24 
 1526000   0.64554076   -6.9009092    386.95997  0.021131497  0.020295941           44 
 1527000   0.65268123   -6.8899289    388.14074  0.021182097  0.020279605           33 
 1528000   0.64445436   -6.8956313    386.91408  0.021101335   0.02026321           29 
 1529000   0.64477757   -6.8717126    388.07062  0.021150568  0.020246851           26 
 1530000    0.6433818   -6.8984407    387.29815  0.021094671  0.020230491           40 
 1531000   0.63787849   -6.9122283    387.27065  0.021079395   0.02021413           28 
 1532000   0.65507038   -6.8919754    387.65156  0.021086355  0.020197831           25 
 1533000   0.64814553   -6.8964696    386.95104   0.02103452  0.020181479           40 
 1534000    0.6403507   -6.9143123    387.05498  0.021026455   0.02016508           28 
 1535000   0.65272097   -6.9075326    387.71844  0.021048775  0.020148805           22 
 1536000   0.62620941     -6.91776    386.57524  0.020973049  0.020132476           34 
 1537000    0.6399546    -6.910279    387.33616  0.021000659  0.020116211           16 
 1538000   0.64220485   -6.9102301    387.56123    0.0209992  0.020099956           32 
 1539000   0.62669755    -6.922081     387.0004  0.020955188  0.020083728           27 
 1540000    0.6344335   -6.9286465    387.65505  0.020977005  0.020067496           31 
 1541000   0.63300682   -6.9081872    387.47821  0.020953829  0.020051335           23 
 1542000   0.64326727   -6.9206699    387.01957  0.020915454  0.020035202           15 
 1543000   0.63982447   -6.9164682    387.47149  0.020926306  0.020019072           22 
 1544000   0.65321539   -6.9211779    387.53872  0.020916382   0.02000289           15 
 1545000   0.63583127   -6.9258973    386.52803   0.02084833   0.01998676           30 
 1546000   0.62495686   -6.8877932    388.17254  0.020923488   0.01997064           40 
 1547000   0.63659252   -6.9223135    387.30254  0.020863098  0.019954484           33 
 1548000   0.62151111   -6.9097471    386.59322  0.020811435  0.019938322           46 
 1549000   0.63140067   -6.9280882    387.06254  0.020823248  0.019922197           33 
 1550000   0.63844155   -6.9206743    388.57435  0.020891094  0.019906169           24 
 1551000   0.63607256   -6.9334879    388.11456  0.020852921  0.019890174           38 
 1552000   0.62516367   -6.9162226    387.47105  0.020804932  0.019874137           20 
 1553000   0.64054091   -6.9317168    387.41879  0.020788731    0.0198581           37 
 1554000    0.6320586   -6.9485495     385.7014  0.020683258  0.019842014           40 
 1555000   0.63109822   -6.9141184    387.75277  0.020779891  0.019825938           49 
 1556000   0.62782755   -6.9303693    386.79451  0.020715216  0.019809925           20 
 1557000   0.62640873   -6.9390069    388.07315  0.020770346  0.019793937           28 
 1558000   0.63221108   -6.9267348    387.35768  0.020718746  0.019777977           33 
 1559000   0.63222748    -6.933187    387.61727  0.020719332  0.019762033           20 
 1560000   0.64019912   -6.9290463    388.17202  0.020735685  0.019746141           30 
 1561000   0.62403418   -6.9390546    387.61955  0.020692908  0.019730203          133 
 1562000   0.62659457   -6.9284477    386.82361  0.020637197  0.019714308           31 
 1563000   0.62695242   -6.9238979    387.89273  0.020680994  0.019698433           20 
 1564000   0.63225406   -6.9236881    387.25616  0.020633853  0.019682532           40 
 1565000   0.61446175   -6.9432856    387.68799  0.020643663  0.019666632           49 
 1566000   0.62779947   -6.9500368    386.94536  0.020590962  0.019650727           77 
 1567000   0.62249434   -6.9417043    387.56641  0.020610849  0.019634842           90 
 1568000   0.62331661   -6.9237325    387.84414  0.020612465  0.019618978           17 
 1569000   0.64104918   -6.9339233    388.21972  0.020619275  0.019603161           73 
 1570000   0.63472408   -6.9056897    387.58712  0.020572565  0.019587443           65 
 1571000   0.63552098   -6.9615822    387.36777  0.020547834  0.019571702           21 
 1572000   0.61475324   -6.9360198    387.71614  0.020553231  0.019555906           38 
 1573000   0.61868693   -6.9269507    387.60191  0.020534113  0.019540143           25 
 1574000   0.63358131   -6.9249508     387.1883  0.020499169  0.019524415           43 
 1575000   0.61352739   -6.9243839    387.86481  0.020521948  0.019508706           46 
 1576000   0.62156647   -6.9634069     387.6057  0.020495225  0.019492993           50 
 1577000   0.61898902   -6.9188279    387.75774  0.020490263   0.01947736           30 
 1578000   0.62910056   -6.9405813    387.60766  0.020469353  0.019461732           27 
 1579000   0.62800231   -6.9528675    388.58983  0.020508224  0.019446063           24 
 1580000   0.62130962   -6.9395817    387.40406  0.020432704  0.019430405           74 
 1581000   0.61664176   -6.9460376    388.07457  0.020455122  0.019414782           58 
 1582000   0.60781492   -6.9507137    387.11009  0.020391387  0.019399141           81 
 1583000   0.62631418   -6.9467553     387.4741  0.020397668  0.019383489           63 
 1584000   0.61915487   -6.9610759    387.94172  0.020409392  0.019367849           32 
 1585000   0.62100055   -6.9526891    387.43863  0.020370065  0.019352216           63 
 1586000   0.61298067   -6.9413261    387.24292  0.020346938  0.019336611           27 
 1587000   0.60707323   -6.9779306    387.87007  0.020367048  0.019320965           41 
 1588000   0.61986103   -6.9666372    388.17093  0.020370011  0.019305405           43 
 1589000   0.61286415   -6.9572104    387.22175  0.020307413  0.019289841           81 
 1590000   0.62380381   -6.9562583    387.93537  0.020332043  0.019274258           54 
 1591000   0.62048008   -6.9588495    387.38714  0.020290548  0.019258677           91 
 1592000   0.61503623   -6.9556457    386.95223  0.020255037  0.019243162           46 
 1593000   0.62005566   -6.9648289    386.89789   0.02023948  0.019227624           24 
 1594000   0.61911374   -6.9580129    387.27502  0.020246498  0.019212153           38 
 1595000   0.62353353    -6.964124    387.17148  0.020228395   0.01919661           22 
 1596000   0.61042543   -6.9543334    387.21143  0.020217806  0.019181103           25 
 1597000   0.61298277   -6.9859552    387.24714   0.02020701  0.019165582           37 
 1598000    0.6162289   -6.9653074    387.87177  0.020226939  0.019150049           47 
 1599000   0.61091259   -6.9805901    387.47002  0.020193351  0.019134493           52 
 1600000   0.60448132   -6.9738219    387.08026   0.02016043  0.019118967           16 
 1601000   0.61059474   -6.9604687    387.05829  0.020146694  0.019103459           42 
 1602000   0.61420017   -6.9743712    386.43458  0.020101674  0.019087951           39 
 1603000   0.62786967   -6.9852494    386.61495  0.020098511  0.019072462           20 
 1604000   0.61651861   -6.9979624    386.80004  0.020095597   0.01905699           25 
 1605000   0.63194331   -6.9677439    387.18783   0.02010321  0.019041523           27 
 1606000   0.61066423   -6.9747269    387.56588  0.020110309  0.019026107           59 
 1607000   0.62009666   -6.9753045    387.54156  0.020096534  0.019010688           47 
 1608000   0.60805259   -6.9932747    387.15019  0.020063754  0.018995286           61 
 1609000   0.61008234    -6.978853    387.10182  0.020048779  0.018979912           50 
 1610000   0.60860152   -6.9832323    387.03524   0.02003288  0.018964531           41 
 1611000   0.61235345   -6.9743709     387.4115  0.020039908  0.018949142           21 
 1612000   0.60787598    -6.994521    387.14035  0.020013459   0.01893372           75 
 1613000   0.60793066   -6.9824346    386.70882  0.019978757  0.018918337          105 
 1614000   0.60684861   -6.9984102     386.8683  0.019974613  0.018902935           39 
 1615000   0.61399817   -6.9799033    386.60634  0.019948727  0.018887509           65 
 1616000   0.62978259   -7.0044704    386.67189  0.019939763  0.018872121           42 
 1617000   0.60394283    -7.005042    387.55311  0.019972846  0.018856745           37 
 1618000   0.59494732   -6.9869349    387.35072  0.019950078  0.018841413          131 
 1619000   0.62274747   -7.0189302    385.74959  0.019855342  0.018826099          101 
 1620000   0.60352167   -6.9889847    386.63217  0.019888486  0.018810784          118 
 1621000   0.60364492   -6.9892121    386.78571   0.01988411   0.01879553           58 
 1622000    0.6056348   -7.0056486    385.93771  0.019828283  0.018780273          110 
 1623000   0.60383052   -6.9935598    387.38539  0.019890398   0.01876499           93 
 1624000   0.61610255   -7.0060631    387.19877  0.019868574  0.018749706           84 
 1625000   0.60541955   -7.0016937    387.90208  0.019892414  0.018734478           55 
 1626000   0.60201052   -7.0162159    386.83875  0.019825684   0.01871923           51 
 1627000   0.60555848   -7.0070014    386.47054  0.019794639  0.018704006           74 
 1628000   0.59837747   -7.0102535     386.9494  0.019806992  0.018688771          117 
 1629000   0.61152456    -7.014598    385.93804  0.019743096   0.01867349          148 
 1630000   0.60196559   -6.9998656    387.59895  0.019815897  0.018658261           43 
 1631000   0.61541786   -7.0324356    386.16741  0.019730606  0.018643049           48 
 1632000   0.60950025   -7.0333101    386.78599  0.019750102  0.018627807           52 
 1633000   0.59944235   -7.0130639    387.32668  0.019765599  0.018612592           69 
 1634000   0.60627479   -7.0121487    387.31524  0.019752919   0.01859741           75 
 1635000   0.60022327   -7.0240183    386.78198  0.019713659  0.018582226           82 
 1636000   0.59060918   -7.0173062    386.95537  0.019710441  0.018567018           56 
 1637000   0.58500765   -7.0043932    386.60635  0.019680633  0.018551883          111 
 1638000   0.60867281   -7.0351441    385.30422  0.019602372  0.018536701          106 
 1639000   0.60662189   -7.0295074    385.88118  0.019619747  0.018521506           93 
 1640000   0.60262395   -7.0476761     386.3519  0.019631702  0.018506315           79 
 1641000   0.59819136   -7.0195849     386.3129  0.019617758  0.018491153          117 
 1642000   0.58140862   -7.0254007    386.54221  0.019617449  0.018475995          180 
 1643000   0.60087167   -7.0281657    386.25508  0.019590945  0.018460849          229 
 1644000   0.59115194   -7.0304339    384.15315  0.019472483  0.018445691          252 
 1645000   0.60009351   -7.0387358    386.49559  0.019579311  0.018430591          227 
 1646000   0.60323352   -7.0612622    385.93253  0.019538909  0.018415443          180 
 1647000   0.60271838   -7.0499229    385.52718  0.019506536  0.018400357          299 
 1648000   0.59758416   -7.0307203    386.20786  0.019529119   0.01838526          264 
 1649000   0.61672178   -7.0519444    386.07236  0.019510429  0.018370202          198 
 1650000   0.59258536   -7.0335767    385.73907  0.019481771  0.018355154          198 
 1651000   0.60949428   -7.0545348     386.6775  0.019517338  0.018340102          288 
 1652000   0.58752691    -7.045601    385.45483  0.019443847  0.018325058          236 
 1653000   0.59562091   -7.0390121    385.90515  0.019454787  0.018310019          171 
 1654000   0.58344043   -7.0351393    385.16011  0.019405487  0.018295006           54 
 1655000   0.60955817   -7.0272675    386.38002  0.019455188  0.018280017          295 
 1656000    0.5926328   -7.0300325    385.64634  0.019406519  0.018265082          315 
 1657000   0.58675513   -7.0449079    385.82976  0.019404031  0.018250128          196 
 1658000   0.58672541   -7.0235624    385.79794  0.019390729   0.01823515          160 
 1659000   0.58148046   -7.0224075    386.44157  0.019411371  0.018220175          141 
 1660000   0.57997646   -7.0277397    385.56863  0.019355855  0.018205229           64 
 1661000    0.5876583   -7.0269758    386.48991  0.019390423  0.018190322           73 
 1662000    0.5728304   -7.0330543    386.12108  0.019360263  0.018175409          123 
 1663000   0.58213425   -7.0334643    385.82417  0.019333743  0.018160499          289 
 1664000   0.59385937   -7.0321651    385.40096   0.01930093  0.018145625          168 
 1665000   0.58380528   -7.0652001    385.55991  0.019297293  0.018130723          238 
 1666000   0.60961646   -7.0351196    385.99477  0.019307461  0.018115812          151 
 1667000   0.58174078   -7.0536699    385.20526  0.019256412  0.018100929          181 
 1668000    0.6020912   -7.0315716    385.74544  0.019271854  0.018086088          224 
 1669000   0.59303955   -7.0464089    385.22986  0.019234565  0.018071258          114 
 1670000   0.57645197   -7.0414576    385.82118  0.019252554  0.018056435          277 
 1671000   0.58949602   -7.0618445    385.80312  0.019240132  0.018041637          347 
 1672000   0.57579382   -7.0799055     385.4209  0.019209574   0.01802679          278 
 1673000   0.59186512   -7.0773344    385.23134   0.01918865   0.01801196          154 
 1674000   0.57947596   -7.0737019    385.96757  0.019213838  0.017997118          240 
 1675000   0.58639273   -7.0746558    384.66946  0.019137784  0.017982277          339 
 1676000   0.58559379    -7.083409    384.53598  0.019119728  0.017967426          319 
 1677000   0.57053482   -7.0931286    385.24704  0.019143661  0.017952603          265 
 1678000   0.58141934   -7.0494417    385.63689  0.019151614  0.017937786          282 
 1679000     0.585957   -7.0852222    385.01209  0.019109196  0.017922973          332 
 1680000   0.57208963   -7.0915218    385.12101  0.019103225  0.017908179          431 
 1681000   0.58958942   -7.0802212    386.28696  0.019149661  0.017893415          233 
 1682000   0.58027328    -7.054356    385.37436  0.019093062  0.017878696          272 
 1683000   0.58167374   -7.0773662        384.5  0.019038423  0.017863994          296 
 1684000   0.57392955   -7.0743297    385.21692  0.019062595  0.017849286          217 
 1685000   0.58437254   -7.0631214    385.02992  0.019042034  0.017834621          310 
 1686000   0.58259884   -7.0738272    385.77538  0.019067585  0.017819952          170 
 1687000   0.57174915   -7.0487008    386.49454  0.019091807   0.01780534          199 
 1688000   0.58262786   -7.0646639    385.36374  0.019024671  0.017790734          204 
 1689000   0.57619515    -7.076188    386.04613  0.019047076  0.017776178          140 
 1690000   0.56101219   -7.0417256    386.06652  0.019036811  0.017761578          318 
 1691000   0.57066303   -7.0850522    385.15566  0.018980665  0.017747016          162 
 1692000   0.56508739   -7.0845938    385.74121  0.018998286  0.017732464          201 
 1693000   0.58583374   -7.0851261    386.49641  0.019024237  0.017717915          211 
 1694000   0.57673351   -7.0827319    385.44859  0.018961461  0.017703372          346 
 1695000   0.57069705   -7.0868512    384.74693  0.018915778  0.017688844          159 
 1696000   0.58532847   -7.0720829    385.92187  0.018962356  0.017674312          380 
 1697000   0.57548626    -7.086375    384.43072  0.018877957  0.017659773          381 
 1698000   0.58086993   -7.0680021    384.94631  0.018892143  0.017645261          296 
 1699000   0.57876394   -7.0980257      385.313  0.018899009  0.017630741          379 
 1700000   0.57664544   -7.0657701    385.25833  0.018885212  0.017616217          483 
 1701000    0.5732962   -7.0978142    384.74652  0.018849036  0.017601728          368 
 1702000   0.58776735   -7.0864965    385.00711   0.01885072  0.017587253          435 
 1703000   0.58626196   -7.0604969       384.77  0.018828048   0.01757277          350 
 1704000   0.56023395   -7.0845926    385.02425  0.018829433  0.017558292          428 
 1705000   0.57422506   -7.0889937    385.11239  0.018822697  0.017543837          386 
 1706000   0.57224263   -7.0936552    384.06591  0.018760546  0.017529401          260 
 1707000   0.56359995   -7.1088673    385.10144   0.01880011  0.017514974          206 
 1708000   0.56731235   -7.0954223    384.58325   0.01876382  0.017500522          270 
 1709000   0.56826082   -7.0979019    384.94766   0.01877061  0.017486095          423 
 1710000   0.56529529   -7.1073231    383.83564  0.018705441  0.017471643          285 
 1711000   0.56453289   -7.1121299    384.31231  0.018717724  0.017457198          437 
 1712000   0.56547929   -7.0976809    385.24205  0.018752047  0.017442763          398 
 1713000   0.56064878   -7.0766536    384.56207   0.01870802  0.017428349          229 
 1714000   0.56806727   -7.0981985    384.63594  0.018700697  0.017413962          222 
 1715000   0.57164132   -7.1192901    384.90821  0.018703023  0.017399594          281 
 1716000   0.55941123   -7.0941534     383.7513  0.018635941  0.017385228          342 
 1717000   0.56193999   -7.0996413    385.59024  0.018714339  0.017370872          163 
 1718000   0.57104765   -7.0942169    384.80794    0.0186655  0.017356545          310 
 1719000   0.56820437   -7.1003551    384.97299  0.018662643  0.017342253          233 
 1720000   0.56520088   -7.0800738    384.47732  0.018627777   0.01732796          202 
 1721000    0.5744182   -7.0899387    384.53189  0.018619596  0.017313673          161 
 1722000   0.55531446   -7.1204899    384.41582  0.018603166   0.01729941          392 
 1723000   0.57221124   -7.0743947      384.175  0.018580721   0.01728516          244 
 1724000   0.56132705   -7.1026166    384.47394  0.018584394  0.017270916          126 
 1725000   0.56195303    -7.120427    385.13661  0.018605634  0.017256663          142 
 1726000   0.58065672   -7.1128411    384.51136  0.018564666  0.017242436          220 
 1727000   0.57558098   -7.1218413    384.47112  0.018551975  0.017228221          130 
 1728000   0.56272698   -7.0914183    384.66455  0.018550567  0.017214038          227 
 1729000   0.56393002   -7.1187634    385.01039  0.018556506  0.017199854          248 
 1730000   0.56617174   -7.1110931    384.16024  0.018504828  0.017185633          140 
 1731000   0.55261773   -7.1297289    384.16022  0.018494137  0.017171435          409 
 1732000   0.55829141   -7.1099578     383.9097  0.018471406  0.017157249          462 
 1733000   0.55636433   -7.1216029    383.68722  0.018450049  0.017143064          499 
 1734000   0.55821094    -7.104458     384.5249  0.018479667  0.017128887          357 
 1735000   0.55817583   -7.1283715    383.44098  0.018416954  0.017114685          124 
 1736000   0.55714989   -7.1317231    384.41875  0.018453281  0.017100514          244 
 1737000   0.55154731   -7.1124016    384.16004  0.018430246  0.017086368          305 
 1738000   0.55711607   -7.1078149     383.8391  0.018404253  0.017072249          207 
 1739000   0.55042344   -7.1350974     384.2157  0.018411716   0.01705812          414 
 1740000   0.56283383   -7.1185036    383.19329  0.018352169  0.017044026          143 
 1741000   0.54436635   -7.0963919    384.67584   0.01841259  0.017029947           84 
 1742000   0.55992124   -7.1206706    384.14447  0.018376601  0.017015897          246 
 1743000   0.54879863   -7.1169559    384.41145  0.018378823  0.017001863          225 
 1744000   0.53868764   -7.1268431     384.7026  0.018382196  0.016987842          238 
 1745000   0.54862861   -7.1394599    383.35719  0.018307411  0.016973824          188 
 1746000   0.56385889   -7.1141922    384.63081  0.018357713  0.016959824          115 
 1747000   0.55706427    -7.114041    383.97434  0.018315891  0.016945846          110 
 1748000   0.54403461   -7.1365565    384.05943  0.018309469   0.01693184          134 
 1749000   0.55567492   -7.1368249    384.12136  0.018301952  0.016917827          125 
 1750000   0.55672474   -7.1141223    383.73354  0.018273026  0.016903854          141 
 1751000   0.55754563   -7.1147951    383.98492  0.018274553   0.01688989          103 
 1752000   0.55825253   -7.1387426    384.10332  0.018269755  0.016875968          169 
 1753000   0.56845193   -7.1524158    383.87988  0.018248711  0.016862017          265 
 1754000   0.55818575   -7.1353029    383.77835  0.018233483  0.016848074          178 
 1755000   0.53919858   -7.1344739    383.83846  0.018225948  0.016834168          182 
 1756000   0.54425191   -7.1442044    383.38076  0.018193848  0.016820257          154 
 1757000   0.55008549   -7.1476144    383.22979  0.018176332  0.016806353          219 
 1758000   0.54966942   -7.1283698    383.43286  0.018175619   0.01679247          199 
 1759000   0.55050853   -7.1347243     383.8134  0.018183314  0.016778602          195 
 1760000   0.55422217   -7.1438099    383.85829  0.018175108  0.016764706          274 
 1761000   0.53840717   -7.1328838    384.22785  0.018182276  0.016750842          102 
 1762000   0.53677464    -7.142629    383.68718  0.018146386  0.016736976          159 
 1763000   0.56223617   -7.1271833    383.31993  0.018118734   0.01672313           99 
 1764000   0.56652555    -7.128825     383.5542   0.01811953  0.016709328          186 
 1765000   0.54439129    -7.157465    383.20305  0.018092684  0.016695513          178 
 1766000    0.5554776   -7.1324182    383.98435  0.018119307  0.016681744          159 
 1767000   0.54813256   -7.1584336     383.6151  0.018091638  0.016667955          186 
 1768000   0.54275216   -7.1339005    384.21947  0.018109892    0.0166542          127 
 1769000   0.55664872   -7.1371395    383.47572  0.018064618  0.016640428          367 
 1770000   0.54568208    -7.128924    383.56263  0.018058504  0.016626686          179 
 1771000   0.54394509   -7.1308817    383.38251  0.018039832  0.016612948          316 
 1772000   0.54617192   -7.1450067    383.93831   0.01805579  0.016599222          135 
 1773000   0.53446613    -7.138037    384.02598  0.018049726  0.016585526           80 
 1774000   0.53472721   -7.1464062    383.62965  0.018020934  0.016571867          128 
 1775000   0.54175505   -7.1433675    383.43016  0.018001416  0.016558205          101 
 1776000   0.54707615    -7.146383    383.57103   0.01799789   0.01654453          188 
 1777000   0.54021734   -7.1565824    384.08044  0.018011651  0.016530857          115 
 1778000    0.5486515   -7.1541397    383.65124  0.017981404  0.016517217           60 
 1779000   0.53944459   -7.1565131    383.60533  0.017969146  0.016503592           94 
 1780000   0.53787776   -7.1600876    383.42711  0.017950708  0.016489972           67 
 1781000   0.54639626   -7.1574552    384.11425   0.01797278   0.01647635          211 
 1782000    0.5365635   -7.1667486    383.47056  0.017932593  0.016462776          160 
 1783000   0.53741386   -7.1498079    383.00965  0.017900993  0.016449191          116 
 1784000   0.54385373   -7.1739398    383.23745    0.0179016  0.016435614          160 
 1785000   0.54575391   -7.1671659    382.53751  0.017858894   0.01642205           63 
 1786000   0.53971615   -7.1769089    383.27121  0.017883129  0.016408497          270 
 1787000   0.53087404   -7.1751223    383.16947  0.017868377  0.016394953          152 
 1788000   0.53283221   -7.1770369    382.89887  0.017845771  0.016381422           94 
 1789000   0.53483992   -7.1750937    383.58927  0.017867956  0.016367887          281 
 1790000   0.52810669   -7.1574302    383.33864  0.017846306  0.016354361           83 
 1791000   0.54505289   -7.1834458    383.20965  0.017830339  0.016340824           88 
 1792000   0.53739718   -7.1790883    383.31324  0.017825206  0.016327323          217 
 1793000   0.53158899   -7.1712122    382.21076  0.017764025  0.016313811          125 
 1794000   0.54130625   -7.1794711    383.60791  0.017819022  0.016300334          179 
 1795000   0.54476617   -7.1441658    383.34091    0.0177967  0.016286878           91 
 1796000   0.54657425   -7.1872565    382.67547  0.017755914  0.016273446          186 
 1797000   0.52315116   -7.1753921    383.12226  0.017766753  0.016260002          121 
 1798000   0.54160248   -7.1803118     382.8281  0.017743238   0.01624657          124 
 1799000   0.53194048    -7.166165    382.75978   0.01773021  0.016233152           89 
 1800000    0.5319585   -7.1923176    383.18516  0.017740054  0.016219744          156 
 1801000   0.54070712   -7.1923234    382.98097  0.017720755   0.01620634          201 
 1802000    0.5427692   -7.1635189    382.48574   0.01768802  0.016192956          122 
 1803000   0.53184988      -7.1703    383.54583  0.017727206  0.016179583          150 
 1804000   0.53530443   -7.1892045    382.20849  0.017655603  0.016166218          187 
 1805000    0.5352145   -7.1804211    383.21481  0.017692281  0.016152878          154 
 1806000   0.53606468   -7.1702782    383.06334  0.017675496  0.016139563          113 
 1807000    0.5427298   -7.1687777    383.00105  0.017662841  0.016126268          214 
 1808000   0.53684943   -7.1796266    382.06741  0.017610039  0.016112964          129 
 1809000   0.53311875   -7.1889956    383.06522   0.01764627  0.016099677          191 
 1810000   0.55078709   -7.1903173    382.79949  0.017624286  0.016086404          149 
 1811000   0.52515114   -7.2011776    382.98995  0.017623318  0.016073128          165 
 1812000   0.52562497   -7.1827299    382.26968  0.017580467  0.016059863          197 
 1813000   0.53073622   -7.2103566    382.96057  0.017602526  0.016046607          296 
 1814000   0.52585658   -7.1874529    381.93626  0.017545767  0.016033345          167 
 1815000   0.53165755   -7.2068859    382.72786  0.017572446  0.016020108          137 
 1816000   0.52745487   -7.1943859    381.88842  0.017524248  0.016006889          171 
 1817000   0.53121419   -7.1809128    382.84857  0.017558639  0.015993689          135 
 1818000    0.5258354   -7.1936594    382.34504    0.0175259   0.01598047          276 
 1819000   0.53071638   -7.1924483    382.39092  0.017518367  0.015967283          253 
 1820000   0.53275301   -7.1818924     382.3072  0.017504909  0.015954104          322 
 1821000   0.52810924   -7.1948055    383.12101  0.017532537  0.015940925          302 
 1822000      0.52754   -7.1816776    382.50502  0.017494741  0.015927773          331 
 1823000   0.52505028   -7.1964501    382.94376    0.0175052  0.015914628          230 
 1824000   0.52461372   -7.2069779    382.60537  0.017480143  0.015901498          174 
 1825000   0.52147452   -7.2066422    382.69848  0.017474816  0.015888371          333 
 1826000   0.52086211   -7.1866293    382.17785  0.017441486  0.015875246          197 
 1827000   0.53182813   -7.2085741     381.8446   0.01741674  0.015862136          163 
 1828000   0.53852593   -7.1928816    382.21575  0.017424132  0.015849049          219 
 1829000   0.51012046   -7.1927631    382.08738  0.017408756  0.015835953          240 
 1830000    0.5200001   -7.2227704    382.22941  0.017405711  0.015822884          269 
 1831000   0.52947082   -7.2069661    382.47984  0.017407602  0.015809821          188 
 1832000   0.52808195   -7.2139167    382.04553  0.017378345  0.015796769          179 
 1833000   0.53089299   -7.2167375    382.44615  0.017387077   0.01578374          249 
 1834000   0.51546441   -7.1946313    381.30496  0.017325743  0.015770717          358 
 1835000   0.51556224   -7.2003526    382.25582  0.017359483  0.015757718          195 
 1836000   0.52696908   -7.2074359    382.65975  0.017368362  0.015744713          275 
 1837000   0.51866809   -7.2073862    382.54155  0.017353545  0.015731746          292 
 1838000   0.53193761   -7.2061477    383.16601  0.017372416  0.015718771          369 
 1839000   0.51784763   -7.1984957    381.94063  0.017307442  0.015705809          349 
 1840000   0.52603795   -7.2290456     381.9057  0.017296454  0.015692836          233 
 1841000   0.52892327    -7.204426     382.0551  0.017293821  0.015679899          358 
 1842000   0.51372528   -7.2000602    381.50828  0.017259694  0.015666964          176 
 1843000    0.5160906     -7.21389     382.1733  0.017280399  0.015654034          420 
 1844000   0.52327206   -7.2337585    382.03067  0.017264582  0.015641124          389 
 1845000   0.50810323   -7.2221654    382.16897  0.017261471  0.015628225          316 
 1846000   0.50989165   -7.2140976    381.24753  0.017210524  0.015615327          421 
 1847000   0.50864111   -7.2185302    382.48037   0.01725683  0.015602438          395 
 1848000    0.5150283   -7.2053135    381.45284  0.017201156  0.015589558          419 
 1849000   0.52120385   -7.2001531    382.14568  0.017223079  0.015576715          380 
 1850000    0.5210703   -7.2218916    381.94586  0.017204768  0.015563864          458 
 1851000   0.51171659   -7.2241956     382.1242  0.017203503  0.015551043          402 
 1852000   0.51219709   -7.2135101    382.13707  0.017194792  0.015538215          424 
 1853000   0.51517594   -7.2114064     381.8689  0.017173453  0.015525424          445 
 1854000   0.52106522   -7.2250117    381.93391  0.017167112  0.015512638          344 
 1855000   0.52527489   -7.2109395    381.10607  0.017120668  0.015499856          189 
 1856000   0.51278524   -7.2144185    382.42372  0.017170605  0.015487099          325 
 1857000   0.52199612   -7.2276296    381.94326  0.017139798  0.015474352          238 
 1858000   0.52649067   -7.2244764    382.18934   0.01714161  0.015461625          156 
 1859000   0.51157914   -7.2174968    381.76553  0.017113391  0.015448894          159 
 1860000   0.50870675    -7.221222    381.53641  0.017093925  0.015436174          370 
 1861000   0.51028652   -7.2364979    381.87157  0.017099748  0.015423458          178 
 1862000   0.50264258   -7.2153032    381.64199  0.017080289  0.015410745          496 
 1863000   0.50771745   -7.2132163    382.42788  0.017106275  0.015398065          208 
 1864000    0.5091796   -7.2254377    382.04708  0.017080073  0.015385398          456 
 1865000   0.51106968   -7.2340802    381.51782  0.017047266  0.015372741          369 
 1866000   0.51273583   -7.2311135    381.33238  0.017029849  0.015360088          471 
 1867000   0.50686036   -7.2384965    381.75435  0.017039562  0.015347449          508 
 1868000   0.50980784   -7.2298862    381.10511  0.017001477  0.015334831          369 
 1869000   0.51760971   -7.2146826    382.15836  0.017039342  0.015322225          138 
 1870000   0.49602538   -7.2324105    381.37336  0.016995248  0.015309637          165 
 1871000   0.50722334   -7.2328292    381.65538  0.016998725  0.015297045          254 
 1872000   0.50621458   -7.2156115    381.44329  0.016980204  0.015284473          310 
 1873000   0.50952237    -7.237269    381.51367  0.016974269  0.015271918          577 
 1874000   0.50500393   -7.2443117    380.54663  0.016922209  0.015259361          352 
 1875000   0.49638096   -7.2344686    381.14776  0.016939901  0.015246818          569 
 1876000   0.49789292   -7.2371561    381.39809  0.016941991  0.015234272          481 
 1877000   0.51293597   -7.2078065    381.69203  0.016946014  0.015221765          559 
 1878000   0.50947796   -7.2295546    382.12593  0.016956245  0.015209269          592 
 1879000   0.50278917   -7.2361235    381.30521  0.016910822  0.015196796          539 
 1880000   0.48684217   -7.2281798    382.18923  0.016941012  0.015184315          433 
 1881000    0.5047674   -7.2357083    381.11553  0.016884438  0.015171856          467 
 1882000   0.48801429   -7.2309213    381.58452  0.016896233    0.0151594          473 
 1883000   0.50112631   -7.2506071    381.36385  0.016877494  0.015146945          524 
 1884000   0.49978012   -7.2304121    382.33278  0.016911393  0.015134516          505 
 1885000   0.49594767   -7.2375983     380.9717   0.01684225  0.015122105          574 
 1886000    0.4881665   -7.2540586     381.5951  0.016860865  0.015109696          601 
 1887000   0.50010886   -7.2505415    381.73358  0.016858045  0.015097308          516 
 1888000   0.48768905   -7.2404827    381.17618  0.016824514  0.015084918          601 
 1889000   0.50007153   -7.2561238    381.64323  0.016836211  0.015072529          592 
 1890000   0.50866674   -7.2558191    381.10544  0.016803591  0.015060161          249 
 1891000    0.4980306    -7.251064    381.62977  0.016817811  0.015047813          563 
 1892000   0.49944814   -7.2440976    380.85343  0.016774728  0.015035472          559 
 1893000   0.49000988   -7.2664068    381.30827   0.01678589  0.015023131          506 
 1894000   0.49154223   -7.2466749    380.95683  0.016761564  0.015010787          525 
 1895000   0.50462571   -7.2673708    381.18579  0.016762788  0.014998463          633 
 1896000   0.50623842   -7.2688844     381.3551  0.016761388  0.014986147          528 
 1897000   0.50680407   -7.2542581    380.83563  0.016729733  0.014973851          614 
 1898000    0.5000255   -7.2567599     381.2166  0.016737645   0.01496159          529 
 1899000   0.49798556   -7.2475423    380.93734  0.016716576  0.014949335          602 
 1900000   0.49225902   -7.2536454    381.04352  0.016712435  0.014937086          623 
 1901000   0.50046441   -7.2581268    381.22149  0.016711445  0.014924852          633 
 1902000   0.49326501   -7.2432377    381.10277  0.016697458  0.014912642          518 
 1903000   0.48535039   -7.2519297     381.4168  0.016702435  0.014900426          499 
 1904000   0.50173502   -7.2443814     380.8919  0.016670689  0.014888214          514 
 1905000   0.48528085   -7.2646137    380.95076  0.016664513  0.014876018          466 
 1906000   0.48867883   -7.2441411    380.37181  0.016630457  0.014863843          524 
 1907000   0.48598446   -7.2594387    381.28188  0.016661505  0.014851676          519 
 1908000   0.49790356   -7.2670307    380.71086  0.016627833   0.01483951          646 
 1909000   0.49142953   -7.2575431     381.5673  0.016656509  0.014827375          551 
 1910000   0.48514538   -7.2532173    381.59327  0.016648921  0.014815244          590 
 1911000   0.49153701   -7.2478303    380.87685  0.016608968  0.014803134          553 
 1912000   0.47947425   -7.2716766    381.14867  0.016612128  0.014791018          469 
 1913000   0.48208891   -7.2626504    380.86084  0.016590906  0.014778913          557 
 1914000     0.497201   -7.2739997    380.27087  0.016556551  0.014766821          582 
 1915000     0.490981   -7.2765445    380.84114  0.016572722  0.014754735          307 
 1916000   0.48650048    -7.263629    380.69502  0.016557717  0.014742681          289 
 1917000   0.48761037    -7.259803     381.4521   0.01658199  0.014730633          479 
 1918000   0.49084419   -7.2589438    380.55052  0.016534173  0.014718593          510 
 1919000   0.48890532   -7.2508129    380.84761  0.016538458   0.01470657          466 
 1920000   0.48316717   -7.2622181    380.56602  0.016517622  0.014694546          582 
 1921000   0.48798876    -7.274659    380.52015  0.016507034  0.014682527          310 
 1922000   0.47697269   -7.2633686    381.01931  0.016520088  0.014670522          456 
 1923000   0.49163688   -7.2638967    380.28962  0.016479876  0.014658521          495 
 1924000   0.47888718   -7.2623179    380.84516  0.016495372  0.014646552          383 
 1925000   0.48314094   -7.2812826    380.96973  0.016492196  0.014634574          655 
 1926000   0.48729138   -7.2731422    380.39047   0.01645857  0.014622608          351 
 1927000   0.48861648   -7.2766184    380.39109  0.016450056  0.014610662          510 
 1928000   0.47763994   -7.2813897    380.53645  0.016447806   0.01459874          454 
 1929000   0.48294742   -7.2733624    380.91606  0.016455679   0.01458682          473 
 1930000   0.48619239   -7.2736877     380.4593  0.016427431  0.014574904          201 
 1931000   0.48239171   -7.2784438    381.02226  0.016443219  0.014563008          471 
 1932000   0.49288939   -7.2794682    380.30267  0.016403669  0.014551114          386 
 1933000    0.4696216   -7.2820652    380.45254  0.016401644   0.01453923          541 
 1934000   0.48861114   -7.2885801    380.82831  0.016409355  0.014527361          574 
 1935000   0.47283213   -7.2809479    381.06438  0.016411041  0.014515503          566 
 1936000   0.47795827   -7.2896228    380.57848  0.016381649  0.014503647          616 
 1937000   0.46389591   -7.2739197    380.78109  0.016381909  0.014491808          471 
 1938000   0.48045957    -7.290462    380.46815  0.016359999  0.014479969          562 
 1939000   0.47932488   -7.2832476    380.52887  0.016354172  0.014468154          568 
 1940000   0.48057088   -7.2724903    380.48314  0.016343777  0.014456356          632 
 1941000     0.473525   -7.2863843    380.69588  0.016344491  0.014444579          503 
 1942000   0.46943973    -7.276898    380.30963    0.0163195  0.014432793          560 
 1943000   0.48147885   -7.2859241    379.99781  0.016297727  0.014421033          583 
 1944000   0.47736014   -7.2931501    380.61179  0.016315663  0.014409271          590 
 1945000   0.47309058   -7.2918126    380.14851  0.016287425  0.014397531          634 
 1946000   0.47469462    -7.278973    380.26884  0.016284209  0.014385808          582 
 1947000   0.47788809    -7.296871     380.6459  0.016291983  0.014374099          415 
 1948000   0.47531956   -7.2889304    380.07234  0.016259084  0.014362407          566 
 1949000   0.47939397   -7.2729072    380.79712  0.016281731  0.014350706          557 
 1950000    0.4724825   -7.2986157    379.96853  0.016237972  0.014339026          532 
 1951000   0.48269049   -7.2935044    380.27709  0.016242828  0.014327354          589 
 1952000   0.47112876   -7.3019173    379.79405  0.016213885  0.014315681          318 
 1953000   0.46910388   -7.2911921    380.28325  0.016226457  0.014304028          516 
 1954000   0.47027936   -7.2917508    380.19045  0.016214195  0.014292391          420 
 1955000   0.47921006   -7.2928992    380.26946  0.016209269  0.014280747          654 
 1956000   0.47581195   -7.3017852    380.71179  0.016219828  0.014269128          362 
 1957000   0.47571994   -7.2989954    380.01426  0.016181837  0.014257511          550 
 1958000    0.4674752   -7.2974283    380.60195  0.016198585  0.014245908          627 
 1959000   0.46895235   -7.2925295    380.36853  0.016180387  0.014234336          695 
 1960000   0.47592486   -7.2934756    380.08641  0.016160136  0.014222754          691 
 1961000   0.47197754   -7.2967669    380.48845   0.01616898  0.014211184          708 
 1962000    0.4602977   -7.3155077    379.84208  0.016133286  0.014199642          645 
 1963000   0.46907845   -7.3002164    379.36724  0.016104909  0.014188114          244 
 1964000   0.46278818   -7.2975515     380.0146  0.016124177  0.014176595          678 
 1965000   0.46795806   -7.3057203    379.98307  0.016114634   0.01416508          575 
 1966000   0.47196865   -7.3075089    380.77241  0.016139895  0.014153577          320 
 1967000   0.47039104   -7.3071591     380.2904  0.016111269  0.014142085          616 
 1968000   0.46531933   -7.3127886    379.69302  0.016077787  0.014130604          677 
 1969000   0.46600393   -7.3121011    380.65164  0.016110193  0.014119128          675 
 1970000   0.47016987   -7.2891471    379.85685  0.016068395  0.014107671          565 
 1971000   0.46556648   -7.3077299    380.02983  0.016067556  0.014096231          701 
 1972000   0.46956416   -7.2890016    379.80798  0.016050033  0.014084778          676 
 1973000    0.4652708   -7.2910482    380.67072  0.016078338  0.014073348          773 
 1974000   0.46716632   -7.3033192    380.10075  0.016046131  0.014061921          771 
 1975000   0.47864274   -7.3120586     379.9624  0.016032169  0.014050501          746 
 1976000   0.46039192   -7.3067893    380.67781  0.016054226  0.014039103          705 
 1977000   0.45933445   -7.3118779    379.61745   0.01600141  0.014027716          747 
 1978000   0.46210496   -7.3089832    379.87363  0.016004113  0.014016352          647 
 1979000   0.45845332    -7.306717    380.50345  0.016022547  0.014004999          579 
 1980000   0.45939804   -7.2985902    379.47184  0.015971037  0.013993641          690 
 1981000   0.46002989   -7.3178033    379.95699  0.015983383  0.013982294          472 
 1982000   0.46262795   -7.3039074    379.53815  0.015957709  0.013970964          679 
 1983000   0.45906543   -7.3244824    379.87517  0.015963825  0.013959652          699 
 1984000   0.46161727   -7.3194024    379.89968  0.015956808  0.013948351          613 
 1985000   0.46127373   -7.3079917    379.77312  0.015943456  0.013937051          599 
 1986000   0.46146791   -7.3222173    379.79564  0.015936373  0.013925758          545 
 1987000   0.46259521   -7.3163716    380.17325  0.015944189   0.01391448          589 
 1988000   0.45699907   -7.3280187     379.8002  0.015920531  0.013903212          716 
 1989000   0.46254118   -7.3349929    379.57255  0.015902989  0.013891946          691 
 1990000   0.45349946   -7.3224435     379.3575  0.015885992  0.013880695          397 
 1991000   0.45878936   -7.3246363    379.90843  0.015901073  0.013869452          626 
 1992000   0.45747372   -7.3282758    379.65038  0.015882295  0.013858229          617 
 1993000   0.46231915   -7.2976012    379.84256  0.015882361  0.013847019          665 
 1994000   0.45298782   -7.3144922    379.52301  0.015861042  0.013835823          679 
 1995000    0.4578666    -7.313433    379.86338  0.015867309  0.013824641          696 
 1996000   0.46669829   -7.3314479    379.73568  0.015854028  0.013813457          678 
 1997000    0.4506612   -7.3176177    379.04511  0.015817272  0.013802285          631 
 1998000   0.46155548    -7.324885    379.91531   0.01584565  0.013791124          667 
 1999000    0.4576225   -7.3261518    379.73301  0.015830124  0.013779968          362 
 2000000   0.45564625   -7.3422923    379.79366  0.015824736  0.013768821          591 
 2001000   0.45812486     -7.34604    379.60204  0.015808847  0.013757685          630 
 2002000   0.45718132   -7.3438744    379.84136  0.015810912   0.01374655          732 
 2003000   0.45128195    -7.336078    378.90193  0.015763934  0.013735437          580 
 2004000   0.44104121   -7.3219807    379.59138  0.015784738  0.013724332          599 
 2005000    0.4487741   -7.3387721    379.04489  0.015754152  0.013713234          708 
 2006000   0.46193437   -7.3323189    379.42227  0.015761975  0.013702144          665 
 2007000    0.4612013   -7.3268079    379.20528  0.015745112  0.013691069          836 
 2008000   0.45758682   -7.3348571     378.6688  0.015715007   0.01368002          788 
 2009000   0.46094781   -7.3334244    379.64656  0.015747742  0.013668981          755 
 2010000   0.45522732   -7.3268796    379.18349  0.015720709  0.013657942          656 
 2011000   0.45951916    -7.330326    379.12018  0.015710267  0.013646918          806 
 2012000   0.44809766   -7.3178084    379.95324  0.015736963  0.013635899          738 
Loop time of 5213.63 on 48 procs for 2000000 steps with 4000 atoms

Performance: 66287.820 tau/day, 383.610 timesteps/s
99.4% CPU use with 48 MPI tasks x no OpenMP threads

MPI task timing breakdown:
Section |  min time  |  avg time  |  max time  |%varavg| %total
---------------------------------------------------------------
Pair    | 391.98     | 416.92     | 447.32     |  66.6 |  8.00
Neigh   | 36.214     | 37.395     | 39.038     |  10.7 |  0.72
Comm    | 333.2      | 367.92     | 397.03     |  74.7 |  7.06
Output  | 4.6938     | 4.6962     | 4.7522     |   0.4 |  0.09
Modify  | 4325.4     | 4337.9     | 4353.5     |   9.5 | 83.20
Other   |            | 48.76      |            |       |  0.94

Nlocal:        83.3333 ave          91 max          75 min
Histogram: 1 2 3 9 8 7 9 4 3 2
Nghost:        2406.02 ave        2420 max        2390 min
Histogram: 3 1 2 5 9 7 10 2 6 3
Neighs:        16671.7 ave       19557 max       13921 min
Histogram: 2 4 6 3 11 8 6 3 2 3
FullNghs:      33344.1 ave       36571 max       30047 min
Histogram: 2 1 5 7 10 6 8 4 3 2

Total # of neighbors = 1600517
Ave neighs/atom = 400.12925
Neighbor list builds = 107031
Dangerous builds = 3

#clear
#
#next RN
#
#jump SELF
Total wall time: 1:26:57
