
units lj                  # Use reduced LJ style units
atom_style atomic         # Uncharged point particles
atom_modify map hash      # Needed for indexing of clusters etc
                          # Used to be able to find where atoms are in relation to each other.

lattice fcc 1.0 spacing 1 1 1
Lattice spacing in x,y,z = 1.5874011 1.5874011 1.5874011
region box block 0 10 0 10 0 10 units lattice
create_box 2 box
Created orthogonal box = (0.0000000 0.0000000 0.0000000) to (15.874011 15.874011 15.874011)
  3 by 4 by 4 MPI processor grid
create_atoms 1 box
Created 4000 atoms
  using lattice units in orthogonal box = (0.0000000 0.0000000 0.0000000) to (15.874011 15.874011 15.874011)
  create_atoms CPU = 0.038 seconds
set type 1 type/fraction 2 0.58 78393
Setting atom values ...
  2338 settings made for type/fraction
mass 1 1.0
mass 2 1.0
pair_style lj/cut  3.5
pair_modify tail  yes
pair_coeff 1  1  1.0  1.0   # Intearaction between 1 and 1 set with epsilon = 1 and sigma = 1
pair_coeff 1  2  1.5  0.8
pair_coeff 2  2  0.5  0.88

write_data data.0
System init for write_data ...
Neighbor list info ...
  update every 1 steps, delay 10 steps, check yes
  max neighbors/atom: 2000, page size: 100000
  master list distance cutoff = 3.8
  ghost atom cutoff = 3.8
  binsize = 1.9, bins = 9 9 9
  1 neighbor lists, perpetual/occasional/extra = 1 0 0
  (1) pair lj/cut, perpetual
      attributes: half, newton on
      pair build: half/bin/atomonly/newton
      stencil: half/bin/3d
      bin: standard
WARNING: Not all mixed pair coeffs generated from mixing. Use write_data with 'pair ij' option to store all pair coeffs. (../write_data.cpp:312)


#############################
#   M E L T   S Y S T E M   #
#############################

velocity all create 2.4 8172548 mom yes dist gaussian # Assign velocities
                                                    # Temperature 2.4, random number seed, zero linear momentum
                                                                                # Gaussian distribution

timestep 0.002   # simulation timestep
thermo 1000       # output thermodynamic data every 1000 steps bf 100

# Define a fix  in this case with index 1 applied to all
# particles in the simulation. This fix is for simulations
# in the anisotropic NPT ensemble. Note that we use the MTK
# correction.
fix 1 all npt temp 2.4 2.4 0.1 iso 5.68 5.68 0.5 mtk yes tchain 5 pchain 5 # Use NPT ensemble
                                                                         # Set temperature and pressure and damping
                                                                         # Numbers of thermostats in chain and in barostat
run 10000          # run for 10000 steps
Per MPI rank memory allocation (min/avg/max) = 3.642 | 3.644 | 3.648 Mbytes
Step Temp E_pair E_mol TotEng Press Volume 
       0          2.4   -4.8268882            0   -1.2277882   -4.1002737         4000 
    1000    2.4691428   -4.5277738            0  -0.82498551    5.7737228    3637.8154 
    2000    2.4150423   -4.5753051            0  -0.95364724     5.779966     3615.292 
    3000    2.4034444   -4.5092609            0  -0.90499566    5.6160688    3648.8925 
    4000    2.3737311    -4.546293            0  -0.98658656    5.4405047    3640.8933 
    5000     2.378848   -4.5103456            0  -0.94296562    6.0679765    3612.1912 
    6000    2.5042263    -4.560363            0  -0.80496262    5.5390802    3642.8829 
    7000      2.43197   -4.5632508            0  -0.91620783    5.6091712    3625.7834 
    8000    2.3942779   -4.5618411            0  -0.97132214    5.6574361    3617.0468 
    9000    2.4291029   -4.6219007            0  -0.97915722    5.7143999    3589.8668 
   10000    2.4398117   -4.5867438            0   -0.9279412    5.6082438    3623.6892 
Loop time of 2.66396 on 48 procs for 10000 steps with 4000 atoms

Performance: 648658.714 tau/day, 3753.812 timesteps/s
99.6% CPU use with 48 MPI tasks x no OpenMP threads

MPI task timing breakdown:
Section |  min time  |  avg time  |  max time  |%varavg| %total
---------------------------------------------------------------
Pair    | 1.1941     | 1.2727     | 1.3565     |   2.8 | 47.78
Neigh   | 0.21431    | 0.2256     | 0.23679    |   0.9 |  8.47
Comm    | 0.79212    | 0.88867    | 0.95742    |   3.5 | 33.36
Output  | 0.00024426 | 0.00025308 | 0.00039359 |   0.0 |  0.01
Modify  | 0.23177    | 0.26131    | 0.28112    |   2.5 |  9.81
Other   |            | 0.0154     |            |       |  0.58

Nlocal:        83.3333 ave          91 max          73 min
Histogram: 2 1 1 4 5 7 15 8 3 2
Nghost:        1752.46 ave        1781 max        1728 min
Histogram: 4 3 8 7 6 4 5 6 2 3
Neighs:        10538.0 ave       11516 max        8965 min
Histogram: 3 0 0 4 5 7 8 14 4 3

Total # of neighbors = 505822
Ave neighs/atom = 126.45550
Neighbor list builds = 909
Dangerous builds = 231

# Equilibrate just above the melting temperature to avoid step fn in T

fix 1 all npt temp 1.25 1.25 0.1 iso 5.68 5.68 0.5 mtk yes tchain 5 pchain 5
run 2000
Per MPI rank memory allocation (min/avg/max) = 3.644 | 3.646 | 3.650 Mbytes
Step Temp E_pair E_mol TotEng Press Volume 
   10000    2.4398117   -4.5867438            0   -0.9279412    5.6082438    3623.6892 
   11000    1.2595386   -6.6320123            0   -4.7431767    5.6958176    2786.8411 
   12000    1.2210134   -6.7245379            0   -4.8934757    5.9660946    2754.0301 
Loop time of 0.662084 on 48 procs for 2000 steps with 4000 atoms

Performance: 521987.865 tau/day, 3020.763 timesteps/s
99.6% CPU use with 48 MPI tasks x no OpenMP threads

MPI task timing breakdown:
Section |  min time  |  avg time  |  max time  |%varavg| %total
---------------------------------------------------------------
Pair    | 0.29714    | 0.32513    | 0.3604     |   1.9 | 49.11
Neigh   | 0.041565   | 0.044488   | 0.049698   |   0.6 |  6.72
Comm    | 0.20277    | 0.24223    | 0.27071    |   2.4 | 36.59
Output  | 5.0573e-05 | 5.2063e-05 | 6.8151e-05 |   0.0 |  0.01
Modify  | 0.039829   | 0.045357   | 0.05073    |   1.5 |  6.85
Other   |            | 0.004822   |            |       |  0.73

Nlocal:        83.3333 ave          90 max          77 min
Histogram: 4 2 5 6 9 4 10 3 2 3
Nghost:        2118.00 ave        2140 max        2095 min
Histogram: 1 4 6 5 8 5 8 5 3 3
Neighs:        13843.7 ave       15464 max       12477 min
Histogram: 1 8 5 5 10 6 6 2 4 1

Total # of neighbors = 664499
Ave neighs/atom = 166.12475
Neighbor list builds = 145
Dangerous builds = 13

#############################
# L I N E A R  Q U E N C H  #
#############################

# Define solid atoms. This closely follows ten Wolde  Ruiz-Montero and Frenkel  Faraday Discuss  1996  104  93-110
# Compute components of the per-atom q6 vector
compute q6 all orientorder/atom degrees 1 6 components 6 nnn NULL cutoff 1.3 # compute the Q6 parameter.
                                                                             # Use all neighbours within 1.3 unit cell.

# get number of connections
compute coord_number all coord/atom orientorder q6 0.5

# An atom is solid if it has 8 or more connections (of a possible 14)
variable is_solid atom c_coord_number>=8
group solid dynamic all var is_solid    # Must be dynamic to update
dynamic group solid defined

# do clustering
compute cluster solid cluster/atom 1.3 # Create a cluster where all atoms within are solid and max 1.3 units from another member

# define chunks one chunk per cluster
compute clus_chunks solid chunk/atom c_cluster nchunk every compress yes  # Says which atoms are in which chunk

# count the size of each chunk
compute size_chunks solid property/chunk clus_chunks count


# Find the maximum entry in the vector of chunk sizes
variable max_n equal max(c_size_chunks)


# Thermo style which includes this variable
# thermo_style custom step temp pe vol v_max_n

thermo ${N}  # Print the thermo information every 100 steps
thermo 1000  

# Reset the npt fix at a lower temperature (below freezing)
fix 1  all npt temp  ${temp} ${temp}  0.1  iso  5.68  5.68  0.5  mtk yes tchain  5  pchain  5
fix 1  all npt temp  0.45 ${temp}  0.1  iso  5.68  5.68  0.5  mtk yes tchain  5  pchain  5
fix 1  all npt temp  0.45 0.45  0.1  iso  5.68  5.68  0.5  mtk yes tchain  5  pchain  5

dump dmp2 all dcd ${N} traj.dcd
dump dmp2 all dcd 1000 traj.dcd


compute msd all msd com yes
variable twopoint equal c_msd[4]/6/(step*dt+1.0e-6)
fix 9 all vector 10 c_msd[4]
variable fit equal slope(f_9)/6/(10*dt)
thermo_style custom step temp pe c_msd[4] v_twopoint v_fit v_max_n

fix 1 all npt temp 1.25 ${temp} 0.1 iso 5.68 5.68 0.5 mtk yes tchain 5 pchain 5
fix 1 all npt temp 1.25 0.45 0.1 iso 5.68 5.68 0.5 mtk yes tchain 5 pchain 5
run 2000000 # 5000000  # Run for this many steps
Neighbor list info ...
  update every 1 steps, delay 10 steps, check yes
  max neighbors/atom: 2000, page size: 100000
  master list distance cutoff = 3.8
  ghost atom cutoff = 3.8
  binsize = 1.9, bins = 8 8 8
  4 neighbor lists, perpetual/occasional/extra = 1 3 0
  (1) pair lj/cut, perpetual
      attributes: half, newton on
      pair build: half/bin/atomonly/newton
      stencil: half/bin/3d
      bin: standard
  (2) compute orientorder/atom, occasional
      attributes: full, newton on
      pair build: full/bin/atomonly
      stencil: full/bin/3d
      bin: standard
  (3) compute coord/atom, occasional
      attributes: full, newton on
      pair build: full/bin/atomonly
      stencil: full/bin/3d
      bin: standard
  (4) compute cluster/atom, occasional
      attributes: full, newton on
      pair build: full/bin/atomonly
      stencil: full/bin/3d
      bin: standard
Per MPI rank memory allocation (min/avg/max) = 9.847 | 9.851 | 9.856 Mbytes
Step Temp PotEng c_msd[4] v_twopoint v_fit v_max_n 
   12000    1.2210134   -6.7245379 2.4955615e-30 1.7330287e-32 8.3333333e+20            2 
   13000    1.2566688   -6.6932005   0.47668907 0.0030556991  0.038951187            2 
   14000     1.268937   -6.7102081   0.88103659 0.0052442652  0.035502083            1 
   15000    1.2738243   -6.8073946    1.2796401 0.0071091116  0.034460479            8 
   16000    1.2615776   -6.7423412    1.7151257 0.0089329459  0.034635587            2 
   17000    1.2416456   -6.7813596     2.085175  0.010221446  0.034161802            2 
   18000     1.247997   -6.7443907    2.5138002  0.011637964  0.034017195            2 
   19000    1.2380597   -6.8127881    2.9425942  0.012906115  0.034238026            2 
   20000    1.2472077    -6.767479    3.3318261  0.013882608  0.034337115            4 
   21000    1.2486362   -6.7804948    3.7364266  0.014827089  0.034248328            1 
   22000    1.2195508   -6.7468799    4.1230694  0.015617687  0.034155711            3 
   23000    1.2410378   -6.8388663    4.4446249  0.016103713    0.0338566            2 
   24000    1.2575794   -6.8008188    4.8848356  0.016961234  0.033616886            2 
   25000    1.2378331   -6.7818906    5.2644117  0.017548039  0.033520131            3 
   26000    1.2263102   -6.7836069    5.6500643   0.01810918  0.033389582            3 
   27000    1.2531767   -6.7512052    6.1315664  0.018924587  0.033348227            3 
   28000    1.2505737   -6.8271939    6.5236362  0.019415583  0.033463757            1 
   29000    1.2623305   -6.7930453    6.8097484  0.019568242   0.03342594            1 
   30000    1.2439372   -6.7777545    7.1722251  0.019922847  0.033268732            3 
   31000    1.2414521   -6.7462915    7.5829575  0.020384294  0.033115669            4 
   32000    1.2495785   -6.8000833    8.0393446  0.020935793  0.033048036            1 
   33000    1.2625402   -6.7392664    8.4961687  0.021454971   0.03304906            1 
   34000    1.2505094   -6.7779316    8.9504501  0.021937377  0.033135402            2 
   35000    1.2205088    -6.761305    9.4176832  0.022423055  0.033235609            3 
   36000    1.2480757   -6.7764742    9.8891597  0.022891573  0.033361256            2 
   37000    1.2287553   -6.8058614    10.462544  0.023564287  0.033560339            2 
   38000    1.2490783   -6.7866698     10.81422  0.023715395  0.033774946            3 
   39000    1.2651198   -6.8192733    11.094515  0.023706228   0.03389357            1 
   40000    1.2627032   -6.7692758    11.598847  0.024164265    0.0339621            3 
   41000    1.2523813   -6.7657851    11.973418  0.024336215  0.034024325            3 
   42000    1.2457695   -6.7908129    12.267021  0.024339327  0.034052599            1 
   43000    1.2266526   -6.7591957    12.725504  0.024661828  0.034090867            1 
   44000    1.2260283   -6.7639463    13.154669  0.024914146  0.034071783            3 
   45000      1.23155   -6.7914461     13.58895  0.025164722  0.034102549            6 
   46000    1.2033984   -6.7795389    14.121937  0.025583219  0.034159097            1 
   47000    1.2478355   -6.7785203    14.321718  0.025393117  0.034179667            2 
   48000    1.2620822   -6.8448483    14.646965  0.025428759  0.034162293            1 
   49000    1.2635215   -6.8178348    15.143292  0.025753898  0.034142011            4 
   50000    1.2209984   -6.8648508    15.425192  0.025708653   0.03411755            1 
   51000    1.2205512   -6.7917478    15.828122  0.025862945  0.034084966            1 
   52000    1.2164788   -6.8352505    16.302228  0.026125365  0.034046436            2 
   53000    1.2446121   -6.7888918    16.785119  0.026391696  0.034059934            1 
   54000    1.2286663   -6.8142459    17.265004  0.026643524  0.034080752            3 
   55000    1.2563336   -6.7991768    17.675291  0.026780743  0.034109325            3 
   56000    1.2309541   -6.8024766    17.989346  0.026769859  0.034115179            3 
   57000    1.2447709   -6.8224663    18.319897  0.026783475  0.034111126            3 
   58000     1.223176    -6.848436    18.629564  0.026766614  0.034075289            2 
   59000     1.282845   -6.7808609    19.154197  0.027053951  0.034054131            5 
   60000     1.207174   -6.8370146    19.476742  0.027051031  0.034029056            2 
   61000    1.2173081    -6.827438    19.995825    0.0273167  0.034000746            2 
   62000    1.2487134   -6.8572486    20.313898  0.027303625  0.033988373            3 
   63000    1.2257049   -6.8136421    20.858513  0.027590626  0.033986406            2 
   64000    1.2407975   -6.7871616    21.440608  0.027917458    0.0340044            4 
   65000    1.2400089   -6.8098178    21.749243  0.027883644  0.034029787            1 
   66000    1.2244117   -6.7674454    22.099091  0.027902893  0.034043305            3 
   67000    1.2117244   -6.7653893    22.323732  0.027765836  0.034036478            2 
   68000    1.2289765   -6.8430963    22.778868  0.027915279  0.034023747            4 
   69000    1.2060784   -6.8437324    23.207963  0.028028941  0.034009749            3 
   70000    1.2170467   -6.8084431    23.701101  0.028215596  0.034002488            3 
   71000    1.2173124   -6.8391617    23.998474  0.028167223  0.033999215            3 
   72000    1.2072038   -6.7818988    24.601369  0.028473807  0.034008795            2 
   73000    1.2257698   -6.8038907    24.985286  0.028522016  0.034022652            1 
   74000    1.2264527   -6.8129849    25.324251  0.028518301  0.034033813            1 
   75000    1.2438888   -6.8165104    25.810496  0.028678329  0.034039413            5 
   76000    1.2185679   -6.7942624    26.178044  0.028703996  0.034041456            2 
   77000    1.2488789   -6.8482496    26.352457  0.028519975  0.034028233            3 
   78000    1.2312083   -6.8393568    26.842158  0.028677519  0.034010223            3 
   79000    1.2141286   -6.8660859    27.255918  0.028750968   0.03399503            3 
   80000    1.2236729   -6.8324637    27.842688    0.0290028  0.033996619            2 
   81000    1.1894299   -6.8192673    28.377698  0.029195162  0.034012569            1 
   82000    1.2036292   -6.8158953    28.608296  0.029073471  0.034026353            5 
   83000    1.2546986   -6.8395265    29.074042  0.029190805  0.034027726            3 
   84000    1.2323307   -6.8170484    29.425605  0.029192068   0.03402747            4 
   85000    1.2081724   -6.8197735    29.734757  0.029151723  0.034016456            4 
   86000    1.2218558   -6.8415609    30.050656  0.029118852  0.034004845            5 
   87000     1.190877   -6.8501577    30.501844  0.029216325  0.033997525            1 
   88000    1.2036978   -6.8407387      30.9309  0.029290625  0.033993271            6 
   89000      1.19651   -6.8498015    31.195723  0.029209478  0.033980842            3 
   90000    1.2246576   -6.8422692    31.484905  0.029152689  0.033959086            3 
   91000    1.2179797   -6.8489904     31.76743  0.029091053  0.033930503            1 
   92000    1.2265825   -6.7952151    32.220353  0.029185102  0.033895203            1 
   93000    1.1970362   -6.8185632    32.776329   0.02936947  0.033871466            7 
   94000    1.2035417   -6.8814633    33.068897  0.029316398  0.033843067            3 
   95000    1.2472624   -6.9014699    33.171144  0.029097494  0.033814605            6 
   96000    1.2083367    -6.874802    33.559406  0.029131429   0.03377699            2 
   97000    1.2037454   -6.8411248    34.069348  0.029269199  0.033737264            1 
   98000    1.2204686   -6.8552035    34.300765  0.029167317  0.033695373            4 
   99000    1.2062856   -6.8329257    34.744836  0.029246495  0.033654437            2 
  100000    1.1965672   -6.8654327    35.042558  0.029202131  0.033617921            2 
  101000    1.1982581   -6.8530207    35.460848  0.029258125  0.033575293            3 
  102000    1.1864001   -6.9212415    35.630095  0.029109554  0.033531003            3 
  103000    1.1704671   -6.8821745    36.047996  0.029165045  0.033485446            2 
  104000    1.2155535   -6.8882168    36.418231  0.029181274  0.033443729            2 
  105000    1.2168665    -6.912415    36.600573  0.029048073  0.033400446            1 
  106000     1.204434   -6.8051213    37.192637  0.029239495  0.033359896            4 
  107000    1.1926738   -6.8650188    37.363011  0.029098918  0.033318046            5 
  108000    1.1984233   -6.8034194     37.85631  0.029210115  0.033273647            1 
  109000    1.1827725   -6.7954156    38.238147  0.029234058  0.033230486            2 
  110000    1.2200293   -6.8867135    38.313993  0.029025752  0.033184669            3 
  111000    1.1911258   -6.8768201    38.896803  0.029201804  0.033140954            3 
  112000    1.2199874   -6.9103264    39.031787  0.029041508  0.033099422            2 
  113000    1.2131503   -6.8274222    39.576505  0.029186213  0.033058384            1 
  114000    1.2081755   -6.8832028     39.88804  0.029157924  0.033017574            3 
  115000     1.214551   -6.7965297    40.402977   0.02927752  0.032976411            2 
  116000    1.1985393   -6.8527641    40.659381  0.029209325  0.032940133            2 
  117000    1.2004015   -6.8339286    41.394442  0.029483221  0.032908004            2 
  118000    1.1793796   -6.8488401    41.695201  0.029445763  0.032876563            4 
  119000    1.2470469   -6.8589041    41.907809  0.029347205  0.032844652            2 
  120000    1.2429565   -6.8732098    42.587996  0.029574997  0.032820134            1 
  121000    1.2112218   -6.8531179    42.890397  0.029538841  0.032798935            3 
  122000    1.1669177   -6.8673538    43.466801  0.029690438   0.03278025            4 
  123000    1.1683622   -6.8456018    44.012203  0.029818566  0.032769543            2 
  124000    1.2029414   -6.8710286    44.381666  0.029826388  0.032763987            5 
  125000    1.1994548   -6.9043069    44.628566  0.029752377  0.032755373            3 
  126000    1.2133505    -6.848949    45.046773  0.029792839  0.032740763            2 
  127000    1.1991757    -6.927855    45.223178  0.029674001  0.032723752            3 
  128000    1.1903052    -6.877385    45.716886  0.029763598   0.03270368            4 
  129000    1.1957069   -6.8654595    46.102555  0.029782012  0.032689585            3 
  130000    1.1966437   -6.8503844    46.715824  0.029946041  0.032679214            6 
  131000    1.1848105   -6.8404618    47.134576  0.029983827   0.03267444            3 
  132000     1.193796   -6.8712578    47.276125  0.029846038  0.032668271            5 
  133000    1.1799969   -6.8868391    47.764972  0.029927927  0.032660711            2 
  134000    1.2215631    -6.928215    47.960989  0.029826485  0.032653626            2 
  135000    1.2150258   -6.8972066    48.328576  0.029832454  0.032644925            2 
  136000    1.1900605   -6.9247539    48.701395  0.029841541  0.032635831            4 
  137000    1.1864926   -6.9012078    49.201241  0.029927762  0.032627963            4 
  138000    1.1980503   -6.9404349    49.335922  0.029792223  0.032618476            2 
  139000    1.2383058   -6.9300533    49.769694  0.029837946  0.032605142            1 
  140000    1.2112702   -6.8819833    50.080838  0.029810022  0.032592475            2 
  141000    1.1918582   -6.9210754    50.359892  0.029763529  0.032577093            3 
  142000    1.1880888   -6.9172042    50.775715  0.029797955  0.032562119            2 
  143000    1.2206883   -6.8975688    51.192439  0.029832424  0.032548476            4 
  144000    1.1757129   -6.9066299    51.610215  0.029867023  0.032533804            2 
  145000    1.2034192   -6.8534436    52.222924  0.030013175  0.032522208            4 
  146000    1.1996504    -6.920612     52.46145   0.02994375  0.032515432            3 
  147000    1.2004223    -6.905049    52.979771  0.030033884  0.032504559            3 
  148000    1.1950511   -6.9274427    53.457387   0.03009988  0.032493779            1 
  149000    1.1979899   -6.8628498    53.715055  0.030041977  0.032483737            2 
  150000    1.1997335   -6.9044641    53.868382  0.029926879  0.032471925            4 
  151000    1.2128287   -6.8805633     54.15468  0.029886689  0.032456862            2 
  152000    1.2104995   -6.9218582    54.373765  0.029810178   0.03244114            4 
  153000    1.1972992   -6.9257695    54.639949  0.029760321  0.032421006            1 
  154000    1.1908201   -6.8579417    55.271918  0.029909046  0.032401757            3 
  155000    1.2008106   -6.9037633    55.625876  0.029906385  0.032388441            2 
  156000    1.1892096   -6.9236561    56.073532   0.02995381  0.032376154            3 
  157000    1.1835027   -6.9035796    56.468614  0.029972725  0.032364901            2 
  158000    1.1907276    -6.935835    56.751155  0.029932044   0.03235419            3 
  159000    1.2244853   -6.9069889    57.588429  0.030182615  0.032343233            1 
  160000    1.1941616   -6.9129133     57.68765  0.030045651  0.032333493            3 
  161000    1.1888004   -6.9119083    58.175902   0.03011175  0.032322418            3 
  162000    1.2013851   -6.9147981     58.43159  0.030057402   0.03231238            3 
  163000    1.1564333   -6.9427578    58.562439  0.029939897  0.032299933            3 
  164000    1.1662099   -6.9228233    59.030875  0.029995363  0.032286589            2 
  165000    1.1808047   -6.9118744    59.579993  0.030090905  0.032274141            1 
  166000    1.1899336   -6.9285135     60.02024  0.030130642  0.032265102            4 
  167000    1.1783157   -6.9290828    60.766228  0.030322469  0.032261003            2 
  168000    1.1878506   -6.9540325    60.912857  0.030214711  0.032257382            2 
  169000    1.1966091   -6.9613117    61.050761  0.030103925  0.032252451            1 
  170000    1.2020657   -6.9048263     61.72933  0.030259475  0.032248221            2 
  171000     1.197415   -6.9145236    62.177442  0.030300898  0.032244136            1 
  172000    1.2013618   -6.9390966    62.451376  0.030257449  0.032240669            2 
  173000    1.1730018   -6.8905612    62.816267  0.030258317  0.032236161            2 
  174000    1.1831369   -6.9467901    62.685413  0.030021749   0.03222736            2 
  175000    1.1985717   -6.9451046    63.224832  0.030107063  0.032217482            3 
  176000    1.1825592   -6.9052204    63.637211  0.030131255  0.032205345            4 
  177000    1.2022447   -6.9721209    63.730924  0.030005143  0.032192531            4 
  178000     1.201162   -6.9609421    64.270658  0.030089259  0.032180957            3 
  179000    1.1939186    -6.985722    64.539286  0.030046223  0.032172089            2 
  180000    1.1815174   -6.9406491    64.878796  0.030036479  0.032161828            5 
  181000    1.1998446   -6.9498894    65.586203  0.030196226  0.032153091            2 
  182000    1.1874683   -6.9267429    65.733418  0.030097719  0.032143864            4 
  183000    1.1761497   -6.9388753    66.334725   0.03020707  0.032133627            2 
  184000    1.1796058   -6.9483781    66.381001  0.030063859  0.032125016            3 
  185000    1.1687349    -6.869757    66.965011   0.03016442  0.032114338            2 
  186000    1.1773229   -6.9742775    67.040245  0.030035952  0.032101944            3 
  187000    1.1826175   -6.9446033    67.426417  0.030047423  0.032086719            4 
  188000    1.1944316   -6.8772503    68.033335   0.03015662  0.032075054            2 
  189000     1.209581   -6.9261685    67.906653  0.029941205  0.032063031            3 
  190000    1.1699879    -6.924903    68.506534  0.030046726  0.032047584            5 
  191000    1.1806672   -6.8897823    69.168508  0.030178232  0.032032491            4 
  192000    1.1880416   -6.9412488     69.00964  0.029952101  0.032017827            3 
  193000    1.1641457   -6.9218619     69.46643  0.029994141    0.0320029            3 
  194000    1.1718357   -6.9538447    69.603501  0.029898411  0.031985989            3 
  195000    1.1844566   -6.9344218     69.77384   0.02981788  0.031967629            4 
  196000    1.1654345   -6.9380227    70.186178  0.029841062  0.031947918            3 
  197000    1.1688703   -6.9472158    70.504185  0.029824105   0.03192835            2 
  198000    1.1713442   -6.9394087    70.774965  0.029787443  0.031909366            5 
  199000    1.1526564    -6.959617    71.240646  0.029832766  0.031888017            2 
  200000    1.1791198   -6.9378564    71.399706  0.029749877  0.031867296            1 
  201000    1.1713588   -6.8591343    72.378386  0.030007622  0.031849021            6 
  202000     1.167043   -6.9084194    72.429244  0.029880051  0.031832829            1 
  203000    1.1637546   -6.9793795    72.453378  0.029742766  0.031818911            1 
  204000    1.1938402   -6.9462283    73.082441  0.029853938  0.031803054            4 
  205000    1.1676469   -7.0115195    73.263942   0.02978209  0.031787549            5 
  206000    1.1604554   -6.9729964    73.786477  0.029848899  0.031770838            2 
  207000    1.1902583   -6.9277746    74.212836  0.029876343  0.031754465            3 
  208000    1.1943355    -6.992946    74.371406  0.029796236  0.031736995            6 
  209000     1.198942   -6.9777503    74.732621  0.029797696  0.031720367            2 
  210000    1.1228061    -6.949606    75.285821  0.029875326  0.031702059            1 
  211000    1.1654175   -6.9438934    75.377333  0.029769879  0.031682278            3 
  212000    1.1655085   -6.9534749    75.504755  0.029679542  0.031660938            2 
  213000    1.1847222   -6.9792568    75.939795  0.029710405  0.031639874            1 
  214000    1.1543188   -6.9608177    76.268699  0.029699649  0.031619203            4 
  215000    1.1719017   -7.0004654    76.544433  0.029668385  0.031597964            4 
  216000    1.1792788   -6.9548937    77.237172  0.029798292  0.031579343            5 
  217000    1.1693597   -7.0347787    77.207045  0.029649403  0.031559196            2 
  218000    1.1707242   -7.0091593    77.237726  0.029525124  0.031538322            4 
  219000    1.1767037   -6.9519588    77.632456  0.029540508  0.031515973            3 
  220000    1.1718603   -6.9630643     78.23827  0.029635708  0.031495087            3 
  221000    1.1669742   -6.9536231    78.342217  0.029540806  0.031474177            2 
  222000    1.1709617    -6.989848    78.690872  0.029538615  0.031451688            1 
  223000    1.1552716   -7.0259076    78.972377  0.029511352  0.031430203            1 
  224000    1.1334904   -6.9900751    79.733914  0.029662914  0.031408873            3 
  225000    1.1670416   -7.0102113    79.934221  0.029605267  0.031389007            3 
  226000    1.1490665    -7.002633    80.520082  0.029690296   0.03137037            2 
  227000    1.1370157   -6.9932034    80.857061  0.029683209  0.031352237            4 
  228000     1.167695   -6.9295324    81.009239   0.02960864  0.031334951            2 
  229000     1.172674   -7.0071634    81.100321  0.029512489  0.031315784            2 
  230000    1.1780315   -7.0039131    81.765971  0.029625352  0.031297961            3 
  231000      1.16276    -6.958153    81.963443  0.029568342  0.031278559            2 
  232000    1.1874541   -6.9867286    82.654744  0.029689204  0.031260792            2 
  233000    1.1518264   -7.0150947    82.438192  0.029484332  0.031241505            4 
  234000    1.1840342   -6.9962238    82.830847  0.029498165  0.031221584            1 
  235000     1.158057   -7.0358324    82.580331  0.029283805  0.031199712            2 
  236000     1.125049   -7.0092629    83.343754  0.029429292   0.03117829            3 
  237000    1.1538971   -6.9852328    83.748202  0.029447328  0.031156695            1 
  238000    1.1904875   -7.0242244    84.049734  0.029429179  0.031136907            4 
  239000    1.1435475   -6.9401644    84.503313  0.029464195  0.031118598            6 
  240000    1.1274793   -6.9245779    84.803465  0.029445648  0.031100144            2 
  241000    1.1223306   -6.9884391    85.051784  0.029409331  0.031081051            3 
  242000    1.1422797   -7.0168583    85.256003  0.029358128  0.031061004            2 
  243000    1.1539467   -7.0268091    85.700872  0.029389874  0.031039518            2 
  244000     1.157507   -7.0562729    85.893355  0.029335162  0.031020941            1 
  245000    1.1402547   -7.0048964    86.296921  0.029352694  0.031000768            2 
  246000    1.1533605   -7.0247907    86.691731  0.029367118  0.030980475            2 
  247000    1.1750682   -6.9667411    86.823758  0.029292766  0.030958847            3 
  248000    1.1585488   -6.9760584    86.964371  0.029221899  0.030936881            3 
  249000    1.1429712   -6.9821334    87.222247  0.029190846  0.030914783            3 
  250000    1.1530811   -6.9958991    87.228794  0.029076265  0.030891665            4 
  251000    1.1543643   -6.9836285    87.449357  0.029033651  0.030865312            3 
  252000     1.156274   -7.0234486    87.657955  0.028987419  0.030839668            1 
  253000    1.1267318   -6.9865539    88.089125  0.029014863   0.03081384            7 
  254000     1.152132   -7.0242907    88.436681  0.029014659  0.030789212            6 
  255000    1.1634403   -7.0006649    88.684401   0.02898183   0.03076459            5 
  256000     1.148668   -6.9761102    89.517609  0.029139847  0.030740782            2 
  257000    1.1453432   -7.0223769    89.757852  0.029104362  0.030719038            2 
  258000    1.1491421   -7.0277247    89.878595  0.029030554  0.030697908            3 
  259000     1.147742   -7.0163279     90.21992  0.029028288  0.030676671            3 
  260000    1.1532045   -7.0197923    90.711389  0.029074163  0.030654153            4 
  261000    1.1750771    -7.005071    91.019285  0.029061074  0.030632414            3 
  262000    1.1294457   -7.0594776    91.315635  0.029044413  0.030609925            1 
  263000    1.1244369    -7.030401    91.886446  0.029114844  0.030587777            4 
  264000    1.1766641   -7.0347087    91.626767  0.028922591  0.030565988            4 
  265000    1.1777713   -7.0335153    92.044687   0.02894487  0.030542815            2 
  266000    1.1701402   -7.0610989    92.280354  0.028909885  0.030519689            3 
  267000    1.1517001   -7.0052112    92.751161  0.028948552  0.030497422            2 
  268000     1.134353   -7.0295639    93.037341  0.028929522  0.030474962            5 
  269000    1.1318996   -7.0688057    92.825833  0.028756454  0.030452298            2 
  270000    1.1349489   -7.0615574    93.114635  0.028739085   0.03042835            4 
  271000    1.1508395   -7.0146721    93.915501  0.028879305  0.030405678            4 
  272000    1.1451848    -6.996282    94.322221  0.028897739  0.030384022            2 
  273000    1.1301309   -7.0069907    94.655056  0.028893485   0.03036099            3 
  274000    1.1313798   -7.0546231    94.206314  0.028651555  0.030337848            3 
  275000    1.1239347   -7.0198091    94.636143  0.028677619  0.030311959            4 
  276000    1.1549534   -7.0339231    94.667499  0.028583182   0.03028668            2 
  277000    1.1566502   -7.0204156    94.864426  0.028539238  0.030260281            2 
  278000    1.1269392   -7.0282327    95.137659  0.028518483   0.03023308            2 
  279000    1.1679856   -7.0374579    95.706505  0.028586172  0.030205909            2 
  280000    1.1578052   -7.0307344    95.759296   0.02849979  0.030179075            4 
  281000    1.1562475   -7.0907432     95.88116  0.028434508  0.030152766            2 
  282000     1.136073   -7.0540864    96.121641   0.02840474  0.030124797            2 
  283000    1.1244013   -7.0658797    96.432501  0.028395907  0.030097207            4 
  284000    1.1176495   -7.0165655    97.202062  0.028521732  0.030071233            2 
  285000    1.1453014   -7.0360428    97.388533  0.028476179   0.03004515            3 
  286000    1.1308169   -7.0013807    97.619542  0.028443922  0.030019335            1 
  287000    1.1547647   -7.0062573    97.567176   0.02832961  0.029992874            2 
  288000    1.1379995   -7.0663923    97.862991  0.028316838  0.029965967            3 
  289000    1.1542112   -7.0564325    98.410766  0.028376807  0.029939269            2 
  290000    1.1344339   -7.0911337    98.030885  0.028169795  0.029912049            2 
  291000    1.1560508   -7.0017452    98.906558  0.028323756  0.029885346            2 
  292000    1.1500152   -7.0709962     98.85006  0.028210634  0.029857516            3 
  293000    1.1485099   -7.0821166    98.695104   0.02807028  0.029828335            3 
  294000    1.1240932   -7.0883403    98.905068  0.028034316  0.029798144            3 
  295000    1.1175864   -7.0398911    99.893607  0.028218533  0.029769584            2 
  296000    1.1368946    -7.082999    99.672706  0.028061009  0.029741044            4 
  297000    1.1042525   -7.0346905    100.21428  0.028118486  0.029712449            2 
  298000    1.1492296   -7.0830738    100.16887   0.02801143  0.029682595            2 
  299000     1.146152   -7.1004124    100.31144  0.027957482  0.029652688            6 
  300000     1.115567     -6.99844    101.22142   0.02811706  0.029623318            1 
  301000    1.1013584   -7.0494424     101.1347  0.027999639  0.029594969            3 
  302000    1.1135687   -7.1200741    101.31949  0.027957916  0.029566375            3 
  303000    1.1280656   -7.0844982    101.24321  0.027844668  0.029538655            1 
  304000    1.1609372   -7.0791648    101.61633  0.027855353  0.029509354            4 
  305000    1.1290541   -7.0259413    102.14655  0.027908893  0.029480004            3 
  306000    1.1013896   -7.0654989    102.44685   0.02789947  0.029452717            5 
  307000    1.1562131   -7.0740772    103.11108  0.027988893  0.029425987            3 
  308000    1.1382643   -7.1033196    103.07129  0.027887253  0.029399265            2 
  309000    1.1522853    -7.086037    103.84344  0.028005242  0.029373028            4 
  310000      1.13547   -7.0435538    104.25904  0.028026623   0.02934758            3 
  311000    1.1044384   -7.0619074    104.09228  0.027891821  0.029322737            1 
  312000    1.1336619   -7.0999626    104.62713   0.02794528  0.029298211            3 
  313000    1.1361032   -7.0773008    104.86295  0.027918782  0.029273361            4 
  314000    1.1140561   -7.0761025    105.36726  0.027963711  0.029247916            4 
  315000    1.1429831   -7.0983276    105.34983  0.027870325  0.029224171            3 
  316000     1.153878   -7.0567648    105.83328   0.02790962  0.029200019            2 
  317000    1.1265272   -7.0933978    105.64585  0.027772305  0.029175647            1 
  318000    1.1276534   -7.0823593    105.95637  0.027766343  0.029149596            3 
  319000    1.1301002   -7.1075186    105.92351  0.027670719  0.029123564            3 
  320000    1.1161374   -7.1121788    106.34523   0.02769407  0.029098478            2 
  321000    1.1107082   -7.1140776    106.94317  0.027763024  0.029073021            2 
  322000    1.1516699   -7.0817124    106.99307  0.027689719  0.029047533            5 
  323000    1.1338561   -7.1184585     106.8375  0.027563855  0.029021391            4 
  324000    1.1360609   -7.0936913    107.60605  0.027676453  0.028994909           11 
  325000    1.1252139   -7.0913236    107.52354  0.027570138  0.028968906            5 
  326000    1.1180321   -7.0670042    108.32359  0.027690078  0.028943493            2 
  327000    1.1428716   -7.0640244    108.48765   0.02764721  0.028917553            3 
  328000    1.1116806   -7.0652365    109.02918  0.027700502  0.028893632            4 
  329000    1.1326835   -7.1124921     108.8587  0.027573125  0.028870283            2 
  330000    1.1398297   -7.1120994     109.6009  0.027676995   0.02884602            3 
  331000     1.116236   -7.1199381    109.73603    0.0276274  0.028823385            2 
  332000     1.122692   -7.0829054    110.32654  0.027692405  0.028800782            3 
  333000    1.1046088   -7.0856636    110.37181  0.027620573  0.028777961            2 
  334000     1.116445   -7.1259808    110.54921  0.027582138  0.028755438            2 
  335000    1.0921986   -7.1073299    111.36242  0.027702094  0.028733386            4 
  336000    1.1326904   -7.1464159    111.28216  0.027599741  0.028710886            2 
  337000    1.0849059   -7.0943071    112.00085  0.027695562  0.028688879            4 
  338000    1.1023331   -7.1158498    112.04834  0.027625329  0.028667361            4 
  339000     1.100355   -7.0985475    112.76545   0.02772012  0.028646749            3 
  340000    1.1535251    -7.074569    112.91599  0.027675487  0.028627529            4 
  341000    1.1002412   -7.1116251    112.90456  0.027591534  0.028607538            4 
  342000    1.0934371   -7.0843706    112.94606  0.027520969  0.028587211            2 
  343000    1.1397653   -7.1095186    113.80752   0.02765003  0.028566609            3 
  344000    1.0951867   -7.0739709    113.97669  0.027610632  0.028546129            4 
  345000    1.1175971   -7.1242471    113.90746  0.027513878  0.028526031            4 
  346000    1.1120482   -7.0675733    114.38919  0.027550384  0.028505473            4 
  347000    1.1213414     -7.11333     114.4379  0.027482685  0.028484935            6 
  348000    1.1053008   -7.1434902    114.75268  0.027479091  0.028463439            3 
  349000      1.08195   -7.1360368    115.12199  0.027488537  0.028442358            1 
  350000    1.1076255   -7.0821261    115.44722  0.027487434  0.028421777            4 
  351000    1.1059575   -7.0865925    115.26048  0.027364786  0.028401426            3 
  352000    1.1317086   -7.1597063    115.59088  0.027365264  0.028381087            1 
  353000    1.1264798   -7.0949343    115.90923  0.027362897  0.028360516            3 
  354000    1.0983143   -7.0794011    116.58259  0.027444112  0.028340306            2 
  355000    1.0969814   -7.1179557    116.54406  0.027357761  0.028319865            5 
  356000    1.1183444   -7.1437744     116.6492  0.027305525  0.028299247            3 
  357000    1.1364943   -7.1289363    117.23072   0.02736478  0.028279154            1 
  358000    1.1231106   -7.1178573    117.46239  0.027342269  0.028258863            3 
  359000     1.130503   -7.0634556    118.13428  0.027422071  0.028239744            5 
  360000    1.1081977   -7.0624321    118.54034  0.027439894  0.028221221            3 
  361000    1.1014801   -7.1018121    118.40998  0.027333791  0.028202724            4 
  362000    1.1161247   -7.1130177    118.81609   0.02735177  0.028183569            2 
  363000    1.1202332   -7.0839555    119.36233   0.02740182  0.028164721            2 
  364000    1.1155033   -7.1141967    119.00497  0.027244728  0.028145379            3 
  365000    1.1049911   -7.1379323    119.72717  0.027334971  0.028126159            2 
  366000    1.0990436   -7.1266621    120.24484   0.02737815  0.028107682            1 
  367000    1.1285845   -7.1543074    119.97595  0.027242495  0.028089066            4 
  368000    1.1371194   -7.1289796    120.32669  0.027247891  0.028069673            2 
  369000     1.129069   -7.1428761    120.57713  0.027230608  0.028050678            6 
  370000    1.0737353   -7.1196837    120.97634  0.027246923  0.028031751            3 
  371000    1.0997137   -7.1165282    121.30525   0.02724736  0.028012142            2 
  372000    1.1357253   -7.1370063    121.30651  0.027174396  0.027992659            5 
  373000    1.1140817   -7.1306737    121.70495   0.02719056  0.027973408            4 
  374000    1.0996561   -7.1391214    121.87931  0.027156708  0.027954207            3 
  375000    1.1121318   -7.1569808    122.38292  0.027196205   0.02793496            3 
  376000    1.1089292   -7.1611573    122.14504  0.027071152   0.02791681            8 
  377000    1.0823667   -7.1338615    122.41255  0.027058476  0.027898212            2 
  378000    1.1094116    -7.097253    123.19091   0.02715849  0.027880318            2 
  379000    1.0948755   -7.1696491    123.43301  0.027140063  0.027861909            3 
  380000     1.097139   -7.1852226    123.44179  0.027070569   0.02784269            3 
  381000    1.1122945   -7.1608062    123.91601   0.02710324  0.027824034            5 
  382000    1.0914624   -7.1455321    124.12702   0.02707832    0.0278059            2 
  383000    1.0936025   -7.1103557    124.74616  0.027142332  0.027788239            7 
  384000    1.0886218   -7.1892653    124.23494  0.026960708  0.027768605            2 
  385000    1.0992445    -7.109889    124.59488   0.02696859  0.027749458            3 
  386000    1.0706469   -7.1607004    124.59665  0.026899105  0.027730094            5 
  387000    1.0997633    -7.161485    124.65167  0.026841444  0.027710737            6 
  388000    1.0715588   -7.1667194    125.05734  0.026859395  0.027691477            8 
  389000     1.111818   -7.1818123    125.27993  0.026838031  0.027672062            2 
  390000    1.0925227   -7.1844415    125.07063  0.026724494  0.027651692            2 
  391000    1.1128099   -7.1923303    125.26036  0.026696582  0.027630315            2 
  392000    1.0670467    -7.158818    125.77422  0.026737717  0.027608901            5 
  393000    1.0961757   -7.1889943    126.26601  0.026773964   0.02758775            6 
  394000     1.119241   -7.1443539    126.10458  0.026671866  0.027566501            2 
  395000    1.1151686   -7.1711801    126.44167  0.026675458  0.027544516            2 
  396000      1.10759   -7.1543233    126.58538  0.026638338  0.027522768            3 
  397000    1.1018047   -7.1323401    127.35244  0.026732249  0.027501356            5 
  398000    1.1184631    -7.153875    126.89592  0.026569497  0.027480334            4 
  399000    1.1066559   -7.1494458    127.15581  0.026557186  0.027459151            4 
  400000     1.111862    -7.175192    127.54667  0.026572222  0.027437991            4 
  401000    1.0739873   -7.1687482    127.94388  0.026588503  0.027417037            4 
  402000    1.0963307   -7.1467014    128.38566  0.026613943   0.02739658            4 
  403000    1.0996907   -7.1716432     128.2898   0.02652808  0.027375682            1 
  404000    1.0735097   -7.2073744    128.33336  0.026471403   0.02735426            2 
  405000    1.0973895   -7.1413048    129.20992  0.026586403   0.02733332            5 
  406000    1.1044369   -7.1840248     128.8216  0.026441214  0.027312867            6 
  407000    1.0742413   -7.2007521    129.24704  0.026463359  0.027292076            3 
  408000    1.0982684   -7.1518473    129.69003  0.026488976  0.027270586            4 
  409000    1.0983422    -7.174155    129.57971  0.026401734  0.027249324            3 
  410000    1.0916863    -7.139717    129.99085  0.026420905  0.027229165            4 
  411000    1.1066568   -7.1767914    130.14794  0.026388472  0.027208824            2 
  412000    1.1076301   -7.1922897    130.15798  0.026326452  0.027188445            2 
  413000    1.1020724   -7.2081608    130.60031   0.02635196  0.027167694            2 
  414000    1.0679695   -7.2083671    130.96148  0.026361007  0.027147611            4 
  415000    1.1094779    -7.194779    131.58055  0.026421797  0.027127463            2 
  416000    1.0803083   -7.1405724    131.89823   0.02642192  0.027107867            4 
  417000    1.0904062   -7.1713168    132.27697  0.026434247  0.027088838            9 
  418000    1.1098912   -7.1582405    132.49422  0.026414318  0.027070339            2 
  419000    1.0991161   -7.1638537    132.78996  0.026410094  0.027052067            4 
  420000    1.0587539    -7.247038    132.77843  0.026344926  0.027032846           10 
  421000    1.0694015   -7.2105475    133.07483  0.026341019  0.027014042            4 
  422000    1.0776899   -7.1717575    133.56484  0.026375363  0.026995428            3 
  423000    1.0898259   -7.1556397    134.16034  0.026430328  0.026976263            6 
  424000    1.0736653   -7.1847401    133.67128  0.026271871  0.026957002            2 
  425000    1.0781136    -7.205994    134.31631  0.026336532  0.026937381            5 
  426000    1.1069792   -7.2019294    134.31192  0.026273849  0.026918069            3 
  427000    1.0716939   -7.2277675    134.46288  0.026241781  0.026898499            2 
  428000     1.084832   -7.1803889    134.87535  0.026260777  0.026879576            3 
  429000    1.1010423   -7.2372726    134.64247  0.026154325  0.026860715            4 
  430000    1.0857798   -7.2291104    134.71466  0.026107492  0.026842417            2 
  431000    1.0907309   -7.1937578    135.25586  0.026151559  0.026824318            4 
  432000    1.1005192   -7.1870621    135.67361  0.026171607  0.026806228            2 
  433000    1.1044353   -7.1807159    135.95302  0.026164938  0.026787634            2 
  434000    1.0839408   -7.1709895    136.29583  0.026170474  0.026769585            3 
  435000    1.0803629   -7.1951691    136.24337  0.026100262  0.026750569            4 
  436000    1.0754054   -7.1713105     136.8437  0.026155142  0.026731399            2 
  437000     1.073971   -7.1791032    136.74085  0.026075676  0.026712837            3 
  438000    1.0631038   -7.2078151    137.24772  0.026112581  0.026694683            3 
  439000    1.0474494   -7.2105111     137.0357  0.026012851  0.026676296            6 
  440000    1.0703693   -7.2203839    137.26535  0.025997225  0.026657652            3 
  441000    1.1032862   -7.2075143    137.57158  0.025996142   0.02663787            2 
  442000    1.0852994   -7.2099463     137.8109  0.025982447  0.026618885            5 
  443000    1.0852433   -7.2092687    138.04528  0.025967885   0.02660035            5 
  444000    1.0755639   -7.2195895     137.8994   0.02588202  0.026581195            8 
  445000    1.0792382   -7.2341612    138.07153  0.025856092  0.026562084            3 
  446000     1.091995    -7.193871    138.69579  0.025914758  0.026542486            3 
  447000    1.0776167   -7.2189367    138.71339  0.025860064  0.026522913            4 
  448000    1.0774322   -7.2671914    138.64917  0.025790397  0.026503317            6 
  449000    1.0806258   -7.2396121    138.58079  0.025720265  0.026483906            3 
  450000    1.0613733   -7.2148077    139.55486  0.025843493  0.026463494            3 
  451000    1.0932729   -7.2342743    139.32954  0.025744556  0.026443837            2 
  452000    1.0461771   -7.2524511    139.41282  0.025702953  0.026423919            2 
  453000    1.0822614   -7.2192863     139.6471  0.025689312  0.026403945            2 
  454000    1.0893987   -7.2227539    139.61435  0.025626716  0.026383284            2 
  455000    1.0548508   -7.2522014    139.82426  0.025608839  0.026362518            5 
  456000    1.0565815   -7.2387396    139.97797   0.02558077  0.026342001            2 
  457000    1.0520417   -7.2261951    140.44397  0.025609768  0.026321243            2 
  458000    1.0659214   -7.2113753    140.82238  0.025622704  0.026300407            4 
  459000    1.0797124   -7.2239574    140.70608  0.025545766  0.026279226            5 
  460000    1.0706348   -7.2572757    140.68805  0.025486965  0.026258084            6 
  461000    1.0561474   -7.2580732    140.82269  0.025456018  0.026236429            3 
  462000    1.0486727   -7.2390139    140.90129  0.025415096  0.026214783            4 
  463000    1.0590453   -7.1717916    141.79913  0.025521802  0.026194176            1 
  464000    1.0552111   -7.2417732    141.62788  0.025436041  0.026173407            2 
  465000    1.0696588   -7.2394424    142.17263  0.025478966  0.026152578            2 
  466000    1.0619343    -7.273142    141.92025  0.025379157  0.026131715            2 
  467000    1.0605779   -7.3029182    141.97368  0.025334347  0.026110617            5 
  468000     1.071913   -7.2338708    142.54697  0.025382296  0.026089627            3 
  469000    1.0540396   -7.2494971    142.76899  0.025367624  0.026068952            9 
  470000    1.0529893   -7.2622872    142.89239   0.02533553  0.026047789            3 
  471000    1.0517007   -7.2974381     142.8621   0.02527638  0.026026772            7 
  472000    1.0702141   -7.2415017    143.62062  0.025356747  0.026006408            4 
  473000    1.0450748   -7.2737964    144.03903  0.025376855  0.025986115            3 
  474000    1.0597263   -7.2414525    144.42662  0.025391459  0.025965863            6 
  475000    1.0805983   -7.3152338    143.64605  0.025201062   0.02594569            6 
  476000    1.0405129   -7.2626076    144.44935  0.025288752  0.025925534            4 
  477000    1.0710794   -7.3326865    144.48061  0.025241197  0.025905776           13 
  478000    1.0724908   -7.2885306    144.90607  0.025262564  0.025885418            3 
  479000    1.0480429   -7.2563978    145.33098  0.025283748  0.025865739            4 
  480000    1.0813859    -7.238169    145.42171  0.025246825   0.02584627            2 
  481000    1.0435543   -7.2362276    145.95949  0.025287507  0.025826319            5 
  482000    1.0722194   -7.3026368     145.3131  0.025123288  0.025806669            5 
  483000    1.0644478   -7.2379691    146.53424   0.02528196  0.025786905            3 
  484000     1.076733   -7.2953007    145.30943  0.025018841  0.025766493            4 
  485000    1.0768465   -7.2659376    146.12694  0.025107721  0.025746207            2 
  486000    1.0581259    -7.278016    146.22797  0.025073383  0.025726452            4 
  487000    1.0379288   -7.2856413    146.05149  0.024991699  0.025706035            2 
  488000    1.0571788   -7.2944865    146.98922  0.025100618  0.025685497            6 
  489000     1.056095   -7.2910266     146.4181  0.024951959  0.025665293            4 
  490000    1.0422509   -7.2545012    147.23129  0.025039335  0.025645429           10 
  491000     1.072027   -7.2784957    147.10327  0.024966611  0.025625381            3 
  492000    1.0562762   -7.2742523    147.46956  0.024977906  0.025605735            2 
  493000    1.0537125   -7.2765886    148.32722  0.025072214  0.025586077            6 
  494000    1.0836596   -7.2677167    147.84692  0.024940439  0.025566073            2 
  495000    1.0650438   -7.2534961    147.77551  0.024878032  0.025545767            4 
  496000    1.0580154   -7.3140938    148.01333   0.02486783  0.025525238            8 
  497000    1.0501488   -7.2976477    148.25662  0.024858587  0.025504676            2 
  498000    1.0547673   -7.2948728    148.45456  0.024841794  0.025484348            6 
  499000    1.0567634   -7.2719929      148.702  0.024833333  0.025463929            4 
  500000    1.0377527   -7.2983402    148.96766  0.024827943  0.025443457            4 
  501000    1.0555946     -7.30328    148.71935  0.024737083  0.025422823            2 
  502000    1.0435752   -7.2923794    148.59953  0.024667916  0.025401887            6 
  503000    1.0746281   -7.2715445    148.92995  0.024673616   0.02538089            3 
  504000    1.0588037   -7.2269788    150.12217  0.024821787  0.025360153            4 
  505000    1.0590595    -7.254384    149.58778  0.024684452  0.025339415            5 
  506000    1.0431869   -7.2983717    149.91633  0.024689777  0.025318522            2 
  507000    1.0571356   -7.2960839    149.84285  0.024629002  0.025296959            6 
  508000     1.034997   -7.2714844    149.98603  0.024604007  0.025274996            5 
  509000      1.05511   -7.2683764    150.14121  0.024581076  0.025253362            5 
  510000    1.0443523   -7.2734207    150.73417  0.024629767  0.025232324            4 
  511000    1.0599806   -7.2277385    151.12647  0.024645543  0.025211813            2 
  512000    1.0623743   -7.2896621    150.32105  0.024466317  0.025190826            4 
  513000    1.0563507   -7.3162858    150.61453  0.024466298  0.025169795            3 
  514000    1.0478414   -7.3293054    151.00548  0.024482081  0.025148638            3 
  515000    1.0521803   -7.2793311    151.54995  0.024522645  0.025127853            4 
  516000     1.061628    -7.319733    151.84826  0.024523298  0.025107122            7 
  517000    1.0710754   -7.2909824    151.94369  0.024491245  0.025086577            4 
  518000    1.0402498    -7.313494    151.83561  0.024426577  0.025065635            2 
  519000    1.0580454    -7.319116    152.31841  0.024457034  0.025045175            4 
  520000    1.0439823   -7.2749932    152.63405  0.024460584   0.02502485            4 
  521000    1.0401325   -7.2886381    152.86173  0.024450052  0.025004447            4 
  522000    1.0192289   -7.3429399    152.90227  0.024409686  0.024984228            5 
  523000     1.061734   -7.2686235    153.76367  0.024500265  0.024964353            4 
  524000    1.0442299   -7.3202994    153.92165  0.024478634  0.024944518            4 
  525000    1.0470543    -7.313544    153.29209  0.024332077  0.024924785            5 
  526000    1.0613689     -7.30161    154.04681  0.024405389  0.024904627            8 
  527000    1.0333588   -7.3235472    154.17974  0.024380098  0.024884774            4 
  528000    1.0487726   -7.3530626    153.62874  0.024246961  0.024865003            3 
  529000     1.031678   -7.3300922    154.73108  0.024374776    0.0248449           13 
  530000    1.0536697   -7.3223818    154.97148  0.024366585  0.024825465            1 
  531000    1.0206961   -7.2797266    155.14614  0.024348107  0.024805928            3 
  532000    1.0318296   -7.3374252    154.41888  0.024188421  0.024786234            4 
  533000    1.0598234   -7.3324808    155.46652  0.024306835  0.024767061            4 
  534000    1.0409564   -7.3584012    155.24558  0.024226838  0.024747409            4 
  535000    1.0461597   -7.3464718    156.00702   0.02430016  0.024727913            5 
  536000    1.0430135   -7.3456678    155.75245  0.024215244  0.024708516            4 
  537000    1.0377819   -7.3386112    156.23601  0.024245191  0.024688887            5 
  538000    1.0557327   -7.3713164    155.96624   0.02415834  0.024669399            8 
  539000    1.0517635   -7.3462816    156.16881  0.024144838  0.024649641            4 
  540000    1.0393587   -7.3381152    156.29399  0.024119442  0.024630099            5 
  541000    1.0655158    -7.323008    156.78821  0.024150987  0.024610124            2 
  542000    1.0473226   -7.3237829    156.65134  0.024085384  0.024590399            6 
  543000    1.0401046   -7.3301623    156.42541  0.024006355  0.024570855            5 
  544000    1.0281256   -7.3173539    157.07296  0.024061421  0.024551056            6 
  545000    1.0251325   -7.3122206     157.3821  0.024064542  0.024531645            4 
  546000    1.0555751   -7.3143129    157.81333  0.024086283   0.02451228            4 
  547000    1.0555843   -7.3644851    157.92878  0.024059838    0.0244934            4 
  548000    1.0313722   -7.3662999    157.31151  0.023922067  0.024474027            8 
  549000    1.0267843   -7.3455386    157.74544  0.023944359  0.024454329            6 
  550000     1.044845    -7.309869    158.72722  0.024049579  0.024435435            4 
  551000    1.0456873   -7.3051094    158.66597  0.023996668   0.02441611            2 
  552000    1.0217686   -7.3690056    158.24432  0.023889541  0.024396362            4 
  553000     1.016269   -7.3820585    158.22384  0.023843254  0.024376169            5 
  554000    1.0261888   -7.4211772    158.48634  0.023839702  0.024355784            6 
  555000    1.0290252   -7.3582583    158.75103  0.023836491  0.024335402            5 
  556000    1.0478438   -7.3687836    158.40297  0.023741453  0.024315012            6 
  557000    1.0514322   -7.3578484    158.88471  0.023770902  0.024294656           11 
  558000    1.0157707   -7.3954204    158.63791  0.023691444  0.024274183            3 
  559000    1.0345538    -7.342479    158.76711  0.023668323  0.024253915            4 
  560000     1.044293      -7.4008    159.04953  0.023668084  0.024233272            3 
  561000    1.0023248   -7.3509361    160.19987  0.023796773   0.02421266            3 
  562000    1.0210385   -7.3656298    159.63731  0.023671013  0.024192319            3 
  563000    1.0362545   -7.3850078     159.6485  0.023630624   0.02417189            6 
  564000    1.0427966   -7.3767781    159.74918  0.023603602  0.024151462            3 
  565000     1.041224   -7.3795169    159.36881  0.023505724  0.024131139            7 
  566000    1.0165903   -7.3149114    160.60264  0.023645854   0.02411121            8 
  567000    1.0267159   -7.3447765     160.2111  0.023546605  0.024091461            3 
  568000    1.0233214   -7.3319186    161.01526  0.023623131  0.024071502            4 
  569000      1.04071   -7.3741942    160.21107  0.023463836  0.024051182            4 
  570000    1.0333643   -7.3638685    160.90731   0.02352446  0.024030722            3 
  571000    1.0210465   -7.3902957    160.61497  0.023440597  0.024009843            6 
  572000    1.0333029   -7.3915272    161.05788  0.023464143  0.023989094            7 
  573000    1.0269399   -7.3687802    161.01551  0.023417032  0.023968945            3 
  574000    1.0194689   -7.3779825    161.55203  0.023454127   0.02394876            6 
  575000    1.0394265   -7.3768959    161.97576  0.023474748  0.023928679            4 
  576000    1.0511637   -7.3832518    161.67375    0.0233903  0.023908191            5 
  577000    1.0146974   -7.4131491    162.12801  0.023415368   0.02388813            2 
  578000    1.0347319   -7.3403789    162.59359  0.023441983  0.023868199            4 
  579000    1.0333845   -7.3649289    162.46623  0.023383165  0.023848106            3 
  580000    1.0190628   -7.3980301     162.2491  0.023311652  0.023828127            5 
  581000    1.0068126   -7.3746809    163.08053  0.023390782  0.023808353            5 
  582000    1.0459216   -7.3208526    164.00139  0.023482444  0.023788863            5 
  583000    1.0143334   -7.4084447    162.84311  0.023276603  0.023769169            5 
  584000     1.035051   -7.3967834    163.42781  0.023320179  0.023749432            3 
  585000    1.0077077   -7.3612684     163.2056   0.02324866   0.02372977            4 
  586000    1.0396262   -7.3711965    163.55531  0.023258718  0.023710547            6 
  587000    1.0184549   -7.3801545    163.81834  0.023256436  0.023691185            6 
  588000    1.0150755   -7.3933303    164.35411  0.023292816  0.023672032            7 
  589000    1.0136402   -7.4348455    163.65214  0.023153953  0.023652436            6 
  590000    1.0082765    -7.423702    164.32966  0.023210404  0.023632591            3 
  591000     0.992316   -7.3874975    164.93293  0.023256194  0.023613167            5 
  592000      1.03266   -7.3761364    164.70202  0.023184406  0.023593555            3 
  593000    1.0349716   -7.4415135    165.05307  0.023194642  0.023573981            4 
  594000     1.015621   -7.3970558    164.70159  0.023106284  0.023554823            9 
  595000   0.99939833   -7.3623429    165.12581  0.023126864  0.023535603            3 
  596000    1.0024212   -7.4084903    165.30198  0.023112692  0.023516431            4 
  597000   0.99364445   -7.4245117    165.26859  0.023069317   0.02349684            4 
  598000    1.0099222   -7.3741588    165.62977  0.023081072  0.023477188            3 
  599000    1.0150469   -7.4031573    165.73182  0.023056737  0.023457972            4 
  600000    1.0346848   -7.4061526    165.59838  0.022999775   0.02343845            6 
  601000    1.0113785   -7.4031313    165.43102    0.0229383   0.02341869            2 
  602000    1.0139965   -7.3820476    165.75751  0.022945392  0.023399122            4 
  603000    1.0281416   -7.4122699    166.11717  0.022957044  0.023379595            7 
  604000    1.0128452    -7.420069     165.9729  0.022899131  0.023359831            5 
  605000    0.9839398   -7.4381991     166.7225  0.022964531  0.023340047            4 
  606000     1.016659   -7.4031085    166.51723  0.022898409  0.023320415            5 
  607000     1.004534   -7.4272514    167.07735  0.022937582  0.023300826            3 
  608000    1.0214658   -7.4022508    166.91043  0.022876977  0.023281021           11 
  609000    1.0111164   -7.4284351     166.3799  0.022766818  0.023261487           13 
  610000    1.0092137   -7.4376158     167.4908  0.022881257  0.023242219            7 
  611000    1.0145448   -7.3850451    167.71447  0.022874314  0.023223252            6 
  612000    1.0168289   -7.4213134    168.12742  0.022893167  0.023204612            2 
  613000    1.0118192   -7.4067841    168.59737  0.022919708  0.023186297            4 
  614000    1.0153879   -7.3988634    168.38867  0.022854054  0.023168076            4 
  615000    1.0238477   -7.4361792    168.76159  0.022867424  0.023149739            6 
  616000    1.0112353   -7.4123777    168.63734  0.022813493  0.023131121            4 
  617000   0.98716407   -7.4155617    168.99366  0.022824643  0.023112735            7 
  618000    1.0010625   -7.4318762    169.07942  0.022799274  0.023094487            2 
  619000     1.009256   -7.4173885    169.37326  0.022802001  0.023076112            3 
  620000    1.0251994   -7.4214888    169.49176  0.022781151  0.023057645            3 
  621000    1.0088545    -7.443394    169.29567  0.022718152  0.023038936            7 
  622000    1.0304658   -7.4119131    169.78055   0.02274659  0.023020397            3 
  623000   0.98956294   -7.3534408    170.76858  0.022842239  0.023002429            2 
  624000    1.0008437   -7.4276757    170.34978  0.022749703  0.022984433            4 
  625000   0.98100442   -7.4285696    170.17023  0.022689364  0.022966096            3 
  626000      1.00193   -7.4350117    170.20482  0.022657724  0.022947857            9 
  627000    1.0124835   -7.4414156    170.34785  0.022640596  0.022929331            5 
  628000   0.99774782   -7.3910779    171.11891  0.022706862  0.022911036            2 
  629000   0.98965846   -7.4089185    170.24889  0.022555497  0.022892581            3 
  630000   0.98210189   -7.4188092    170.37912  0.022536921  0.022874144            4 
  631000    1.0073846   -7.4102586    170.90071  0.022570089  0.022855456            4 
  632000    1.0060836   -7.3968777    170.77758  0.022518141  0.022836774            5 
  633000   0.97608431    -7.443974    170.78336  0.022483328  0.022817953           12 
  634000    1.0023009   -7.3948563    171.29587   0.02251523  0.022799146            7 
  635000    1.0147294   -7.4459069    171.32073  0.022483035  0.022780245            4 
  636000   0.99097744   -7.4611686    171.28757   0.02244334  0.022761151            3 
  637000    1.0098518   -7.4606841    171.83767  0.022480072  0.022742284            3 
  638000   0.99842607   -7.4424007     171.7952  0.022439289  0.022723526            3 
  639000    1.0001965   -7.5119549    171.11836  0.022315904  0.022704608            2 
  640000   0.98647191   -7.4229363    171.99562  0.022395263  0.022685685            4 
  641000    1.0039927    -7.474071    171.23655  0.022261642  0.022666534            6 
  642000    1.0074172   -7.4635374    171.78544  0.022298213  0.022647475            6 
  643000    0.9852235   -7.4485555    172.17194  0.022313626  0.022628232            2 
  644000    1.0250482   -7.4475583    172.03014  0.022260629  0.022608831            3 
  645000   0.99384264   -7.4173173    172.31136   0.02226245  0.022589749            9 
  646000    0.9979873    -7.422552    172.44626  0.022245389  0.022570684            7 
  647000   0.98514001   -7.4368163     172.8198  0.022259119  0.022551652            5 
  648000   0.99200725   -7.4683339    172.54172  0.022189007  0.022532339            2 
  649000   0.99047866   -7.4679455    172.22167  0.022113723  0.022513322            2 
  650000   0.97929745   -7.4405161    173.02432  0.022182605  0.022494315            4 
  651000     1.012893   -7.3950601    173.96955  0.022269528  0.022475574            3 
  652000    1.0025519   -7.4515986    173.54431  0.022181021  0.022456981            7 
  653000   0.97447966   -7.4568354    173.16505  0.022098654  0.022437945            5 
  654000    0.9761471   -7.4754623    172.99738  0.022043499  0.022418585            3 
  655000   0.97987322    -7.461553    173.48377  0.022071727  0.022399678           10 
  656000   0.99314689   -7.4622768    173.98784  0.022102114  0.022380904            8 
  657000   0.98931536   -7.4735156    174.32936  0.022111791  0.022362207            2 
  658000    1.0041168    -7.416916    174.71774  0.022127374  0.022343776            5 
  659000   0.97924252   -7.4277995    173.82428  0.021980815  0.022324921            4 
  660000   0.99546045   -7.4208997    174.88766  0.022081775  0.022306271            5 
  661000      1.00343   -7.4779019    174.62404  0.022015134   0.02228766            3 
  662000   0.99632223   -7.4283373    174.87908  0.022013983  0.022269264            5 
  663000    1.0131646   -7.4398284    175.08395   0.02200653  0.022250929            7 
  664000   0.98031319   -7.4946901     175.2376  0.021992671  0.022232426            2 
  665000    1.0089942   -7.4706714    175.51334  0.021994153  0.022213997            4 
  666000    1.0070476   -7.4635245    175.59165  0.021970928  0.022195376            5 
  667000   0.97976599   -7.4730099     175.4446  0.021919615  0.022176903            4 
  668000   0.99874872   -7.4564989    175.37088  0.021877604   0.02215844            5 
  669000   0.98613279   -7.4950066    175.61514  0.021875329  0.022139863            4 
  670000   0.97075429    -7.456657    176.15329  0.021909614  0.022121564            4 
  671000   0.98629261   -7.4692694    176.53114  0.021923887   0.02210343            8 
  672000    1.0034405    -7.469938     176.2635  0.021858073  0.022085111            4 
  673000   0.97967867    -7.473551    176.29644  0.021829673  0.022066628            3 
  674000   0.97750242    -7.490351    176.67452  0.021844031  0.022048263            3 
  675000   0.99544176   -7.4817766    176.42726  0.021781143  0.022029742            6 
  676000    0.9834549    -7.495653    176.33875  0.021738012  0.022011317            4 
  677000   0.99749955   -7.4597153    176.72279  0.021753175  0.021992824            7 
  678000   0.99721067   -7.4658038    176.47074  0.021690111  0.021974217            9 
  679000    0.9892224   -7.5102385    176.85792  0.021705685  0.021955619            9 
  680000   0.98434011   -7.4581879    177.36071  0.021735381  0.021937213            7 
  681000   0.99114802   -7.4605869    177.60258  0.021733062  0.021918876            2 
  682000    0.9792785   -7.4896063    178.20132  0.021774355  0.021900688            3 
  683000   0.96513521    -7.512593    177.70609  0.021682051  0.021882504            6 
  684000    1.0036786   -7.4780373    177.69893  0.021649479  0.021864182           11 
  685000   0.95102895   -7.5095144    177.52558  0.021596786  0.021845767            5 
  686000   0.98179267   -7.5123883    178.09808  0.021634849  0.021827334            6 
  687000   0.96651265   -7.4858668    177.97038  0.021587867  0.021808913            4 
  688000   0.95798935   -7.5276107    178.05316  0.021566517  0.021790624           16 
  689000   0.97648608   -7.5173273    178.34661  0.021570708  0.021772183           15 
  690000   0.97838531   -7.5035633    178.38664  0.021544281   0.02175383            5 
  691000   0.99679318   -7.5566941    178.28655  0.021501031  0.021735587            7 
  692000   0.98005276   -7.4885336    178.89938  0.021543759  0.021717364            5 
  693000   0.98752101   -7.5030971    179.57625  0.021594065  0.021699586            5 
  694000   0.96985083    -7.497887    179.16685  0.021513791  0.021681724            7 
  695000   0.96405599   -7.5486155    179.13513  0.021479033  0.021663678            4 
  696000   0.97526804   -7.5011889    179.45267  0.021486191  0.021645218            2 
  697000   0.97994624   -7.5187756    179.72518  0.021487945  0.021627147            4 
  698000   0.95970545   -7.5328206    180.23038  0.021517476  0.021609376           10 
  699000   0.99103652   -7.5015823    180.10407  0.021471635  0.021591793            4 
  700000   0.97165708   -7.4899291    180.14083  0.021445337  0.021574186            5 
  701000   0.97251644   -7.5141157    180.84563  0.021498529  0.021556772            5 
  702000   0.97884466   -7.4907482    181.19416  0.021509278  0.021539465            5 
  703000   0.99363301   -7.5441501      180.803  0.021432314  0.021522048            4 
  704000   0.98546886   -7.5152065    181.10447  0.021437556  0.021504478            5 
  705000   0.97078833    -7.487876    180.55116  0.021341744  0.021487334           10 
  706000   0.96893259   -7.5195982    181.17322  0.021384941  0.021470067            8 
  707000   0.96696434   -7.5206638    181.21603  0.021359739  0.021452675            3 
  708000   0.96371261   -7.5291964    181.28083  0.021337198  0.021435379            7 
  709000   0.98902982   -7.5319909    181.01664  0.021276051  0.021418032            8 
  710000   0.96511605   -7.5054195    182.38986   0.02140726  0.021400719            3 
  711000   0.97404164   -7.5405083    182.20428  0.021355401  0.021383749            9 
  712000   0.98667295   -7.5177844    182.22868  0.021328263   0.02136654            6 
  713000     0.989989   -7.5174427    182.27906  0.021304238   0.02134928            3 
  714000   0.98990226   -7.5567771    181.93843  0.021234644  0.021332035           15 
  715000   0.96482111   -7.5601548    182.44864  0.021264411  0.021314869            8 
  716000   0.95469648   -7.5022817    183.06468  0.021306411  0.021297979            6 
  717000   0.95319514   -7.5598075    182.69801  0.021234078  0.021280997            6 
  718000   0.97708032   -7.5407915    182.94575  0.021233258  0.021264071            3 
  719000   0.95029202   -7.5278459     182.7855  0.021185153  0.021247146            6 
  720000   0.96357148   -7.5588266    182.36787  0.021107392  0.021229919            4 
  721000   0.96938531   -7.5641085    182.67937   0.02111412  0.021212529            4 
  722000   0.95596519   -7.5490369    182.84984  0.021104552  0.021195299           10 
  723000   0.96876618   -7.5154677    183.42171  0.021141276  0.021178101            4 
  724000   0.96759629   -7.5691305    183.35876   0.02110483  0.021161033            3 
  725000   0.97094137   -7.5842952     182.9434  0.021027977  0.021143626            4 
  726000   0.97216449    -7.593669    182.95639  0.021000504  0.021126138            3 
  727000   0.94426648   -7.5209698    184.51353  0.021150107  0.021108964            3 
  728000    0.9607182   -7.5343942    184.08233  0.021071696  0.021092251            5 
  729000   0.93166283   -7.5424083    184.37426  0.021076161  0.021075262            3 
  730000   0.97035213   -7.5655783    184.49277  0.021060819  0.021058421            5 
  731000   0.96018201   -7.5914033    184.00333  0.020976212  0.021041484            5 
  732000   0.95661809   -7.5463158    184.55641   0.02101052  0.021024557            3 
  733000   0.96122086   -7.5524319    184.91926  0.021023108  0.021007837            4 
  734000   0.96121596    -7.567516    184.49737  0.020946568  0.020991125            5 
  735000   0.98065148   -7.5537869    185.36499  0.021016439  0.020974571            6 
  736000   0.96388838   -7.5628419    184.75106  0.020918372  0.020958136            5 
  737000   0.95674653   -7.5646498    185.43291  0.020967086  0.020941837           13 
  738000   0.97492639   -7.5525258    185.54008  0.020950777   0.02092541           14 
  739000   0.95586682    -7.587789    185.83099  0.020955232  0.020909026            5 
  740000   0.96913705   -7.5977865    185.21474  0.020857515  0.020892512            8 
  741000   0.96030206   -7.5938283    185.84411  0.020900147  0.020876311            5 
  742000   0.95412098   -7.5826659    186.20297  0.020912283  0.020860075            9 
  743000   0.96203423   -7.5836738     185.6852  0.020826066  0.020843785           10 
  744000   0.95888404   -7.5416935    186.27632  0.020864283  0.020827835            3 
  745000   0.96979943   -7.5499189    187.22548  0.020942447  0.020811957            7 
  746000   0.96075471   -7.5151731    187.12643  0.020903309  0.020796053            4 
  747000   0.95856253   -7.5283467    187.38772  0.020904475  0.020780065            4 
  748000   0.93259637   -7.5672988    186.71099  0.020801136   0.02076394            7 
  749000   0.97407132   -7.5761425    187.30985  0.020839992  0.020747727            6 
  750000   0.92176565   -7.5938107    186.98967   0.02077663  0.020731535            5 
  751000   0.97186694   -7.5713141    186.48648  0.020693129  0.020715207            6 
  752000   0.93481573   -7.5440541    187.38415  0.020765088  0.020699074            6 
  753000   0.94055158    -7.564492     187.4906  0.020749291  0.020682833            8 
  754000   0.96663892    -7.553102    187.71929  0.020747048  0.020666608            4 
  755000   0.93857243   -7.5725939    187.29556  0.020672799  0.020650601            6 
  756000    0.9626968   -7.5730428    187.77418  0.020698212  0.020634339           31 
  757000   0.93356864   -7.6015523    187.38162  0.020627655  0.020617962            4 
  758000   0.95310006   -7.5972828    187.74493  0.020640384  0.020601342            5 
  759000   0.95175757   -7.6073649    187.08783  0.020541045  0.020584856           13 
  760000   0.96301792   -7.5423068    188.15388  0.020630908  0.020568243            8 
  761000   0.95401474   -7.5798867    188.03453  0.020590728  0.020551878            3 
  762000   0.94509419   -7.5723727    188.46422  0.020610698  0.020535454            7 
  763000   0.95370693   -7.6017326     187.9494  0.020527457  0.020519063            5 
  764000   0.94480088    -7.593492    188.19227   0.02052708   0.02050256            6 
  765000   0.93964646    -7.600718    188.30413  0.020512432  0.020486017            3 
  766000    0.9383503   -7.5955999    187.93655  0.020445664  0.020469476            4 
  767000   0.94737959   -7.6023914     188.3966  0.020468992  0.020452959           16 
  768000    0.9275454   -7.5756304    188.55514  0.020459542  0.020436356            5 
  769000   0.94437757   -7.5939257    188.52566  0.020429742  0.020419994            4 
  770000   0.93533151   -7.6353397    187.62045  0.020305243  0.020403354            3 
  771000   0.95378095   -7.6053547    189.02553  0.020430775   0.02038665            6 
  772000   0.96741297    -7.613013    188.47497   0.02034488   0.02036989            5 
  773000   0.92844954   -7.6022588    188.50236  0.020321513  0.020353097            9 
  774000   0.94541026   -7.5454124     189.2582  0.020376636  0.020336553            3 
  775000   0.93888929   -7.6067392    189.39409  0.020364956  0.020320039            7 
  776000   0.95282633   -7.6078296    188.94175  0.020290137  0.020303404            4 
  777000     0.913332   -7.6175158    189.17315   0.02028884   0.02028671            4 
  778000   0.92745587   -7.6295655    188.61653  0.020203142  0.020269996            6 
  779000   0.95439375   -7.6177998    189.97451  0.020322476  0.020253261            7 
  780000   0.95241304   -7.6182863    189.67392  0.020264308  0.020236568            3 
  781000   0.93552588   -7.6122383    189.81886  0.020253826  0.020220049            3 
  782000   0.94456604   -7.6284674    189.73887  0.020219402  0.020203589            7 
  783000   0.93157268   -7.6445767    189.43453  0.020161189  0.020187156            5 
  784000   0.93222925    -7.609886    190.11095  0.020207371   0.02017086            3 
  785000   0.95936903    -7.615321    190.19168    0.0201902  0.020154535           12 
  786000   0.93472251   -7.6018575    189.84002  0.020127229  0.020138107            5 
  787000   0.95849635   -7.6404513    190.31303  0.020151739  0.020121651            4 
  788000   0.95544865   -7.6780397     190.1174  0.020105478  0.020105132            9 
  789000   0.93835208   -7.6166409    190.63484  0.020134647  0.020088543            5 
  790000   0.91694465   -7.6387547    190.55502  0.020100741    0.0200722            5 
  791000   0.93005764   -7.6058479    191.39869  0.020164211  0.020056031            5 
  792000   0.95245024   -7.6085062    191.52109   0.02015163  0.020039725           11 
  793000   0.92900667   -7.5986394    191.13633  0.020085786  0.020023628           10 
  794000    0.9390295   -7.6174014    191.09133  0.020055765  0.020007532            7 
  795000   0.95116653   -7.6160645     191.0086  0.020021866  0.019991288            6 
  796000   0.93641071   -7.5908524    191.41842  0.020039617  0.019975047            4 
  797000   0.91515571   -7.6724915    190.91806  0.019962156  0.019958741            4 
  798000   0.94968971   -7.6601824    191.55076  0.020003212  0.019942516            6 
  799000   0.93030488   -7.6191726    192.53714  0.020081054  0.019926348            5 
  800000    0.9323493   -7.6242952    191.82236  0.019981496  0.019910394            6 
  801000   0.94263787   -7.6358209    192.33417  0.020009797   0.01989452            9 
  802000   0.91353798   -7.6299008    192.17234  0.019968032  0.019878442            4 
  803000   0.94734351   -7.6614017     191.6175  0.019885586  0.019862388            4 
  804000   0.95375922   -7.6271828    192.52998  0.019955429  0.019846306            9 
  805000    0.9190753   -7.6147008    192.87139  0.019965982  0.019830359            4 
  806000    0.9275668   -7.6464538    192.55591  0.019908593  0.019814511            5 
  807000   0.94546368    -7.640237    192.96534  0.019926202  0.019798633            6 
  808000   0.93399135   -7.6269537    193.21403   0.01992719   0.01978263            4 
  809000   0.93897538   -7.6769075    192.48598  0.019827563  0.019766718            7 
  810000   0.92726281   -7.6730769    192.38833  0.019793039  0.019750569            7 
  811000   0.93204005   -7.6558818    193.59113  0.019892225  0.019734524            6 
  812000   0.92567664   -7.6341071    193.13735  0.019821157  0.019718576            8 
  813000   0.93221961   -7.6300354    193.96647  0.019881762  0.019702692            7 
  814000   0.92737542   -7.6123955    193.89018  0.019849527  0.019686928            7 
  815000   0.92458744   -7.6234482    194.08632  0.019845227  0.019671255            7 
  816000    0.9308815   -7.6234868    193.83876  0.019795625  0.019655581            5 
  817000   0.92184339   -7.6257924    194.02564  0.019790457  0.019639907            6 
  818000   0.92369667   -7.6673625    193.52671  0.019715435  0.019623995            8 
  819000   0.91974988   -7.6480237    194.08054  0.019747715  0.019608115           11 
  820000   0.94290195    -7.624066     194.2017  0.019735946  0.019592353            8 
  821000   0.93922438   -7.6463984    194.13165  0.019704796   0.01957666           12 
  822000   0.92899941   -7.6456532    194.09328  0.019676934  0.019560692            3 
  823000   0.95408935   -7.6570344    194.09376  0.019653074  0.019544759            4 
  824000   0.93706147   -7.6521827    194.29271  0.019649344  0.019529022            4 
  825000   0.93427689    -7.665309    194.33584  0.019629883  0.019513158            5 
  826000    0.9225084   -7.6902771    194.20226  0.019592641  0.019497306            6 
  827000   0.92630099   -7.6820422    194.68347  0.019617439  0.019481411           11 
  828000   0.93595328   -7.6708231    195.15231  0.019640933  0.019465509           15 
  829000   0.91179712   -7.6946231    194.57264  0.019558971  0.019449517            5 
  830000   0.90066386   -7.6227172    195.02251  0.019580573  0.019433554            5 
  831000   0.93314585   -7.7200891    194.40787  0.019495374  0.019417664            6 
  832000   0.89621518   -7.7072508    194.69675  0.019500876  0.019401773            3 
  833000   0.91104007   -7.6737733    195.03665   0.01951147  0.019386075            2 
  834000   0.91948742   -7.6739255    194.96627  0.019481042  0.019370214            8 
  835000   0.92299214   -7.6937601    194.56168  0.019417333  0.019354193            7 
  836000   0.92989445   -7.7053831    195.33648   0.01947134  0.019338314           13 
  837000   0.91674039   -7.6799757    194.85303  0.019399944  0.019322277            4 
  838000   0.91104494   -7.6899008    194.88902  0.019380372  0.019306009            4 
  839000   0.92087339   -7.6838627     194.5988  0.019328447  0.019289862            6 
  840000   0.90397907   -7.6932215    194.85476   0.01933083   0.01927378            5 
  841000   0.92098384   -7.6935688    195.36974  0.019358873   0.01925784            6 
  842000   0.92043888   -7.6876411    195.50892  0.019349655  0.019242027            8 
  843000   0.93276654   -7.6962126    195.77699  0.019353202  0.019226129            5 
  844000    0.9096838   -7.6437406    195.88979  0.019341409  0.019210291            7 
  845000   0.92096689   -7.6780643     195.3886  0.019269092   0.01919437            8 
  846000   0.92405086   -7.7141995     195.8188  0.019288692  0.019178574           10 
  847000   0.91997266   -7.6877062    195.76302   0.01926043  0.019162561           10 
  848000   0.91116238   -7.6693208    196.07616  0.019268491  0.019146698           15 
  849000   0.92840274   -7.6328752    196.21467  0.019259391   0.01913079            3 
  850000   0.91010905   -7.7168278    195.11003  0.019128434  0.019114676           11 
  851000   0.90169072   -7.6903356    195.67244   0.01916103  0.019098424           13 
  852000   0.93053142    -7.697502    196.63232  0.019232426  0.019082252            6 
  853000   0.90744032   -7.7322077    195.68115  0.019116955  0.019065816           15 
  854000   0.93367701   -7.6794073    196.50917  0.019175368  0.019049515            6 
  855000   0.90797959   -7.7288852     195.9391  0.019097378  0.019033441            8 
  856000   0.89369071   -7.7175152    196.01101  0.019082069  0.019017463            6 
  857000   0.90463455   -7.7187892    196.18497  0.019076718    0.0190013            6 
  858000   0.91785982   -7.7137316    195.70081   0.01900746  0.018985111            5 
  859000   0.90914073   -7.7396032    196.21921  0.019035624  0.018968869            5 
  860000   0.92556442   -7.7169263    196.58901  0.019049323  0.018952556            5 
  861000   0.90069897   -7.7340004    195.80298  0.018951121  0.018936181            3 
  862000   0.91209782   -7.7474323    195.98991  0.018947207  0.018919745            4 
  863000   0.91204662   -7.7148863    196.39463  0.018964333  0.018903433            4 
  864000   0.90716778   -7.7180281    196.48963  0.018951546  0.018887122           17 
  865000   0.89414153   -7.7328196    196.02581  0.018884953  0.018870791            4 
  866000   0.91722257   -7.7305593    196.51908  0.018910612   0.01885443           10 
  867000   0.91515087    -7.748522    196.06192   0.01884486  0.018838136            9 
  868000    0.9134454   -7.6988571    197.65801  0.018976384  0.018821865            9 
  869000   0.92383416   -7.7474956    196.53397  0.018846756   0.01880555            5 
  870000   0.89824432    -7.721369    197.58289  0.018925564  0.018789314            5 
  871000   0.90406883   -7.7389189    197.15646  0.018863036  0.018773034            9 
  872000    0.9196583    -7.744398    196.84305  0.018811453  0.018756912           11 
  873000   0.90780562   -7.7769088    196.54381  0.018761341  0.018740532            8 
  874000   0.89240249   -7.7602721    196.48561  0.018734326  0.018724093           16 
  875000   0.90667016   -7.7196815    196.60126  0.018723929  0.018707574            7 
  876000   0.89717633   -7.7644817    196.78844  0.018720361  0.018691058            5 
  877000   0.89406419   -7.7961984     196.2248  0.018645458  0.018674473           12 
  878000   0.90531483   -7.7734549    196.75155  0.018674217  0.018657851            5 
  879000   0.89348249   -7.8075396    197.42196  0.018716531  0.018641281            4 
  880000   0.89174877    -7.762334    197.13553  0.018668137  0.018624799           10 
  881000      0.91055   -7.7697678    197.03632  0.018637564  0.018608442           19 
  882000   0.90532458   -7.7910917    197.12381  0.018624698  0.018592057           11 
  883000   0.90203887   -7.7754653    197.25887  0.018616352   0.01857565            6 
  884000   0.87809975   -7.7753676    197.82915  0.018649053  0.018559284            9 
  885000   0.90280559   -7.7351626    197.24484   0.01857296  0.018542943            4 
  886000   0.88800545   -7.7473617    198.14524  0.018636685  0.018526696            8 
  887000   0.90530293    -7.762564    197.53156   0.01855802  0.018510592            3 
  888000   0.88912757   -7.7493862    197.86794  0.018568688   0.01849441            6 
  889000    0.8977314   -7.7535492    198.28742  0.018587122  0.018478128            8 
  890000   0.90468482   -7.7503399    198.21374  0.018559339  0.018461882            4 
  891000   0.88978836   -7.7591537    198.23744  0.018540726  0.018445815            5 
  892000   0.89115385    -7.725381    198.78397  0.018570998  0.018429903            9 
  893000    0.8972449   -7.7506164    198.46577  0.018520508  0.018413855            5 
  894000   0.88913498    -7.741567    198.41878  0.018495412  0.018397816            6 
  895000   0.89955847   -7.7608119    198.56844  0.018488682  0.018381811            5 
  896000   0.87144698   -7.7814395    197.93474  0.018409109  0.018365727            6 
  897000   0.89309051   -7.7813055    198.03597   0.01839799   0.01834946            7 
  898000   0.90955842   -7.7466887    198.67329  0.018436645  0.018333292            7 
  899000   0.90825914   -7.7580125    198.63296  0.018412399  0.018317068           21 
  900000   0.89791928   -7.7922287    198.74974  0.018402754  0.018300815           26 
  901000   0.88165049    -7.741599    198.64783  0.018372903  0.018284704           12 
  902000   0.90258792   -7.7231344    198.90909  0.018376671  0.018268557            5 
  903000   0.89296519   -7.7795481    198.54661  0.018322869  0.018252357            5 
  904000   0.89832773   -7.7740669    198.03115  0.018255084  0.018236203            7 
  905000   0.88320866   -7.7532221    198.76329  0.018302329   0.01822006            3 
  906000   0.90423612    -7.753006     199.3406  0.018335228  0.018203903            6 
  907000   0.90031081   -7.7692078    198.87008  0.018271782  0.018187768           10 
  908000   0.88930657   -7.7512619    199.51759  0.018311086  0.018171745            6 
  909000   0.88249226   -7.7560283    199.02464   0.01824575  0.018155779            7 
  910000   0.90042974   -7.7362262    199.46781  0.018266283  0.018139812           15 
  911000   0.91645397   -7.7411082    199.69015   0.01826657  0.018123891            7 
  912000   0.90714809    -7.758345    199.64674  0.018242575  0.018107874           17 
  913000   0.90435778   -7.7814629    198.79884  0.018145203  0.018091731            7 
  914000   0.88959322   -7.7839007    198.88218  0.018132949   0.01807548            6 
  915000   0.89456861   -7.7659851    199.71039   0.01818856  0.018059186            6 
  916000   0.87473754   -7.7675474    199.48835  0.018148503   0.01804306            6 
  917000   0.87010556   -7.7860439     198.9761  0.018082161  0.018026932            3 
  918000   0.88781241   -7.7606232    198.89022  0.018054668  0.018010741            6 
  919000   0.88293019   -7.7879711     199.6019  0.018099556   0.01799464            7 
  920000   0.90183216   -7.7568563    199.66061  0.018085201  0.017978693            6 
  921000   0.87108505    -7.782445    200.15739  0.018110513   0.01796282            4 
  922000    0.8933989   -7.7925561    199.66271  0.018046159  0.017946936            7 
  923000     0.888671   -7.7829578    199.86728  0.018045078  0.017931004            3 
  924000   0.88986486     -7.77813    200.18863   0.01805453   0.01791516            6 
  925000   0.87477462   -7.8174385    199.59764  0.017981769  0.017899148            5 
  926000   0.89948988   -7.7848876    200.61426  0.018053839  0.017883212            4 
  927000   0.88677693   -7.7735659    200.38887  0.018014102  0.017867408           10 
  928000   0.86678698   -7.8031415    199.91144  0.017951818  0.017851477            7 
  929000    0.8987188   -7.7993539    200.35943  0.017972679  0.017835496            9 
  930000   0.89496239   -7.8104156    199.59152  0.017884545  0.017819518            8 
  931000   0.87871308    -7.783673    200.46093  0.017943155  0.017803563           10 
  932000   0.88055846   -7.8045841    200.26911  0.017906752  0.017787659            6 
  933000   0.88253106   -7.7920196    200.36434  0.017896065  0.017771808            9 
  934000   0.89134083    -7.797387    201.06043  0.017939011  0.017755984           15 
  935000   0.87493792   -7.8154651    201.10676  0.017923954  0.017740095            5 
  936000   0.90659699   -7.7921352    200.66478  0.017865454   0.01772427            8 
  937000   0.90059639   -7.8116789     200.5897   0.01783971  0.017708378            3 
  938000   0.88015908   -7.7943516    200.53391  0.017815734  0.017692385            3 
  939000   0.87997342   -7.8046226    200.57197  0.017800139  0.017676519           12 
  940000   0.87923898   -7.8048794    200.97794  0.017817193  0.017660671            6 
  941000   0.88429302   -7.7941187    201.42388   0.01783775  0.017644967            8 
  942000    0.8719958   -7.8269474    200.62379  0.017748035  0.017629418            7 
  943000   0.89199105   -7.8151526    201.35786  0.017794084  0.017613646            6 
  944000   0.88448374   -7.8066411    201.34009  0.017773666   0.01759803            6 
  945000   0.87485057   -7.8227246    201.79288  0.017794786  0.017582418            6 
  946000   0.89334933   -7.8154345    201.45015  0.017745785  0.017566829            6 
  947000   0.87139934   -7.8009116    201.50866  0.017732195  0.017551196            6 
  948000   0.88397343   -7.8113856    201.22806  0.017688824  0.017535684           13 
  949000   0.86960328   -7.8480559    200.65686  0.017620026  0.017520087            5 
  950000   0.87978939   -7.8687283    201.19561  0.017648738  0.017504403            9 
  951000   0.87578618   -7.8390302     201.7052  0.017674833  0.017488869           10 
  952000   0.89942475   -7.8371343    201.15575  0.017608171  0.017473261            6 
  953000   0.88237232   -7.8377729    201.42505  0.017613243  0.017457635           17 
  954000   0.85692081   -7.8571123    201.30318  0.017584135  0.017441953           23 
  955000   0.88760132    -7.818584    201.48698  0.017581761  0.017426285            5 
  956000   0.86004439   -7.8655112     201.0066  0.017521496  0.017410579            9 
  957000   0.86068371   -7.8559204    201.64287  0.017558592   0.01739489           14 
  958000   0.86933605   -7.8201223    200.78875  0.017465966  0.017379213           31 
  959000   0.87558617   -7.8547114    201.17395  0.017481226  0.017363365           13 
  960000   0.86148029   -7.8610758    200.92197  0.017441143  0.017347628           14 
  961000   0.86052151   -7.8294491    201.09891  0.017438338  0.017331823           10 
  962000   0.86292599   -7.9045621    201.38544  0.017445031    0.0173159           28 
  963000   0.87912009   -7.8557277    201.46651  0.017433931  0.017300003           18 
  964000   0.86896993   -7.8527939     201.5922  0.017426711  0.017284214           16 
  965000   0.85574859   -7.8766019    201.59595  0.017408976  0.017268431           13 
  966000   0.86066596   -7.8602021    201.63628  0.017394434  0.017252703            6 
  967000   0.84648539    -7.889192    201.94476   0.01740303  0.017236857           15 
  968000   0.88288664   -7.8606424    201.63679  0.017358539  0.017221026            6 
  969000   0.86339121   -7.8759638    201.92007  0.017364987  0.017205263           14 
  970000   0.85951152    -7.922583    201.41896  0.017304034  0.017189519           13 
  971000   0.83482534   -7.8789791    201.87318  0.017325196  0.017173678           14 
  972000   0.86311108    -7.878871    201.96342  0.017315108  0.017157839           24 
  973000   0.87321393   -7.8555477    202.35815   0.01733112  0.017142098           11 
  974000   0.87157086   -7.8737409    201.98615  0.017281498  0.017126457           13 
  975000   0.85847452    -7.921073    202.05971  0.017270061  0.017110678            6 
  976000   0.85752999   -7.9103418    201.96394  0.017244189  0.017094878            6 
  977000   0.88259478   -7.9071709    201.93196  0.017223811  0.017079151            6 
  978000   0.85822545   -7.8717622    202.57894  0.017261327  0.017063412           34 
  979000   0.85290609   -7.8747885    201.80776  0.017178052  0.017047746            7 
  980000    0.8560683   -7.8528289     202.4136   0.01721204  0.017032078           26 
  981000   0.88610622   -7.8708952    202.39485  0.017192903   0.01701639           17 
  982000   0.86414659    -7.883492    202.39533  0.017175435  0.017000763           14 
  983000   0.85915235   -7.8303933    203.12579  0.017219888  0.016985261            5 
  984000   0.85690918   -7.8673999    202.07679  0.017113549  0.016969831           14 
  985000   0.87005079   -7.8989356    202.09491  0.017097708   0.01695431           14 
  986000   0.85552843   -7.8610317    203.24858  0.017177872  0.016938803           21 
  987000   0.86064345   -7.8596932    202.95944  0.017136055  0.016923424           12 
  988000   0.85234791   -7.8857479    203.41885  0.017157461  0.016908069            8 
  989000    0.8466718   -7.8687891    202.74518  0.017083348  0.016892637            6 
  990000   0.85222853   -7.9097475     202.7364  0.017065353  0.016877175            8 
  991000   0.84576362   -7.8858607    202.54565  0.017032093  0.016861628            7 
  992000   0.85279045   -7.8910645    203.24035  0.017073282  0.016846049           18 
  993000   0.85337894   -7.9001214    202.56079   0.01699906  0.016830482            7 
  994000   0.85499725   -7.8956185    202.41691  0.016969895  0.016814905           24 
  995000   0.85461467   -7.9199752    202.77216  0.016982593  0.016799287            8 
  996000   0.84928205   -7.9296343    202.76041  0.016964559  0.016783807            5 
  997000    0.8601856   -7.8824948    202.81128  0.016951795  0.016768331           13 
  998000   0.83427062   -7.9058515    202.98087  0.016948971   0.01675295           16 
  999000   0.84955291   -7.9013057    203.48907  0.016974397  0.016737603           13 
 1000000   0.84320119   -7.8594189    203.38222  0.016948518  0.016722415            9 
 1001000   0.83666423   -7.8514711    203.63907  0.016952969  0.016707223           12 
 1002000   0.87081079   -7.8715347    203.53297  0.016927226  0.016692028            7 
 1003000   0.84976729   -7.8682831    203.48688  0.016906521  0.016676702           11 
 1004000   0.83677963   -7.8963355    203.24042  0.016869225   0.01666134           28 
 1005000   0.84520043   -7.9210928    203.20269  0.016849311  0.016646006            7 
 1006000   0.85462143   -7.9249136    202.94244  0.016811004  0.016630522           10 
 1007000    0.8545085   -7.9459843    202.60591   0.01676646  0.016615047           19 
 1008000   0.85278376   -7.9237551    203.08758  0.016789647  0.016599584           17 
 1009000   0.84651466   -7.8982425    203.52937  0.016809495  0.016584114            7 
 1010000   0.84512491   -7.9066564    203.15459   0.01676193  0.016568697            5 
 1011000   0.86025605   -7.9295213    203.08771  0.016739837  0.016553296            6 
 1012000    0.8619965   -7.8929519     203.7603  0.016778681  0.016537943            7 
 1013000   0.86952299   -7.8937791    203.91015  0.016774444  0.016522606            6 
 1014000   0.86134143   -7.9045055    203.65394  0.016736846  0.016507267           15 
 1015000   0.85008935   -7.8924383     203.6182  0.016717422  0.016491947           17 
 1016000   0.84698573   -7.9270679     203.5121  0.016692265  0.016476681           13 
 1017000   0.82746955   -7.8880064    203.90144  0.016707755  0.016461316           14 
 1018000   0.83842517    -7.955249    203.32564  0.016644208  0.016445976           17 
 1019000   0.84723974   -7.9207792    203.67241  0.016656233  0.016430743           10 
 1020000   0.84720038   -7.9031054    203.96715  0.016663983   0.01641544           13 
 1021000   0.82901637   -7.9151158    203.44645  0.016605163  0.016400153           28 
 1022000   0.82856074   -7.9559788    203.84479  0.016621395  0.016384835           30 
 1023000   0.85212681   -7.9304875    203.73161  0.016595928  0.016369554           26 
 1024000   0.84304981   -7.9824921    203.01472   0.01652138  0.016354195           10 
 1025000   0.86142374   -8.0011156    203.91358   0.01657834  0.016338794           14 
 1026000   0.83906619   -7.9466312    203.65377  0.016541079  0.016323492           11 
 1027000   0.84093471    -7.960191    204.12468  0.016563184  0.016308271           22 
 1028000   0.83233411   -7.9645752    204.17594  0.016551228  0.016292989           18 
 1029000   0.86960929   -7.9719096    203.73224  0.016499209  0.016277681           19 
 1030000   0.85682708   -7.9659487    203.94124  0.016500101  0.016262326           15 
 1031000   0.82108115   -7.9578384    203.54495  0.016452065   0.01624696           23 
 1032000   0.86604753   -7.9692833    203.70116  0.016448737  0.016231671           36 
 1033000   0.85961941   -7.9992863    203.15635  0.016388864  0.016216395           29 
 1034000   0.84518768   -7.9543013    204.10548  0.016449507  0.016201086           39 
 1035000   0.84721055   -7.9459831    204.18766  0.016440231  0.016185852           35 
 1036000   0.84341749   -7.9753446    203.28724  0.016351934  0.016170589           35 
 1037000   0.82950933     -7.93285    203.90357  0.016385694  0.016155369           34 
 1038000   0.82597195   -7.9614816    204.12141  0.016387396  0.016140286           22 
 1039000   0.82276168   -7.9556787    204.16148  0.016374838  0.016125174            8 
 1040000   0.83474546   -7.9832792     204.5982  0.016394087  0.016110079            9 
 1041000   0.84122275   -7.9609711    203.90711  0.016323015  0.016095009           15 
 1042000   0.83484708   -7.9634678    203.95737   0.01631137  0.016079873           11 
 1043000   0.84628073   -7.9754408    203.84572   0.01628681  0.016064674           23 
 1044000   0.84681516   -7.9503769    204.36066  0.016312313  0.016049498           17 
 1045000   0.83219122   -7.9509729    204.05484  0.016272316  0.016034357           14 
 1046000   0.83566292   -7.9999469    203.45605  0.016209055  0.016019128           23 
 1047000   0.82388875   -7.9768625    204.04196  0.016240207   0.01600389           19 
 1048000   0.82849188   -7.9767697    204.39841  0.016253054  0.015988782            9 
 1049000   0.83060254   -7.9950205    204.12007  0.016215449  0.015973568           19 
 1050000    0.8128367   -8.0142625    203.99356  0.016189965  0.015958413           21 
 1051000   0.83866355   -7.9539181    204.73983  0.016233733  0.015943311           21 
 1052000   0.83156622   -7.9652671    204.68556  0.016214002  0.015928207           43 
 1053000   0.83723662   -7.9854105    204.45365  0.016180251  0.015913143           12 
 1054000    0.8576198    -7.997927    204.02145  0.016130728  0.015898033           10 
 1055000   0.83723227   -7.9720199    203.92963  0.016108186  0.015882878            7 
 1056000   0.82216042   -8.0060143    204.19864   0.01611416  0.015867737           13 
 1057000   0.83824822    -7.992284    204.17526  0.016097072  0.015852549            6 
 1058000   0.82441491   -7.9774732    204.11056  0.016076761  0.015837308           13 
 1059000   0.83559254   -8.0042773    203.85582  0.016041535  0.015822084           12 
 1060000   0.82605194   -7.9811195    204.00065  0.016037787  0.015806953           16 
 1061000   0.84741882   -7.9775206    204.64621  0.016073375  0.015791815           11 
 1062000   0.82713411   -8.0027232    204.34453  0.016034568  0.015776681           15 
 1063000   0.81790233   -7.9839664    204.44985   0.01602774  0.015761669           19 
 1064000    0.8449573   -7.9961632    204.68089  0.016030771  0.015746659           12 
 1065000    0.8290339   -7.9792076    204.56055  0.016006303  0.015731611            7 
 1066000   0.82391094   -7.9865545     204.6331  0.015996959  0.015716654            9 
 1067000   0.82080603   -7.9696128    204.87396  0.016000778  0.015701773            5 
 1068000   0.82512529    -7.989264    203.96915  0.015915196  0.015686907           11 
 1069000   0.84289543    -8.002703    204.21341  0.015919349  0.015671923           15 
 1070000   0.83201904   -7.9693618    204.56045  0.015931499   0.01565686            9 
 1071000   0.84960701   -8.0070108    204.08383  0.015879539  0.015641873           25 
 1072000   0.82741733   -7.9866506    204.99192  0.015935317  0.015626891            9 
 1073000   0.81171605   -7.9755226    204.99693  0.015920855  0.015612074           21 
 1074000    0.8264286   -7.9532426    204.61225  0.015876183   0.01559716           10 
 1075000   0.84602062    -8.021028    204.67798   0.01586651  0.015582295           13 
 1076000   0.81775409   -7.9744614    204.63172  0.015848181  0.015567353           16 
 1077000   0.83297199   -8.0334256    203.98916  0.015783748  0.015552442           45 
 1078000    0.8263136   -8.0060967    204.66411  0.015821283  0.015537516           38 
 1079000   0.83111671   -7.9851144    204.61548  0.015802864  0.015522678           25 
 1080000   0.82631351   -8.0164772    204.79009  0.015801705  0.015507834           33 
 1081000   0.80397541   -7.9910545    205.05463   0.01580748  0.015492993           28 
 1082000   0.82574315   -7.9934097    204.67804  0.015763867  0.015478153           35 
 1083000   0.82660024   -8.0342819    204.58131  0.015741868  0.015463384           16 
 1084000   0.82968307   -7.9880046    205.05236  0.015763558  0.015448573           31 
 1085000   0.80301593   -8.0083009    205.21998  0.015761903  0.015433868           24 
 1086000   0.82395614   -8.0048747    204.94439  0.015726242  0.015419142           21 
 1087000   0.81455948   -8.0289542    205.18684  0.015730362  0.015404455           27 
 1088000   0.82506291   -8.0252187    205.15977   0.01571383   0.01538978           21 
 1089000   0.81023636   -8.0199298     205.2484  0.015706183  0.015375125           26 
 1090000   0.80725848   -8.0290627    204.63915  0.015645195  0.015360421           64 
 1091000   0.80054333   -8.0053305    205.25891  0.015678194  0.015345724           35 
 1092000   0.81493944   -7.9883574     204.8796   0.01563489  0.015331071           30 
 1093000   0.81602308   -7.9828705    205.05312  0.015633816   0.01531642           30 
 1094000    0.8149563   -8.0375613    204.74932  0.015596383  0.015301698           30 
 1095000   0.82632804    -8.000116    205.46206  0.015636382  0.015286964           40 
 1096000   0.81670313   -8.0226317    205.38742   0.01561644  0.015272277           33 
 1097000   0.81562596   -8.0585758    204.49937  0.015534744   0.01525762           34 
 1098000   0.81627212    -8.010235    205.33875  0.015584301  0.015242979           38 
 1099000    0.8144663   -8.0358186    205.01138  0.015545297  0.015228302           58 
 1100000   0.80441366   -8.0271378    205.49208  0.015567582  0.015213642           65 
 1101000   0.82430573   -8.0426245    205.48671  0.015553036   0.01519905           48 
 1102000   0.81458276    -8.052883    205.05398  0.015506199  0.015184409           18 
 1103000   0.82193348   -8.0282992    205.59539  0.015533045  0.015169863           50 
 1104000   0.82041918   -8.0561211    205.07424  0.015479638  0.015155252           56 
 1105000   0.81703569   -8.0441386    205.02216  0.015461701  0.015140695           44 
 1106000    0.8093001   -8.0663148    205.14492  0.015456971  0.015126114           38 
 1107000   0.79084775   -8.0702842    204.95338  0.015428589  0.015111534           19 
 1108000   0.84128109    -8.064841    205.62547  0.015465213  0.015097021            7 
 1109000   0.80636757   -8.0587156    204.63694  0.015376987  0.015082435           44 
 1110000   0.79512373   -8.0216034    205.31377  0.015413947  0.015067999           24 
 1111000   0.81060303   -8.0371403    205.72543   0.01543095  0.015053537           33 
 1112000   0.81696374   -8.0772032    205.15446  0.015374285  0.015039063           32 
 1113000   0.79602354   -8.0463104    205.96205  0.015420938  0.015024535           29 
 1114000   0.80323897   -8.0846305    205.17829  0.015348466  0.015010015           37 
 1115000   0.80222446   -8.0697417    205.28129  0.015342399   0.01499551           27 
 1116000   0.81550295   -8.1002002    205.25327  0.015326558  0.014980985           46 
 1117000   0.80298407   -8.0810812    205.21281  0.015309819  0.014966523           33 
 1118000    0.7984623   -8.0734703    205.76382  0.015337196   0.01495204           35 
 1119000   0.80466785   -8.0735074    205.28615  0.015287917  0.014937603           51 
 1120000     0.804981   -8.0636234    205.42568  0.015284649  0.014923134           42 
 1121000   0.80858732   -8.0748198    205.08202  0.015245467  0.014908659           49 
 1122000   0.79352527   -8.0889261    205.39807  0.015255353  0.014894142           45 
 1123000   0.80591725   -8.0794309    205.11374  0.015220669  0.014879573           70 
 1124000   0.80375784   -8.0871715    204.99442  0.015198281  0.014865064           56 
 1125000   0.79873904   -8.0729324    204.84721  0.015173867  0.014850522           46 
 1126000   0.82182147   -8.0899371    205.43536  0.015203919  0.014836009           35 
 1127000   0.79929209   -8.0672067    205.38675  0.015186834  0.014821501           32 
 1128000   0.78973134   -8.0928485    204.80545  0.015130426  0.014806996           43 
 1129000   0.79824059   -8.0941348    205.23725  0.015148897  0.014792505           49 
 1130000   0.79379596   -8.0959473    205.10409   0.01512567  0.014778021           98 
 1131000   0.81633852   -8.1052526    205.45655  0.015138266  0.014763527           36 
 1132000   0.79644322   -8.1115287     205.1974  0.015105816  0.014749088           37 
 1133000   0.78371585   -8.1006066    205.48616  0.015113722  0.014734645           26 
 1134000   0.79602824   -8.1178237    204.80861  0.015050603  0.014720137           68 
 1135000   0.80215723   -8.1011007    204.89271  0.015043517  0.014705657           53 
 1136000   0.79742673   -8.1116406    204.98341  0.015036929  0.014691155           81 
 1137000   0.79056181   -8.0986775    205.00169  0.015025044  0.014676716           40 
 1138000   0.79192594   -8.0863207    205.06726  0.015016642   0.01466232           48 
 1139000   0.79424508   -8.0997625    205.47716  0.015033448  0.014647976           45 
 1140000   0.80200713    -8.052532    205.74831  0.015040081  0.014633645           49 
 1141000   0.81232607   -8.0795348    205.40014  0.015001471  0.014619302           74 
 1142000   0.81358797   -8.0830246    205.63467  0.015005449  0.014604976           64 
 1143000   0.78732106   -8.0983557     205.4738  0.014980592  0.014590663           68 
 1144000   0.80860427   -8.1194106    204.92427  0.014927468  0.014576302          215 
 1145000   0.80563851   -8.1051784    205.24966  0.014938112  0.014561914          126 
 1146000   0.77828293   -8.0921704    205.34449  0.014931973  0.014547538           61 
 1147000   0.81004013   -8.1267365    205.18354  0.014907261   0.01453317          202 
 1148000   0.80046269    -8.125369    205.03779  0.014883695  0.014518833           74 
 1149000   0.81983171   -8.1148241    205.13961  0.014878127  0.014504454           50 
 1150000    0.8088566   -8.0727338    205.37184  0.014882018  0.014490114           53 
 1151000   0.79231648   -8.1043917     205.2422  0.014859701  0.014475825           50 
 1152000     0.795072   -8.1090083    205.61573  0.014873823  0.014461577           60 
 1153000   0.80136317   -8.0956451    205.68477  0.014865913  0.014447318           55 
 1154000   0.78354016   -8.1149027    205.54052  0.014842614   0.01443306           94 
 1155000   0.79356548   -8.0716553    205.90044  0.014855731  0.014418819           70 
 1156000   0.78419876   -8.1114637    205.70874  0.014829061  0.014404541           92 
 1157000   0.79699144   -8.1587575    204.88228  0.014756718   0.01439022           74 
 1158000    0.7927799   -8.1297194     205.5384  0.014791192  0.014375911          111 
 1159000   0.78988582   -8.1581794    204.75135   0.01472184  0.014361594           71 
 1160000   0.77920799   -8.1536283     204.9099  0.014720539  0.014347331           93 
 1161000   0.79358998    -8.138845    205.44736  0.014746437  0.014333131          119 
 1162000   0.77343815   -8.1361881    204.83208  0.014689622  0.014318926          148 
 1163000     0.810828   -8.1512912    205.17173  0.014701327    0.0143047          242 
 1164000   0.78552274   -8.1395849    205.04677  0.014679752   0.01429048          124 
 1165000   0.79130522   -8.1654967    204.70408  0.014642638  0.014276259          197 
 1166000   0.78958375   -8.1341064    205.55592   0.01469096  0.014262062          108 
 1167000   0.76843682   -8.1232355     205.1543  0.014649693   0.01424793          119 
 1168000   0.77315911   -8.1445237    205.12208  0.014634852  0.014233785          127 
 1169000    0.7886948   -8.1599866    205.24295  0.014630949  0.014219651          109 
 1170000   0.79515386     -8.16192    205.38419  0.014628503  0.014205523          122 
 1171000   0.78559511   -8.1456154    205.07782  0.014594209  0.014191403          230 
 1172000   0.79708875   -8.1794732    205.13748  0.014585998  0.014177274          163 
 1173000   0.78578578   -8.1536067    204.94991  0.014560238  0.014163156          263 
 1174000   0.77345443   -8.1511786    205.13177  0.014560745  0.014149022          226 
 1175000    0.7674226   -8.1767585    205.14003  0.014548939  0.014134913          248 
 1176000   0.77858809   -8.1921764    205.21948  0.014542197  0.014120874          183 
 1177000   0.77732245   -8.1456786    205.11347  0.014522335  0.014106841          120 
 1178000   0.76587443   -8.1662845    205.23621  0.014518691   0.01409274          271 
 1179000   0.80998423   -8.1879724    204.72926  0.014470544  0.014078669          279 
 1180000   0.76588705   -8.1767668    205.08682  0.014483532  0.014064573          272 
 1181000   0.77950176      -8.1625    205.35755  0.014490372  0.014050505          300 
 1182000   0.76282158   -8.1692153    204.99013  0.014452209  0.014036489          214 
 1183000   0.78560152   -8.1807896    205.03198   0.01444294   0.01402251          158 
 1184000   0.78891429   -8.1686547    205.18055  0.014441199  0.014008495          197 
 1185000   0.76441205   -8.2131188    205.47887  0.014449991  0.013994509          220 
 1186000   0.77390738   -8.2052813    205.17268  0.014416293  0.013980525          195 
 1187000   0.78420211   -8.1563879    205.62078  0.014435606  0.013966536          245 
 1188000    0.7986503    -8.169106    205.43453   0.01441039  0.013952556          168 
 1189000   0.77089394   -8.2180578    205.29596  0.014388559  0.013938534          262 
 1190000   0.77225493   -8.1906982    204.83277  0.014344032  0.013924502          164 
 1191000   0.77132531   -8.2140066    205.33902   0.01436741  0.013910478          187 
 1192000   0.78699115   -8.2076702    204.93958  0.014327431  0.013896462          188 
 1193000   0.79096807   -8.2252391    204.73902  0.014301413  0.013882497          137 
 1194000   0.79213577   -8.2148322    204.93514  0.014303123  0.013868569          323 
 1195000   0.78336092   -8.2161129    205.37037  0.014321504  0.013854633          187 
 1196000   0.76678275   -8.2078709    205.39163  0.014311011  0.013840687          168 
 1197000   0.77627909   -8.2049394    204.97038  0.014269728  0.013826779          156 
 1198000    0.7660667   -8.1982753    204.95898  0.014257024  0.013812901          173 
 1199000   0.76257096   -8.2207995    205.07326  0.014253076   0.01379904          233 
 1200000   0.77760407   -8.2036988     204.9783  0.014234604  0.013785147          195 
 1201000   0.76214114   -8.1757295    204.81624  0.014211507  0.013771263          280 
 1202000   0.77019473   -8.1991507    205.14214  0.014222278   0.01375742          324 
 1203000   0.78217723   -8.2050839     204.8031   0.01418697  0.013743641          298 
 1204000   0.77274271   -8.2185378    205.48341  0.014222274   0.01372987          259 
 1205000   0.76386415   -8.2225702    205.28924  0.014197043  0.013716118          312 
 1206000    0.7796467   -8.2345964    204.98426  0.014164197   0.01370237          320 
 1207000   0.79088705   -8.2019439    205.78983   0.01420808  0.013688628          204 
 1208000   0.77946957   -8.2232197    205.10778  0.014149267  0.013674883          338 
 1209000   0.76086373   -8.2012244    205.33448   0.01415319  0.013661149          293 
 1210000   0.77009886   -8.2337137    204.95541  0.014115386  0.013647423          275 
 1211000   0.74614044   -8.2338706    205.24795  0.014123861  0.013633686          343 
 1212000   0.76089873   -8.2160623    205.05714  0.014099088   0.01361992          339 
 1213000   0.75395017   -8.2360348    204.94412  0.014079701  0.013606171          391 
 1214000   0.76419505   -8.2412686     204.9888   0.01407117  0.013592422          349 
 1215000   0.77094918   -8.2250425    205.02602  0.014062141   0.01357874          293 
 1216000   0.78648673   -8.2391087    204.85349  0.014038753  0.013564981          380 
 1217000   0.77112493   -8.2785812    204.78443  0.014022489  0.013551229          417 
 1218000   0.76575447    -8.262774    204.96742  0.014023496   0.01353746          404 
 1219000    0.7670843   -8.2404358     205.1688  0.014025759   0.01352377          413 
 1220000   0.76722203   -8.2676485    204.61468  0.013976413  0.013510077          303 
 1221000   0.76420139   -8.2452311    205.40724  0.014019058  0.013496427          374 
 1222000   0.78564533   -8.2588292    205.04982  0.013983212  0.013482766          420 
 1223000    0.7702721   -8.2394595    205.14418  0.013978208  0.013469121          369 
 1224000   0.77275416   -8.2525887    204.78026  0.013942011  0.013455468          300 
 1225000   0.75947393   -8.2796718    204.61088  0.013919108  0.013441813          525 
 1226000   0.76796267   -8.2404736    205.01849   0.01393546  0.013428131          452 
 1227000   0.76898167   -8.2881315    204.57766  0.013894163  0.013414471          424 
 1228000    0.7549476   -8.2382812    205.26307  0.013929361  0.013400854          426 
 1229000   0.75637612   -8.2530117    204.90085  0.013893467  0.013387247          521 
 1230000   0.76863731   -8.2549371    204.67055  0.013866568  0.013373679          498 
 1231000   0.75005684   -8.2732515    204.74695  0.013860476  0.013360071          464 
 1232000   0.77150367   -8.2869008    204.48428  0.013831458  0.013346439          489 
 1233000   0.76792194   -8.2667138    204.57232  0.013826191  0.013332844          555 
 1234000   0.76521262   -8.2762895     204.5618  0.013814276  0.013319203          545 
 1235000   0.77426342   -8.2634407    204.65894  0.013809645  0.013305612          559 
 1236000   0.75896926   -8.2925497    204.17743  0.013766008   0.01329199          552 
 1237000   0.76651683   -8.2544463    204.95278  0.013807113  0.013278409          660 
 1238000   0.75247655   -8.2908331    204.15201  0.013742058  0.013264847          571 
 1239000   0.76925734   -8.2420201    204.66399  0.013765402  0.013251309          510 
 1240000   0.74956075   -8.2725385    204.60346  0.013750233  0.013237764          514 
 1241000   0.76193739   -8.2958459    204.54152  0.013734993  0.013224259          509 
 1242000   0.75379728    -8.282308    204.33941  0.013710374  0.013210737          407 
 1243000   0.77072697   -8.2964859    204.34241  0.013699545  0.013197251          533 
 1244000   0.75935517   -8.2772572    204.55367  0.013702684  0.013183762          677 
 1245000   0.76067204   -8.2913894    204.77087  0.013706216  0.013170278          639 
 1246000   0.77656478   -8.2929523    204.76755  0.013694994  0.013156812          564 
 1247000   0.75803692   -8.2802183     204.3893  0.013658734  0.013143374          630 
 1248000   0.75170279   -8.3078902    204.44391  0.013651436  0.013129899          682 
 1249000   0.75003444   -8.2976025    204.45834  0.013641469  0.013116438          642 
 1250000   0.74125787   -8.3088395    204.25769  0.013617179  0.013102955          645 
 1251000   0.76164574   -8.2929364    204.57056  0.013627136  0.013089504          594 
 1252000   0.76455962   -8.2968465    204.49759  0.013611395  0.013076084          688 
 1253000   0.73435763   -8.2822924    204.54248  0.013603517  0.013062669          705 
 1254000   0.74742755   -8.2986841    203.98939  0.013555914   0.01304927          659 
 1255000   0.74271329   -8.2962635    204.80791  0.013599463  0.013035887          639 
 1256000   0.74991799   -8.2959063    204.64272  0.013577675  0.013022526          769 
 1257000   0.75933688   -8.2851025    204.08057  0.013529606  0.013009161          763 
 1258000   0.75284126   -8.3023955    204.08658  0.013519249  0.012995789          829 
 1259000   0.74923944   -8.3183274    204.30157  0.013522741  0.012982418          828 
 1260000    0.7724293   -8.3301894    204.27556  0.013510288   0.01296905          842 
 1261000   0.77374471   -8.3356458    204.09354  0.013487546  0.012955708          855 
 1262000   0.74848633   -8.2934785    204.38683  0.013496225  0.012942374          797 
 1263000   0.74333007   -8.3151292       204.59  0.013498945  0.012929026          812 
 1264000    0.7435207   -8.3180917     203.8642  0.013440414  0.012915709          885 
 1265000   0.75633176    -8.315864     203.9626  0.013436272  0.012902408          868 
 1266000   0.74320568   -8.3389868    204.03537  0.013430448  0.012889107          829 
 1267000   0.73683081   -8.3300388    204.49839  0.013450302  0.012875801          892 
 1268000   0.76847281   -8.3200794    203.96166   0.01340442  0.012862515          900 
 1269000   0.75351966   -8.3467938    203.75408  0.013380226  0.012849261          868 
 1270000   0.77214363   -8.3281967    204.11128  0.013393128  0.012836016          825 
 1271000   0.74960859   -8.3173347     204.3759  0.013399941  0.012822773          748 
 1272000    0.7484371    -8.344342    203.87488  0.013356583  0.012809554          892 
 1273000   0.73247417   -8.3391648    204.51716  0.013388136  0.012796304          931 
 1274000   0.74897934   -8.3680928    203.80812  0.013331248  0.012783066         1046 
 1275000   0.75824475   -8.3603264    204.11734  0.013341003  0.012769848         1068 
 1276000   0.76302486   -8.3620603    204.58139  0.013360853  0.012756677          955 
 1277000   0.72514844   -8.3305191    204.73585  0.013360471  0.012743534          922 
 1278000   0.73673076   -8.3587957    204.10828  0.013309095  0.012730401          853 
 1279000    0.7431127    -8.360274    203.94144  0.013287819  0.012717295          885 
 1280000   0.74651772   -8.3634927    203.96706  0.013279105  0.012704195         1040 
 1281000   0.75291145   -8.3515811    203.92928  0.013266282  0.012691091         1095 
 1282000   0.74576906   -8.3923833    203.61373  0.013235422  0.012677974         1136 
 1283000   0.74030976   -8.3632807    204.12987   0.01325863  0.012664873         1141 
 1284000   0.74386685    -8.389123     203.7321  0.013222488  0.012651766         1096 
 1285000   0.75013236   -8.3801472    203.97465  0.013227928  0.012638677         1135 
 1286000   0.72218792   -8.3852672    204.32858  0.013240577  0.012625575         1160 
 1287000   0.73329304   -8.3922625      203.969  0.013207006  0.012612486         1095 
 1288000    0.7505028   -8.4030657    204.12193  0.013206647  0.012599354         1127 
 1289000   0.75552318    -8.393377    203.71374  0.013170012  0.012586257         1206 
 1290000    0.7522324   -8.3779772     203.5558  0.013149599  0.012573177         1246 
 1291000   0.74216924   -8.4066986    203.38689  0.013128511  0.012560116         1156 
 1292000   0.72309299   -8.3925037    203.92391  0.013152987  0.012547033         1244 
 1293000   0.74228282   -8.4239244    203.46925  0.013113512  0.012533987         1319 
 1294000   0.74631581   -8.3940147    203.79984  0.013124668  0.012520941         1196 
 1295000   0.73553168   -8.4105532    203.91701  0.013122073   0.01250791         1229 
 1296000   0.72992492   -8.4054177    204.41056  0.013143683  0.012494937         1279 
 1297000   0.74714384   -8.4302006    203.94242  0.013103471  0.012481921         1368 
 1298000   0.74085826   -8.4067856     203.7241   0.01307936  0.012468894         1340 
 1299000   0.73387489   -8.3840986    203.58531  0.013060387  0.012455883         1342 
 1300000   0.71903937   -8.4130963    203.53845  0.013047336  0.012442898         1348 
 1301000   0.73389274   -8.4050407    203.97357  0.013065179  0.012429926         1297 
 1302000   0.73581164   -8.4193245     203.8023  0.013044182  0.012416969         1280 
 1303000   0.74821411   -8.3995837    203.71244  0.013028424  0.012404015         1322 
 1304000    0.7423227   -8.4327296    203.47604  0.013003325  0.012391067         1408 
 1305000   0.72766865   -8.4014524    203.54149  0.012997541   0.01237813         1332 
 1306000   0.73463851   -8.4223112    203.34857  0.012975279  0.012365194         1312 
 1307000   0.73627862   -8.4364776    203.73261  0.012989837  0.012352263         1401 
 1308000   0.72027233   -8.4558104    203.36023  0.012956182  0.012339323         1319 
 1309000   0.73633982   -8.4198495    203.59928  0.012961502  0.012326403         1296 
 1310000    0.7400862   -8.4007816     203.5351  0.012947525  0.012313499         1297 
 1311000   0.72241511   -8.4305887    203.70887  0.012948695  0.012300646         1452 
 1312000   0.74075877    -8.413398    203.13141  0.012902147  0.012287762         1449 
 1313000   0.73789776   -8.4225759    203.25343  0.012900066  0.012274898         1440 
 1314000   0.72404678   -8.4470677     203.1535   0.01288391  0.012262047         1417 
 1315000   0.72555701   -8.4207608    203.42788  0.012891501  0.012249216         1410 
 1316000   0.72255569   -8.4430482    202.67716  0.012834167  0.012236404         1495 
 1317000   0.74586284   -8.4508775    203.28816  0.012863083  0.012223588         1518 
 1318000   0.73446684   -8.4466173    202.92384  0.012830289   0.01221079         1499 
 1319000   0.71117823   -8.4355563    203.50081  0.012857013  0.012198019         1556 
 1320000   0.73620699    -8.445922    203.38585  0.012840016   0.01218527         1603 
 1321000   0.73678849   -8.4418013    203.26192  0.012822478  0.012172535         1525 
 1322000   0.72630111   -8.4716387    203.37903  0.012820161  0.012159815         1660 
 1323000   0.73608695   -8.4559404    203.21531  0.012800158  0.012147089         1636 
 1324000   0.71112111    -8.471257    203.22095  0.012790845   0.01213433         1610 
 1325000   0.73295046   -8.5011207    203.32187  0.012787539  0.012121604         1706 
 1326000   0.72687213   -8.4748858    203.16497  0.012768035  0.012108876         1725 
 1327000   0.71112976   -8.4732429    203.44385  0.012775926  0.012096179         1616 
 1328000   0.72840536   -8.5126163    202.73217  0.012721647  0.012083486         1735 
 1329000   0.71019025   -8.4875094    202.82649  0.012717989  0.012070791         1735 
 1330000    0.7210526    -8.474613    202.95831  0.012716686  0.012058115         1806 
 1331000   0.73778176   -8.4913988    202.88293  0.012702412  0.012045453         1828 
 1332000   0.71305394   -8.5150245    202.95994  0.012697694  0.012032801         1767 
 1333000   0.72396944   -8.4883822    202.85125  0.012681374  0.012020122         1753 
 1334000   0.74161935   -8.5006251    202.83124  0.012670617  0.012007494         1792 
 1335000   0.72533377   -8.5144188    202.64342  0.012649402  0.011994862         1748 
 1336000   0.71513953   -8.5041591    203.31852  0.012682044  0.011982257         1840 
 1337000   0.72762917   -8.4983688    202.94408   0.01264922  0.011969661         1789 
 1338000   0.71333826   -8.4891397    203.03206  0.012645246  0.011957059         1856 
 1339000   0.72543554   -8.5255153    203.19374  0.012645864  0.011944487         1853 
 1340000   0.73174122   -8.5199338    202.59285  0.012599058  0.011931959         1915 
 1341000   0.70634967   -8.5278417    202.54953  0.012586971  0.011919405         1924 
 1342000   0.70142228   -8.5115545    203.13297  0.012613821  0.011906876         1807 
 1343000   0.71225886   -8.5028916    202.57216   0.01256963  0.011894384         1882 
 1344000   0.71204718   -8.5246025     203.1017  0.012593111  0.011881922         1922 
 1345000   0.72281075   -8.5146035    203.00508  0.012577762  0.011869449         1873 
 1346000   0.70901533   -8.5161461    202.37001  0.012529099  0.011857007         2000 
 1347000   0.72251059   -8.5237603    202.26312  0.012513185  0.011844539         2007 
 1348000   0.71837293   -8.5381027    202.48953  0.012517899  0.011832084         2064 
 1349000   0.69820965   -8.5437247    202.96717  0.012538125  0.011819643         2065 
 1350000   0.71244552   -8.5486626    202.57691  0.012504748  0.011807184         2115 
 1351000   0.71939102   -8.5482972    202.10991  0.012466686  0.011794745         2052 
 1352000   0.72946729   -8.5537655     202.4787  0.012480196  0.011782291         2212 
 1353000   0.72291006   -8.5471831    202.78403  0.012489778  0.011769873         2182 
 1354000   0.71196156   -8.5396889    202.97366  0.012492224  0.011757468         2223 
 1355000   0.72340609   -8.5557008    202.22848  0.012437176  0.011745047         2319 
 1356000   0.69123759   -8.5738518    202.45817   0.01244212  0.011732633         2360 
 1357000   0.72854043   -8.5784591    202.72399  0.012449275  0.011720251         2278 
 1358000    0.7259253   -8.5653511    202.42879  0.012421992  0.011707876         2364 
 1359000   0.70792366   -8.5693146    202.30325  0.012405154  0.011695501         2347 
 1360000   0.70458939   -8.5701896    202.08839  0.012382867  0.011683112         2361 
 1361000   0.71650128   -8.5570406    202.46255  0.012396678   0.01167075         2435 
 1362000   0.70589877   -8.5682687    202.21851  0.012372645  0.011658384         2384 
 1363000   0.69305351   -8.5887759    202.02652  0.012351829  0.011646039         2416 
 1364000   0.71324069   -8.5741084    202.33383  0.012361549   0.01163368         2458 
 1365000   0.69421827    -8.586056    202.38853  0.012355832  0.011621335         2478 
 1366000   0.71188044   -8.5648781    202.28269   0.01234033     0.011609         2494 
 1367000   0.69393828   -8.5751415    202.16427  0.012324084  0.011596657         2413 
 1368000   0.72834699   -8.6188817    202.07695  0.012309756  0.011584301         2652 
 1369000   0.70076379    -8.618896    202.04549  0.012298849  0.011571951         2645 
 1370000   0.71280464   -8.6192913    201.54651   0.01225952  0.011559606         2626 
 1371000   0.70519259   -8.6525337    201.97294  0.012276498  0.011547277         2643 
 1372000   0.71044781   -8.6247715    201.62461  0.012246393  0.011534928         2671 
 1373000    0.7031078   -8.6325065    201.66541   0.01223995  0.011522603         2703 
 1374000   0.70835392     -8.64592    201.87899  0.012243995  0.011510306         2750 
 1375000   0.69972499   -8.6417898    202.15145  0.012251603  0.011498009         2754 
 1376000   0.69546929   -8.6415284    201.83008  0.012223236  0.011485705         2727 
 1377000   0.68205164   -8.6585532    201.57129  0.012198698  0.011473398         2843 
 1378000    0.6880804   -8.6616104    201.40602  0.012179851  0.011461081         2810 
 1379000    0.7044572   -8.6601144    201.61366  0.012183567  0.011448792         2795 
 1380000   0.68618745   -8.6572517    201.70225  0.012180087  0.011436517         2812 
 1381000   0.70440571   -8.6532832    201.35719  0.012150446  0.011424252         2789 
 1382000   0.70699897   -8.6557013    201.04797  0.012123008  0.011412013         2836 
 1383000   0.71768199   -8.6442562    201.38374  0.012134474   0.01139978         2786 
 1384000   0.69903256   -8.6594937     201.1903   0.01211406   0.01138756         2906 
 1385000   0.70140307   -8.6506266    201.63904  0.012132313  0.011375361         2918 
 1386000   0.69789844   -8.6878332    201.48029  0.012114015  0.011363146         2948 
 1387000   0.70404032   -8.6587401    201.24535  0.012091165  0.011350963         2878 
 1388000   0.69535658   -8.6574244    202.14299  0.012136347  0.011338788         2903 
 1389000   0.69795207   -8.6790075    201.52017  0.012090243  0.011326638         2926 
 1390000   0.68930833   -8.6881703    201.56227  0.012084069   0.01131449         2926 
 1391000   0.69271432   -8.6869179    201.19873  0.012053602  0.011302338         2889 
 1392000   0.69857137   -8.6969691    201.21668  0.012046018  0.011290223         2923 
 1393000   0.69367838     -8.68091     201.3172  0.012043384  0.011278088         2885 
 1394000    0.6999714    -8.691117    201.02985  0.012017567  0.011265999         2974 
 1395000   0.70618842   -8.6928872    200.66711  0.011987283  0.011253919         2932 
 1396000    0.6986333   -8.6825648    201.70164  0.012040452  0.011241859         2901 
 1397000   0.69441123   -8.6850415    201.31267   0.01200863  0.011229801         2929 
 1398000   0.68960156   -8.7062185    201.20356  0.011993536  0.011217766         3001 
 1399000   0.70115777    -8.688152    201.63238  0.012010506  0.011205756         2975 
 1400000   0.69944874   -8.6966932    201.35406  0.011985361  0.011193749         2939 
 1401000    0.6965345   -8.6979645    201.10023  0.011961708  0.011181769         2974 
 1402000   0.70173745   -8.6867818    201.15006  0.011956138  0.011169783         3034 
 1403000   0.69535453   -8.7038816    200.95553  0.011936061   0.01115781         3004 
 1404000     0.695783   -8.7035208    200.85053  0.011921328  0.011145874         2971 
 1405000   0.69754679   -8.6821436     201.4659  0.011949341  0.011133954         2940 
 1406000   0.68630639    -8.724751    201.03381  0.011915233  0.011122032         2972 
 1407000   0.69223116   -8.7068559    201.10095  0.011910741  0.011110087         3031 
 1408000   0.68839268   -8.7055229    201.38103  0.011918858    0.0110982         2967 
 1409000   0.68966323   -8.7110369    201.37447  0.011910011  0.011086325         2958 
 1410000   0.69722264   -8.7130596    201.12528  0.011886837  0.011074444         2927 
 1411000   0.69483362   -8.6983137    200.91057  0.011865732  0.011062609         2970 
 1412000   0.68855982   -8.6952573    200.91987  0.011857877  0.011050775         3033 
 1413000   0.69821058   -8.6884454    201.27729  0.011870564  0.011038958         2905 
 1414000   0.70045116   -8.7234639    201.15994  0.011855253  0.011027143         2947 
 1415000   0.69394024   -8.7206696    200.85011  0.011828628  0.011015347         2987 
 1416000   0.69357168   -8.7240018    201.03233  0.011830999  0.011003559         2914 
 1417000   0.69535502   -8.7125943    201.02715  0.011822345  0.010991774         2997 
 1418000    0.6828292   -8.7389426     200.9281  0.011808187  0.010980013         3003 
 1419000   0.69380999   -8.7253033    201.02739  0.011805696  0.010968273         3080 
 1420000   0.69891281   -8.7273032    200.66012  0.011775829  0.010956548         3040 
 1421000   0.68714719   -8.7349837    200.80961  0.011776308  0.010944844         3050 
 1422000   0.67506613   -8.7046701    201.30947   0.01179732  0.010933159         3020 
 1423000    0.6887132   -8.7121016    201.33005  0.011790235  0.010921476         3021 
 1424000   0.69913281   -8.7410357    201.04591  0.011765327  0.010909809         3024 
 1425000   0.67138983   -8.7229887    201.00882  0.011754902  0.010898163         3029 
 1426000   0.70061259   -8.7082704    201.16114   0.01175556  0.010886539         3034 
 1427000   0.67074571   -8.7014571    200.98461  0.011737013   0.01087492         2979 
 1428000   0.67629081    -8.701371    201.12289  0.011736863  0.010863318         2899 
 1429000   0.67224679   -8.7195831    201.16749  0.011731251  0.010851737         2974 
 1430000   0.67803454   -8.7467242    201.02225  0.011714583  0.010840176         3001 
 1431000   0.68935033    -8.714126    201.00322  0.011705289  0.010828623         2980 
 1432000    0.6810582   -8.7184329    200.99893  0.011696865  0.010817098         2968 
 1433000   0.67777992   -8.7495261    200.80865  0.011677637  0.010805574         3075 
 1434000   0.69574421   -8.7092826    200.99722  0.011680452  0.010794078         2972 
 1435000    0.6832633   -8.7153294    201.04819  0.011675272  0.010782612         3061 
 1436000   0.68935124   -8.7498573    200.72472   0.01164837  0.010771147         3017 
 1437000   0.67048591   -8.7389167    200.84064  0.011646987  0.010759685         3007 
 1438000   0.67847825   -8.7475629    201.23732  0.011661875  0.010748226         2995 
 1439000    0.6697404   -8.7322288    201.06258  0.011643652  0.010736796         3016 
 1440000   0.70091074   -8.7302818    201.00162  0.011632038  0.010725378         3037 
 1441000   0.67829348   -8.7447901    200.85983  0.011615766  0.010713976         3069 
 1442000   0.68006028   -8.7444386    200.73001  0.011600209  0.010702589         3102 
 1443000   0.67947546   -8.7358319    201.01006  0.011608343  0.010691222         3013 
 1444000   0.66992379   -8.7459022    200.82492  0.011589619  0.010679876         3046 
 1445000   0.67286262   -8.7400625    201.38612  0.011613963  0.010668531         3006 
 1446000   0.68003811    -8.740653    200.77139  0.011570504   0.01065721         3019 
 1447000   0.67721301   -8.7434465    200.82333  0.011565499  0.010645886         3040 
 1448000   0.67125976   -8.7547038    200.92044  0.011563101  0.010634599         3034 
 1449000   0.67358805   -8.7344627    201.21397  0.011572002  0.010623313         3006 
 1450000   0.67784894   -8.7251522    200.92839  0.011547608  0.010612036         3055 
 1451000   0.67314941   -8.7601042    200.65479  0.011523937  0.010600774         3112 
 1452000   0.68163778   -8.7454187    200.75445   0.01152172  0.010589505         3042 
 1453000   0.65982623   -8.7539222    200.46502  0.011497191  0.010578267         3070 
 1454000   0.67461414   -8.7667591    201.05096  0.011522865  0.010567044         3116 
 1455000    0.6653586   -8.7519989    201.05283  0.011515053  0.010555831         3045 
 1456000   0.66633704   -8.7645648    200.36269  0.011467645  0.010544637         3115 
 1457000   0.67530931   -8.7460279    200.80991  0.011485353  0.010533449         3098 
 1458000   0.66235091   -8.7525536     200.7627  0.011474777  0.010522279         3128 
 1459000   0.67045818   -8.7649848    200.39581  0.011445956  0.010511112         3150 
 1460000   0.67567642   -8.7570072    200.39025    0.0114378  0.010499951         3080 
 1461000   0.66745868   -8.7411606    200.96735  0.011462888  0.010488821         3096 
 1462000   0.67804777   -8.7726969    200.62622  0.011435603   0.01047769         3141 
 1463000   0.66801199   -8.7735734    200.18142   0.01140245  0.010466565         3194 
 1464000   0.66995797   -8.7736265    200.52935  0.011414467  0.010455425         3118 
 1465000   0.67531352   -8.7669685    200.34792  0.011396355  0.010444303         3164 
 1466000   0.67863396   -8.7611083    200.30069  0.011385897    0.0104332         3177 
 1467000   0.66280453   -8.7812902    200.56391  0.011393087  0.010422134         3143 
 1468000   0.66801445   -8.7690685    200.11076  0.011359602  0.010411065         3124 
 1469000   0.66767029   -8.7658883    200.74192  0.011387674  0.010400017         3154 
 1470000   0.67977078   -8.7821493    200.77368  0.011381728  0.010388986         3181 
 1471000   0.66148884   -8.7720042    200.45991  0.011356215   0.01037797         3189 
 1472000   0.67049411   -8.7780608    200.25324    0.0113368  0.010366968         3212 
 1473000   0.67834817   -8.7913059    200.22773  0.011327661  0.010355981         3228 
 1474000   0.67630729   -8.7587408    200.39285  0.011329311  0.010345016         3188 
 1475000   0.66923388   -8.7831685    200.59478  0.011333039  0.010334045         3268 
 1476000   0.65259867   -8.7762922     200.0051  0.011292067  0.010323074         3224 
 1477000   0.66347667   -8.7752972    200.51243  0.011313046  0.010312134         3159 
 1478000   0.67167488   -8.8100635    200.06737  0.011280298  0.010301215         3245 
 1479000   0.66504438   -8.7948826     200.1032   0.01127469  0.010290306         3224 
 1480000    0.6551414   -8.8187696    200.44366  0.011286242  0.010279392         3266 
 1481000   0.65731276   -8.7912389    200.30032  0.011270556  0.010268488         3236 
 1482000   0.65301622   -8.7806562    200.51769  0.011275174  0.010257595         3285 
 1483000   0.66720149   -8.7813572    200.33844  0.011257498  0.010246732         3205 
 1484000   0.66251583   -8.7896032     200.0385   0.01123307  0.010235872         3274 
 1485000   0.65451338   -8.8132416    199.76814  0.011210333  0.010225023         3203 
 1486000   0.66985774   -8.7976987    200.55639  0.011246994  0.010214218         3231 
 1487000   0.65430615   -8.7955371    200.45686  0.011233852   0.01020341         3213 
 1488000   0.67156864   -8.7927909    200.17741  0.011210652  0.010192618         3238 
 1489000   0.66410889   -8.7953349    200.48666  0.011220431   0.01018184         3301 
 1490000   0.66815314   -8.8004317     200.3883  0.011207399  0.010171067         3224 
 1491000   0.64983307   -8.7968429    200.33927  0.011197142  0.010160315         3220 
 1492000   0.65600188    -8.790743     200.3755  0.011191661  0.010149571         3246 
 1493000   0.65533379   -8.8097011    200.44833   0.01118823  0.010138832         3324 
 1494000   0.65182778   -8.8351224     200.2088   0.01116738  0.010128105         3310 
 1495000   0.64054669   -8.8231847    200.08454  0.011152984  0.010117395         3236 
 1496000   0.64947472   -8.8167172    200.65274   0.01117718  0.010106699         3274 
 1497000   0.66445852   -8.8272315    200.00667  0.011133749  0.010096006         3298 
 1498000    0.6618495   -8.8148726    200.04481  0.011128438  0.010085315         3273 
 1499000   0.65423643   -8.8036052    199.98679  0.011117789  0.010074642         3180 
 1500000     0.658263   -8.8254609    200.25702   0.01112539  0.010063976         3265 
 1501000   0.64370222   -8.8190471    200.10154  0.011109346  0.010053329         3285 
 1502000   0.65419029   -8.8088029    200.02188   0.01109753  0.010042705         3319 
 1503000   0.65631438   -8.8274346    200.09977  0.011094465  0.010032094         3295 
 1504000   0.66073627   -8.8385087    199.69313  0.011064557  0.010021476         3242 
 1505000   0.64942136   -8.8194108    199.99266  0.011073791  0.010010872         3300 
 1506000   0.65773355   -8.8193269    199.85635  0.011058895  0.010000294         3291 
 1507000   0.64622456   -8.8300741    200.12468  0.011066395 0.0099897289         3296 
 1508000   0.65140227   -8.8492783    199.53904  0.011026693 0.0099791805         3319 
 1509000   0.64499963   -8.8355564    199.63973  0.011024947 0.0099686499         3324 
 1510000    0.6487022   -8.8309621    200.08141   0.01104202 0.0099581287         3242 
 1511000   0.64421815   -8.8354355    200.21545  0.011042105 0.0099476187         3372 
 1512000   0.64956824    -8.822359    199.63987  0.011003079 0.0099371232         3254 
 1513000   0.64101921   -8.8365569    200.16399  0.011024674 0.0099266504         3293 
 1514000   0.64291028   -8.8347817    199.74996  0.010994604 0.0099161858         3282 
 1515000   0.65317726   -8.8427483    199.60563  0.010979408 0.0099057356         3226 
 1516000   0.64997056   -8.8496865    199.50014  0.010966367 0.0098953065         3343 
 1517000   0.65509916   -8.8600432    199.76076  0.010973454  0.009884887         3339 
 1518000   0.64194984   -8.8287839     199.9612  0.010977229  0.009874469         3331 
 1519000   0.65185768   -8.8197307    199.53359  0.010946543  0.009864063         3299 
 1520000   0.63612413   -8.8406383    199.97414  0.010963495 0.0098536711         3330 
 1521000   0.65130385   -8.8450241    200.30931   0.01097465 0.0098432991         3313 
 1522000   0.64616267   -8.8482911     199.9695  0.010948834 0.0098329318         3293 
 1523000   0.64709651   -8.8472505    200.11297  0.010949495 0.0098225811         3320 
 1524000   0.65632285   -8.8375683    200.07354  0.010940154 0.0098122466         3318 
 1525000   0.65496532   -8.8442167    199.50727  0.010902037 0.0098019171         3292 
 1526000   0.64398134   -8.8347115    199.74355  0.010907796 0.0097916143         3323 
 1527000   0.64248506    -8.828266    199.83867  0.010905843 0.0097813243         3314 
 1528000   0.64083046   -8.8459176      199.574  0.010884271 0.0097710438         3345 
 1529000    0.6393547   -8.8648002    199.60822  0.010879018 0.0097607702         3337 
 1530000   0.63445979    -8.865466    199.60679  0.010871829 0.0097505071         3339 
 1531000   0.64614462   -8.8719753    199.81543  0.010876085 0.0097402574         3358 
 1532000   0.62987844   -8.8626195    199.48311  0.010850909 0.0097300191         3423 
 1533000   0.62582737   -8.8457518    199.78584  0.010860287 0.0097197947         3369 
 1534000   0.64864932    -8.861125    199.60465  0.010843364 0.0097096001         3369 
 1535000   0.64397228   -8.8610487     199.6124  0.010836721 0.0096994123         3380 
 1536000   0.64080948   -8.8463949    199.54743  0.010826141 0.0096892292         3362 
 1537000   0.62523442   -8.8313134    199.63382  0.010823781 0.0096790648         3333 
 1538000   0.61777242   -8.8634013    199.39805  0.010803969 0.0096689053         3414 
 1539000   0.63986006   -8.8595532    199.49273  0.010802075 0.0096587603         3391 
 1540000   0.63173332   -8.8482559    199.26795  0.010782898 0.0096486291         3384 
 1541000   0.62967248   -8.8732909     199.5842  0.010793002 0.0096385201         3338 
 1542000   0.65469264    -8.869475    199.81582   0.01079852 0.0096284126         3384 
 1543000   0.62506211   -8.8426875    199.49494  0.010774192 0.0096183143         3400 
 1544000   0.64087505   -8.8642282    199.74011  0.010780446 0.0096082339         3386 
 1545000   0.62769074   -8.8430619    199.59351  0.010765561 0.0095981769         3423 
 1546000   0.64697472   -8.8505866    199.77704  0.010768491  0.009588127         3420 
 1547000   0.63046665   -8.8536455    199.66711  0.010755608 0.0095780974         3402 
 1548000   0.63912241   -8.8598311    199.59398  0.010744723 0.0095680827         3372 
 1549000   0.65294296   -8.8716716    199.65982  0.010741329 0.0095580863         3378 
 1550000   0.62909185   -8.8488648    199.61618  0.010732053 0.0095480884         3433 
 1551000   0.63133976   -8.8702159    199.73861  0.010731711 0.0095381094         3385 
 1552000   0.63822727   -8.8569895    199.75635  0.010725749 0.0095281465         3409 
 1553000   0.62513507   -8.8720552     199.7063  0.010716157 0.0095181832         3403 
 1554000   0.62931509   -8.8715435    199.44458  0.010695226 0.0095082307         3340 
 1555000    0.6401614   -8.8873322     199.5273  0.010692781    0.0094983         3378 
 1556000   0.61648657   -8.8564889    199.64484  0.010692204 0.0094883807         3389 
 1557000   0.64440112   -8.8802675    199.37079  0.010670669   0.00947848         3419 
 1558000   0.63697764   -8.8827361    199.46501   0.01066886 0.0094685881         3436 
 1559000   0.63533883   -8.8674992    199.24665  0.010650345 0.0094587216         3421 
 1560000   0.63091702     -8.85537     199.4165  0.010652591 0.0094488515         3404 
 1561000   0.64221272   -8.8939474    199.67289  0.010659454 0.0094389975         3452 
 1562000   0.62997021   -8.8579174    199.58667   0.01064803 0.0094291475         3380 
 1563000   0.63721296   -8.8688718    198.80702  0.010599649 0.0094193168         3505 
 1564000   0.63079099   -8.8856343    199.23883   0.01061588 0.0094095043         3473 
 1565000   0.62960939   -8.8781494    199.28772    0.0106117 0.0093997004         3450 
 1566000   0.61543768   -8.8659851    199.44788  0.010613446  0.009389895         3536 
 1567000   0.62159143   -8.8830309    199.26299   0.01059684 0.0093801144         3507 
 1568000   0.63145041   -8.8723951    199.24544  0.010589149 0.0093703442         3438 
 1569000   0.62634019   -8.8845603    199.18211  0.010579037 0.0093605821         3448 
 1570000    0.6245844   -8.8922218    199.07444  0.010566584 0.0093508454         3451 
 1571000   0.62102045   -8.8835962    199.17516  0.010565201 0.0093411147         3480 
 1572000   0.61987267   -8.8830145    199.34033  0.010567236  0.009331389         3459 
 1573000   0.63077411   -8.8935818    199.15345  0.010550617 0.0093216826         3506 
 1574000   0.63084793   -8.8806525    199.43171  0.010558646 0.0093119824         3452 
 1575000   0.63025244    -8.880433    199.22865  0.010541198 0.0093022973         3494 
 1576000   0.60504021   -8.8858475    199.43404   0.01054537 0.0092926212         3497 
 1577000   0.62635119   -8.9124456    199.18685  0.010525621 0.0092829636         3486 
 1578000   0.62399203   -8.8926366    199.37931  0.010529114 0.0092733054         3469 
 1579000    0.6287751   -8.8780829    199.36087  0.010521473 0.0092636807         3451 
 1580000   0.63841732   -8.8809186    199.25802  0.010509389 0.0092540542         3418 
 1581000   0.62775195   -8.8845905    199.28008  0.010503905 0.0092444351         3525 
 1582000   0.62536608    -8.907213    198.94934  0.010479843 0.0092348345         3496 
 1583000   0.63094812   -8.8929752    199.16311  0.010484476 0.0092252439         3502 
 1584000   0.62221895   -8.8739815    199.39384  0.010489996 0.0092156816         3455 
 1585000   0.62543692   -8.8989563    199.30263  0.010478582 0.0092061251         3556 
 1586000   0.63860601   -8.8831612    199.46987  0.010480762 0.0091965691         3440 
 1587000   0.60968587   -8.8860727    199.51635  0.010476599 0.0091870228         3479 
 1588000   0.62784631   -8.9039055    199.30562  0.010458943 0.0091775102         3457 
 1589000    0.6180064   -8.9076733    199.05561  0.010439249 0.0091680026         3490 
 1590000   0.61525441   -8.9043014    199.30573  0.010445793 0.0091585041         3490 
 1591000   0.64483234   -8.8838284    199.07424  0.010427103  0.009149013         3491 
 1592000   0.60874816   -8.9004659    198.88917  0.010410865 0.0091395309         3502 
 1593000   0.62049851   -8.9153928    198.85327  0.010402452 0.0091300615         3572 
 1594000   0.62614761   -8.9042616    198.85532  0.010396033 0.0091206135         3446 
 1595000   0.62737035   -8.8674034    199.03689  0.010399002 0.0091111849         3476 
 1596000   0.62030476   -8.8917628    199.42983  0.010413003 0.0091017536         3493 
 1597000   0.61424703   -8.9024839    198.78149  0.010372652 0.0090923355         3517 
 1598000   0.60606376   -8.8989258    198.89345  0.010371999 0.0090829454         3489 
 1599000   0.61669935   -8.8886314    198.98699  0.010370387   0.00907356         3462 
 1600000   0.60899329   -8.9087677    198.97694  0.010363382 0.0090641782         3524 
 1601000   0.62036445   -8.9062947    199.15946   0.01036641 0.0090548164         3461 
 1602000   0.61088038   -8.9079802    199.01702  0.010352529 0.0090454688         3555 
 1603000   0.62071853   -8.9091484    199.08023  0.010349357 0.0090361317         3526 
 1604000   0.61863433   -8.9171087     199.1136  0.010344638 0.0090267988         3498 
 1605000   0.61820339   -8.8939424    199.15162  0.010340167 0.0090174896         3471 
 1606000   0.62556281   -8.9159002    198.88385  0.010319834 0.0090081911         3491 
 1607000   0.60949417   -8.8814275     199.0285  0.010320914 0.0089989059         3511 
 1608000   0.61190326   -8.9041694     199.1384  0.010320191 0.0089896305         3483 
 1609000   0.61412426   -8.8985603    199.33707  0.010324066 0.0089803722         3450 
 1610000    0.6212923   -8.9045189     199.0181  0.010301144 0.0089711329         3455 
 1611000   0.61911752   -8.8847823    199.45326  0.010317259 0.0089619014         3525 
 1612000   0.61251925   -8.8872342    199.33353   0.01030467 0.0089526754         3438 
 1613000   0.60596972   -8.9060401    199.20847   0.01029182 0.0089434658         3478 
 1614000   0.61464374   -8.9159343    199.16943  0.010283428 0.0089342623         3510 
 1615000   0.61775938   -8.9105603    198.90404  0.010263366 0.0089250653         3471 
 1616000   0.61494345   -8.9228367    198.84155  0.010253793 0.0089158777         3474 
 1617000   0.61431144   -8.9332661    198.82424   0.01024656 0.0089067085         3493 
 1618000   0.59828847   -8.9209239    199.11672  0.010255291 0.0088975584         3460 
 1619000   0.60106205   -8.9272301    199.05497  0.010245778 0.0088884224         3487 
 1620000   0.61802132    -8.915884     199.1231  0.010242958 0.0088792958         3455 
 1621000   0.60678595   -8.9328609    199.05833  0.010233309 0.0088701822         3498 
 1622000   0.60725296   -8.9265823    199.00533  0.010224277 0.0088610823         3462 
 1623000   0.60581824   -8.9306202     199.0227  0.010218869 0.0088519954         3424 
 1624000   0.59618449   -8.9302517    198.92582  0.010207606  0.008842916         3471 
 1625000   0.60359246   -8.9368558    198.94236  0.010202172 0.0088338439         3453 
 1626000   0.59534709   -8.9194816    199.09251  0.010203593 0.0088247935         3485 
 1627000   0.60231537   -8.9311101    198.86027  0.010185427 0.0088157479         3473 
 1628000   0.58696983   -8.9273448    199.02205  0.010187451 0.0088067245         3439 
 1629000   0.59805651   -8.9318649    199.04226  0.010182231 0.0087977011         3479 
 1630000   0.60250969   -8.9209372    198.97965  0.010172784 0.0087886994         3477 
 1631000   0.59434228   -8.9152182    199.03956  0.010169608 0.0087797044         3459 
 1632000   0.61567746   -8.9177139    198.84495  0.010153439 0.0087707234         3479 
 1633000   0.61033604    -8.926566    199.14711  0.010162641 0.0087617557         3512 
 1634000   0.60006845   -8.9435245    198.63812  0.010130463 0.0087527866         3522 
 1635000   0.60838483   -8.9218773    199.06102  0.010145821 0.0087438363         3478 
 1636000   0.60431567   -8.9149299    198.92017  0.010132445 0.0087349046         3466 
 1637000   0.59614611   -8.9278896     198.6515  0.010112579 0.0087259825         3493 
 1638000   0.60395304   -8.9264622    198.50671  0.010099039 0.0087170814         3504 
 1639000   0.59371136   -8.9342936    198.93795  0.010114803 0.0087081811         3428 
 1640000   0.59741908   -8.9373522     199.1125  0.010117505 0.0086993003         3518 
 1641000    0.6052702   -8.9332041    198.64101  0.010087396  0.008690444         3453 
 1642000   0.60140918   -8.9374096    199.02317  0.010100648  0.008681589         3458 
 1643000    0.6068784   -8.9376198    199.04006  0.010095357 0.0086727432         3519 
 1644000   0.60839257   -8.9301943    199.08432   0.01009146 0.0086639035         3484 
 1645000   0.60458602   -8.9426689    198.63174  0.010062398 0.0086550712         3492 
 1646000   0.59695256   -8.9367975    198.61096  0.010055233  0.008646251         3517 
 1647000    0.6015525   -8.9702329    198.64805  0.010051004 0.0086374431         3504 
 1648000   0.58513993   -8.9277129    198.95182  0.010060266 0.0086286567         3531 
 1649000    0.5912873   -8.9451766    198.95294  0.010054222 0.0086198822         3500 
 1650000   0.59642312   -8.9436858    198.95542  0.010048253 0.0086111145         3469 
 1651000   0.59880063   -8.9178452     199.0468   0.01004678 0.0086023624         3473 
 1652000   0.58523032   -8.9271977     198.5309  0.010014674 0.0085936172         3481 
 1653000    0.5828932   -8.9374609    198.70125  0.010017203 0.0085848836         3551 
 1654000   0.59206011   -8.9459577    198.86049   0.01001917  0.008576161         3506 
 1655000   0.60494228   -8.9245661    199.18501  0.010029457 0.0085674559         3489 
 1656000   0.59708864   -8.9484624    198.65794 0.0099968768 0.0085587583         3519 
 1657000   0.60448555    -8.935374     198.6533 0.0099906105 0.0085500736         3439 
 1658000   0.59562143   -8.9088762     199.2252  0.010013329 0.0085414011         3497 
 1659000   0.59723184   -8.9563406    198.69135 0.0099804778 0.0085327433         3546 
 1660000   0.59189695   -8.9461902    198.60851 0.0099703066 0.0085240993         3473 
 1661000   0.58943078   -8.9324066    198.89258 0.0099785562 0.0085154559         3496 
 1662000   0.58491354   -8.9517494    198.45319 0.0099505211 0.0085068227         3522 
 1663000   0.58731096   -8.9504334    198.62152 0.0099529724 0.0084982037         3551 
 1664000    0.5866266   -8.9298209    198.33518 0.0099326513 0.0084895867         3513 
 1665000   0.59166016   -8.9539796    198.74495 0.0099471949 0.0084809963         3457 
 1666000   0.58139828   -8.9537026    198.64008 0.0099359784 0.0084724149         3515 
 1667000   0.58611462   -8.9447148    198.60249 0.0099281389 0.0084638398         3504 
 1668000   0.57298502   -8.9497127    198.97161 0.0099406281 0.0084552725         3482 
 1669000   0.56619038   -8.9402058    198.90205 0.0099311986 0.0084467189         3545 
 1670000   0.59195602   -8.9518995    198.91326 0.0099258112 0.0084381757         3509 
 1671000    0.5778874   -8.9449046    198.87718 0.0099180719 0.0084296434         3469 
 1672000   0.58747775   -8.9281389    198.80636 0.0099086105 0.0084211237         3519 
 1673000   0.58545042   -8.9422594    199.11408 0.0099180154 0.0084126171         3470 
 1674000   0.57714107   -8.9479257    198.86956 0.0098999183 0.0084041276         3469 
 1675000    0.5841641   -8.9493462    198.86045 0.0098935547 0.0083956447         3501 
 1676000   0.59739363   -8.9508837    198.99312 0.0098942483 0.0083871739         3495 
 1677000   0.57936084   -8.9318498     198.5665 0.0098671488 0.0083787215         3452 
 1678000   0.57929655   -8.9641011    198.60287 0.0098630746 0.0083702673         3493 
 1679000     0.593684   -8.9340181    198.50408 0.0098522968   0.00836183         3474 
 1680000   0.59212612   -8.9640215    198.34151 0.0098383684 0.0083534119         3503 
 1681000   0.58244219   -8.9478336    198.55037   0.00984287  0.008344994         3493 
 1682000   0.58258937   -8.9640055    198.80269 0.0098495189 0.0083366022         3484 
 1683000   0.57343182    -8.949347     198.4575 0.0098265746 0.0083282058         3480 
 1684000   0.56700541   -8.9559083    198.52731 0.0098241941 0.0083198188         3497 
 1685000   0.57828816   -8.9578951    198.56174 0.0098200662 0.0083114491         3455 
 1686000   0.57544298   -8.9620885    198.91628 0.0098317653 0.0083030879         3485 
 1687000   0.57932338   -8.9476999    198.71974 0.0098162292 0.0082947402         3522 
 1688000   0.59285341   -8.9573205    198.89602 0.0098191164 0.0082864011         3522 
 1689000    0.5723786   -8.9639039    198.64217 0.0098007782 0.0082780696         3529 
 1690000   0.57525135   -8.9678306    198.74777  0.009800186 0.0082697487         3507 
 1691000   0.57839935   -8.9535736    198.52865 0.0097835921 0.0082614416         3511 
 1692000   0.59287148   -8.9591796    198.91446 0.0097968115 0.0082531408         3572 
 1693000   0.56811618    -8.990908    198.46399 0.0097688518 0.0082448566         3497 
 1694000   0.57303725   -8.9781652     198.3431 0.0097571379  0.008236574         3483 
 1695000   0.58054633   -8.9759263    198.23783 0.0097462062 0.0082283089         3539 
 1696000   0.57879875     -8.98411    198.20022 0.0097386116 0.0082200508         3553 
 1697000   0.58043905   -8.9632128    198.52701   0.00974892 0.0082118058         3516 
 1698000   0.57561719    -8.960659    198.51716 0.0097426952 0.0082035718         3522 
 1699000   0.58085574   -8.9535604    198.40704   0.00973156 0.0081953582         3521 
 1700000   0.57596645   -8.9533122    198.30398 0.0097207831 0.0081871449         3528 
 1701000   0.57933104   -8.9711534    198.49576 0.0097244639  0.008178941         3537 
 1702000   0.56535825   -8.9441122    198.60816 0.0097242537 0.0081707616         3467 
 1703000   0.57623005     -8.96621    198.40446 0.0097085761 0.0081625792         3532 
 1704000   0.56889633   -8.9597987    198.48574 0.0097068536  0.008154413         3571 
 1705000   0.56640295   -8.9660036    198.71382 0.0097123081   0.00814626         3511 
 1706000   0.57004104   -8.9634472    198.61797 0.0097019329 0.0081381279         3510 
 1707000   0.57231958   -8.9674928    198.85228 0.0097076879 0.0081299994         3549 
 1708000   0.57056287   -8.9572459    198.46996 0.0096833507 0.0081218798         3520 
 1709000   0.55943672   -8.9672389    198.31312 0.0096700373 0.0081137771         3470 
 1710000   0.57093077   -8.9750937    198.45708 0.0096713978 0.0081056803         3509 
 1711000   0.57974603   -8.9641921    198.49776 0.0096677263 0.0080975913         3525 
 1712000   0.57184053   -8.9770503    198.30382  0.009652639  0.008089512         3532 
 1713000   0.56427393   -8.9519771    198.50344 0.0096567153 0.0080814427         3562 
 1714000   0.57741504   -8.9672615    198.56156 0.0096539071 0.0080733834         3532 
 1715000   0.56266142   -8.9699818    198.22166 0.0096317619 0.0080653386         3527 
 1716000   0.56064797   -8.9815106    198.49234 0.0096392938 0.0080573069         3525 
 1717000   0.56220321   -8.9614881    198.42152 0.0096302426 0.0080492769         3535 
 1718000   0.56180277   -8.9816476    198.36764 0.0096220238 0.0080412592         3494 
 1719000   0.56752359   -8.9673384    198.21901 0.0096092212 0.0080332556         3430 
 1720000   0.56795804   -8.9666531    198.47982 0.0096162701 0.0080252624         3510 
 1721000   0.57306339   -8.9649486    198.55801 0.0096144689 0.0080172807         3535 
 1722000   0.57257212    -8.983555    198.12551 0.0095879555 0.0080093049         3545 
 1723000   0.57139548   -8.9770864    198.42856 0.0095970476 0.0080013407         3480 
 1724000   0.57239092   -8.9798196    198.63179 0.0096013047 0.0079933778         3522 
 1725000   0.56998005   -8.9801342    198.18585 0.0095741956 0.0079854322         3545 
 1726000   0.56438843   -8.9812439    198.17596  0.009568171 0.0079774976         3541 
 1727000   0.56691483   -8.9912106    198.47231 0.0095769305 0.0079695712         3477 
 1728000   0.56833789   -8.9860672    197.97083 0.0095472045 0.0079616657         3509 
 1729000   0.55623233   -9.0027039    198.38756 0.0095617678 0.0079537632         3551 
 1730000   0.56420261   -8.9737835    198.33257 0.0095535921 0.0079458718         3495 
 1731000   0.56889712   -8.9638137     197.9037 0.0095274265 0.0079379993         3506 
 1732000   0.56580255   -8.9611538    198.66033 0.0095583301 0.0079301341         3480 
 1733000   0.54682947   -8.9939774    198.18223 0.0095298246 0.0079222749         3525 
 1734000   0.56170959   -8.9821483    198.28916 0.0095294675  0.007914422         3490 
 1735000   0.54246989   -9.0122133    198.39574 0.0095290942 0.0079065851         3534 
 1736000   0.55726326   -8.9793278    198.44405 0.0095259241 0.0078987518         3576 
 1737000   0.55494097   -8.9948205    198.46076 0.0095212415 0.0078909355         3544 
 1738000   0.56253419   -8.9830307    198.48235 0.0095167987 0.0078831394         3504 
 1739000   0.56404637   -8.9969558    198.05541 0.0094908667 0.0078753368         3536 
 1740000   0.54962457   -9.0013771    198.13244 0.0094891017 0.0078675578         3505 
 1741000   0.57011878   -8.9873892     198.4696 0.0094997892 0.0078597829         3497 
 1742000   0.56896025   -9.0033006    198.07645 0.0094755285 0.0078520219         3547 
 1743000   0.56088442     -8.98731    198.67897 0.0094988989 0.0078442735         3462 
 1744000   0.55156655   -8.9834926    198.12446 0.0094669562 0.0078365343         3529 
 1745000   0.55303199   -8.9855582    198.59428 0.0094839674 0.0078288066         3515 
 1746000    0.5532432   -8.9862136    198.22042 0.0094606919 0.0078210861         3508 
 1747000   0.55325673   -8.9901069    198.19157 0.0094539003 0.0078133773         3495 
 1748000   0.55624259   -9.0084621    197.96851 0.0094378578 0.0078056747         3493 
 1749000   0.54499698   -8.9871486    198.01896 0.0094348658 0.0077979818         3518 
 1750000   0.55924439   -8.9885975    198.39705 0.0094474784 0.0077902986         3561 
 1751000   0.55512584   -8.9917574    198.20533 0.0094329588 0.0077826223         3530 
 1752000   0.56097468   -8.9963474     197.9028 0.0094131849 0.0077749589         3529 
 1753000   0.55467153   -9.0044719    198.06112 0.0094153416 0.0077673023         3531 
 1754000   0.56373942   -8.9950206    198.20389 0.0094167564 0.0077596608         3493 
 1755000   0.54884909   -8.9962186    198.06888 0.0094049803  0.007752034         3515 
 1756000   0.55111592   -8.9998147    198.24245  0.009407861 0.0077444077         3503 
 1757000   0.55839049   -9.0063959    198.20258 0.0094006157 0.0077367967         3511 
 1758000   0.54794241   -8.9880028    198.17864 0.0093941334  0.007729198         3523 
 1759000   0.56663074   -9.0024971    198.34408 0.0093966306 0.0077216069         3532 
 1760000   0.55196935   -9.0005379    198.32848 0.0093905529 0.0077140281         3546 
 1761000   0.54757686    -9.006798    197.96365 0.0093679563 0.0077064574         3540 
 1762000   0.55146466   -8.9779539    198.43567 0.0093849634 0.0076989002         3525 
 1763000   0.54628859    -9.006713    197.85157 0.0093520313  0.007691347         3468 
 1764000   0.55880603   -9.0133569    198.17259 0.0093618947 0.0076838075         3508 
 1765000    0.5482572   -9.0061659    198.03894 0.0093502805 0.0076762643         3563 
 1766000    0.5509108   -9.0078093    198.08435 0.0093471284 0.0076687348         3533 
 1767000   0.55424813   -9.0017402    198.09129 0.0093421662 0.0076612124         3502 
 1768000   0.55909643   -8.9996843    197.96376  0.009330871 0.0076537075         3503 
 1769000   0.54702186   -9.0099256    198.16772 0.0093352045 0.0076462118         3531 
 1770000   0.56409567   -8.9962465    198.36739 0.0093393308 0.0076387227         3544 
 1771000   0.55664144   -9.0146963    197.98065 0.0093158596 0.0076312496         3516 
 1772000   0.55002002   -9.0024576    198.15541 0.0093188209 0.0076237728         3485 
 1773000    0.5480352   -9.0064766    198.21928 0.0093165671 0.0076163143         3529 
 1774000   0.54081895   -9.0102258    198.25099  0.009312805 0.0076088704         3491 
 1775000   0.54083906    -9.016793    198.39476 0.0093143081 0.0076014375         3473 
 1776000   0.53977083   -9.0030014    198.11928 0.0092961373  0.007594011         3506 
 1777000   0.54114454   -9.0277722    198.00639 0.0092856119 0.0075865874         3524 
 1778000   0.53157704   -9.0001024    198.32765 0.0092954464 0.0075791752         3535 
 1779000   0.54222148    -9.021259    197.87258 0.0092689047 0.0075717739         3560 
 1780000   0.54828654    -9.001537    198.13902 0.0092761714 0.0075643908         3534 
 1781000   0.55238252   -9.0010529    198.38462 0.0092824546 0.0075570047         3541 
 1782000   0.53827461   -9.0164088    197.87943 0.0092536211 0.0075496372         3524 
 1783000   0.53157806   -9.0299254    197.94937 0.0092516997 0.0075422765         3569 
 1784000     0.539132   -9.0111217    198.24404 0.0092602786 0.0075349185         3511 
 1785000    0.5398618   -9.0144634    197.92835 0.0092403524 0.0075275692         3580 
 1786000   0.54223008   -9.0113561    198.02279 0.0092395853  0.007520241         3533 
 1787000   0.54643253   -9.0226241    198.04797  0.009235589 0.0075129193         3595 
 1788000   0.54774587   -9.0211256    198.17175 0.0092361925 0.0075056053         3510 
 1789000   0.53770575   -9.0244246    197.78564 0.0092130447 0.0074982958         3521 
 1790000   0.53588624   -9.0158264    197.82925 0.0092099279 0.0074909984         3529 
 1791000   0.53968782   -9.0234301    197.74251 0.0092007495 0.0074837117         3486 
 1792000   0.54081231   -9.0031101    198.06936 0.0092108148 0.0074764359         3512 
 1793000   0.53038939   -9.0124205    197.97017 0.0092010678 0.0074691714         3518 
 1794000   0.54404407   -9.0257727    197.86445 0.0091910281 0.0074619093         3551 
 1795000    0.5347548   -9.0111104    198.41713 0.0092115657 0.0074546612         3564 
 1796000   0.53657183   -9.0284377    197.97405 0.0091858781  0.007447418         3589 
 1797000   0.52543329   -9.0198096    197.92209 0.0091783572  0.007440184         3559 
 1798000   0.54818311   -9.0175377    197.97009 0.0091754769 0.0074329654         3572 
 1799000   0.54441345   -9.0182369    198.22453  0.009182163 0.0074257563         3537 
 1800000   0.52404671   -9.0309436    197.89566 0.0091618361 0.0074185526         3584 
 1801000   0.52835705   -9.0340276    197.93223 0.0091584412 0.0074113571         3539 
 1802000   0.52722169   -9.0140551    197.77099 0.0091459022 0.0074041728         3541 
 1803000   0.52509591   -9.0329213    197.99583 0.0091512216 0.0073969962         3567 
 1804000   0.53297289   -9.0465941    197.82876 0.0091384314 0.0073898342         3555 
 1805000   0.53381365   -9.0282419    198.26236 0.0091533869 0.0073826786         3540 
 1806000   0.54140332   -9.0260424     197.8001 0.0091269885 0.0073755265         3590 
 1807000   0.52021349   -9.0147983    197.82723 0.0091231889 0.0073683847         3532 
 1808000   0.53564778   -9.0392905    197.86681 0.0091199674   0.00736126         3606 
 1809000   0.52671205   -9.0276922    198.25513  0.009132814 0.0073541392         3576 
 1810000   0.53227772   -9.0415617    197.84996 0.0091091142 0.0073470313         3566 
 1811000    0.5392318   -9.0394064    197.81871 0.0091026461 0.0073399285         3571 
 1812000   0.53384067   -9.0457283    197.85183 0.0090991458  0.007332838         3500 
 1813000   0.54024571   -9.0529451    197.82996 0.0090931219 0.0073257625         3532 
 1814000    0.5308697   -9.0373245    197.64211 0.0090794797 0.0073186889         3549 
 1815000   0.53883752   -9.0396008    197.70307 0.0090772758 0.0073116299         3517 
 1816000   0.51916943   -9.0397608    197.45426 0.0090608601 0.0073045787         3579 
 1817000   0.52897408   -9.0239041    198.22154 0.0090910631 0.0072975336         3467 
 1818000   0.53342039   -9.0442479    197.84394 0.0090687541 0.0072905037         3525 
 1819000   0.52037074   -9.0437329     197.5602 0.0090507695 0.0072834772         3565 
 1820000   0.52598892   -9.0494116    197.88276 0.0090605657 0.0072764578         3529 
 1821000   0.53239266   -9.0203504    197.66447  0.009045601 0.0072694555         3532 
 1822000   0.52973289   -9.0534367    197.72311 0.0090433182 0.0072624599         3498 
 1823000   0.52474894   -9.0376773    197.73243 0.0090387834 0.0072554696         3549 
 1824000   0.52848787    -9.045477    197.80076 0.0090369501 0.0072484827         3542 
 1825000   0.51892269   -9.0485794    197.89639 0.0090363646 0.0072415122         3509 
 1826000   0.51949922   -9.0573633    197.87641 0.0090305044 0.0072345542         3506 
 1827000   0.52834452   -9.0406795    197.76068 0.0090202829 0.0072276012         3578 
 1828000   0.53297887   -9.0330288    197.64806 0.0090102144 0.0072206603         3536 
 1829000   0.51542916   -9.0443215    197.95152 0.0090191144 0.0072137245         3537 
 1830000   0.52245915   -9.0592169    197.64414 0.0090001887 0.0072067996         3519 
 1831000   0.51684945   -9.0606108    197.45749 0.0089867784  0.007199875         3538 
 1832000    0.5233585   -9.0392394    197.83178 0.0089988982 0.0071929614         3529 
 1833000   0.51552821    -9.050501    197.74059 0.0089898433 0.0071860538         3499 
 1834000   0.52344675   -9.0544355    197.85143 0.0089899775 0.0071791612         3549 
 1835000   0.52639002   -9.0503372    197.72019 0.0089791187 0.0071722759         3580 
 1836000    0.5291443   -9.0441075    197.90307 0.0089825287 0.0071654007         3561 
 1837000   0.51750073   -9.0618923    197.76816 0.0089715188 0.0071585317         3526 
 1838000   0.51626111   -9.0372494    197.85983 0.0089707937 0.0071516733         3553 
 1839000   0.52526908   -9.0580114    197.65517 0.0089566416 0.0071448265         3551 
 1840000   0.52803525   -9.0636925    197.62473 0.0089503954 0.0071379886         3488 
 1841000   0.51820618   -9.0706525    197.62175 0.0089453989 0.0071311566         3577 
 1842000   0.52220134   -9.0646398    197.55097 0.0089373405 0.0071243393         3583 
 1843000   0.52112012   -9.0476754    197.64909 0.0089369274 0.0071175199         3533 
 1844000   0.50752255   -9.0458182    197.84978 0.0089411504 0.0071107206         3564 
 1845000   0.51481117   -9.0573307    197.63342 0.0089265322 0.0071039271         3567 
 1846000   0.52394229   -9.0434155    197.87313 0.0089325174 0.0070971438         3525 
 1847000   0.52416188   -9.0601235    197.40972 0.0089067732 0.0070903688         3553 
 1848000   0.51274422   -9.0594781    197.38667 0.0089009142 0.0070836004         3521 
 1849000   0.52140429   -9.0517347    197.77563 0.0089136302 0.0070768394         3579 
 1850000   0.50846796   -9.0513511    197.86223 0.0089127132 0.0070700882         3580 
 1851000   0.51135806   -9.0558885    197.54641 0.0088936794 0.0070633437         3551 
 1852000    0.5138989   -9.0638512    197.90411 0.0089049727  0.007056604         3546 
 1853000   0.52367735   -9.0597424    197.76938 0.0088941077 0.0070498808         3552 
 1854000   0.50775096    -9.066967    197.80752 0.0088910248 0.0070431607         3577 
 1855000   0.51402428   -9.0500139    197.75321 0.0088837919  0.007036452         3564 
 1856000   0.51339248   -9.0474977    197.47576  0.008866548 0.0070297499         3502 
 1857000   0.49914533   -9.0479178    197.66924 0.0088704559 0.0070230554         3507 
 1858000   0.51593388   -9.0679134    197.72604 0.0088682294 0.0070163697         3589 
 1859000   0.50790421   -9.0639444    197.77859 0.0088658144 0.0070096964         3601 
 1860000   0.50769868   -9.0670054    197.63683 0.0088546969 0.0070030322         3578 
 1861000   0.50997402   -9.0560218     197.2289 0.0088316721 0.0069963772         3584 
 1862000   0.51501947   -9.0443399    197.78376 0.0088517616 0.0069897332         3547 
 1863000    0.5120538   -9.0661634    197.44854 0.0088320156 0.0069830884         3559 
 1864000   0.51115037   -9.0584361    197.79038   0.00884256 0.0069764584         3572 
 1865000   0.51237877   -9.0883309    197.57429 0.0088281633 0.0069698319         3524 
 1866000   0.49936059    -9.063781    197.61785 0.0088253773 0.0069632131         3547 
 1867000    0.5173897   -9.0850254    197.46656 0.0088138976 0.0069566087         3555 
 1868000     0.502482    -9.070468    197.48019 0.0088097871 0.0069500067         3559 
 1869000   0.51354625   -9.0535699    197.65677 0.0088129466 0.0069434135         3577 
 1870000   0.49656732   -9.0673855     197.5707 0.0088043982 0.0069368337         3576 
 1871000    0.5048447   -9.0692979    197.41484 0.0087927505 0.0069302593         3565 
 1872000   0.50998643    -9.072805    197.23841    0.0087802 0.0069236963         3568 
 1873000   0.50162714   -9.0754576    197.72181 0.0087970193  0.006917135         3572 
 1874000   0.49685858    -9.065946      197.362 0.0087763251   0.00691058         3566 
 1875000   0.50415349   -9.0690357    197.47074 0.0087764775 0.0069040424         3523 
 1876000   0.50557652   -9.0743547    197.51199 0.0087736314 0.0068975132         3522 
 1877000   0.50747401   -9.0604671    197.42683 0.0087651761  0.006890991         3515 
 1878000   0.49928155   -9.0876776    197.36833 0.0087579129 0.0068844779         3511 
 1879000   0.50490169   -9.0809159    197.71252 0.0087685169 0.0068779663         3557 
 1880000   0.51571037   -9.0770334    197.37278 0.0087487932 0.0068714682         3580 
 1881000   0.50744163   -9.0756014    197.59628 0.0087540438 0.0068649734         3576 
 1882000   0.50929156   -9.0693831    197.60779 0.0087499023 0.0068584891         3579 
 1883000   0.50677976   -9.0678019     197.3848 0.0087353867 0.0068520137         3507 
 1884000   0.49718828   -9.0730993    197.31722 0.0087277608 0.0068455503         3615 
 1885000   0.49554305   -9.0993811     197.3077 0.0087227099 0.0068390926         3625 
 1886000   0.50874377   -9.0889127    197.15596 0.0087113805  0.006832641         3592 
 1887000   0.49400515   -9.0686017    197.32206  0.008714099 0.0068261965         3553 
 1888000   0.49194429   -9.0851462    197.43487 0.0087144629 0.0068197598         3573 
 1889000   0.50114947   -9.0664164    197.29499 0.0087036786 0.0068133313         3546 
 1890000   0.49617605   -9.0828393    197.45548   0.00870615  0.006806908         3547 
 1891000   0.50012275   -9.0828757    197.55837 0.0087060802 0.0068005009         3551 
 1892000   0.49602691    -9.088264    197.52538 0.0087000255 0.0067940982         3592 
 1893000   0.50079121   -9.0809592      197.374 0.0086887655 0.0067877034         3594 
 1894000   0.50052149   -9.0790353    197.67328 0.0086973458 0.0067813172         3583 
 1895000   0.49042393    -9.084138    197.38977 0.0086802887 0.0067749384         3568 
 1896000   0.49909898   -9.0870303    197.44714 0.0086782321 0.0067685695         3580 
 1897000   0.49469483   -9.0922831    197.25524 0.0086652276 0.0067622072         3574 
 1898000   0.49248801   -9.0872347    197.44243 0.0086688808  0.006755847         3530 
 1899000   0.49879363   -9.0737298    197.48616  0.008666235 0.0067494983         3547 
 1900000   0.49312891   -9.0897101    197.49795 0.0086621907 0.0067431627         3552 
 1901000   0.50121609   -9.0950207    197.18195 0.0086437818 0.0067368328         3606 
 1902000   0.49637124   -9.0714185    197.29854 0.0086443453 0.0067305091         3517 
 1903000   0.48953586   -9.1005804    197.61348 0.0086535945 0.0067241892         3596 
 1904000   0.49213125   -9.0968367     197.4131 0.0086402793 0.0067178768         3598 
 1905000   0.49124154   -9.0813285    197.33033 0.0086321229 0.0067115674         3579 
 1906000     0.496382   -9.0974258     197.1267 0.0086186911 0.0067052733         3527 
 1907000   0.48706561   -9.0825211    197.27764 0.0086207674  0.006698983         3538 
 1908000   0.48798434     -9.08392    197.30659 0.0086175134 0.0066927035         3554 
 1909000   0.48758096   -9.0940875    197.29795 0.0086126222   0.00668643         3573 
 1910000   0.49191529   -9.0800912    197.37517  0.008611482 0.0066801682         3565 
 1911000   0.48241266   -9.0886586    197.45218  0.008610334 0.0066739112         3549 
 1912000   0.48839956   -9.0689143    197.40373  0.008603719 0.0066676662         3524 
 1913000   0.48150774   -9.0915585    197.31322 0.0085952789 0.0066614276         3555 
 1914000   0.47303075   -9.1019941    197.18087 0.0085850258 0.0066551922         3576 
 1915000   0.48775384    -9.071835    197.30306 0.0085858601 0.0066489655         3575 
 1916000   0.47594662   -9.1022725     197.1488 0.0085746696 0.0066427476         3595 
 1917000   0.49737777   -9.1114165    197.12665 0.0085692338 0.0066365358         3557 
 1918000   0.48877449   -9.1005951    197.18928 0.0085674868   0.00663033         3493 
 1919000   0.48105103   -9.0981871    197.08647 0.0085585578 0.0066241343         3548 
 1920000   0.48959032   -9.0937361    197.05874 0.0085528968 0.0066179523         3551 
 1921000   0.49333461   -9.1027746    197.13376 0.0085516986 0.0066117733         3537 
 1922000   0.48737709   -9.1084873    196.96703 0.0085400203 0.0066056037         3532 
 1923000    0.4789247   -9.0997181    196.84834 0.0085304358 0.0065994464         3555 
 1924000   0.47436711   -9.0967132    197.20325 0.0085413745 0.0065932921         3616 
 1925000   0.48403608   -9.1103524    197.24452 0.0085387236 0.0065871416         3577 
 1926000   0.48431644   -9.0960947     197.1829 0.0085316243 0.0065809963         3527 
 1927000   0.49308294   -9.1125443    196.83426 0.0085121198 0.0065748663         3584 
 1928000   0.49128772    -9.113495    197.04267 0.0085167129 0.0065687402         3603 
 1929000   0.48592986   -9.0805678    197.09305 0.0085144743 0.0065626186         3613 
 1930000   0.48458459    -9.106952    196.81797 0.0084981851 0.0065565057         3554 
 1931000    0.4801425   -9.1248086     197.0336 0.0085030897 0.0065504032         3587 
 1932000   0.49122872   -9.1076472    197.01862 0.0084980424 0.0065443061         3600 
 1933000   0.47217258   -9.0961237    197.22609 0.0085025906 0.0065382178         3570 
 1934000   0.49502802   -9.1238135    197.00544 0.0084886868 0.0065321359         3556 
 1935000   0.48976355   -9.1108227    197.06678 0.0084869414 0.0065260646         3562 
 1936000   0.47135495   -9.1085423    197.06005  0.008482268  0.006519999         3585 
 1937000   0.47856813   -9.1228987    197.03353  0.008476748   0.00651394         3582 
 1938000   0.48444003   -9.1320057    196.95361 0.0084689374 0.0065078875         3551 
 1939000   0.48926768    -9.120349    197.07381 0.0084697358 0.0065018437         3551 
 1940000   0.47423323   -9.0953893    197.06459 0.0084649739 0.0064958068         3520 
 1941000   0.48008041   -9.1232561    196.79215 0.0084489158 0.0064897791         3547 
 1942000   0.47846874   -9.1228424    196.84733 0.0084469332 0.0064837605         3606 
 1943000   0.47065252    -9.111367     196.8203 0.0084414263  0.006477749         3594 
 1944000   0.46532377   -9.1139995    197.06497 0.0084475726 0.0064717414         3591 
 1945000   0.47469443   -9.1163044    197.04787 0.0084424967 0.0064657457         3587 
 1946000   0.47567969   -9.1131206    196.99976 0.0084360978 0.0064597538         3585 
 1947000   0.47081791   -9.1258239    196.94249 0.0084293138 0.0064537703         3556 
 1948000   0.47580823   -9.1236746    197.14177 0.0084335119 0.0064477919         3574 
 1949000   0.47722784   -9.1158671    197.01006 0.0084235531 0.0064418238         3567 
 1950000   0.49120196    -9.121292    196.93987 0.0084162339 0.0064358635         3535 
 1951000   0.48089793   -9.1341571    196.85559 0.0084083201 0.0064299072         3596 
 1952000    0.4734472   -9.1163633    196.92163 0.0084068319 0.0064239611         3570 
 1953000   0.47883312   -9.0956777    196.92125 0.0084025109 0.0064180199         3541 
 1954000   0.47595195   -9.1205384    196.78845 0.0083925475 0.0064120849         3564 
 1955000   0.47345077   -9.1214026    196.69847  0.008384419 0.0064061591         3577 
 1956000   0.46976394   -9.1185383    196.97472 0.0083919019 0.0064002447         3583 
 1957000   0.47669331   -9.1093043    196.91377 0.0083850182 0.0063943348         3563 
 1958000   0.47629367   -9.1353811    197.11923 0.0083894802 0.0063884346         3562 
 1959000   0.47265062   -9.1125289    196.99194 0.0083797831 0.0063825376         3616 
 1960000   0.46656504    -9.127416    196.96999 0.0083745742 0.0063766489         3573 
 1961000   0.47476718    -9.135736    196.65287 0.0083568277 0.0063707683         3544 
 1962000   0.46842125   -9.1189365    196.65328 0.0083525856 0.0063648945         3550 
 1963000   0.47399787   -9.1211782    197.04671 0.0083650326 0.0063590254         3588 
 1964000   0.46284242   -9.1194407     196.7139 0.0083466524 0.0063531647         3587 
 1965000   0.46323747   -9.1191828    197.15036 0.0083609145 0.0063473147         3576 
 1966000   0.47168555   -9.1195891    196.78889   0.00834134 0.0063414664         3569 
 1967000    0.4569105   -9.1225496     196.5082 0.0083252076 0.0063356293         3606 
 1968000   0.46420742    -9.131947    196.87566  0.008336537  0.006329802         3557 
 1969000   0.47059767    -9.127678    196.94652 0.0083353021 0.0063239781         3575 
 1970000   0.46294659    -9.124837     196.7691 0.0083235662 0.0063181635         3590 
 1971000   0.45884528   -9.1271421    196.99478 0.0083288845 0.0063123591         3579 
 1972000   0.47571324   -9.1298554    196.95779 0.0083230981 0.0063065594         3580 
 1973000   0.45990486   -9.1299824    196.39553 0.0082951313 0.0063007595         3544 
 1974000   0.45755021   -9.1426232    196.69662 0.0083036397 0.0062949699         3553 
 1975000   0.46556166   -9.1349578    196.86379 0.0083064891 0.0062891908         3576 
 1976000   0.46758878   -9.1220634    196.90014 0.0083038182 0.0062834154         3518 
 1977000    0.4636276   -9.1418533    196.94625 0.0083015617 0.0062776494         3568 
 1978000   0.46208539   -9.1381252    196.89366 0.0082951491 0.0062718934         3606 
 1979000   0.46298657   -9.1350296    196.74576 0.0082847298 0.0062661458         3606 
 1980000   0.46450212   -9.1410784    196.99002 0.0082908256  0.006260401         3613 
 1981000   0.45710813   -9.1450384    196.64582 0.0082721613 0.0062546616         3562 
 1982000   0.46819203   -9.1408809    197.08031 0.0082862559 0.0062489344         3547 
 1983000   0.46433832   -9.1404438    196.83612 0.0082718156 0.0062432091         3564 
 1984000   0.47133464   -9.1328801    196.79573 0.0082659497 0.0062374958         3531 
 1985000    0.4656953   -9.1420731    196.58566 0.0082529662 0.0062317874         3608 
 1986000   0.46146812   -9.1367566    196.85559 0.0082601372 0.0062260833         3622 
 1987000    0.4552996   -9.1560613    197.06742  0.008264864 0.0062203863         3597 
 1988000   0.46734795   -9.1491024    196.58065 0.0082403023 0.0062146984         3583 
 1989000   0.46094912   -9.1406919    197.01469 0.0082543442 0.0062090167         3586 
 1990000   0.45628047   -9.1507878    196.77241 0.0082400506 0.0062033403         3565 
 1991000   0.45018731   -9.1455099    196.95978 0.0082437542 0.0061976715         3622 
 1992000   0.45416565   -9.1416002      196.649 0.0082266149   0.00619201         3617 
 1993000   0.46782067   -9.1413349    196.74454  0.008226482 0.0061863558         3558 
 1994000   0.46131768   -9.1489187    196.52295 0.0082130957 0.0061807069         3604 
 1995000   0.45365497   -9.1539361    196.69821 0.0082162994 0.0061750643         3610 
 1996000   0.46271062   -9.1505848    196.58013 0.0082072534 0.0061694302         3613 
 1997000   0.45247506   -9.1397993    196.67241 0.0082069943 0.0061638062         3652 
 1998000   0.45338524   -9.1360125    196.59823 0.0081997927 0.0061581847         3566 
 1999000   0.45132786    -9.136551    196.65757 0.0081981645 0.0061525731         3552 
 2000000   0.45372533   -9.1466763     196.6922 0.0081955085 0.0061469677         3556 
 2001000   0.46203685   -9.1393626    196.65613 0.0081899103 0.0061413682         3609 
 2002000   0.45660685    -9.132614    196.59909 0.0081834454 0.0061357778         3591 
 2003000   0.45507785   -9.1480233    196.89714   0.00819176 0.0061301951         3590 
 2004000   0.45321051    -9.149628    196.47385 0.0081700702 0.0061246179         3602 
 2005000   0.45374843   -9.1498381    196.62749 0.0081723813  0.006119045         3566 
 2006000     0.458211   -9.1356433    196.52054 0.0081638642  0.006113478         3553 
 2007000   0.45373219   -9.1429674    196.72613 0.0081683331 0.0061079221         3549 
 2008000   0.46204874   -9.1639065    196.56682 0.0081576535 0.0061023684         3572 
 2009000   0.44744775    -9.147485    196.32439 0.0081435368 0.0060968215         3612 
 2010000   0.44408987   -9.1643471    196.53173 0.0081480818 0.0060912807         3588 
 2011000   0.45442403   -9.1559935    196.60357 0.0081470068 0.0060857504         3591 
 2012000   0.44339418    -9.158312    196.81212 0.0081515954 0.0060802254         3596 
Loop time of 5225.04 on 48 procs for 2000000 steps with 4000 atoms

Performance: 66143.096 tau/day, 382.773 timesteps/s
99.4% CPU use with 48 MPI tasks x no OpenMP threads

MPI task timing breakdown:
Section |  min time  |  avg time  |  max time  |%varavg| %total
---------------------------------------------------------------
Pair    | 374.97     | 402.77     | 433.93     |  70.7 |  7.71
Neigh   | 37.027     | 38.497     | 40.561     |  12.8 |  0.74
Comm    | 321.41     | 358.85     | 391.18     |  79.3 |  6.87
Output  | 5.8432     | 5.8454     | 5.8904     |   0.3 |  0.11
Modify  | 4357       | 4370.9     | 4386.3     |   9.3 | 83.65
Other   |            | 48.19      |            |       |  0.92

Nlocal:        83.3333 ave          92 max          74 min
Histogram: 1 2 6 7 1 12 11 5 2 1
Nghost:        2432.94 ave        2467 max        2409 min
Histogram: 4 6 10 7 5 3 7 3 1 2
Neighs:        16892.8 ave       19982 max       14307 min
Histogram: 6 2 5 9 5 7 3 5 3 3
FullNghs:      33785.3 ave       37325 max       29731 min
Histogram: 1 2 5 8 3 8 9 6 4 2

Total # of neighbors = 1621693
Ave neighs/atom = 405.42325
Neighbor list builds = 106496
Dangerous builds = 0

#clear
#
#next RN
#
#jump SELF
Total wall time: 1:27:08
