
units lj                  # Use reduced LJ style units
atom_style atomic         # Uncharged point particles
atom_modify map hash      # Needed for indexing of clusters etc
                          # Used to be able to find where atoms are in relation to each other.

lattice fcc 1.0 spacing 1 1 1
Lattice spacing in x,y,z = 1.5874011 1.5874011 1.5874011
region box block 0 10 0 10 0 10 units lattice
create_box 2 box
Created orthogonal box = (0.0000000 0.0000000 0.0000000) to (15.874011 15.874011 15.874011)
  3 by 4 by 4 MPI processor grid
create_atoms 1 box
Created 4000 atoms
  using lattice units in orthogonal box = (0.0000000 0.0000000 0.0000000) to (15.874011 15.874011 15.874011)
  create_atoms CPU = 0.024 seconds
set type 1 type/fraction 2 0.91 78393
Setting atom values ...
  3634 settings made for type/fraction
mass 1 1.0
mass 2 1.0
pair_style lj/cut  3.5
pair_modify tail  yes
pair_coeff 1  1  1.0  1.0   # Intearaction between 1 and 1 set with epsilon = 1 and sigma = 1
pair_coeff 1  2  1.5  0.8
pair_coeff 2  2  0.5  0.88

write_data data.0
System init for write_data ...
Neighbor list info ...
  update every 1 steps, delay 10 steps, check yes
  max neighbors/atom: 2000, page size: 100000
  master list distance cutoff = 3.8
  ghost atom cutoff = 3.8
  binsize = 1.9, bins = 9 9 9
  1 neighbor lists, perpetual/occasional/extra = 1 0 0
  (1) pair lj/cut, perpetual
      attributes: half, newton on
      pair build: half/bin/atomonly/newton
      stencil: half/bin/3d
      bin: standard
WARNING: Not all mixed pair coeffs generated from mixing. Use write_data with 'pair ij' option to store all pair coeffs. (../write_data.cpp:312)


#############################
#   M E L T   S Y S T E M   #
#############################

velocity all create 2.4 5300450 mom yes dist gaussian # Assign velocities
                                                    # Temperature 2.4, random number seed, zero linear momentum
                                                                                # Gaussian distribution

timestep 0.002   # simulation timestep
thermo 1000       # output thermodynamic data every 1000 steps bf 100

# Define a fix  in this case with index 1 applied to all
# particles in the simulation. This fix is for simulations
# in the anisotropic NPT ensemble. Note that we use the MTK
# correction.
fix 1 all npt temp 2.4 2.4 0.1 iso 5.68 5.68 0.5 mtk yes tchain 5 pchain 5 # Use NPT ensemble
                                                                         # Set temperature and pressure and damping
                                                                         # Numbers of thermostats in chain and in barostat
run 10000          # run for 10000 steps
Per MPI rank memory allocation (min/avg/max) = 3.642 | 3.644 | 3.648 Mbytes
Step Temp E_pair E_mol TotEng Press Volume 
       0          2.4    -3.140535            0     0.458565   -2.4974117         4000 
    1000    2.4056637   -2.1506336            0    1.4569598    5.7177841    4018.4298 
    2000    2.4273793   -2.1667358            0    1.4734229    5.4300529    4078.1343 
    3000    2.4217328   -2.1567757            0    1.4749153    5.6659634    4028.1391 
    4000    2.4126231   -2.2019674            0    1.4160625    5.4986441     4023.253 
    5000    2.3477797   -2.1715243            0    1.3492648    5.4689007    4031.5099 
    6000     2.412501   -2.1822076            0    1.4356392    5.6353116    4013.2093 
    7000    2.3516916   -2.1167912            0    1.4098642    5.7921676    4036.7265 
    8000    2.4086929   -2.1347647            0    1.4773714    5.6124072    4055.0806 
    9000    2.4108281   -2.1508013            0    1.4645368    5.9054602      3999.92 
   10000    2.4042863   -2.1388122            0    1.4667157    5.5992622    4056.3141 
Loop time of 2.54653 on 48 procs for 10000 steps with 4000 atoms

Performance: 678571.760 tau/day, 3926.920 timesteps/s
99.6% CPU use with 48 MPI tasks x no OpenMP threads

MPI task timing breakdown:
Section |  min time  |  avg time  |  max time  |%varavg| %total
---------------------------------------------------------------
Pair    | 1.0946     | 1.1436     | 1.2122     |   2.4 | 44.91
Neigh   | 0.20588    | 0.21287    | 0.22249    |   0.7 |  8.36
Comm    | 0.77044    | 0.84445    | 0.92972    |   3.6 | 33.16
Output  | 0.00024714 | 0.0002518  | 0.00031918 |   0.0 |  0.01
Modify  | 0.28809    | 0.33026    | 0.35509    |   2.9 | 12.97
Other   |            | 0.01508    |            |       |  0.59

Nlocal:        83.3333 ave          91 max          75 min
Histogram: 2 1 2 7 8 10 10 2 4 2
Nghost:        1624.79 ave        1662 max        1598 min
Histogram: 2 7 5 9 9 7 2 6 0 1
Neighs:        9407.15 ave       10413 max        8305 min
Histogram: 3 1 4 4 12 5 8 4 5 2

Total # of neighbors = 451543
Ave neighs/atom = 112.88575
Neighbor list builds = 903
Dangerous builds = 184

# Equilibrate just above the melting temperature to avoid step fn in T

fix 1 all npt temp 1.25 1.25 0.1 iso 5.68 5.68 0.5 mtk yes tchain 5 pchain 5
run 2000
Per MPI rank memory allocation (min/avg/max) = 3.643 | 3.645 | 3.649 Mbytes
Step Temp E_pair E_mol TotEng Press Volume 
   10000    2.4042863   -2.1388122            0    1.4667157    5.5992622    4056.3141 
   11000    1.2568081   -3.2455095            0   -1.3607687    5.8336089    3105.9023 
   12000    1.2419588   -3.2200971            0   -1.3576246    5.6333822    3130.4379 
Loop time of 0.589138 on 48 procs for 2000 steps with 4000 atoms

Performance: 586619.338 tau/day, 3394.788 timesteps/s
99.7% CPU use with 48 MPI tasks x no OpenMP threads

MPI task timing breakdown:
Section |  min time  |  avg time  |  max time  |%varavg| %total
---------------------------------------------------------------
Pair    | 0.25641    | 0.28727    | 0.31065    |   2.7 | 48.76
Neigh   | 0.038374   | 0.041193   | 0.0442     |   0.7 |  6.99
Comm    | 0.18623    | 0.21333    | 0.24557    |   3.4 | 36.21
Output  | 5.0705e-05 | 5.1725e-05 | 6.534e-05  |   0.0 |  0.01
Modify  | 0.039521   | 0.042677   | 0.045538   |   0.8 |  7.24
Other   |            | 0.004616   |            |       |  0.78

Nlocal:        83.3333 ave          93 max          74 min
Histogram: 2 2 4 7 10 9 7 4 1 2
Nghost:        1936.83 ave        1966 max        1914 min
Histogram: 7 3 5 5 9 7 3 3 2 4
Neighs:        12206.8 ave       14397 max       10386 min
Histogram: 4 2 4 9 10 7 7 2 2 1

Total # of neighbors = 585928
Ave neighs/atom = 146.48200
Neighbor list builds = 144
Dangerous builds = 21

#############################
# L I N E A R  Q U E N C H  #
#############################

# Define solid atoms. This closely follows ten Wolde  Ruiz-Montero and Frenkel  Faraday Discuss  1996  104  93-110
# Compute components of the per-atom q6 vector
compute q6 all orientorder/atom degrees 1 6 components 6 nnn NULL cutoff 1.3 # compute the Q6 parameter.
                                                                             # Use all neighbours within 1.3 unit cell.

# get number of connections
compute coord_number all coord/atom orientorder q6 0.5

# An atom is solid if it has 8 or more connections (of a possible 14)
variable is_solid atom c_coord_number>=8
group solid dynamic all var is_solid    # Must be dynamic to update
dynamic group solid defined

# do clustering
compute cluster solid cluster/atom 1.3 # Create a cluster where all atoms within are solid and max 1.3 units from another member

# define chunks one chunk per cluster
compute clus_chunks solid chunk/atom c_cluster nchunk every compress yes  # Says which atoms are in which chunk

# count the size of each chunk
compute size_chunks solid property/chunk clus_chunks count


# Find the maximum entry in the vector of chunk sizes
variable max_n equal max(c_size_chunks)


# Thermo style which includes this variable
# thermo_style custom step temp pe vol v_max_n

thermo ${N}  # Print the thermo information every 100 steps
thermo 1000  

# Reset the npt fix at a lower temperature (below freezing)
fix 1  all npt temp  ${temp} ${temp}  0.1  iso  5.68  5.68  0.5  mtk yes tchain  5  pchain  5
fix 1  all npt temp  0.45 ${temp}  0.1  iso  5.68  5.68  0.5  mtk yes tchain  5  pchain  5
fix 1  all npt temp  0.45 0.45  0.1  iso  5.68  5.68  0.5  mtk yes tchain  5  pchain  5

dump dmp2 all dcd ${N} traj.dcd
dump dmp2 all dcd 1000 traj.dcd


compute msd all msd com yes
variable twopoint equal c_msd[4]/6/(step*dt+1.0e-6)
fix 9 all vector 10 c_msd[4]
variable fit equal slope(f_9)/6/(10*dt)
thermo_style custom step temp pe c_msd[4] v_twopoint v_fit v_max_n

fix 1 all npt temp 1.25 ${temp} 0.1 iso 5.68 5.68 0.5 mtk yes tchain 5 pchain 5
fix 1 all npt temp 1.25 0.45 0.1 iso 5.68 5.68 0.5 mtk yes tchain 5 pchain 5
run 5000000 # 5000000  # Run for this many steps
Neighbor list info ...
  update every 1 steps, delay 10 steps, check yes
  max neighbors/atom: 2000, page size: 100000
  master list distance cutoff = 3.8
  ghost atom cutoff = 3.8
  binsize = 1.9, bins = 8 8 8
  4 neighbor lists, perpetual/occasional/extra = 1 3 0
  (1) pair lj/cut, perpetual
      attributes: half, newton on
      pair build: half/bin/atomonly/newton
      stencil: half/bin/3d
      bin: standard
  (2) compute orientorder/atom, occasional
      attributes: full, newton on
      pair build: full/bin/atomonly
      stencil: full/bin/3d
      bin: standard
  (3) compute coord/atom, occasional
      attributes: full, newton on
      pair build: full/bin/atomonly
      stencil: full/bin/3d
      bin: standard
  (4) compute cluster/atom, occasional
      attributes: full, newton on
      pair build: full/bin/atomonly
      stencil: full/bin/3d
      bin: standard
Per MPI rank memory allocation (min/avg/max) = 9.819 | 9.827 | 9.833 Mbytes
Step Temp PotEng c_msd[4] v_twopoint v_fit v_max_n 
   12000    1.2419588   -3.2200971 2.2279404e-30 1.5471808e-32 8.3333333e+20            2 
   13000    1.2500114   -3.2262788    1.0355592 0.0066381996  0.088850346            1 
   14000    1.2423368   -3.2383969    2.0715669  0.012330755  0.087618339            2 
   15000    1.2544956   -3.2205882    3.1799362  0.017666311  0.088569616            1 
   16000    1.2163598   -3.2559919    4.2765101   0.02227349  0.090341523            1 
   17000    1.2560075   -3.1937565    5.2171796  0.025574409  0.088961175            6 
   18000    1.2129199   -3.1865935    6.2909476  0.029124757  0.088024893            2 
   19000    1.2193552   -3.2309566    7.3860301  0.032394868  0.087918298            1 
   20000    1.2687516    -3.252067     8.477689  0.035323703  0.088114635            1 
   21000    1.2319582   -3.2188077    9.5435012  0.037871036  0.088321669            2 
   22000    1.2711449   -3.2257126    10.578237  0.040069078  0.088385292            2 
   23000    1.2525315    -3.193939    11.597363  0.042019429  0.088281675            2 
   24000    1.2506066   -3.2318368    12.666159  0.043979719  0.088205876            1 
   25000    1.2426543   -3.2278427    13.817918  0.046059725  0.088371971            2 
   26000      1.24179   -3.2081074    14.937519  0.047876663   0.08854011            2 
   27000    1.2398568   -3.2557772    15.919396  0.049133939  0.088605163            2 
   28000    1.2444026    -3.214909    16.952966  0.050455255  0.088528891            2 
   29000    1.2407272   -3.2240871    18.090567  0.051984386  0.088554685            3 
   30000    1.2735585    -3.241615    19.080138  0.053000382  0.088598754            1 
   31000    1.2379106   -3.2392633    20.201291  0.054304546  0.088561042            1 
   32000    1.2467711   -3.2104843    21.297647  0.055462622  0.088563027            2 
   33000    1.2410231   -3.2156211    22.295961   0.05630293  0.088544037            3 
   34000    1.2296775   -3.2057427    23.397395  0.057346555  0.088596672            2 
   35000    1.2475426   -3.2390738    24.391691  0.058075455  0.088647321            1 
   36000    1.2450456   -3.2442426    25.520543   0.05907533  0.088683127            1 
   37000    1.2479769   -3.2271467    26.617524  0.059949378  0.088776199            2 
   38000    1.2568326   -3.2298884    27.724762  0.060799915  0.088838931            2 
   39000    1.2506236   -3.2083243    28.988954  0.061942209  0.088943908            1 
   40000     1.228416   -3.2261643    30.049085  0.062602259  0.089095918            1 
   41000    1.2710185   -3.2381346    31.280064  0.063577364  0.089232897            1 
   42000     1.232554   -3.2182019    32.042854   0.06357709  0.089325509            2 
   43000    1.2467399   -3.2063786    33.136895  0.064218787  0.089324887            1 
   44000    1.2729312   -3.2206069    34.364501  0.065084281  0.089380026            2 
   45000    1.2491736   -3.1798066    35.470365   0.06568586  0.089462528            3 
   46000     1.273712   -3.2154149    36.557998  0.066228257  0.089545083            1 
   47000    1.2461609   -3.2522641    37.573361  0.066619433  0.089567597            1 
   48000    1.2722612   -3.2303553    38.656377  0.067111765  0.089607011            2 
   49000     1.243425    -3.247908    40.074686  0.068154228  0.089705941            3 
   50000    1.2551444   -3.2385599    41.089028  0.068481712  0.089805052            1 
   51000    1.2391841   -3.2324907     42.17045  0.068905963  0.089927016            2 
   52000    1.2408448   -3.2296508    43.575814  0.069833034  0.090082706            2 
   53000    1.2504897   -3.2344796     44.70756  0.070294905  0.090244044            1 
   54000    1.2292123   -3.2156367    45.712216  0.070543542  0.090350955            2 
   55000    1.2335409   -3.2628951    46.335009  0.070204559  0.090404195            1 
   56000    1.2545537    -3.223587      47.2798  0.070356845  0.090413987            1 
   57000     1.247641   -3.2171865    48.802653  0.071348908  0.090437288            1 
   58000    1.2230864   -3.1916578    49.825367   0.07158817  0.090513225            1 
   59000    1.2455559   -3.2266671    51.124407  0.072209614  0.090565227            1 
   60000    1.2705175   -3.2160952    52.041409  0.072279734  0.090626074            2 
   61000    1.2146375   -3.2200721    53.375308  0.072917087  0.090692619            2 
   62000    1.2249404   -3.2267425    54.076569   0.07268356  0.090731829            2 
   63000    1.2504996   -3.2474545    55.061396  0.072832534  0.090748248            2 
   64000    1.2435815   -3.2218332    56.428191  0.073474206  0.090729931            2 
   65000    1.2331666   -3.2545922    57.443477  0.073645483  0.090730949            2 
   66000    1.2303488    -3.223297    58.346764  0.073670157   0.09070647            2 
   67000    1.2458839   -3.2095959    59.084662  0.073488385  0.090645308            1 
   68000    1.2715019   -3.2601505    60.281796  0.073874749  0.090586046            1 
   69000    1.2463649   -3.2150131    61.476628  0.074247135  0.090558627            1 
   70000    1.2397819   -3.2234433    62.167133  0.074008492  0.090503021            1 
   71000    1.2288893   -3.2582938    63.113395  0.074076754  0.090447665            3 
   72000    1.2347002   -3.2296063    64.681406  0.074862738  0.090413153            1 
   73000    1.2420335   -3.2454003    65.608586  0.074895646  0.090391511            1 
   74000    1.2278057   -3.2474395    66.578337  0.074975604  0.090352804            2 
   75000    1.2502721   -3.2308332    67.904797  0.075449774  0.090322737            1 
   76000    1.2420553   -3.2126226    68.910016  0.075559227  0.090268315            1 
   77000    1.2597867   -3.2265694    69.629141  0.075356213  0.090215727            5 
   78000    1.2561435   -3.2309801    70.732672  0.075569094  0.090155148            2 
   79000    1.2323547   -3.2263801    71.638466  0.075568002  0.090096358            1 
   80000    1.2144608   -3.2199799    72.460234  0.075479409   0.09002777            2 
   81000    1.2487352   -3.2429332    74.179462  0.076316318   0.08998706            2 
   82000    1.2286905   -3.2377541    74.833597  0.076050403  0.089965054            1 
   83000    1.2313588   -3.2382864    76.065427   0.07637091  0.089927201            1 
   84000    1.2138798   -3.2439727     77.19934  0.076586647  0.089889146            1 
   85000    1.2422795   -3.2499578    78.538719  0.076998744  0.089861533            2 
   86000    1.2073514   -3.2552204    79.317045  0.076857601  0.089856588            1 
   87000    1.1977073   -3.2211519    81.206571  0.077784071  0.089877777            1 
   88000    1.2593481   -3.2385206    82.623607  0.078242052  0.089926031            2 
   89000     1.234486   -3.2361975    84.179525   0.07881978   0.08999518            1 
   90000    1.2362666   -3.2329297    84.411517  0.078158812    0.0900448            4 
   91000    1.2049242   -3.2452654    85.436719  0.078238753  0.090074392            5 
   92000    1.2450825   -3.2531654    85.938293  0.077842656   0.09009014            2 
   93000     1.232321   -3.2385605    87.085015  0.078033167  0.090082263            2 
   94000    1.2127757   -3.2294276    87.911918  0.077936097  0.090049572            1 
   95000    1.2440146   -3.2288012    89.234425  0.078275811  0.090017825            2 
   96000    1.2564415   -3.1983729    90.213892  0.078310669  0.089985535            2 
   97000    1.2529503   -3.2465345    90.900677  0.078093365  0.089952491            1 
   98000    1.2424913   -3.1919648    92.008691  0.078238683  0.089916057            2 
   99000    1.2363917   -3.2267798    93.048635  0.078323766  0.089877152            1 
  100000    1.2461939   -3.2328328    94.180385  0.078483654  0.089820608            2 
  101000    1.2463751   -3.2366446    94.690848  0.078127762  0.089762766            1 
  102000    1.2143521   -3.2101727    95.826526  0.078289645   0.08971534            2 
  103000    1.2336075   -3.2454315      97.1775  0.078622573  0.089662747            1 
  104000    1.2442301   -3.2519027     98.51827  0.078940921   0.08963427            1 
  105000    1.2338742   -3.2339353    99.760496  0.079174996  0.089619265            2 
  106000    1.2266948   -3.2638608    100.44254  0.078964258  0.089602917            6 
  107000    1.2231435   -3.2099614    101.96269  0.079410193  0.089596918            1 
  108000    1.2393327   -3.1942763    102.98638  0.079464798   0.08958551            1 
  109000    1.2271709   -3.2247208    104.70822  0.080052157  0.089587198            1 
  110000    1.2227039   -3.2122698    105.32622  0.079792591  0.089589987            3 
  111000    1.2150472   -3.2455344    105.74383  0.079387259  0.089577825            2 
  112000    1.2386102    -3.247412    106.79711  0.079462138  0.089548739            1 
  113000    1.2189803   -3.2476178    108.19429  0.079789301  0.089523185            1 
  114000    1.2340898   -3.2163432    109.41384  0.079980876  0.089504006            1 
  115000    1.2200629    -3.248698    109.76334   0.07953865  0.089479199            2 
  116000    1.2446154   -3.2179591    110.74065  0.079555061  0.089454807            1 
  117000    1.2202055   -3.2429332    111.53655  0.079441989   0.08941433            2 
  118000    1.2428911   -3.2329054    113.00833   0.07980814  0.089371489       -1e+20 
  119000    1.2333986   -3.2440249    114.31802  0.080054633  0.089333142            3 
  120000    1.2365966   -3.2412938    114.12327  0.079252273  0.089291612            2 
  121000    1.2318104   -3.2792183     116.0235  0.079905993    0.0892417            4 
  122000    1.2383807   -3.2417176    117.24406  0.080084737  0.089202072            2 
  123000    1.2365938   -3.1977706    118.42245  0.080232013  0.089166846            1 
  124000    1.2224321   -3.2190561    119.88016  0.080564623   0.08914452            2 
  125000    1.2125483   -3.2275085    120.98841  0.080658941  0.089125582            1 
  126000    1.2140939   -3.2398497    121.89546  0.080618688   0.08910924            2 
  127000    1.2231537   -3.2385239    122.62757  0.080464284  0.089097134            4 
  128000    1.2558465   -3.2674259    122.87943  0.079999626  0.089075842            1 
  129000    1.2207938   -3.2550424    124.54312  0.080454211  0.089046967            2 
  130000    1.2379951   -3.2533404    125.36417  0.080361647  0.089009171            3 
  131000    1.2396573   -3.2255683    126.65975  0.080572357  0.088971626            1 
  132000    1.2282677   -3.2325632    127.35211  0.080399059  0.088942644            2 
  133000    1.2245004   -3.2018931    128.15731  0.080299068  0.088903471            1 
  134000    1.2329097   -3.2643863    129.57626  0.080582248  0.088868796            1 
  135000    1.2387298    -3.254576    130.75444  0.080712617  0.088834204            2 
  136000    1.2484359   -3.2218216    132.06798  0.080924008  0.088808533            2 
  137000    1.2510688   -3.2635391     132.6269  0.080673296  0.088785392            1 
  138000    1.2164319   -3.2417031    133.93353  0.080877732  0.088768482            1 
  139000     1.210243   -3.2452495    135.98033   0.08152298  0.088751014            2 
  140000    1.2305999   -3.2689329    136.06627  0.080991824  0.088743519            3 
  141000    1.2294084   -3.2537377    137.21088    0.0810939  0.088736884            3 
  142000    1.2579619   -3.2344509    138.54607  0.081306376  0.088723152            3 
  143000    1.2380105   -3.2361423     139.1826  0.081108743  0.088705911            3 
  144000    1.2217428   -3.2424036    139.94971  0.080989416  0.088684936            3 
  145000    1.2287515   -3.2558146    142.14932  0.081695009  0.088678842            2 
  146000    1.2334001   -3.2478998    142.87037  0.081547016  0.088663956            2 
  147000    1.2289073    -3.235702    142.97044  0.081049001  0.088639547            1 
  148000    1.2317705   -3.2574912    144.65447  0.081449588  0.088621003            3 
  149000    1.2002709   -3.2485011    145.31007  0.081269616  0.088605903            1 
  150000    1.2222573   -3.2646611    146.34003  0.081300014  0.088594008            3 
  151000    1.2216943   -3.2470601    148.04413  0.081702056  0.088589517            1 
  152000    1.2502586   -3.2571431    147.89619  0.081083435  0.088573337            2 
  153000    1.2490463   -3.2461812    149.20973  0.081268914  0.088545002            2 
  154000    1.2285528   -3.2595726    150.09635  0.081220966  0.088518622            5 
  155000    1.2249708   -3.2340692    151.10824  0.081240988  0.088489226            2 
  156000    1.2463512   -3.2768132    152.20946  0.081308474   0.08846733            4 
  157000    1.2246271   -3.2242016    153.48766  0.081469036   0.08843687            1 
  158000    1.2262583   -3.2550736    154.09354  0.081272965  0.088412676            1 
  159000    1.2478873   -3.2464982    155.63475  0.081569578  0.088391053            1 
  160000     1.212076   -3.2364229    157.23062  0.081890946  0.088369957            3 
  161000     1.226931   -3.2406471    157.28116  0.081408466  0.088348968            3 
  162000      1.22833   -3.2701073    158.88463  0.081730774  0.088330601            1 
  163000    1.2240589   -3.2429344    159.95655  0.081777379  0.088320592            2 
  164000    1.2568617   -3.2297143    161.88708  0.082259696    0.0883076            4 
  165000    1.2390007   -3.2595116    161.75621  0.081695054  0.088293958            2 
  166000    1.2375704   -3.2637126    162.50756  0.081580098  0.088279785            1 
  167000    1.2082001   -3.2403999    164.47941  0.082075555  0.088260731            2 
  168000    1.2338096   -3.2487498    164.52847  0.081611345   0.08823799            2 
  169000    1.2286247   -3.2796183    165.47824  0.081596765  0.088208638            4 
  170000    1.2231792   -3.2498922    166.95163  0.081839032  0.088180289            2 
  171000    1.2189894   -3.2665801    168.12145  0.081930533  0.088162129            2 
  172000    1.2287403   -3.2290846    169.75651  0.082246369  0.088147652            1 
  173000    1.2270017   -3.2535442    170.47894   0.08211895  0.088132957            2 
  174000    1.2318789   -3.2509477    171.23775  0.082010418  0.088126919            4 
  175000    1.2183711   -3.2351117    174.05198  0.082881894   0.08813075            5 
  176000    1.2216593   -3.2430667    174.71394  0.082724403  0.088131872            2 
  177000    1.2331302   -3.2610033    175.27555  0.082521445  0.088131384            3 
  178000    1.2195159   -3.2473377    176.01784  0.082405354   0.08812909            2 
  179000    1.2318385    -3.281985    177.23291  0.082510665  0.088127145            1 
  180000    1.2293557   -3.2231286    178.36707  0.082577349  0.088132838            3 
  181000    1.2077849    -3.247036    179.00809  0.082416247  0.088133927            2 
  182000    1.2258938   -3.2385809    180.36269  0.082583649  0.088129091            2 
  183000    1.2252103    -3.245946    181.37655  0.082594058  0.088123431            1 
  184000    1.2258273   -3.2196738    182.80087  0.082790247   0.08811278            1 
  185000    1.2127476   -3.2366991    184.00638  0.082885755  0.088103081            2 
  186000    1.2137032   -3.2663753    183.94989  0.082414824  0.088098836            4 
  187000    1.2134323   -3.2206786    184.96113  0.082424746  0.088082435            3 
  188000    1.1920771   -3.2641951    184.18774  0.081643501  0.088064276            2 
  189000    1.2159789   -3.2554934    187.13395  0.082510558  0.088043766            1 
  190000     1.212155   -3.2522437    188.10154  0.082500677  0.088024922            1 
  191000    1.2169791   -3.2521079    188.81208  0.082378745   0.08800496            2 
  192000    1.1978019   -3.2527855     189.8632  0.082405902  0.087983767            2 
  193000    1.2360318   -3.2989539    190.51951  0.082262311  0.087965042            3 
  194000    1.2604828   -3.2310191     190.4239  0.081797208  0.087936492            2 
  195000    1.2127452   -3.2893545    191.99872  0.082050736  0.087908061            1 
  196000    1.2345675   -3.2693363     193.2227  0.082152507  0.087882431            1 
  197000    1.1969822   -3.2506229    194.61823  0.082325816  0.087860729            1 
  198000    1.2344184   -3.2673461    196.01614  0.082498376  0.087842601            2 
  199000    1.1878219   -3.2567614    196.52054  0.082295035  0.087824697            1 
  200000    1.2167919   -3.2715478    197.98785  0.082494935  0.087813708            4 
  201000    1.1954023   -3.2403059    199.64396  0.082771126  0.087802219            2 
  202000     1.213099    -3.248844    200.82225  0.082847461  0.087793598            3 
  203000    1.2278394   -3.2586304    201.32025  0.082643782  0.087782623            2 
  204000    1.1937416   -3.2545561    201.29913  0.082230036  0.087765972            2 
  205000    1.2431144    -3.238946    202.95086   0.08250035  0.087747703            1 
  206000    1.2420784   -3.2354605    203.34419  0.082258978  0.087734909            1 
  207000    1.2173327   -3.2473934    206.01219  0.082935663   0.08771868            3 
  208000    1.2212611   -3.2857618    205.60688  0.082374553  0.087702886            2 
  209000    1.2330171   -3.1981179    207.11841  0.082583098  0.087680963            1 
  210000    1.2117821   -3.2722413    207.36974  0.082289578  0.087659664            1 
  211000    1.1910273   -3.2494004    208.85661  0.082486812  0.087643912            1 
  212000    1.2284529   -3.2886505    208.79471   0.08207339  0.087626453            2 
  213000     1.192703   -3.2628558    210.90921  0.082515342   0.08760894            1 
  214000    1.2138669     -3.24005    212.64795  0.082806833  0.087595715            2 
  215000    1.2251657   -3.2828998    214.05631  0.082967561  0.087583644            2 
  216000    1.2135986    -3.246669    214.44666   0.08273405  0.087570026            2 
  217000    1.2230799   -3.2379393    215.15467  0.082624682  0.087556557            1 
  218000    1.2424646   -3.2270044    216.47722  0.082751231  0.087538723            1 
  219000     1.230282   -3.2789241    216.51228  0.082386711  0.087514687            2 
  220000    1.2283089   -3.2395508    218.58058  0.082795675   0.08748857            2 
  221000    1.2091162   -3.2689852    218.49697  0.082389505  0.087463942            1 
  222000    1.2265056    -3.260328    220.39338  0.082730247  0.087450337            1 
  223000    1.2141295   -3.2792553    221.25774  0.082682263  0.087434834            2 
  224000    1.2531828   -3.2238441    223.33765  0.083086924  0.087422942            4 
  225000    1.2216009   -3.2882656    223.16441  0.082653485  0.087411734            1 
  226000    1.2175425   -3.2542454     225.4544  0.083132154  0.087405829            1 
  227000    1.2345922   -3.2435492    226.09848   0.08300238  0.087400841            2 
  228000    1.2177531   -3.2208119    227.83335  0.083272422   0.08739597            2 
  229000    1.2126485   -3.2290554    228.98293  0.083327122  0.087391066            1 
  230000    1.2203849   -3.2510276    229.96195  0.083319548  0.087390523            1 
  231000    1.1932482   -3.2537419    231.77073  0.083611374  0.087392133            3 
  232000    1.2002544   -3.2257706    233.01814  0.083699046  0.087397907            1 
  233000    1.2287427   -3.2632938    232.68217  0.083219659  0.087401571            2 
  234000    1.2068302   -3.2780937    234.43684  0.083488905  0.087405501            2 
  235000    1.2118984   -3.2704493    236.04932  0.083705434  0.087412125            2 
  236000    1.2123303   -3.2870398    237.71641   0.08393941  0.087418165            2 
  237000    1.2321229   -3.2507435    238.65843  0.083916467  0.087429321            3 
  238000    1.2170487   -3.2930964    239.94842  0.084015553   0.08744534            1 
  239000    1.1937019    -3.242975    241.20335  0.084101587   0.08746816            1 
  240000    1.2271721   -3.2379373    243.17766  0.084436688  0.087488226            1 
  241000    1.1874423   -3.2925673      241.797  0.083608922  0.087503369            3 
  242000    1.1845707   -3.2840535    243.73876   0.08393208  0.087513153            1 
  243000    1.1985735   -3.2748965    244.12424  0.083718875  0.087518407            3 
  244000    1.2140609   -3.2660628    243.72246  0.083238545  0.087519789            2 
  245000    1.2020894   -3.2437936    246.66291   0.08389895  0.087521608            2 
  246000     1.231381   -3.2768822    248.17833  0.084071249  0.087525888            3 
  247000    1.2145458   -3.2540786    248.92196  0.083981767  0.087534241            3 
  248000    1.1963067   -3.2848488    249.73873  0.083917585  0.087542301            1 
  249000    1.2312884   -3.2721433    251.10725   0.08403857  0.087551558            2 
  250000    1.2190835   -3.2514437    252.29714  0.084099048  0.087559885            1 
  251000     1.184226   -3.2730915    253.25742  0.084082809  0.087566343            5 
  252000    1.1900123   -3.2843805    253.71761  0.083901327  0.087572911            1 
  253000    1.2080021   -3.2779036    255.53335  0.084167769  0.087580067            3 
  254000    1.2145897   -3.2628604     256.4044  0.084122178   0.08758915            1 
  255000    1.2182585   -3.3089612    257.84487  0.084263028  0.087594658            3 
  256000    1.2115855   -3.3050277    257.18421  0.083718819  0.087596587            3 
  257000    1.2088638   -3.3032167    258.54843  0.083835417  0.087601409            4 
  258000    1.2183746   -3.2532422    261.08297  0.084329126  0.087606367            3 
  259000    1.2077892   -3.3250905    260.74499  0.083894786   0.08760948            1 
  260000    1.1923994    -3.264625    261.88721  0.083938209  0.087617143            2 
  261000    1.2141498   -3.2814179    263.60378  0.084164679  0.087623314            2 
  262000    1.1763067   -3.2618023    264.44143   0.08410987  0.087629744            3 
  263000    1.1881705   -3.2719313    266.22399  0.084354876  0.087634161            2 
  264000    1.2086797   -3.2709715     266.8325  0.084227429  0.087640611            2 
  265000    1.1985465   -3.2801924    266.93513  0.083941864  0.087644334            3 
  266000    1.2060869   -3.2532062    268.77723  0.084203393  0.087643373            3 
  267000    1.2133425   -3.2805133    271.17754  0.084637185   0.08764777            2 
  268000    1.1897781   -3.2637801    268.98089  0.083638338  0.087648206            1 
  269000     1.215331   -3.2463525    271.12938  0.083992994  0.087647919            1 
  270000    1.1895202    -3.306436    271.72787  0.083866625  0.087647361            2 
  271000    1.2080532   -3.2683232    272.64301  0.083838565  0.087649286            1 
  272000    1.1884309   -3.2713326    274.92409  0.084229193  0.087651706            3 
  273000    1.2300998   -3.2823741    275.49012  0.084093442  0.087654712            1 
  274000    1.1745313   -3.2362186    276.63288  0.084134087  0.087653731            2 
  275000    1.2390461   -3.2872475    277.30238  0.084031025  0.087651518            3 
  276000    1.2064865   -3.2714654    278.18583  0.083993308  0.087650104            1 
  277000    1.2145126   -3.3301805    279.12464  0.083972515  0.087648386            2 
  278000     1.181807   -3.2378461    281.19747  0.084291806  0.087644154            2 
  279000    1.1926468   -3.2886272    279.96214  0.083620712  0.087639213            2 
  280000    1.1832001   -3.2887223    281.42416  0.083757191  0.087634557            2 
  281000    1.2252807   -3.2565534    283.93087  0.084202512  0.087626156            4 
  282000    1.1918445   -3.2672868    284.73763  0.084142325   0.08762315            3 
  283000    1.2020913   -3.2845533    284.14666  0.083670982  0.087617446            1 
  284000    1.2009368   -3.2786656    285.76014  0.083849808  0.087616198            1 
  285000    1.2140647   -3.3041667    287.48248  0.084059204  0.087614153            2 
  286000    1.2529661   -3.3206036    288.79115  0.084146604  0.087615132            3 
  287000    1.1935439   -3.2644713    289.89165  0.084172953  0.087614455            1 
  288000    1.2027512   -3.2611454    291.75619  0.084420195    0.0876192            3 
  289000    1.2086372   -3.2515322    293.27292  0.084565433     0.087624            2 
  290000    1.1924311   -3.2728227    294.79235  0.084710446  0.087629082            1 
  291000    1.2041508    -3.262056    295.11197  0.084510874  0.087632057            2 
  292000    1.1970908   -3.2609645    296.18275   0.08452704  0.087636866            2 
  293000     1.214473   -3.2756987      298.114  0.084787826  0.087645396            2 
  294000    1.2023428    -3.294891    298.03966  0.084478361  0.087656055            2 
  295000    1.2003852   -3.2880085    300.78301  0.084966953  0.087658806            2 
  296000    1.2060643   -3.2537055    300.12429  0.084494452  0.087664149            1 
  297000    1.1993589    -3.286346    301.53522  0.084605842   0.08766939            1 
  298000    1.2137758   -3.2731377    303.55898  0.084887857  0.087675134            2 
  299000    1.1927447   -3.2447129    304.24433  0.084794965  0.087681802            1 
  300000    1.2187512   -3.2717709    304.20918   0.08450255  0.087684958            2 
  301000    1.2087147   -3.3026217    305.52488  0.084586068  0.087690033            2 
  302000    1.2064985   -3.2956718    306.35777  0.084535809  0.087692992            2 
  303000    1.1780915   -3.2929437    307.21647  0.084492978  0.087693805            2 
  304000    1.2316049   -3.2889954    309.17204  0.084751108  0.087696645            2 
  305000     1.210266    -3.268865    310.74343  0.084902577  0.087704021            1 
  306000    1.1931581   -3.2722113    311.53118  0.084839647  0.087710605            2 
  307000    1.2133486   -3.2478143      313.958  0.085222041  0.087720755            3 
  308000     1.206056   -3.3259233    313.07474  0.084706369  0.087731308            3 
  309000    1.1932857   -3.2922972    314.43291  0.084798519  0.087736189            2 
  310000    1.1747527   -3.2945007     315.5103  0.084814595  0.087742728            2 
  311000    1.2077832   -3.2775876    317.50552  0.085076505  0.087751207            1 
  312000     1.215684   -3.2798366    318.91024  0.085179016  0.087762693            2 
  313000     1.175665   -3.2663101    320.49057  0.085327628   0.08777061            2 
  314000    1.1810844   -3.2967339    319.92167  0.084904901  0.087777925            1 
  315000    1.2217835   -3.2976139    320.04302  0.084667466  0.087783393            3 
  316000    1.2162652   -3.3045615    320.98906  0.084649014  0.087786761            3 
  317000    1.2167885    -3.266021    324.03246  0.085182035  0.087791873            7 
  318000    1.1831014    -3.293954    324.51227  0.085039902  0.087801457            2 
  319000    1.2120008   -3.2587908    324.15278  0.084679409  0.087811937            2 
  320000    1.2061378   -3.3055879    326.62243  0.085057925  0.087819601            2 
  321000    1.2158821   -3.2662328    327.60993  0.085049307  0.087826396            4 
  322000    1.2257067   -3.2964147    329.37726  0.085242563   0.08783322            1 
  323000    1.2128216   -3.2796493    330.37942  0.085237208  0.087841289            1 
  324000     1.187511    -3.247797    331.44964  0.085249394  0.087850915            1 
  325000    1.2079919   -3.2978301    330.44914   0.08473055  0.087855709            1 
  326000    1.2091112   -3.2617446    333.20081   0.08517403  0.087861567            2 
  327000    1.1887092    -3.274884    332.64408  0.084771682  0.087865248            2 
  328000    1.2303449   -3.2793413     334.1648  0.084899594  0.087867635            5 
  329000    1.1991469   -3.3088408    335.45519  0.084968386  0.087869288            2 
  330000    1.2419497   -3.2569655    336.81839  0.085055149  0.087872602            1 
  331000    1.1919792   -3.2751884    336.57665  0.084737322  0.087874243            3 
  332000    1.2063782   -3.2994639    337.91151  0.084817146  0.087877783            2 
  333000    1.1779798   -3.2618966    340.36658  0.085176823  0.087881401            2 
  334000    1.1796287   -3.2671382    341.39784  0.085179103  0.087886312            2 
  335000    1.1677033   -3.2718781    341.48374  0.084946204  0.087889892            1 
  336000    1.2057001   -3.2622249    343.59454  0.085216901  0.087892489            2 
  337000    1.2003173    -3.297571    344.20884  0.085115935  0.087897454            1 
  338000    1.2142595   -3.2892459    346.56776    0.0854457  0.087900565            1 
  339000    1.2041469    -3.322745    346.66734  0.085218128  0.087903216            2 
  340000    1.1943916   -3.2774846    347.40132  0.085147381  0.087908254            2 
  341000    1.2149938   -3.2888066    348.02798  0.085050827  0.087907413            2 
  342000    1.2190131   -3.2703607    350.28434  0.085351934  0.087911859            4 
  343000    1.1987374    -3.293404    350.70141  0.085204423   0.08791357            2 
  344000    1.2241147   -3.2660324     352.5634    0.0854078  0.087915052            1 
  345000    1.2153001   -3.2834933    352.93908  0.085250985  0.087917087            1 
  346000    1.2135397   -3.2763361     352.7924  0.084969267   0.08791837            6 
  347000    1.2040627    -3.286551    355.05999  0.085268969  0.087923902            1 
  348000     1.209297   -3.2812335    356.22136  0.085302049  0.087927483            1 
  349000    1.1747992   -3.2981808    357.14358  0.085277836  0.087931121            2 
  350000     1.187308   -3.3025365    357.44195  0.085105227  0.087934294            5 
  351000    1.2007244   -3.3114207    358.22354  0.085048324  0.087933596            2 
  352000    1.1819569   -3.2914375    357.97219  0.084747205  0.087932168            2 
  353000     1.190025   -3.3074357    359.70595  0.084916419   0.08793106            1 
  354000    1.2025345    -3.290522    361.74693  0.085156999  0.087928978            1 
  355000    1.2023572   -3.2991789    361.75039  0.084917932  0.087926422            2 
  356000    1.1983737   -3.2876856    363.22926  0.085025576   0.08792162            2 
  357000    1.2134051   -3.3073832    365.02901  0.085207517    0.0879208            2 
  358000    1.1996108    -3.276174    366.39106   0.08528656  0.087920143            1 
  359000    1.2159177   -3.3062279    365.95067  0.084946765  0.087919916            1 
  360000    1.1841603   -3.2918529    367.81059  0.085141341  0.087919056            1 
  361000    1.1891331   -3.2933858    368.92776   0.08516338  0.087917976            2 
  362000     1.169462    -3.295732    368.75898  0.084889269  0.087915841            3 
  363000    1.1876998   -3.2726268    371.08918  0.085190353  0.087913484            1 
  364000    1.1789638   -3.3021099    371.30517  0.085005762  0.087913781            2 
  365000    1.1847366   -3.2570004    374.16632  0.085426099  0.087913413            5 
  366000     1.204079   -3.3139317    374.77912  0.085332222  0.087912713            2 
  367000    1.1906162   -3.2921823    374.56999  0.085052223  0.087909362            3 
  368000    1.1881799      -3.2821    374.80397  0.084874088   0.08790501            2 
  369000     1.181126   -3.2799827    376.89976  0.085117379  0.087900586            2 
  370000    1.1943066    -3.305168    375.77138  0.084633193  0.087895105            2 
  371000    1.1836575    -3.315831    377.70924   0.08484035  0.087888604            3 
  372000    1.2139965   -3.2945315    379.01573  0.084904958  0.087884662            1 
  373000    1.1939606   -3.3112969    380.02306  0.084902381  0.087877732            1 
  374000    1.1823006   -3.2829447    381.30843  0.084961771  0.087871793            3 
  375000    1.2165589   -3.3078426    382.32027   0.08496006  0.087866982            1 
  376000     1.207311   -3.3212066    384.10696  0.085130088  0.087864441            3 
  377000    1.1930225   -3.2893904     384.1797  0.084920358  0.087860386            1 
  378000    1.1988066   -3.3079046    386.32161  0.085167903  0.087854481            2 
  379000    1.2018454   -3.2664197    388.85393  0.085499985  0.087851799            1 
  380000    1.2104843   -3.2766159    388.54112  0.085206387  0.087848333            1 
  381000    1.1938862   -3.2899585    387.55236  0.084766483  0.087842765            1 
  382000    1.2111495   -3.3100999     389.4067  0.084949106  0.087837715            3 
  383000    1.2227738    -3.327375    391.68748   0.08522356  0.087832696            4 
  384000    1.1925777   -3.2902351    390.07438  0.084651558   0.08782626            2 
  385000    1.2042444   -3.3171604    390.74186  0.084576161   0.08782025            2 
  386000    1.1675136   -3.2741866    394.20583  0.085104885  0.087815459            1 
  387000     1.179045   -3.3129752    395.42538  0.085147585  0.087811198            2 
  388000    1.1903342   -3.3222658    394.02763  0.084627928  0.087807065            2 
  389000    1.2106496   -3.2988567    396.47414  0.084934476  0.087800043            2 
  390000    1.1930185   -3.2958351    398.11765  0.085067874  0.087794339            3 
  391000    1.1838716   -3.2745038    400.00555  0.085252674   0.08778749            2 
  392000    1.2175925   -3.2937545     397.7283  0.084551085  0.087779962            4 
  393000    1.2052528    -3.323996    399.54484  0.084721127  0.087772747            3 
  394000    1.1880419   -3.3284527    401.30626   0.08487865  0.087763713            4 
  395000    1.1912682   -3.2875111    402.19922  0.084852155  0.087756789            1 
  396000    1.1903505   -3.3075114    402.73998  0.084751678  0.087749733            2 
  397000    1.1880638    -3.298459    404.47455  0.084902298  0.087743821            2 
  398000    1.2085178   -3.3032257    405.08055  0.084815861  0.087736854            1 
  399000    1.1808887   -3.3027186    405.18074  0.084624215  0.087729979            2 
  400000    1.1794068   -3.3205434    405.49492  0.084478107  0.087721416            2 
  401000    1.1568252   -3.2949802    406.35581  0.084446345  0.087715125            6 
  402000    1.1805124   -3.2933535    409.38194  0.084863587  0.087707517            1 
  403000    1.1857226   -3.3073248    409.44999  0.084667077   0.08770244            1 
  404000    1.1744009   -3.3059713     412.2337  0.085031704  0.087696864            2 
  405000    1.2072428   -3.3015106    412.26682  0.084828563  0.087692923            1 
  406000    1.1686245   -3.2915112    414.04352  0.084984303  0.087689316            3 
  407000     1.169487   -3.3123143    414.66047  0.084901816  0.087685677            3 
  408000    1.1918691   -3.2833098    416.57977  0.085085737  0.087682613            2 
  409000    1.1712518   -3.3068499    416.02287  0.084764236   0.08767739            2 
  410000    1.1668917   -3.2766506    416.89016  0.084733773  0.087672285            2 
  411000    1.1874932   -3.3099095     418.3964  0.084833009  0.087665212            1 
  412000    1.1630753   -3.2625121    420.57522  0.085067803  0.087658938            1 
  413000    1.1745506   -3.3007508    422.00317  0.085149954  0.087652353            3 
  414000    1.2080168     -3.27176    422.76727  0.085098083  0.087648772            1 
  415000    1.1606866   -3.2968439    424.38315    0.0852175  0.087644314            1 
  416000    1.1642392   -3.3183856    424.10115   0.08495616  0.087638885            2 
  417000    1.1863447   -3.2896032    426.99186  0.085330107  0.087633868            2 
  418000    1.1587565    -3.305225    424.06167    0.0845418  0.087626977            1 
  419000    1.1845087   -3.2923482    425.08554  0.084543664  0.087617136            3 
  420000    1.1907984   -3.3078959    427.63119  0.084847458  0.087606933            2 
  421000    1.2136943    -3.266747    428.59581  0.084836859  0.087597102            1 
  422000    1.1736883     -3.33044    428.34233  0.084585768  0.087588041            1 
  423000    1.1875275   -3.2775108    429.53884  0.084621521  0.087576625            2 
  424000    1.1580923   -3.3029857    431.47992  0.084803444  0.087566373            1 
  425000    1.1876474   -3.3150298    431.94508  0.084695114  0.087555461            1 
  426000    1.1789204   -3.3092177    431.77246   0.08446253  0.087546498            2 
  427000    1.2030092   -3.3389837    432.15475  0.084339334  0.087535712            3 
  428000    1.1845257   -3.2996769    436.06379  0.084903387  0.087525506            3 
  429000    1.1909819   -3.3095215    436.02541  0.084698021   0.08751516            4 
  430000     1.178993   -3.3088995    436.29403  0.084553106  0.087502112            1 
  431000    1.1818798   -3.3135227    437.50039  0.084590176  0.087490394            5 
  432000    1.1885567   -3.3033575    441.02839  0.085074921  0.087480472            2 
  433000    1.1631586   -3.3246817    437.43286  0.084186462  0.087468029            1 
  434000    1.2015786   -3.3269022    438.70252  0.084236274  0.087453627            1 
  435000    1.1761027   -3.3153122    439.02863  0.084105101  0.087439736            3 
  436000    1.1794552   -3.3525417    441.41732  0.084368754  0.087425613            2 
  437000    1.1759499   -3.3038775    441.83493  0.084255326  0.087410448            2 
  438000     1.192102   -3.3377019     443.5745   0.08439393  0.087396853            2 
  439000    1.1816913   -3.3089413    442.86853  0.084067679  0.087379716            6 
  440000    1.1932639   -3.3056935    444.42867  0.084172097  0.087365053            1 
  441000    1.1862457   -3.3077974    447.15605  0.084496607  0.087350103            2 
  442000    1.1826515     -3.29935    446.43906   0.08417026  0.087336763            2 
  443000    1.1659956   -3.3080601    448.33251  0.084336439    0.0873225            2 
  444000     1.165645    -3.327906    450.45211  0.084544315  0.087307933            2 
  445000    1.1871634   -3.2796976    450.96369  0.084450128  0.087294189            3 
  446000    1.1784016   -3.2892085    449.73602  0.084031394  0.087279111            1 
  447000    1.1833424     -3.30301    452.09008  0.084282266   0.08726111            1 
  448000    1.1780704   -3.2765862    452.49726  0.084169877  0.087246437            2 
  449000    1.1854726    -3.303955    451.93294   0.08387768  0.087230716            1 
  450000    1.2035131   -3.2701753    455.55569  0.084362164  0.087215527            1 
  451000    1.1929301   -3.2617848    456.25831  0.084304935  0.087200907            1 
  452000     1.170067   -3.3073452    457.93452  0.084427457    0.0871879            3 
  453000    1.1692861   -3.3206702    458.16489   0.08428346  0.087177107            1 
  454000    1.1924079   -3.3227772    461.79453  0.084764046  0.087165245            2 
  455000    1.1693463   -3.3220489    460.89232  0.084412514  0.087155252            1 
  456000    1.1784662   -3.2941856    461.38668  0.084317741  0.087142669            1 
  457000    1.1920524   -3.3195259    462.40309  0.084318579  0.087130164            1 
  458000    1.1777913    -3.276225    465.28364  0.084658596  0.087119441            2 
  459000    1.1909945   -3.2799916    465.71327  0.084552155   0.08710969            2 
  460000    1.1749064   -3.3177406     467.0146  0.084604093   0.08709951            4 
  461000    1.1824892   -3.3196266    467.86451  0.084574206   0.08708799            3 
  462000    1.1738423   -3.2743866    469.61152  0.084706262   0.08707787            2 
  463000    1.1959081    -3.324121     468.4431  0.084313013  0.087066475            2 
  464000    1.1751745   -3.3226818    468.94948  0.084222248   0.08705264            2 
  465000    1.2080174   -3.3130769    469.79124  0.084191978  0.087037955            2 
  466000    1.1608096   -3.3235933    470.77143  0.084186594  0.087025831            2 
  467000    1.1706942   -3.3152502    470.90999  0.084031047  0.087011756            5 
  468000    1.1645347   -3.3468861    470.69861  0.083813855  0.086996937            2 
  469000    1.1828239   -3.3132715    474.45093   0.08430187  0.086981795            2 
  470000    1.1896245   -3.3260496    472.72196   0.08381595  0.086966911            6 
  471000    1.1783016   -3.3350756     473.5505  0.083784589  0.086951185            4 
  472000    1.1669063   -3.3148881    475.79216  0.084002853  0.086937466            1 
  473000    1.1672262   -3.3268219    476.37211  0.083927434  0.086923339            2 
  474000    1.1953015   -3.3181016    479.03602  0.084218709  0.086911654            1 
  475000    1.1519723   -3.3352809    479.41968  0.084108715  0.086899301            1 
  476000    1.1769272   -3.3113572    481.51729  0.084299245  0.086887107            1 
  477000     1.174745   -3.2929464    484.19016  0.084589475  0.086876008            3 
  478000    1.1561082   -3.3192014    482.88208  0.084184463  0.086864629            2 
  479000    1.1743955   -3.2897225    483.02912  0.084034293  0.086851348            2 
  480000    1.1686946   -3.3199723    484.05469  0.084037272  0.086836191            2 
  481000    1.1579721   -3.3191982    484.18924  0.083885869  0.086822291            4 
  482000    1.1672361   -3.3133986    485.84699  0.083998443  0.086806999            2 
  483000    1.1940903    -3.315501    486.04338  0.083858416  0.086795082            3 
  484000    1.1696493   -3.3576731    488.11345  0.084041572  0.086780558            3 
  485000    1.1382023   -3.2761429     490.3387  0.084250636  0.086767091            1 
  486000    1.1688469   -3.3285328     490.2777  0.084066821  0.086752223            1 
  487000    1.1611782   -3.3119438    490.84275  0.083990888  0.086738194            2 
  488000     1.164931   -3.2923017    493.30489  0.084239223   0.08672625            3 
  489000    1.1738392   -3.3032473    494.03823  0.084191927  0.086714432            1 
  490000    1.1617024   -3.3323714     493.9697  0.084008452  0.086701301            6 
  491000    1.1825515    -3.297062    496.41602  0.084252549  0.086689834            1 
  492000    1.1620644    -3.289766     499.2175  0.084555809  0.086679446            1 
  493000    1.1759415   -3.2916045    496.98721  0.084007303  0.086669049            3 
  494000    1.1786042    -3.323767    499.36062  0.084237621  0.086659439            1 
  495000    1.1689953   -3.3287964    499.60153  0.084108001  0.086648515            3 
  496000    1.1687606   -3.3094206    500.00204  0.084005719  0.086635802            3 
  497000    1.1604875   -3.3022948     501.9079  0.084156254     0.086624            1 
  498000    1.1520923   -3.3026302    501.28699  0.083883365  0.086611329            1 
  499000    1.1798694   -3.3115277     503.2842  0.084048797  0.086597056            2 
  500000    1.1544092    -3.300816    505.29213  0.084215355  0.086581958            1 
  501000    1.1557491   -3.3275144    502.45753   0.08357577  0.086566731            1 
  502000    1.1826015   -3.3192499    505.82397  0.083968122  0.086551495            1 
  503000    1.1851196    -3.325788    506.02883  0.083835127  0.086535918            1 
  504000    1.1691485   -3.3309552    506.79544  0.083795542  0.086520682            2 
  505000    1.1691649   -3.3219665    505.47482  0.083411687  0.086504419            2 
  506000     1.174677    -3.289974    510.50912  0.084075943  0.086491781            3 
  507000    1.1683751   -3.3282294    508.38505  0.083560988  0.086477584            1 
  508000    1.1545903   -3.3358541    511.62459  0.083927919  0.086463648            4 
  509000    1.1813876   -3.2738486    513.34753   0.08404511  0.086450249            7 
  510000    1.1884014   -3.3324631    513.19466  0.083855336   0.08643635            2 
  511000    1.1855749   -3.3006425    515.94029   0.08413899  0.086424398            2 
  512000     1.181808   -3.3055001    518.43547  0.084380774  0.086412898       -1e+20 
  513000    1.1559845   -3.3213119    516.00257   0.08382108  0.086400653            2 
  514000    1.1799096   -3.2935794    518.21398  0.084016533  0.086387272            2 
  515000    1.1817379   -3.3370491    516.80527  0.083625447  0.086375038            1 
  516000    1.1718841   -3.3193609    519.59448  0.083913837  0.086361836            1 
  517000    1.1565539   -3.3181393    519.28013   0.08370086  0.086349335            3 
  518000    1.1442506   -3.2973461    522.26047  0.084018737  0.086339438            2 
  519000    1.1450984   -3.3033381    524.55339  0.084225015    0.0863294            3 
  520000    1.1734247   -3.3393616    523.21647  0.083848793  0.086319161            2 
  521000    1.1633581   -3.3667091    525.48477  0.084050667  0.086306996            2 
  522000     1.179161   -3.3140973    525.41852  0.083879074  0.086296455            2 
  523000    1.2004811     -3.30679    528.99455  0.084288488  0.086285487            3 
  524000    1.1871738   -3.3219407    528.25227  0.084009585  0.086277511            2 
  525000    1.1841211   -3.2991528    531.16931  0.084312588  0.086269781            1 
  526000    1.1751169   -3.3008213    527.73493  0.083608195  0.086259551            3 
  527000    1.1581525    -3.316043    531.12595  0.083985761   0.08624905            3 
  528000    1.1754418   -3.3274814    531.26431  0.083848534  0.086237702            1 
  529000    1.1383924   -3.3571051    533.45142  0.084034566  0.086227172            1 
  530000    1.1700398   -3.3307621    532.79122  0.083772204  0.086215631            2 
  531000    1.1949343   -3.3056326     534.3342  0.083856591  0.086203956            5 
  532000      1.16057   -3.3333124    535.66319   0.08390714  0.086192914            3 
  533000    1.1441429   -3.3366713     535.3062  0.083693903  0.086181532            2 
  534000     1.206856   -3.3341724    538.18139  0.083985859  0.086168705            3 
  535000     1.161518   -3.3052768    538.88559  0.083938565  0.086157886            4 
  536000    1.1775429   -3.3173114    538.70408  0.083753743  0.086146653            3 
  537000      1.14473   -3.3113606    539.52062  0.083724491  0.086135762            1 
  538000    1.1718856   -3.3101703    543.24537  0.084145813  0.086125558            3 
  539000     1.167657   -3.3425219    544.41321  0.084170256  0.086114704            2 
  540000    1.1823172   -3.3204984    540.61607  0.083428405  0.086104351            1 
  541000    1.1744682   -3.3063446     546.2547  0.084142745   0.08609502            1 
  542000    1.1576092   -3.3195201    547.67513  0.084205893  0.086085814            2 
  543000    1.1515798   -3.3081572    547.12495  0.083966383  0.086077476            2 
  544000     1.178683   -3.3127408    547.93663  0.083936371  0.086067416            4 
  545000    1.1681347   -3.3704731    546.84209  0.083614998  0.086057369            2 
  546000    1.1516909   -3.3389179     549.1596  0.083815568  0.086048038            2 
  547000    1.1727159   -3.3100596    551.04082  0.083948937  0.086038122            2 
  548000    1.1559749   -3.3335774    553.10293  0.084109326   0.08602817            1 
  549000    1.1491079   -3.3371934    553.90749  0.084078246  0.086018489            1 
  550000    1.1835133   -3.3536944    553.50847  0.083864919  0.086008667            1 
  551000    1.1758627   -3.3298947    554.66021  0.083886903   0.08599786            1 
  552000    1.1684756   -3.3257297    555.62552  0.083880664  0.085988782            1 
  553000    1.1756098   -3.3149224    557.37351  0.083992391   0.08597898            1 
  554000    1.1623685    -3.343747    558.96212  0.084079741  0.085968922            2 
  555000    1.1475498   -3.3450487    559.05962  0.083942886  0.085958549            2 
  556000    1.1308058   -3.3422638    557.14029  0.083504239   0.08594783            3 
  557000    1.1545786    -3.336216    560.30022  0.083827082  0.085937308            3 
  558000     1.150729   -3.2987485     563.2342  0.084115023  0.085926701            3 
  559000    1.1606172   -3.3192917    560.52372  0.083560484  0.085916596            2 
  560000    1.1731246   -3.3584444    562.54435  0.083711957  0.085906143            5 
  561000    1.1732436   -3.2947794    567.00499   0.08422534  0.085896043            1 
  562000    1.1547619   -3.3108815    566.81742   0.08404766  0.085885556            1 
  563000    1.1701086   -3.3141756    565.74154  0.083739126  0.085873677            2 
  564000    1.1457431   -3.3550337    565.35152  0.083533026  0.085861249            2 
  565000    1.1749287   -3.3304937    567.45385  0.083695258  0.085848351            2 
  566000    1.1652366   -3.3416401    566.86071  0.083460058  0.085836558            5 
  567000    1.1630431   -3.3284548    568.29363  0.083523461  0.085823339            2 
  568000    1.1463466    -3.353597    570.55551  0.083708261  0.085811095            1 
  569000    1.1765725   -3.3492139    570.90963   0.08361301  0.085798459            2 
  570000    1.1629996   -3.3592908    569.53749  0.083265715  0.085786336            1 
  571000    1.1614415   -3.3418112    571.90203  0.083464978  0.085774732            3 
  572000    1.1587014   -3.3154507    573.89502  0.083609414  0.085764141            3 
  573000    1.1802719    -3.324835    574.11788   0.08349591  0.085752738            2 
  574000    1.1753405   -3.3371123    574.86192  0.083458467  0.085741991            1 
  575000    1.1903575   -3.3342505    576.88549  0.083606592  0.085730824            1 
  576000    1.1442003   -3.3384631    576.86581  0.083458595  0.085718873            3 
  577000    1.1770503   -3.3229573    579.75191  0.083730778  0.085709402            3 
  578000    1.1730783   -3.3299993    579.26776  0.083516113   0.08569916            2 
  579000    1.1714599   -3.3566342    578.52672  0.083265216   0.08568887            1 
  580000    1.1669304   -3.3620515    578.68653  0.083144616  0.085676183            3 
  581000    1.1515654   -3.3374301    580.90722  0.083320025  0.085663493            1 
  582000    1.1659815   -3.3159107    581.85748  0.083312927  0.085651066            1 
  583000    1.1504647   -3.3200515    583.79691  0.083447243  0.085639062            3 
  584000    1.1747689     -3.33593    584.06292  0.083342311   0.08562681            4 
  585000    1.1398331   -3.3351735    585.52381   0.08340795  0.085614148            2 
  586000     1.157946   -3.3306387    586.64364  0.083424863  0.085601345            2 
  587000    1.1590992   -3.3086474    587.84425  0.083453188  0.085588256            3 
  588000    1.1291037   -3.3247751    589.19469  0.083502649  0.085576508            6 
  589000    1.1633377   -3.3493206     588.3973  0.083248062  0.085563687            2 
  590000    1.1527605   -3.3458031    589.58276    0.0832744  0.085550679            2 
  591000    1.1655056   -3.3414662    592.44135   0.08353657  0.085538598            1 
  592000    1.1479914   -3.3288255    592.89003  0.083458619  0.085526535            4 
  593000    1.1531001   -3.3716495    589.99359  0.082910847   0.08551394            6 
  594000    1.1770151   -3.3262231    596.31021  0.083657436  0.085503656            3 
  595000    1.1540051   -3.3482506    594.18768  0.083219563  0.085491925            2 
  596000     1.153658   -3.3362932    596.30646  0.083376182  0.085479876            1 
  597000    1.1785126   -3.3395083    598.17932  0.083497951   0.08546809            5 
  598000    1.1486735   -3.3342454    599.53889  0.083547782  0.085456602            7 
  599000    1.1463688   -3.3368785    598.39784  0.083249561  0.085444846            1 
  600000    1.1658884   -3.3207601    599.75699  0.083299582  0.085434985            2 
  601000    1.1624345   -3.3264704      603.231  0.083642679  0.085424966            3 
  602000     1.140131   -3.3515887    599.57129  0.082997133  0.085414664            2 
  603000    1.1575141    -3.325298    606.06334  0.083756681  0.085404763            4 
  604000    1.1628218   -3.3787082    601.19865  0.082946834  0.085392673            1 
  605000     1.182971   -3.3086676    602.01706   0.08292246  0.085380918            1 
  606000    1.1434755   -3.3643842    604.65912  0.083148944  0.085368317            2 
  607000    1.1627039   -3.3723382    605.53387  0.083132052  0.085356207            1 
  608000    1.1840509   -3.3618454    608.37982  0.083385391  0.085344858            2 
  609000    1.1604929   -3.3640452      610.825   0.08358306  0.085334048            2 
  610000    1.1362283   -3.3515754    609.63749   0.08328381  0.085322832            1 
  611000    1.1632534   -3.3046518    610.79726  0.083305682  0.085311589            1 
  612000    1.1510722   -3.3252057    614.77869  0.083711695  0.085301049            5 
  613000    1.1475586   -3.3477882    611.17199  0.083084828  0.085289524            2 
  614000    1.1554473   -3.3385964    612.14494  0.083081561  0.085278206            1 
  615000    1.1634643   -3.3304833    615.63973  0.083420018   0.08526826            3 
  616000    1.1481491   -3.3470859    618.14684  0.083623761   0.08525744            1 
  617000    1.1560553   -3.3489237    615.44904  0.083123857  0.085246207            2 
  618000    1.1504635   -3.3495002    619.01711  0.083470484  0.085235848            2 
  619000    1.1515623   -3.3424341    619.32993   0.08337775   0.08522623            1 
  620000    1.1739753   -3.3405287    619.86242  0.083314841  0.085217798            2 
  621000    1.1477019   -3.3722774    622.23532  0.083499104  0.085208258            3 
  622000    1.1635389   -3.3203123    625.47899  0.083799435       0.0852            3 
  623000    1.1513866   -3.3439301    625.59333   0.08368022  0.085193059            1 
  624000    1.1427359   -3.3615166    626.06286  0.083608823  0.085186294            2 
  625000    1.1611451   -3.3517696    629.63695  0.083951594  0.085179576            2 
  626000    1.1540843   -3.3551755    629.39225  0.083784911  0.085171137            1 
  627000    1.1837635   -3.3266315    628.06185  0.083474462  0.085164248            4 
  628000    1.1522893   -3.3514032    630.53616  0.083669872  0.085157246            1 
  629000    1.1734041   -3.3601513    631.97822  0.083727905  0.085149142            2 
  630000    1.1545067   -3.3764259    629.35993  0.083248668  0.085140897            3 
  631000    1.1488636   -3.3546301    631.62961  0.083416483  0.085132158            3 
  632000    1.1425991   -3.3698409    632.84441  0.083444674  0.085125871            2 
  633000    1.1506589   -3.3467707     633.7464  0.083431595  0.085119169            2 
  634000    1.1225645   -3.3509461    637.52928  0.083797224  0.085112285            2 
  635000    1.1421488    -3.340828    638.22212  0.083756184  0.085108084            1 
  636000    1.1411942   -3.3309903    640.33121   0.08390084  0.085103857            5 
  637000    1.1410582   -3.3434432    641.67527  0.083944959  0.085098518            1 
  638000    1.1465598    -3.335142    639.01724  0.083466201  0.085094253            5 
  639000    1.1887777   -3.3434112    643.37965  0.083904493  0.085088565            1 
  640000    1.1488653   -3.3436828    642.35374   0.08363981  0.085083718            3 
  641000    1.1786282   -3.3573528    644.50858  0.083789467  0.085078521            5 
  642000    1.1524504   -3.3607914    643.39328  0.083514185  0.085074251            1 
  643000    1.1328469   -3.3694073    645.81897  0.083698674  0.085068032            1 
  644000    1.1545014   -3.3671069     645.3498  0.083507997  0.085062643            2 
  645000    1.1426844   -3.3645622    647.97778  0.083718059  0.085058423            2 
  646000    1.1521545   -3.3457943    645.98714  0.083331674  0.085051929            3 
  647000    1.1348778   -3.3354547    650.55026  0.083790605  0.085045906            1 
  648000    1.1611983    -3.349541    654.12597  0.084121138  0.085041447            1 
  649000    1.1461558   -3.3616718    654.27195  0.084010266  0.085036162            5 
  650000     1.145397   -3.3336802    652.90606  0.083705905  0.085030101            2 
  651000    1.1504523   -3.3589984    651.89805  0.083448291   0.08502244            2 
  652000    1.1581539   -3.3847158    651.68553  0.083293141  0.085014023            2 
  653000    1.1593504   -3.3741091     650.8147  0.083054454  0.085006198            2 
  654000    1.1672136   -3.3552267    654.29301  0.083370669  0.084998233            2 
  655000    1.1405564   -3.3378281    656.08498  0.083471371  0.084989166            1 
  656000    1.1468665   -3.3481526    657.08152  0.083470722  0.084979533            4 
  657000    1.1542034     -3.33508    657.06374  0.083341418  0.084970668            3 
  658000    1.1274152   -3.3595495    657.20082   0.08323212  0.084962467            3 
  659000    1.1279325   -3.3557026     658.7491  0.083301606  0.084953588            3 
  660000    1.1520602   -3.3693996    661.36978  0.083506285  0.084946409            2 
  661000    1.1253738   -3.3654233    664.55991  0.083782137  0.084939883            2 
  662000    1.1360026   -3.3898135    663.38993  0.083508299  0.084932447            4 
  663000    1.1464212   -3.3732235    662.75436  0.083302459  0.084925538            3 
  664000    1.1410304   -3.3702171    665.38124  0.083506682  0.084917809            2 
  665000    1.1383451   -3.3272692    668.28965   0.08374557  0.084910431            2 
  666000    1.1373931   -3.3106152    668.10749  0.083597033  0.084903727            2 
  667000    1.1346164   -3.3194503    667.01521  0.083335234  0.084896269            3 
  668000    1.1557988   -3.3539738    667.59682  0.083283036  0.084888767            1 
  669000    1.1489033   -3.3390042    669.55658  0.083402663  0.084880169            1 
  670000    1.1627504   -3.3293378    672.98255  0.083704297  0.084872077            3 
  671000     1.165141   -3.3606877    669.91561  0.083198659  0.084863423            3 
  672000    1.1543835   -3.3334591    673.83556  0.083560958  0.084854034            6 
  673000    1.1539759   -3.3691471    672.48708  0.083269822   0.08484492            1 
  674000    1.1333709    -3.342379    672.63152  0.083164135  0.084836475            1 
  675000    1.1708965   -3.3185032    675.81323  0.083433732  0.084828234            2 
  676000    1.1164393   -3.3289424    677.36404  0.083501485  0.084821455            2 
  677000    1.1298959   -3.3386612    677.20983  0.083359162  0.084813625            5 
  678000    1.1655289   -3.3297133    676.20997   0.08311332  0.084806606            1 
  679000    1.1056996      -3.3666    676.67019  0.083047397   0.08479902            4 
  680000    1.1704537   -3.3653413    678.65375  0.083168352  0.084790142            2 
  681000    1.1376555   -3.3509586    680.91442  0.083322861  0.084780641            2 
  682000    1.1442965   -3.3533584    678.78034  0.082939925   0.08477074            1 
  683000    1.1695588   -3.3911902     675.0738  0.082366252   0.08475926            2 
  684000     1.145105   -3.3364771    682.69421  0.083174246  0.084749808            2 
  685000    1.1513146     -3.38346    680.37625  0.082770833  0.084739356            3 
  686000     1.128052   -3.3509684    684.12139  0.083105125  0.084730135            2 
  687000    1.1641369   -3.3368857     684.4538  0.083024478  0.084720325            1 
  688000    1.1735261   -3.3518184    683.56686  0.082796373  0.084710974            4 
  689000    1.1378526   -3.3355599    691.67917  0.083657374  0.084700997            2 
  690000    1.1236755   -3.3543807    687.38048  0.083016966    0.0846909            2 
  691000    1.1394643   -3.3588502    688.24753  0.083001391  0.084680146            3 
  692000    1.1547033   -3.3128889    689.78023   0.08306602   0.08467131            1 
  693000    1.1333756   -3.3508216    690.31558  0.083010531  0.084662365            2 
  694000    1.1484485   -3.3552501    690.46309  0.082908632  0.084651396            4 
  695000    1.1532926   -3.3617646    689.81917   0.08271213  0.084639774            3 
  696000    1.1467536   -3.3582732    688.05258  0.082381774  0.084629295            1 
  697000    1.1520943   -3.3451257    693.08165  0.082864855  0.084617432            1 
  698000    1.1204505   -3.3766648     692.6635  0.082696216  0.084606205            2 
  699000    1.1378558   -3.3539776    691.98865  0.082497454  0.084594221            2 
  700000    1.1249969   -3.3239992    699.10677  0.083226996  0.084582493            1 
  701000    1.1180293   -3.3676104    697.68813  0.082939626  0.084571602            1 
  702000    1.1588396    -3.361442    700.20195   0.08311989  0.084561029            3 
  703000    1.1344811   -3.3549306    699.90969  0.082967009  0.084549834            2 
  704000    1.1541533   -3.3171442    700.64918  0.082936692  0.084539045            2 
  705000    1.1675485   -3.3699532    698.59983  0.082576812   0.08452805            1 
  706000    1.1265236   -3.3824091    701.83508  0.082841723  0.084516789            2 
  707000    1.1132483   -3.3963563    704.05252  0.082985917  0.084504672            1 
  708000    1.1448303   -3.3589751    700.57531  0.082459429  0.084493792            2 
  709000     1.129611   -3.3747376    701.96621  0.082506606  0.084482561            2 
  710000    1.1429825   -3.3869556    702.99971  0.082511703  0.084470076            3 
  711000     1.136958   -3.3398174    703.53229  0.082458074  0.084457144            3 
  712000    1.1333464   -3.3858875     702.8511  0.082262535  0.084444333            2 
  713000    1.1589413   -3.3679671    707.80754  0.082726453  0.084430712            3 
  714000    1.1628883   -3.3601464    704.38833  0.082211523  0.084417883            4 
  715000    1.1402027   -3.3746186    703.01201  0.081936132  0.084404622            2 
  716000     1.156629   -3.3494119    708.50179  0.082460636  0.084391197            5 
  717000      1.12492   -3.3600088    707.20135  0.082194485  0.084378175            2 
  718000    1.1081549   -3.3582746    712.64324  0.082711611  0.084366287            2 
  719000    1.1288117   -3.3665245     712.3141  0.082558427  0.084354471            2 
  720000    1.1617457    -3.381667    712.58917  0.082475599  0.084341514            2 
  721000    1.1281043   -3.3680447    714.82534  0.082619664  0.084329205            2 
  722000     1.134391   -3.3805621    713.38366  0.082338834  0.084316881            1 
  723000    1.1463442   -3.3714546    716.43984  0.082577206  0.084305879            2 
  724000    1.1552861   -3.3285999    717.45034  0.082579459   0.08429457            3 
  725000    1.1374624    -3.401292    716.03922  0.082303359  0.084282718            2 
  726000    1.1313065   -3.3395308    719.08852  0.082540004  0.084271329            1 
  727000    1.1393877   -3.3494038    720.80797  0.082623564  0.084259429            2 
  728000    1.1366685   -3.3524833    721.77754  0.082621055  0.084248126            3 
  729000    1.1094524   -3.3847587    720.82724   0.08239909  0.084237873            5 
  730000    1.1490094   -3.3714337    720.76532  0.082279146  0.084226599            1 
  731000    1.1482299    -3.377761    722.48083  0.082362155   0.08421449            2 
  732000    1.1353586   -3.3627367    722.40683  0.082241214  0.084203351            2 
  733000    1.1132935   -3.3697875    726.32399  0.082574351  0.084190421            1 
  734000    1.1503206   -3.3615883    723.23878  0.082111578  0.084176994            1 
  735000    1.1525719   -3.3581551    725.10018  0.082210905  0.084163832            2 
  736000    1.1231387   -3.3980362     726.7203  0.082282643  0.084150334            3 
  737000    1.1347719   -3.3748636    724.90232  0.081965436  0.084136313            3 
  738000    1.1224204   -3.3493477    728.34978  0.082243652  0.084121898            5 
  739000    1.1276463   -3.3789718    729.15022  0.082222623   0.08410766            3 
  740000    1.1202497   -3.3318004    729.22923  0.082120409  0.084094263            1 
  741000    1.1383339   -3.3842983    729.92222   0.08208752   0.08408108            4 
  742000    1.1472096   -3.3663739    728.55352  0.081823172  0.084066824            2 
  743000    1.1433573   -3.3866783    732.93289  0.082204227  0.084052716            2 
  744000    1.1207323   -3.3864615    731.50192  0.081933459  0.084039981            1 
  745000    1.1326185   -3.3156513    735.06542  0.082222082  0.084027687            2 
  746000    1.1126128   -3.3822516    733.05362  0.081887133  0.084014198            3 
  747000    1.1088066   -3.3919735    732.21942  0.081684451  0.084000232            2 
  748000    1.1215589   -3.3554441    736.33177  0.082033396  0.083986232            1 
  749000    1.1284259   -3.3681987    740.87799  0.082429683  0.083972286            1 
  750000    1.1084562    -3.389604    733.17323  0.081463692  0.083958406            3 
  751000    1.1450502   -3.3964177    740.81499  0.082203172  0.083944245            1 
  752000    1.1241617   -3.3462763    741.20197  0.082136743  0.083929295            1 
  753000     1.137835   -3.3735135    741.90855  0.082105859  0.083915376            2 
  754000    1.1044637   -3.3925072    742.01384  0.082008602  0.083901954            2 
  755000    1.1308188   -3.3537256    742.46157  0.081949401  0.083888324            1 
  756000     1.154919   -3.3602166    742.46749  0.081841655  0.083873644            2 
  757000     1.125863   -3.3359735    746.19943  0.082144366  0.083860828            3 
  758000     1.130193   -3.3710565    748.01794  0.082235921  0.083847498            2 
  759000    1.1083916   -3.3882174    744.82725  0.081777256  0.083834568            1 
  760000     1.149434   -3.4086691    744.29846  0.081611674  0.083820469            2 
  761000    1.1351657   -3.3856796    742.81857  0.081342376  0.083805066            3 
  762000    1.1250944   -3.3811885    749.31099  0.081945646  0.083790276            1 
  763000    1.1390534   -3.3689579    748.72326  0.081774057  0.083776087            2 
  764000    1.1439013   -3.4052897    749.17837  0.081716664  0.083760772            6 
  765000    1.1253649   -3.4124278    749.04237  0.081595029  0.083744452            2 
  766000    1.1138991   -3.3599504    752.89653  0.081907803  0.083728301            2 
  767000    1.1451765   -3.3550375    752.78501  0.081788897  0.083712748            1 
  768000    1.1272917   -3.3828749    751.76046  0.081571231  0.083697461            1 
  769000    1.1112159   -3.3733822    752.95498  0.081594602  0.083682725            4 
  770000    1.1525739   -3.3589604    757.20852  0.081948974  0.083667017            1 
  771000    1.1263427   -3.3666756    754.74967   0.08157692  0.083652258            1 
  772000    1.1290005   -3.3494175    754.97315  0.081495374  0.083638043            6 
  773000    1.1256514   -3.3864816    755.64153  0.081462002  0.083624107            7 
  774000    1.1219915   -3.4065335    756.12896  0.081409233  0.083609035            2 
  775000    1.1227718    -3.376315     757.3538  0.081435893  0.083594115            4 
  776000     1.131577   -3.3848609    759.49195  0.081560562  0.083580521            4 
  777000    1.1040661   -3.3576393    762.25764  0.081752213  0.083566857            2 
  778000    1.1193653   -3.3535401    764.01165  0.081835009   0.08355389            4 
  779000       1.1041   -3.3789393    766.71899  0.082019575  0.083541828            5 
  780000    1.1554531   -3.3698289    764.38187  0.081664729  0.083529918            1 
  781000    1.1272897   -3.3646984    767.23264  0.081864344   0.08351749            1 
  782000     1.111562   -3.3554201    769.01311  0.081949393   0.08350503            3 
  783000    1.1451736   -3.3810277    768.25031  0.081763549  0.083493069            4 
  784000    1.1095379   -3.3676669    769.16461  0.081756442  0.083480352            2 
  785000    1.1210834   -3.3380026    769.80009  0.081719755  0.083467701            3 
  786000    1.1060753   -3.4005427    767.39723   0.08136103  0.083454136            3 
  787000    1.0806012    -3.398552    769.18971   0.08144745   0.08344037            2 
  788000    1.0850555   -3.3548071    772.97774  0.081744685  0.083426562            2 
  789000    1.1177444   -3.3931734    774.47077  0.081798772  0.083413997            5 
  790000    1.1301615   -3.4002741     772.4696  0.081484135  0.083400655            3 
  791000    1.1334157   -3.3776801    775.97773  0.081750708  0.083388145            2 
  792000    1.1159323    -3.390043    776.56326  0.081709097  0.083376157            2 
  793000    1.1415587   -3.3886328    776.32775   0.08158131  0.083363554            1 
  794000    1.1247019   -3.3749741    774.89796  0.081328501  0.083350431            1 
  795000    1.1321431   -3.4021544    777.09259  0.081456247  0.083336729            2 
  796000    1.1105678   -3.3820168    776.06091  0.081245908  0.083321859            2 
  797000    1.1242272   -3.4033962    777.24186  0.081267447  0.083308242            2 
  798000    1.1176893   -3.3666279     781.4813  0.081608323  0.083294177            2 
  799000    1.1647541   -3.3919109    783.67601  0.081735086  0.083282345            3 
  800000    1.1229689   -3.3774932    783.58015  0.081622932  0.083269928            2 
  801000    1.1287479   -3.3830592    783.11603  0.081472745    0.0832581            2 
  802000    1.1293736   -3.4048351    784.68824  0.081534522  0.083246557            5 
  803000    1.1044438   -3.3731999    788.39719   0.08181789  0.083234672            1 
  804000    1.1222171   -3.4013343    787.20946  0.081593021  0.083224068            1 
  805000    1.1075414   -3.4013491    787.25778  0.081496665  0.083211455            2 
  806000    1.1079504   -3.3694709    795.30767   0.08222784  0.083200007            2 
  807000    1.1406359   -3.4141977    789.06837  0.081481657  0.083188395            1 
  808000    1.0968964   -3.3591259    793.43814  0.081831491  0.083176703            1 
  809000    1.1324287   -3.3673197    794.85225  0.081876004  0.083164605            3 
  810000    1.1246054   -3.4147491    788.21027  0.081091591  0.083151755            1 
  811000    1.1137428   -3.3684008    790.90359  0.081268351   0.08313906            1 
  812000    1.1001703   -3.3854308    792.86089  0.081369139  0.083125561            2 
  813000    1.1218686   -3.3544149    794.45223  0.081432168  0.083112568            2 
  814000    1.1293201   -3.3895303    790.62062  0.080939867  0.083099702            3 
  815000    1.1132923    -3.377066    798.59858  0.081656297  0.083086173            3 
  816000    1.1052469   -3.3582251    794.93604  0.081182194  0.083072511            4 
  817000    1.1335506   -3.4030679    795.36929  0.081127018  0.083059187            1 
  818000    1.1257264    -3.411162    795.99945  0.081092038  0.083045812            6 
  819000    1.1164153   -3.3764422    799.35437  0.081334389  0.083032176            2 
  820000    1.1222555    -3.333653    802.76222  0.081581526  0.083018889            2 
  821000     1.121899   -3.4182739    800.56475   0.08125911  0.083004387            3 
  822000    1.1109204    -3.394864    797.29228  0.080828495  0.082989221            3 
  823000    1.1157876   -3.3897825    802.93695  0.081301838  0.082974087            2 
  824000    1.1344571   -3.3894959    797.12066  0.080614953  0.082958972            3 
  825000    1.1221133   -3.4588834    793.20404   0.08012162  0.082942104            3 
  826000    1.1000276   -3.3809851    803.15154  0.081028202  0.082925992            1 
  827000    1.1212501   -3.3850078    802.53511  0.080868109  0.082909249            3 
  828000    1.1520698    -3.375398    802.97531  0.080814746  0.082893331            2 
  829000    1.1326149    -3.394471    804.62952  0.080883546  0.082876693            2 
  830000    1.1314701   -3.4144458     803.5557  0.080678283  0.082860087            1 
  831000    1.1123325   -3.3865895    803.23592   0.08054913  0.082842836            2 
  832000     1.120246   -3.3981767    803.11872  0.080440577  0.082826077            1 
  833000     1.131839   -3.3533432    805.07013  0.080539229  0.082809443            2 
  834000    1.1268921   -3.3920415    808.22348  0.080757741  0.082792772            1 
  835000    1.1412387    -3.399259    802.50747  0.080090566  0.082774926            3 
  836000    1.1037184   -3.3808753    808.87273   0.08062926  0.082756651            2 
  837000     1.121934   -3.3852849    808.19605  0.080465557  0.082738185            2 
  838000    1.1385377   -3.4080477     806.2374  0.080174761  0.082719574            2 
  839000    1.1195769   -3.3885008    811.43867  0.080595816  0.082701702            2 
  840000    1.1062404   -3.3977218    808.77387  0.080235503  0.082684061            3 
  841000    1.1201383   -3.3833548    811.84313  0.080444226  0.082666122            2 
  842000    1.1311232   -3.3909335    813.50099  0.080512766  0.082647974            1 
  843000    1.0967967   -3.3848728    812.92591   0.08036041  0.082630185            3 
  844000    1.1165321   -3.3891249    814.05255  0.080376436  0.082612697            2 
  845000    1.1268576   -3.3949111    812.98154  0.080175694  0.082595469            5 
  846000    1.1114347    -3.388047    812.24514  0.080008387  0.082578328            4 
  847000    1.1207537   -3.4259385    817.99977  0.080480104  0.082561316            3 
  848000    1.1208807   -3.3550193    818.66406  0.080450478   0.08254412            4 
  849000    1.0896292   -3.3723911    818.40142  0.080329939  0.082526197            6 
  850000    1.0977933    -3.377976    817.34038   0.08013141   0.08250757            2 
  851000    1.1259833   -3.3882342    816.94786  0.079998811  0.082488576            2 
  852000    1.1108378   -3.4111023    819.39268  0.080144042  0.082469671            2 
  853000    1.1233534   -3.3957067    819.37685  0.080048539  0.082450767            1 
  854000    1.1062586   -3.4181777    818.40187  0.079859667  0.082431439            1 
  855000    1.1182526   -3.4148647    818.67592  0.079792975  0.082412195            2 
  856000    1.1114142   -3.3827867    822.02516  0.080025813  0.082392634            1 
  857000     1.099082   -3.4030578    824.42472  0.080165764   0.08237292            3 
  858000    1.1422074   -3.4153242    821.93614  0.079830627  0.082353327            2 
  859000    1.1160167   -3.4331784    819.49264  0.079500644    0.0823333            4 
  860000    1.1095953   -3.4302837    823.35455  0.079782417  0.082313354            3 
  861000    1.1156952   -3.4078761    825.07055  0.079855841  0.082293643            2 
  862000    1.1064045   -3.3771949    825.95563  0.079848766  0.082273291            5 
  863000    1.1084955   -3.3819728    822.84665   0.07945603  0.082252725            2 
  864000    1.1269206   -3.4153329    826.08236  0.079676154  0.082231758            2 
  865000    1.1028718   -3.4200387    823.59392  0.079344309  0.082211447            4 
  866000    1.1082378   -3.3996301    825.08365   0.07939604  0.082191679            4 
  867000    1.1382487   -3.3571055    831.68778  0.079939233  0.082171427            2 
  868000     1.113618   -3.4220081     832.1193  0.079888566  0.082152143            2 
  869000    1.1007008   -3.4077091    833.68163  0.079946455  0.082132455            1 
  870000    1.0922108   -3.4247869     834.9289  0.079974032  0.082112985            3 
  871000    1.1220386   -3.4015796    832.33646  0.079634181  0.082093924            2 
  872000    1.1135858   -3.4263298    832.36499  0.079545584  0.082074524            3 
  873000    1.0987615   -3.4183678    834.57643  0.079665562  0.082054254            1 
  874000    1.1187893   -3.4078786    836.74785   0.07978145  0.082034492            3 
  875000    1.1027778   -3.4213137    831.51502  0.079191907  0.082014413            2 
  876000    1.0806526    -3.402892    841.19078  0.080021954  0.081994177            5 
  877000     1.117387   -3.4131366    836.10126  0.079447098  0.081972801            4 
  878000    1.1426164   -3.4284947    837.91452  0.079528713   0.08195184            2 
  879000    1.1141541   -3.3560937     839.1124  0.079551801  0.081930666            3 
  880000    1.1047952   -3.4102867    839.47324  0.079495572  0.081910652            2 
  881000    1.1215956   -3.3872123    840.40451  0.079493427  0.081890607            2 
  882000    1.1284669   -3.4348262    842.66407  0.079616786  0.081870611            3 
  883000    1.1042305   -3.4147094    842.01864  0.079465708  0.081850096            2 
  884000    1.1135388    -3.372178    843.53993  0.079519224  0.081830431            3 
  885000     1.127225   -3.4177274    843.66809   0.07944144  0.081811271            2 
  886000    1.1175715   -3.4171816    841.42305  0.079140618  0.081791585            2 
  887000    1.1144758   -3.4307547     842.4548  0.079148328   0.08177125            1 
  888000    1.0909745   -3.3946438     844.0672   0.07921051  0.081750886            1 
  889000    1.1254875   -3.3848031    848.68447  0.079554224  0.081730125            2 
  890000    1.1350232   -3.4085928    845.08042   0.07912738  0.081709371            2 
  891000    1.1281393   -3.3816801    842.61256  0.078807759  0.081688622            2 
  892000    1.0996935   -3.3897678    843.01483  0.078756991  0.081666589            3 
  893000    1.1034726   -3.4185369    846.00946  0.078948251  0.081644536            1 
  894000    1.0895555    -3.398205    844.77222  0.078744614  0.081622331            3 
  895000    1.1240118   -3.3957647    850.34568  0.079175575  0.081599864            1 
  896000    1.0916636   -3.3829913    847.59474  0.078831356  0.081578189            6 
  897000    1.1063819   -3.4112942    849.52099  0.078922425  0.081557392            4 
  898000    1.1240078   -3.3665234    851.97832  0.079062576  0.081536052            1 
  899000     1.097894   -3.4090151    850.13989  0.078804216  0.081515174            1 
  900000    1.0819665   -3.4560451    848.22093  0.078538975  0.081493852            2 
  901000    1.1087522   -3.4128004    855.20273  0.079097552  0.081472748            2 
  902000    1.0968915   -3.3834825    852.32978  0.078744437  0.081451131            3 
  903000    1.0838698    -3.408319     853.9032  0.078802436   0.08143066            2 
  904000    1.1247239   -3.3719641    860.31372  0.079306206  0.081410084            3 
  905000    1.0871423   -3.4273195    851.19568  0.078378976  0.081388866            2 
  906000    1.1232638   -3.4104726    858.97214  0.079007739  0.081367593            4 
  907000    1.1141958   -3.4258607    861.23495  0.079128533  0.081346433            2 
  908000    1.1064049   -3.4026538    859.59133   0.07889054  0.081326066            1 
  909000    1.1061057   -3.3944888    861.77134  0.079003607  0.081305604            3 
  910000    1.1014489   -3.4000569    862.36198  0.078970877  0.081285292            2 
  911000    1.1221004   -3.4105971    862.28474  0.078877125  0.081264527            2 
  912000    1.0908203   -3.3964911    864.31643  0.078976282   0.08124434            4 
  913000    1.1035167    -3.390368     863.3174  0.078798594  0.081225314            2 
  914000    1.1050458   -3.4309748    863.82579  0.078758734  0.081205435            1 
  915000    1.1175525   -3.4143581    866.82214   0.07894555  0.081186417            3 
  916000    1.0926547   -3.4159715    867.39993   0.07891193  0.081167009            2 
  917000     1.092432   -3.3834751    871.07525  0.079159874  0.081147289            3 
  918000    1.0930321   -3.3897381    867.79108  0.078775515  0.081128266            2 
  919000    1.1144744   -3.4325036    868.73329  0.078775235  0.081109192            2 
  920000    1.1068598    -3.402346    875.42044   0.07929533  0.081090878            2 
  921000    1.1019705   -3.4262148    875.34887  0.079202757  0.081072531            1 
  922000     1.102284   -3.3904669     875.9804  0.079173933  0.081054747            2 
  923000    1.1030349   -3.4211852    872.94237  0.078813865  0.081036767            1 
  924000     1.105313   -3.4009974     874.6836  0.078885606  0.081018332            3 
  925000    1.1334383   -3.4042214    876.17756  0.078934915  0.081001052            4 
  926000    1.1050726   -3.4080538    876.84314   0.07890957  0.080983035            2 
  927000    1.0926556   -3.4143827    875.79933  0.078730612  0.080965108            3 
  928000    1.1173046   -3.4159595     881.9937   0.07920202  0.080946679            2 
  929000    1.1050872   -3.4060727    878.32698  0.078787853  0.080928554            2 
  930000    1.0650218   -3.4161582    883.02447  0.079124057  0.080911083            2 
  931000    1.1163107   -3.4134052     879.1284  0.078690333  0.080893563            3 
  932000     1.110436   -3.3811008    885.63626  0.079187792  0.080875826            4 
  933000    1.0898432   -3.4518912    879.87082  0.078587961  0.080857746            1 
  934000    1.1023028   -3.4238767    882.43111  0.078732254  0.080838851            2 
  935000    1.1261552    -3.399477    887.60437  0.079109124  0.080821244            4 
  936000    1.0947429   -3.3801103    883.75532   0.07868192   0.08080227            3 
  937000    1.0944486     -3.37957     883.5284  0.078577766  0.080783808            3 
  938000    1.1196811   -3.4173163    884.03327  0.078538848   0.08076605            1 
  939000    1.1050591   -3.3803068    887.73559  0.078783776  0.080747797            3 
  940000    1.1340061   -3.4040783    887.89746  0.078714314  0.080729444            2 
  941000    1.0840331   -3.3843031    888.99739  0.078728072  0.080711508            2 
  942000     1.094685   -3.4233323    891.54769  0.078870107  0.080693113            1 
  943000     1.104169   -3.4372835    888.11456  0.078483083  0.080675088            2 
  944000    1.0839557   -3.3919614    890.04862  0.078570676  0.080656704            1 
  945000    1.1043709   -3.3984527     890.2865   0.07850851  0.080638611            2 
  946000    1.0932116    -3.411907    892.24932  0.078598425  0.080621094            2 
  947000     1.111692   -3.3992493    895.13806  0.078769629  0.080603397            4 
  948000      1.10885   -3.4157008     896.6945  0.078823357   0.08058567            4 
  949000    1.1065574   -3.3914927    893.70389  0.078477686  0.080567759            3 
  950000    1.0759056   -3.3848302    896.27529  0.078620639  0.080549509            2 
  951000    1.0835721   -3.4269793     897.3804  0.078634805  0.080531916            2 
  952000    1.1087972   -3.4363223    897.53762  0.078565968  0.080514544            6 
  953000    1.1159584   -3.3815572     902.6806  0.078933246  0.080497475            5 
  954000    1.1079241    -3.408649    900.13667  0.078628291  0.080480911            1 
  955000    1.0704571   -3.4064533    898.33803  0.078389008   0.08046363            1 
  956000    1.0848684    -3.406797    905.84444  0.078961336  0.080447024            2 
  957000      1.09295   -3.3899621    906.56957  0.078941968  0.080431109            2 
  958000    1.0764369   -3.4012838    905.30038  0.078749163  0.080414491            1 
  959000    1.1005525   -3.4188524     905.5615  0.078689738  0.080397655            1 
  960000    1.0885295    -3.423273     905.4249  0.078595912  0.080381474            2 
  961000    1.0697838   -3.4259276    908.91809  0.078817039  0.080365321            3 
  962000    1.1239222   -3.4087957    908.49654  0.078698592  0.080350078            3 
  963000    1.0823256   -3.4188299    908.57107  0.078623319  0.080334126            4 
  964000    1.0905896    -3.415278    912.29304  0.078863506  0.080318712            3 
  965000    1.1027784   -3.4400427    910.75104  0.078648622  0.080302147            4 
  966000    1.0970928   -3.4347627    911.22351  0.078607963  0.080286607            2 
  967000    1.1140637   -3.4422916    914.68267  0.078824773  0.080271489            2 
  968000    1.0999239   -3.3879601    916.31459  0.078883831  0.080256564            2 
  969000    1.1085385   -3.4049029    915.42737  0.078726124  0.080242282            1 
  970000    1.0942601   -3.4199147    916.51976  0.078738811  0.080227416            4 
  971000    1.1046869   -3.4058331    918.09369  0.078792799  0.080212167            1 
  972000    1.0837653   -3.4135597    919.39622  0.078823407  0.080196561            1 
  973000    1.1147812   -3.4135875    915.85733  0.078439306  0.080180995            3 
  974000    1.0983443   -3.4506781    918.26759  0.078564989  0.080165078            1 
  975000    1.0812915   -3.4185665    919.87383  0.078621694  0.080149155            1 
  976000    1.0858697   -3.4302578    917.86536  0.078369652  0.080133909            3 
  977000    1.1048976   -3.3890076    923.59179  0.078777873  0.080118685            3 
  978000    1.1123333   -3.4098046     922.5926  0.078612184  0.080103508            1 
  979000    1.0930349   -3.4253236    923.11276  0.078576163  0.080087743            1 
  980000    1.0919553   -3.4454365    920.86447  0.078304802  0.080071326            3 
  981000    1.1078578   -3.4127416    921.67689  0.078293993  0.080055289            1 
  982000    1.0881714    -3.415336    926.29931  0.078606526  0.080039685            1 
  983000    1.0881876   -3.4194786    929.63691  0.078809504  0.080023907            3 
  984000    1.0946841   -3.4007626    926.76146  0.078485896  0.080008689            1 
  985000    1.1225021   -3.4399312    929.21745  0.078613997  0.079993049            3 
  986000    1.0827379   -3.4553608     927.3338  0.078375067  0.079976808            3 
  987000    1.1017063   -3.4424651    926.74514  0.078245959  0.079960366            2 
  988000     1.082128   -3.4081549    932.27011  0.078632769  0.079943232            1 
  989000    1.0889977   -3.4214629    925.86686  0.078013723  0.079926807            1 
  990000    1.0900533    -3.398911    933.74072  0.078597704  0.079910444            2 
  991000    1.0935786   -3.4127457    928.77046  0.078100442  0.079894082            2 
  992000    1.0925998   -3.4470047    928.59846  0.078007263  0.079877427            2 
  993000    1.0676437    -3.422786    929.65543  0.078017407  0.079860725            2 
  994000    1.1318789   -3.4266544    930.08423  0.077974868  0.079844275            2 
  995000    1.0904192   -3.4449761    933.71928  0.078200945  0.079827889            1 
  996000    1.0695497   -3.4114629    934.54555  0.078191562  0.079811623            5 
  997000    1.0888712   -3.4169087    937.27356  0.078341154  0.079795412            1 
  998000    1.0666818   -3.4585416    934.64452   0.07804313   0.07977863            2 
  999000    1.0841566   -3.3955322    936.69346  0.078135925  0.079761591            2 
 1000000    1.0994974    -3.407518    940.09619  0.078341349  0.079745114            2 
 1001000    1.0994607   -3.4243827    936.19631  0.077938421  0.079728721            3 
 1002000    1.0888544      -3.4104    940.25631  0.078198296  0.079712315            2 
 1003000    1.0881483   -3.4099737    942.42042  0.078300134   0.07969681            1 
 1004000    1.0922799   -3.4361881     943.2416  0.078290305  0.079681435            4 
 1005000    1.0856463   -3.4209928    945.06343  0.078363468  0.079665516            3 
 1006000    1.1095602   -3.4133415    940.27268  0.077888724  0.079649486            1 
 1007000    1.1180654   -3.4175857    946.09817   0.07829346  0.079633695            2 
 1008000    1.0881801   -3.4114893     941.7875  0.077859417  0.079617981            3 
 1009000    1.0899149   -3.4232773    944.66428  0.078019844  0.079601866            3 
 1010000    1.1053233   -3.4496091    947.19865  0.078151703   0.07958588            4 
 1011000    1.1043929   -3.4270334    944.65777  0.077864966  0.079569988            4 
 1012000    1.0966585   -3.4421898    946.30402  0.077923586  0.079554537            2 
 1013000     1.082663   -3.4264783     946.5115   0.07786373  0.079538197            3 
 1014000    1.1117845   -3.4086207    951.96346  0.078234998  0.079522562            1 
 1015000    1.0972371   -3.4474935     952.9477  0.078238728  0.079506514            2 
 1016000    1.0781854    -3.428904    950.26994  0.077942088  0.079490352            2 
 1017000    1.0879828   -3.4345674      952.244  0.078027204  0.079474702            2 
 1018000     1.088148   -3.4359549    953.69538  0.078069366  0.079458989            3 
 1019000     1.072468   -3.4355575    954.30032  0.078042225  0.079443458            2 
 1020000    1.0884662   -3.4393242    952.75535   0.07783949  0.079427905            2 
 1021000    1.0985842   -3.4419159    957.53653  0.078153487  0.079412459            1 
 1022000    1.0901248   -3.4006158    959.67169  0.078251116  0.079397335            1 
 1023000    1.1105418   -3.4163086    958.62141  0.078089069  0.079383317            3 
 1024000      1.08926    -3.442756    963.83632    0.0784372  0.079369526            1 
 1025000    1.0843202   -3.4399069    960.28094  0.078071621  0.079355007            2 
 1026000    1.1307045   -3.4401494    962.47789  0.078173968  0.079341196            2 
 1027000    1.0734746   -3.4144953    962.54411  0.078103222   0.07932647            4 
 1028000     1.075114    -3.412158    962.35083  0.078011578  0.079312514            2 
 1029000    1.0968537    -3.444669    962.58279  0.077954551   0.07929718            3 
 1030000    1.1024951   -3.4665959    957.26741  0.077448819  0.079281609            1 
 1031000    1.0832483   -3.4120913    959.77642  0.077576497  0.079265578            2 
 1032000    1.0934972    -3.437205    963.74913  0.077822119  0.079249556            5 
 1033000    1.0926727   -3.4222234     962.6944  0.077661698  0.079233473            2 
 1034000     1.064507   -3.4188353    964.95993  0.077769175   0.07921751            2 
 1035000    1.1005056   -3.4264674    971.42087  0.078214241  0.079201373            2 
 1036000    1.0813772   -3.4182738    965.02063  0.077623925  0.079185858            1 
 1037000    1.0801723   -3.4292501    963.44842  0.077422727  0.079169644            2 
 1038000    1.0706242   -3.4426886    968.72087  0.077771425  0.079153563            2 
 1039000    1.0774958   -3.4406725    969.39395  0.077750557  0.079137726            1 
 1040000    1.1066675   -3.4459268    964.58359  0.077290352  0.079121637            1 
 1041000    1.0925498   -3.4347944    967.00277  0.077409764  0.079104557            4 
 1042000    1.0783427   -3.4602546     968.4132  0.077448273   0.07908731            3 
 1043000    1.0834325   -3.4528126    969.40231  0.077453045  0.079070656            1 
 1044000    1.1035212    -3.393211    971.98857  0.077585295  0.079054749            4 
 1045000    1.0811071   -3.4173492    975.55107  0.077795141  0.079038796            3 
 1046000    1.0904202   -3.4216205    977.66781  0.077889405  0.079023018            2 
 1047000    1.0835158   -3.4458718    974.74424  0.077582318  0.079007001            3 
 1048000    1.0872768   -3.4351211    970.92502  0.077204597  0.078991049            1 
 1049000    1.1054059   -3.4341663    975.34098  0.077481806  0.078974452            1 
 1050000    1.0692014   -3.4110093    977.43292  0.077574041  0.078958069            2 
 1051000    1.0987139   -3.4264609     975.1597  0.077319989   0.07894173            4 
 1052000    1.0665345   -3.4299095    977.33073  0.077418467  0.078925928            4 
 1053000     1.113072   -3.4791377    975.37587   0.07719024  0.078909959            2 
 1054000    1.0851576   -3.4308761    981.33674  0.077588294  0.078894277            1 
 1055000    1.0834582   -3.4586673    979.13417  0.077340771  0.078878231            3 
 1056000    1.0781255   -3.4764624    981.10241  0.077422855  0.078862264            3 
 1057000    1.0823306   -3.4111465    982.13185  0.077430767  0.078846281            1 
 1058000    1.0923384   -3.4612111    978.73067  0.077089687  0.078830077            2 
 1059000    1.1116817   -3.4434183    982.37581  0.077303731   0.07881408            5 
 1060000    1.0908784   -3.4137556    984.16585  0.077371529   0.07879815            2 
 1061000     1.079551   -3.4091184    986.69638  0.077497359  0.078782752            4 
 1062000    1.0796414   -3.4382028     988.7495  0.077585491  0.078766889            4 
 1063000     1.066041    -3.469822    986.09614  0.077304495    0.0787512            1 
 1064000    1.0856899   -3.4457968    985.87223  0.077214304  0.078735413            3 
 1065000     1.083211   -3.4508414    988.33851  0.077334781  0.078719777            3 
 1066000    1.0839468   -3.4452271    991.03682  0.077473172  0.078704615            2 
 1067000    1.0867335   -3.4290862    989.51311  0.077281561  0.078689403            2 
 1068000    1.0923198   -3.4064909    997.24349  0.077812382  0.078674182            3 
 1069000     1.111753   -3.4270737    993.56602  0.077452917  0.078659559            2 
 1070000    1.0788926   -3.4685481    990.26026  0.077123073  0.078643964            2 
 1071000    1.0917075   -3.4472167    992.09897  0.077194131  0.078628755            1 
 1072000    1.0545115   -3.4413722    994.91972  0.077341396  0.078613812            2 
 1073000     1.089445   -3.4281354    994.99437  0.077275114  0.078598596            3 
 1074000    1.0786862   -3.4650075    994.93571  0.077198612  0.078583035            4 
 1075000    1.0890139   -3.4621402    991.62944  0.076870499  0.078567112            4 
 1076000    1.0848055   -3.4466475    1000.3718  0.077476127  0.078552476            3 
 1077000    1.0831519   -3.4478155    997.11781  0.077152415  0.078537237            3 
 1078000    1.0903551    -3.405535    1001.2704  0.077401856  0.078522215            2 
 1079000    1.0828416   -3.4361497    998.42037  0.077110007  0.078506922            2 
 1080000    1.0618764   -3.4395525    997.98691  0.077005163  0.078490699            3 
 1081000    1.0773644   -3.4229417    1000.9813  0.077164762  0.078475514            3 
 1082000    1.0838422   -3.4052341    1006.2318   0.07749783  0.078460134            5 
 1083000    1.0716915   -3.4493927    1005.9301  0.077403053  0.078444954            3 
 1084000    1.0681031   -3.3955136    1001.2162  0.076969263   0.07842988            3 
 1085000    1.0752811   -3.4817066    1001.2941  0.076904309  0.078415037            2 
 1086000    1.0852175   -3.4525381    1007.1797  0.077285125  0.078399253            1 
 1087000    1.0716757   -3.4299027    1010.0506  0.077434112  0.078384288            1 
 1088000    1.0822789   -3.4217212    1009.2326   0.07730029  0.078369385            1 
 1089000    1.1059025   -3.4620599    1003.7029  0.076806158   0.07835385            2 
 1090000    1.0570435   -3.4591459     1006.434  0.076944498  0.078338985            1 
 1091000    1.0535562   -3.4462711    1010.8293  0.077209693  0.078323629            1 
 1092000    1.0861611   -3.4534466    1003.0502  0.076545343  0.078308577            2 
 1093000    1.0803523   -3.4311657    1008.7351  0.076908742  0.078292508            2 
 1094000    1.1024941   -3.4412986    1008.4747  0.076818611  0.078277581            3 
 1095000    1.0678956   -3.4695832    1013.2077  0.077108655  0.078262165            4 
 1096000     1.065568   -3.4774202    1013.8224  0.077085034  0.078246351            3 
 1097000    1.0816887   -3.4676121    1012.3605  0.076903714  0.078231051            2 
 1098000    1.0585844   -3.4175313    1019.4946  0.077375118  0.078215664            2 
 1099000    1.0577147   -3.4356584    1013.8597  0.076877443  0.078200199            3 
 1100000    1.0643186   -3.4612396    1014.2015  0.076833445  0.078184178            1 
 1101000    1.0964405   -3.4702589     1017.388  0.077004847  0.078168677            3 
 1102000    1.0596219   -3.4173186    1016.0192  0.076831461  0.078153602            2 
 1103000    1.0905434   -3.4638848    1016.6038  0.076805966  0.078138244            2 
 1104000    1.0735603   -3.4302146    1020.9601  0.077065227  0.078123436            3 
 1105000    1.0829886    -3.445091    1020.1176  0.076931947  0.078108965            3 
 1106000    1.0931419    -3.460857    1022.6367  0.077052194   0.07809487            1 
 1107000    1.0549879   -3.4269205    1018.2757  0.076654299  0.078080572            2 
 1108000     1.088637   -3.4578281     1023.036  0.076943138  0.078065966            2 
 1109000     1.079992   -3.4458144    1021.8591  0.076785323  0.078051759            2 
 1110000    1.1047416   -3.4705833    1023.6373  0.076849645  0.078037331            4 
 1111000    1.0982284   -3.4435651    1024.4421   0.07684084  0.078022742            3 
 1112000    1.0939216   -3.4648176    1022.1217  0.076597846  0.078007676            2 
 1113000    1.0586391   -3.4587059     1027.085  0.076900644  0.077993353            3 
 1114000    1.0963227   -3.4435731    1026.1068  0.076758438  0.077978922            4 
 1115000    1.0782979   -3.4601235    1028.1986  0.076845935   0.07796542            2 
 1116000    1.0635151   -3.4760687     1034.936  0.077280169  0.077951305            2 
 1117000    1.0683839   -3.4576584    1033.3911  0.077095723  0.077936811            3 
 1118000    1.0888116   -3.4750899    1029.0078  0.076700041  0.077922908            2 
 1119000    1.0869579   -3.4864925    1035.2765  0.077098337  0.077909187            3 
 1120000    1.0811445   -3.4715732    1037.2034  0.077172873  0.077895534            2 
 1121000    1.0635464   -3.4429863    1030.5961  0.076612854  0.077881433            2 
 1122000    1.0648467   -3.4388874    1033.7231  0.076776823  0.077867676            2 
 1123000    1.0620521    -3.481473    1034.8901  0.076795051  0.077853637            1 
 1124000    1.0685369   -3.4496481    1036.5951  0.076853137  0.077839677            2 
 1125000    1.0819798   -3.4565741    1040.4265  0.077068629  0.077826227            1 
 1126000    1.0672459   -3.4578096    1037.5251  0.076785457  0.077812497            2 
 1127000    1.0551812   -3.4647549    1038.9746  0.076824504  0.077797974            2 
 1128000    1.0835236   -3.4488594    1037.2569  0.076629498  0.077782922            2 
 1129000    1.0651682   -3.4693024    1040.3631  0.076790901  0.077768873            5 
 1130000    1.0769991   -3.4581115    1040.8614   0.07675969  0.077754823            1 
 1131000      1.07846   -3.4629416     1041.494  0.076738429  0.077740586            3 
 1132000     1.055758   -3.4575596    1044.0226  0.076856787   0.07772661            3 
 1133000    1.0844365   -3.4634522    1039.6929  0.076470496  0.077712109            4 
 1134000    1.0827162   -3.4330835    1045.1207  0.076801932  0.077698239            2 
 1135000    1.0560526   -3.4686455    1044.2067  0.076667157  0.077684723            3 
 1136000    1.0698786   -3.4585403    1043.5571  0.076552016  0.077671119            1 
 1137000    1.0598756   -3.4568646    1047.0346  0.076739561  0.077657326            1 
 1138000     1.066722   -3.4288621    1053.7846  0.077166416  0.077643631            2 
 1139000    1.0636483   -3.4722543    1045.5099  0.076493259  0.077630571            1 
 1140000    1.0492887   -3.4436912    1052.7653  0.076956526  0.077617503            1 
 1141000    1.0778002   -3.4333638    1048.5989  0.076584785  0.077604257            2 
 1142000    1.0534195   -3.4400911    1052.1887  0.076779675  0.077591053            2 
 1143000    1.0835695    -3.453443    1053.1088  0.076779585  0.077578034            2 
 1144000     1.085958   -3.4555053    1052.3819  0.076659519  0.077565267            2 
 1145000    1.0567298   -3.4057142    1051.6937  0.076542483  0.077552035            1 
 1146000    1.0556357   -3.4627217    1053.7159  0.076622737  0.077539475            3 
 1147000    1.0623788   -3.4604044    1057.5383  0.076833647  0.077526871            1 
 1148000    1.0696566   -3.4710504    1054.9328  0.076577582  0.077513911            3 
 1149000    1.0601832   -3.4681337    1058.6227  0.076778556  0.077501114            5 
 1150000    1.0468508   -3.4561756     1059.859  0.076801376  0.077488253            3 
 1151000     1.058297   -3.4553007     1060.023  0.076746525  0.077476029            3 
 1152000    1.0709864   -3.4347888    1058.8305  0.076593644  0.077463095            1 
 1153000    1.0623577   -3.4561942    1063.2584  0.076847241   0.07745047            2 
 1154000    1.0649387   -3.4786532    1057.2022  0.076343314  0.077437175            2 
 1155000    1.0597986   -3.4957004    1060.1031  0.076486515  0.077424261            3 
 1156000    1.0641844   -3.4706508    1056.8403   0.07618514  0.077410818            3 
 1157000    1.0646603   -3.4442803    1059.9629  0.076344203  0.077397826            3 
 1158000    1.0842941   -3.4625472    1063.2657  0.076515953  0.077384944            2 
 1159000    1.0839154   -3.4574997     1064.331  0.076526533  0.077371955            3 
 1160000    1.0760042   -3.4234591    1064.3637  0.076462907  0.077359279            3 
 1161000    1.0597399   -3.4633454     1058.783  0.075996486  0.077346162            3 
 1162000    1.0716964   -3.4809105    1065.5191  0.076414162  0.077332768            1 
 1163000    1.0548133   -3.4538893    1066.9295  0.076449517  0.077319298            1 
 1164000    1.0778117   -3.4642903    1066.6997  0.076367392  0.077305538            2 
 1165000    1.0523366   -3.4701374    1069.6385  0.076512056  0.077291784            2 
 1166000    1.0915023   -3.4737046    1070.8327   0.07653178  0.077278467            1 
 1167000     1.061293   -3.4644689    1068.1894  0.076277446  0.077265066            2 
 1168000    1.0606374   -3.4653254     1076.089  0.076775758  0.077251702            1 
 1169000    1.0610122   -3.4754288    1067.9872  0.076132535  0.077238668            2 
 1170000    1.0710783   -3.4648102    1074.5054  0.076531726  0.077225581            2 
 1171000    1.0596208   -3.4691947    1073.9365  0.076425882  0.077213041            2 
 1172000    1.0385351   -3.4596492    1079.0696  0.076725655  0.077200222            2 
 1173000    1.0645861   -3.4668911    1072.8484  0.076218273  0.077187493            3 
 1174000    1.0932449   -3.4664581    1079.0608  0.076594324  0.077174959            3 
 1175000    1.0762835   -3.4914469    1076.9948  0.076382612  0.077162259            1 
 1176000    1.0329291   -3.4587487     1076.804  0.076304135  0.077148933            1 
 1177000    1.0610693   -3.4228188    1075.9921  0.076181823   0.07713637            3 
 1178000    1.0385573   -3.4824591     1078.473   0.07629266  0.077123647            4 
 1179000    1.0489617   -3.4734973    1079.8937  0.076328366  0.077111115            4 
 1180000    1.0675987   -3.4540096    1083.5298  0.076520463  0.077099115            4 
 1181000    1.0645102    -3.468751    1085.1196  0.076567853  0.077087272            1 
 1182000    1.0690127   -3.4765668    1083.6489  0.076399389  0.077075125            4 
 1183000    1.0695048   -3.4684175    1088.4423  0.076672466  0.077062926            4 
 1184000    1.0804653   -3.4843724    1082.7607  0.076207823  0.077050925            6 
 1185000    1.0468926   -3.4805063    1084.6159  0.076273974  0.077038356            3 
 1186000    1.0868413   -3.4529597      1084.48  0.076200116  0.077026274            1 
 1187000    1.0644639   -3.4531012    1090.4742  0.076556738  0.077014085            3 
 1188000    1.0676019    -3.474815    1085.2177  0.076123579  0.077001638            5 
 1189000     1.040489   -3.4522388    1085.3522  0.076068982  0.076988514            2 
 1190000    1.0599056   -3.4715896    1086.8264  0.076108292  0.076975421            3 
 1191000    1.0729721   -3.4444837    1093.5173  0.076512546  0.076962155            1 
 1192000    1.0608562   -3.4795298    1090.2009  0.076216503  0.076948634            2 
 1193000    1.0610707   -3.4488093    1091.1311  0.076217593  0.076935297            2 
 1194000    1.0596577   -3.4543688    1088.5058  0.075970532  0.076922018            1 
 1195000    1.0321983   -3.4852815    1087.0788  0.075807449   0.07690771            2 
 1196000    1.0626406   -3.4817152     1090.873   0.07600843   0.07689375            2 
 1197000    1.0528604   -3.4793203    1089.8992  0.075877139  0.076880122            1 
 1198000    1.0324619   -3.4498585    1092.4277  0.075989683  0.076865605            2 
 1199000    1.0632163   -3.4520088    1091.9962  0.075896317   0.07685221            5 
 1200000    1.0488532   -3.5072323    1087.7966  0.075541433  0.076838447            2 
 1201000    1.0471406   -3.4727751    1091.8554   0.07576016  0.076824778            1 
 1202000    1.0723306   -3.4675364    1091.5443  0.075675558  0.076811302            1 
 1203000     1.049165   -3.4807456    1094.9724  0.075850128  0.076797646            2 
 1204000    1.0676296    -3.461751    1095.9193  0.075852662  0.076783443            1 
 1205000    1.0603733   -3.4619121    1099.7473  0.076054446  0.076769704            6 
 1206000    1.0752631   -3.4805649    1099.7631  0.075992477  0.076755914            2 
 1207000    1.0762372   -3.4781484    1097.2234  0.075754173  0.076742443            2 
 1208000    1.0454027   -3.4685822    1096.5844   0.07564738  0.076728691            2 
 1209000    1.0490769    -3.485507    1097.8239  0.075670246  0.076714696            2 
 1210000    1.0508497   -3.4456923    1105.3593  0.076126675  0.076701236            2 
 1211000    1.0501079   -3.4967181    1099.6118  0.075668308  0.076687481            3 
 1212000    1.0534178   -3.5316233    1103.1793  0.075851162  0.076672941            2 
 1213000    1.0623974   -3.5261334    1097.4825  0.075397258  0.076658751            3 
 1214000    1.0634716   -3.4846584    1107.1244  0.075997005  0.076644852            3 
 1215000    1.0718495   -3.4481147    1102.1442  0.075592878  0.076631156            3 
 1216000    1.0699823   -3.4961668    1099.3376  0.075338375  0.076617992            2 
 1217000    1.0805937   -3.4715442    1105.2686  0.075682594  0.076604056            3 
 1218000    1.0489235   -3.4489001    1109.0457  0.075878881  0.076590525            7 
 1219000    1.0695109   -3.4740403    1106.9273  0.075671815  0.076576304            2 
 1220000    1.0689693   -3.4735925    1105.7653  0.075530419  0.076561713            2 
 1221000    1.0473023   -3.4505231    1110.0872   0.07576353  0.076547552            3 
 1222000    1.0792945   -3.4802758     1107.825  0.075547258  0.076534133            2 
 1223000    1.0528206   -3.4962076    1103.9996  0.075224831  0.076520175            4 
 1224000    1.0563182   -3.4814541    1110.1231  0.075580278  0.076506631            3 
 1225000    1.0739829   -3.4872886    1110.2824  0.075529413  0.076492839            2 
 1226000    1.0294044   -3.4746071    1113.1311  0.075661438  0.076479472            1 
 1227000    1.0280309   -3.4719238    1108.2671  0.075269434  0.076466204            3 
 1228000    1.0617649   -3.4773265     1113.655  0.075573766  0.076452452            3 
 1229000    1.0495889   -3.4833942    1114.9095  0.075597336  0.076438982            2 
 1230000    1.0534751   -3.4797374    1113.9853  0.075473261  0.076425627            2 
 1231000    1.0560148   -3.4683534    1115.9777  0.075546822  0.076412155            2 
 1232000    1.0719438   -3.4754573    1118.7044  0.075669943  0.076398823            2 
 1233000    1.0825367   -3.5164019    1118.4172  0.075589157  0.076385345            3 
 1234000    1.0555961   -3.4649027    1118.0741  0.075504731  0.076371778            2 
 1235000    1.0591256   -3.4522238    1119.9383  0.075569383   0.07635819            4 
 1236000    1.0435927   -3.4974956    1118.2729  0.075395962  0.076344578            1 
 1237000     1.057475   -3.4708059    1120.0277  0.075453229   0.07633093            3 
 1238000    1.0771553   -3.4833859    1122.5085  0.075559268  0.076318226            2 
 1239000    1.0662872   -3.5284505    1121.0861  0.075402615  0.076304991            2 
 1240000    1.0522591   -3.4838618      1128.01  0.075807126  0.076291626            2 
 1241000    1.0395003   -3.4736487    1124.1626  0.075487684  0.076278365            2 
 1242000    1.0323454   -3.4703009    1125.0497  0.075486425  0.076264992            3 
 1243000     1.044676   -3.5110118    1124.5496  0.075392169  0.076251972            3 
 1244000    1.0342584   -3.4639727    1126.9718  0.075493826  0.076238329            4 
 1245000    1.0729384    -3.478205    1128.2141  0.075516336  0.076224494            2 
 1246000    1.0490973    -3.473327    1130.3428  0.075598101  0.076211392            2 
 1247000    1.0424951   -3.4465904    1131.2037  0.075595007  0.076197791            1 
 1248000    1.0378547   -3.4863264    1129.2003  0.075400662  0.076184231            3 
 1249000    1.0402919   -3.4742182    1127.4735  0.075225083  0.076170408            5 
 1250000    1.0364839   -3.4680438    1134.4673  0.075631154  0.076156726            2 
 1251000    1.0408603   -3.5160288    1131.4038  0.075366626   0.07614279            1 
 1252000    1.0666575   -3.4914504    1129.1339  0.075155343  0.076128929            3 
 1253000    1.0500105   -3.4567814    1137.5096  0.075652408  0.076115495            2 
 1254000    1.0795027   -3.4450877    1134.3463  0.075381862  0.076102061            2 
 1255000    1.0522764   -3.4669308    1135.5429  0.075401252  0.076089091            2 
 1256000    1.0174259   -3.5006716    1136.5821  0.075410171  0.076076123            4 
 1257000    1.0592597    -3.494267    1137.7282  0.075426162  0.076062526            1 
 1258000    1.0531346   -3.4651002    1137.4037  0.075344705  0.076049202            6 
 1259000    1.0390621   -3.4926478    1140.6222  0.075497895  0.076036154            3 
 1260000    1.0631286    -3.452084    1140.8933  0.075455906   0.07602278            3 
 1261000    1.0507024   -3.4904279    1139.8103  0.075324495  0.076009384            2 
 1262000    1.0438004   -3.5257113    1136.5307   0.07504825  0.075996211            3 
 1263000    1.0493216   -3.5029251    1137.1365    0.0750288  0.075982586            3 
 1264000    1.0699689   -3.4689622    1139.9963  0.075157986  0.075969042            6 
 1265000    1.0582572   -3.4856982    1138.4308  0.074995442  0.075955016            1 
 1266000    1.0474833   -3.4807206    1139.8261  0.075028045  0.075941369            4 
 1267000    1.0432785   -3.4909081    1141.3223  0.075067236  0.075928087            1 
 1268000     1.055392   -3.4943162    1144.8365  0.075238992  0.075914781            2 
 1269000    1.0584113   -3.4925583    1142.2948  0.075012792   0.07590171            3 
 1270000    1.0516545   -3.4758338    1145.0203  0.075132563  0.075888371            3 
 1271000    1.0421536   -3.4934473    1141.9013  0.074868956  0.075875192            2 
 1272000    1.0496749   -3.5137734     1143.255  0.074898782  0.075861862            1 
 1273000    1.0622005   -3.4763993      1143.63  0.074864494  0.075848323            5 
 1274000    1.0433153   -3.5059068    1148.3834  0.075116651  0.075834532            4 
 1275000    1.0301336   -3.5052087    1146.8904   0.07496016  0.075820887            4 
 1276000    1.0546169   -3.5073848    1149.5032  0.075072049  0.075807152            1 
 1277000     1.068158   -3.4741718      1152.84  0.075231013  0.075793498            1 
 1278000    1.0442567   -3.4961153    1146.8842  0.074783788   0.07577965            2 
 1279000    1.0604855   -3.4633937     1155.605  0.075293525  0.075766517            2 
 1280000    1.0594455   -3.4874338    1148.8268   0.07479341  0.075753817            4 
 1281000    1.0435243   -3.4552893    1159.2799  0.075415037  0.075740658            3 
 1282000    1.0565051   -3.4992034    1156.3416  0.075165208  0.075727381            4 
 1283000    1.0701141   -3.4905557    1154.8693  0.075010998  0.075714423            2 
 1284000    1.0449654   -3.4828196     1152.125  0.074774469    0.0757013            5 
 1285000     1.030851   -3.5007782    1156.6758    0.0750114   0.07568821            2 
 1286000     1.011949    -3.478946    1153.7353  0.074762525  0.075675509            3 
 1287000    1.0717451   -3.4949923    1156.7502  0.074899653  0.075662104            1 
 1288000    1.0625771   -3.5038257    1154.1042  0.074670302  0.075648598            2 
 1289000    1.0452527   -3.5111379    1153.6529  0.074583197  0.075635175            5 
 1290000    1.0431676   -3.4764165    1160.6508  0.074977439  0.075622172            1 
 1291000    1.0637575    -3.492155    1156.4389  0.074647489  0.075608706            3 
 1292000    1.0327904   -3.4888488    1160.5989  0.074858031  0.075595545            6 
 1293000     1.056407   -3.4893687     1159.481  0.074728086   0.07558193            3 
 1294000    1.0444249   -3.5063341    1159.3153  0.074659665  0.075568515            1 
 1295000    1.0197405   -3.5304458    1162.5932  0.074812949  0.075555143            4 
 1296000    1.0307357   -3.4631464    1162.6315  0.074757686  0.075542187            2 
 1297000    1.0577103   -3.4911298    1165.2468  0.074868078  0.075528734            1 
 1298000    1.0324517   -3.5119539    1161.1334  0.074546313  0.075515278            1 
 1299000    1.0278885    -3.469009    1165.6875  0.074781081  0.075501916            4 
 1300000    1.0270414    -3.525827    1164.2624  0.074632207  0.075488306            4 
 1301000    1.0472694   -3.5014009     1169.228  0.074892905  0.075474669            3 
 1302000    1.0293433   -3.5025224    1165.4642  0.074594482  0.075461273            2 
 1303000    1.0286605    -3.450169    1170.0798  0.074832428  0.075447947            3 
 1304000    1.0608329   -3.4885248    1168.5243  0.074675632  0.075434549            2 
 1305000    1.0378885   -3.4882732    1163.4371  0.074293555  0.075420963            2 
 1306000    1.0335954   -3.5032945    1165.9783  0.074398817  0.075406691            2 
 1307000    1.0288348   -3.4860582    1169.7735  0.074583878   0.07539253            2 
 1308000    1.0389695   -3.4887177    1168.5441  0.074448531  0.075378043            5 
 1309000     1.039986   -3.5074203    1168.4567   0.07438609  0.075363092            3 
 1310000    1.0321216   -3.5095865    1165.8584  0.074164018  0.075348484            3 
 1311000    1.0386731   -3.4758431    1165.4685  0.074082666  0.075333682            2 
 1312000    1.0548361   -3.4889781    1171.0558  0.074381082  0.075319447            3 
 1313000    1.0494558   -3.4962784    1172.9193  0.074442708   0.07530474            4 
 1314000      1.03988   -3.5096805    1169.8144  0.074189145  0.075290036            2 
 1315000    1.0538898   -3.5057966    1171.2129  0.074221352  0.075275423            3 
 1316000    1.0202157   -3.4949495    1178.4309  0.074622016  0.075260708            1 
 1317000    1.0522933   -3.4938011    1176.1923  0.074423707  0.075246401            3 
 1318000    1.0230149   -3.5128054    1177.8978  0.074475079  0.075231792            2 
 1319000    1.0412912    -3.504176    1176.2575  0.074314981  0.075217305            3 
 1320000    1.0440999   -3.4809754    1179.4753  0.074461825   0.07520307            2 
 1321000    1.0325212   -3.4615412    1177.2092    0.0742625  0.075189509            1 
 1322000    1.0611756   -3.4932632    1176.8125  0.074181325  0.075174875            2 
 1323000    1.0303698    -3.499848    1176.1581  0.074084032  0.075160302            2 
 1324000    1.0476063   -3.5257693    1177.4749  0.074110956   0.07514582            3 
 1325000    1.0577295   -3.5085571    1178.9412  0.074147247  0.075131117            4 
 1326000    1.0336343   -3.4609628    1186.6994  0.074578895  0.075116617            2 
 1327000      1.03763   -3.5076816    1178.2762  0.073993731  0.075102553            2 
 1328000      1.03053    -3.472678    1183.5563  0.074269344  0.075088122            2 
 1329000    1.0585782   -3.4765046    1184.5893  0.074278235   0.07507416            3 
 1330000    1.0325598   -3.4930922    1182.7401  0.074106522  0.075059489            4 
 1331000    1.0595514   -3.4951751    1185.3282  0.074212885  0.075044944            2 
 1332000    1.0527694   -3.4890414    1184.9441  0.074133142  0.075030742            1 
 1333000    1.0539288   -3.4984307      1186.08  0.074148535  0.075016608            1 
 1334000    1.0435357   -3.5069813     1183.544   0.07393453  0.075002399            2 
 1335000    1.0221716   -3.4626534    1192.9046  0.074463455  0.074988414            1 
 1336000    1.0427029   -3.5167413     1192.463  0.074380175  0.074974527            1 
 1337000    1.0143943   -3.4680801    1189.1551  0.074118371  0.074960721            3 
 1338000    1.0518405   -3.5061661    1190.9095  0.074172242  0.074947065            4 
 1339000    1.0497977   -3.5199737    1193.6087  0.074284835  0.074933155            4 
 1340000    1.0169829   -3.4999388    1192.0651  0.074133399  0.074919479            4 
 1341000    1.0246413   -3.4852112    1193.8291  0.074187738  0.074905534            1 
 1342000    1.0400227   -3.5252014    1189.7402  0.073878555  0.074891598            1 
 1343000    1.0436062   -3.5232416    1189.8273  0.073828945  0.074877137            1 
 1344000    1.0354698   -3.5251475     1186.881  0.073591329  0.074862727            5 
 1345000    1.0262034   -3.5346819    1188.7309  0.073651231  0.074848242            2 
 1346000     1.055421   -3.5108677    1191.8618  0.073790352  0.074833298            4 
 1347000      1.03263   -3.5056396    1193.6088  0.073843652  0.074818839            3 
 1348000    1.0385414   -3.5506826    1189.8037  0.073553639  0.074804128            4 
 1349000    1.0485967    -3.491961    1195.3391  0.073841059  0.074789472            3 
 1350000    1.0530945   -3.4982401    1195.8341  0.073816917  0.074775716            3 
 1351000    1.0468319   -3.5134281     1203.203  0.074216815  0.074761567            2 
 1352000    1.0315452   -3.5266101    1195.5189  0.073688297  0.074747527            2 
 1353000   0.99891264   -3.5331083    1198.1818  0.073797845  0.074733185            2 
 1354000    1.0238334   -3.5203655    1206.1668  0.074234788  0.074719569            2 
 1355000    1.0176225   -3.4849017    1200.7862  0.073849087  0.074705868            6 
 1356000    1.0273748   -3.5077921     1204.789  0.074040622  0.074691727            2 
 1357000     1.030478    -3.500143    1203.6777  0.073917813  0.074678371            3 
 1358000     1.022863   -3.4940407    1202.3551  0.073782223  0.074664278            3 
 1359000    1.0494223   -3.5440558      1202.51  0.073737432  0.074651192            5 
 1360000    1.0414751   -3.5009905    1203.9442  0.073771091  0.074637047            2 
 1361000    1.0615889   -3.5395164    1206.6406  0.073881984  0.074623209            2 
 1362000    1.0463118   -3.4886714    1210.5609  0.074067602  0.074609763            2 
 1363000    1.0378828     -3.53846    1206.8396   0.07378574    0.0745955            3 
 1364000    1.0349666   -3.4818597    1202.8864   0.07349013  0.074581899            3 
 1365000    1.0209122   -3.5145418    1202.9952  0.073442931  0.074567995            3 
 1366000    1.0591805   -3.5254711    1214.4445  0.074087631  0.074555069            4 
 1367000     1.025596   -3.5120056    1209.3949  0.073725609   0.07454185            6 
 1368000    1.0539069   -3.4889866    1216.9431  0.074131521  0.074529053            4 
 1369000    1.0221672   -3.5190959    1218.9586  0.074200059  0.074516352            2 
 1370000    1.0243405   -3.4868718    1211.1052  0.073668201  0.074504113            2 
 1371000    1.0217604   -3.5058368    1216.6975  0.073954384  0.074491237            2 
 1372000    1.0414691   -3.5112872    1213.8153  0.073725419  0.074478548            2 
 1373000    1.0172336   -3.5100425    1218.7625   0.07397199  0.074465512            2 
 1374000     1.024762   -3.4774447    1220.4331  0.074019475  0.074453272            3 
 1375000    1.0337282   -3.5118556    1221.9886  0.074059918  0.074441177            2 
 1376000    1.0298874   -3.4898719     1224.541  0.074160668  0.074428908            3 
 1377000    1.0213346   -3.5050549    1222.1473   0.07396195  0.074416395            5 
 1378000    1.0624515   -3.5105773    1221.0161  0.073839868  0.074403914            3 
 1379000    1.0020376   -3.5225473    1220.8844  0.073778366  0.074391482            4 
 1380000    1.0098611    -3.492447    1226.3052  0.074052247   0.07437929            3 
 1381000    1.0074501    -3.513618    1225.0528  0.073923048  0.074366499            2 
 1382000    1.0636464   -3.4932874    1229.0326   0.07410954  0.074354014            2 
 1383000    1.0344172   -3.5262841    1225.3512  0.073834126   0.07434125            3 
 1384000    1.0179364   -3.5117083    1224.4554  0.073726844  0.074328296            2 
 1385000    1.0319403   -3.4812482    1229.2801  0.073963905  0.074315189            2 
 1386000     1.037638   -3.4905595    1228.1386  0.073841907  0.074302859            7 
 1387000    1.0265257   -3.5032639    1231.6674  0.074000687  0.074290152            1 
 1388000    1.0347647   -3.5202301    1225.6494  0.073586059  0.074277649            4 
 1389000    1.0324193   -3.5341144    1230.6384  0.073832395  0.074265424            2 
 1390000    1.0319485   -3.5243363    1232.5535  0.073894095  0.074252876            2 
 1391000    1.0280525   -3.4679829    1236.6384  0.074085694   0.07424113            4 
 1392000    1.0441236   -3.5048289    1229.7852  0.073622196  0.074229163            4 
 1393000    1.0333667   -3.5325424    1233.6374  0.073799799  0.074217206            2 
 1394000    1.0463002    -3.540342    1233.2075  0.073721154  0.074204584            3 
 1395000    1.0377573   -3.5144085    1231.8524  0.073587361   0.07419244            2 
 1396000     1.041382   -3.5360587    1233.1664  0.073613087  0.074180085            2 
 1397000     1.016017   -3.5422308    1239.9256  0.073963588  0.074167793            3 
 1398000    1.0347672   -3.5064615    1235.7293  0.073660544  0.074155722            2 
 1399000    1.0269133   -3.5041569    1232.8438  0.073436014  0.074143471            2 
 1400000    1.0256765   -3.5358353    1234.2406  0.073466704  0.074130576            2 
 1401000    1.0345787   -3.5368832     1238.487  0.073666843  0.074117732            2 
 1402000    1.0369166    -3.566988    1234.3492  0.073368355  0.074104734            4 
 1403000    1.0238859   -3.5333611    1232.4264  0.073201854  0.074091741            2 
 1404000    1.0443157   -3.4876596    1240.3777  0.073621658   0.07407849            2 
 1405000    1.0095617    -3.517472    1235.9953  0.073309332  0.074065913            2 
 1406000   0.99812275   -3.5042859    1239.8897  0.073488007     0.074053            3 
 1407000    1.0284697   -3.5360982    1235.4845  0.073174869  0.074040242            2 
 1408000    1.0365936   -3.5274984    1235.4785  0.073122544  0.074026617            3 
 1409000    1.0237111   -3.5170548    1243.9053  0.073569039  0.074013544            4 
 1410000    1.0402468   -3.5426097    1241.3339  0.073364886  0.074000182            3 
 1411000    1.0261263   -3.5039053    1242.8702  0.073403624  0.073987599            4 
 1412000    1.0338187   -3.5329115     1241.212  0.073253778  0.073974682            3 
 1413000    1.0211875   -3.5011267    1247.7733  0.073588897  0.073962038            2 
 1414000     1.036289   -3.5063505    1243.5102  0.073285607  0.073949003            2 
 1415000    1.0313973   -3.5169105    1243.9578  0.073260176  0.073935802            3 
 1416000    1.0006685   -3.4950962    1252.6181  0.073718109  0.073923221            3 
 1417000    1.0314187   -3.4886292    1251.0562  0.073574227  0.073910262            2 
 1418000    1.0659461   -3.5288435    1247.1967   0.07329553  0.073897032            2 
 1419000    1.0316682   -3.5020007    1248.5286  0.073322096  0.073884097            2 
 1420000    1.0144358   -3.5356245    1246.4431  0.073148066  0.073870689            1 
 1421000    1.0259901   -3.5141165    1252.8604  0.073472932  0.073857865            2 
 1422000    1.0001577   -3.5168336    1249.5819  0.073229129  0.073844991            2 
 1423000    1.0282048   -3.5108191     1249.198  0.073155191  0.073831725            4 
 1424000     1.010609   -3.5304011    1247.7082   0.07301663  0.073818361            3 
 1425000    1.0306336   -3.5222938    1245.5622  0.072839897  0.073805442            1 
 1426000    1.0091412   -3.5185383     1254.689  0.073322171  0.073792217            1 
 1427000    1.0374781   -3.4983673    1255.0498   0.07329186  0.073779164            3 
 1428000    1.0303978   -3.5246617    1253.4539  0.073147401  0.073766414            1 
 1429000    1.0408166   -3.5030267    1250.3556  0.072915534  0.073753428            3 
 1430000    1.0319184   -3.5294854    1258.9435  0.073365003  0.073740703            3 
 1431000    1.0226661   -3.5184815     1251.912  0.072904264  0.073727815            3 
 1432000    1.0147188    -3.522394    1259.8711  0.073316522  0.073715156            2 
 1433000    1.0418175    -3.500419    1254.8593  0.072973905  0.073702279            4 
 1434000    1.0246807   -3.5098276    1259.5867  0.073197737  0.073688703            1 
 1435000    1.0270674   -3.5155715    1254.5206  0.072852533   0.07367546            1 
 1436000    1.0186627   -3.5628001    1253.7943  0.072759649   0.07366216            3 
 1437000     1.034177   -3.5205396    1261.1591   0.07313611  0.073648832            1 
 1438000    1.0103655   -3.4877157    1264.0221  0.073251166  0.073635462            2 
 1439000    1.0293912   -3.5199024    1258.4884  0.072879802  0.073622284            3 
 1440000    1.0228827   -3.5167185    1262.1285  0.073039844  0.073608752            2 
 1441000    1.0283986   -3.5280246    1262.8174  0.073028993  0.073595324            6 
 1442000    1.0266725   -3.4994922    1259.9254  0.072811221  0.073582137            7 
 1443000    1.0237694    -3.527638    1259.3501  0.072727543  0.073568699            4 
 1444000    1.0153842    -3.526895     1261.024  0.072773775  0.073554991            4 
 1445000    1.0007137   -3.5333822    1262.7011  0.072820134  0.073541656            2 
 1446000   0.99359496   -3.5172165    1265.2567  0.072917052  0.073528389            2 
 1447000    1.0499329   -3.5629584    1258.0869  0.072453751  0.073514943            3 
 1448000    1.0095295   -3.5296028    1262.8252  0.072676402  0.073500824            3 
 1449000    1.0221747   -3.5419076    1264.1054  0.072699873  0.073486715            2 
 1450000    1.0273195   -3.5401808    1267.2482  0.072830358  0.073472719            3 
 1451000    1.0133135   -3.5455558    1261.6498  0.072458636   0.07345903            4 
 1452000    1.0220598   -3.5333601    1269.0223  0.072831856  0.073445177            5 
 1453000    1.0201618   -3.5310932    1267.3092  0.072683485  0.073431247            2 
 1454000    1.0216927    -3.548076    1269.7409  0.072772863   0.07341749            6 
 1455000    1.0253112    -3.541543    1263.5614  0.072368925   0.07340408            5 
 1456000    1.0259203    -3.502867    1273.0514  0.072862372  0.073390622            2 
 1457000    1.0442676    -3.508696     1275.701  0.072963908  0.073377321            3 
 1458000    1.0166721   -3.5506184    1272.1085  0.072708534  0.073363937            2 
 1459000     1.016876   -3.5121875    1272.2067  0.072664307  0.073350293            2 
 1460000    1.0147396   -3.5320424    1273.3976  0.072682511   0.07333709            2 
 1461000    1.0117881   -3.5374486    1270.1837  0.072449447  0.073323514            2 
 1462000    1.0100244   -3.5277377    1277.9052  0.072840012  0.073310467            3 
 1463000    1.0166658   -3.5370513    1277.8064  0.072784599  0.073297443            2 
 1464000    1.0049213   -3.5278254    1281.6634   0.07295443  0.073284481            5 
 1465000    1.0110631   -3.5384282    1279.1794  0.072763333  0.073271149            2 
 1466000     1.023052   -3.5203019    1275.6838  0.072514995    0.0732579            2 
 1467000    1.0014018   -3.5454644    1278.9629  0.072651836  0.073244348            4 
 1468000    1.0000511   -3.5503216    1279.3756   0.07262577   0.07323029            3 
 1469000    1.0426879   -3.5723166    1270.9413  0.072097871   0.07321639            2 
 1470000    1.0060709   -3.5017973    1280.5734  0.072594866  0.073202295            2 
 1471000    1.0152228   -3.5339625     1278.197  0.072410887  0.073188495            3 
 1472000    1.0054979    -3.512488    1277.2167  0.072306201   0.07317449            3 
 1473000    1.0184589   -3.5381783    1278.3484  0.072321134  0.073160551            1 
 1474000   0.99835856   -3.5219704    1280.5751  0.072397961  0.073146282            3 
 1475000    1.0310301   -3.5451497    1284.1179  0.072549036  0.073131978            1 
 1476000     1.017173    -3.547693    1280.4913  0.072295126   0.07311813            3 
 1477000    1.0211354   -3.5405852    1285.3803  0.072522019   0.07310428            3 
 1478000   0.99340632   -3.5174079    1280.9546  0.072223419  0.073090631            3 
 1479000    1.0152657   -3.5190361    1284.1682  0.072355655  0.073076839            5 
 1480000     0.998572   -3.4989512     1287.478  0.072493133  0.073063073            4 
 1481000    1.0210611   -3.5376745    1292.6262  0.072733861  0.073049694            4 
 1482000    1.0138993   -3.5002183    1289.4663  0.072507104  0.073036807            2 
 1483000    1.0238328   -3.5162069    1289.2245   0.07244462  0.073023426            1 
 1484000    1.0039052   -3.5371244    1289.0445  0.072385699  0.073010373            3 
 1485000    1.0186865   -3.5530767    1286.8343  0.072212922  0.072996931            2 
 1486000    1.0303978   -3.5121961    1293.8546   0.07255802  0.072983598            1 
 1487000    1.0207967   -3.5182573    1289.1018  0.072242873  0.072970273            4 
 1488000   0.99079717   -3.5513737    1293.8388  0.072459611  0.072956526            2 
 1489000     1.017039   -3.5160615    1294.0415   0.07242229  0.072943456            1 
 1490000    1.0198837   -3.5228182     1299.588  0.072683891  0.072930021            2 
 1491000    1.0141302   -3.5630492    1289.5304  0.072073014  0.072916943            1 
 1492000    1.0167888   -3.5580597     1286.962  0.071881255  0.072903522            2 
 1493000   0.99671325   -3.5411929    1296.1188  0.072344209  0.072890419            3 
 1494000   0.98030796   -3.5246653    1299.9159  0.072507581  0.072877078            1 
 1495000    1.0141782   -3.5217179    1301.7723  0.072562559  0.072864153            2 
 1496000    1.0154527   -3.5506538    1293.5389  0.072055421  0.072851018            4 
 1497000    1.0200534   -3.5566636    1298.0806  0.072260112  0.072837765            5 
 1498000    1.0031156   -3.5206614    1297.5064  0.072179929  0.072824668            2 
 1499000    1.0055505   -3.5227733    1296.1906  0.072058629  0.072811368            2 
 1500000    1.0158716   -3.5509987    1297.3157  0.072073092  0.072798159            4 
 1501000    1.0068532   -3.5263868     1305.454  0.072476905  0.072785035            2 
 1502000     1.009534   -3.5660481    1299.1264  0.072077585  0.072772206            2 
 1503000    1.0269687   -3.5504968    1302.4044  0.072211378  0.072758955            9 
 1504000    1.0173879   -3.5472651    1303.5222  0.072225297  0.072745488            1 
 1505000    1.0006352    -3.562648     1304.554   0.07223444   0.07273266            2 
 1506000    1.0372228   -3.5856528    1305.0044  0.072211401  0.072719272            5 
 1507000   0.99281019   -3.4962859    1303.2871  0.072068518  0.072706128            2 
 1508000    1.0058491   -3.5417191    1303.2986  0.072021366  0.072693356            2 
 1509000    1.0161273   -3.5159092    1307.3798  0.072199015  0.072680964            4 
 1510000    1.0127144   -3.5389384    1305.9068  0.072069914  0.072668049            2 
 1511000    1.0033018   -3.5239488    1309.8724  0.072240924  0.072655258            3 
 1512000    1.0046205   -3.5162014    1309.0135  0.072145805  0.072642776            2 
 1513000    1.0410702    -3.547565    1314.0576  0.072375941  0.072630089            6 
 1514000   0.99955834   -3.5506305    1313.7108  0.072309047  0.072617522            5 
 1515000    1.0238862   -3.5461267    1311.9715  0.072165647   0.07260487            4 
 1516000      1.02934   -3.5472354    1313.9286  0.072225624  0.072592144            2 
 1517000    1.0088042   -3.5212609    1312.3211  0.072089713  0.072579418            2 
 1518000    1.0080467   -3.5568545    1315.3476  0.072208365  0.072566807            4 
 1519000    1.0000699    -3.512099    1317.3359  0.072269911  0.072554016            1 
 1520000    1.0260338   -3.5563607    1311.1414  0.071882754  0.072541033            2 
 1521000    1.0289291   -3.5334046    1316.2083  0.072113098  0.072528389            5 
 1522000    1.0458531   -3.5319133    1317.7362  0.072149375   0.07251587            1 
 1523000     1.028946   -3.5505046    1315.1074  0.071958164  0.072503141            2 
 1524000   0.99330758   -3.5316461    1315.2057  0.071916321  0.072490413            2 
 1525000   0.99339359   -3.5372101    1318.6624  0.072058057  0.072477489            3 
 1526000    1.0127349   -3.5299482    1315.1087  0.071816769  0.072464683            3 
 1527000   0.96888004   -3.5453898    1321.5933  0.072123626  0.072451752            3 
 1528000    1.0117234   -3.5641882    1316.5341  0.071800508  0.072438669            2 
 1529000   0.99581843   -3.5450779    1314.7372  0.071655613  0.072425829            4 
 1530000    1.0114102     -3.53412    1317.4629  0.071757238  0.072413045            2 
 1531000    1.0024194   -3.5450271    1320.0692  0.071852229  0.072399933            4 
 1532000    1.0289356   -3.5522805    1323.1232  0.071971455  0.072387116            2 
 1533000    1.0087797   -3.5562429    1325.0624  0.072029917  0.072374487            3 
 1534000    1.0070277   -3.5553625    1324.4013  0.071947051  0.072361854            5 
 1535000    1.0164214   -3.5341129    1324.5127  0.071906227  0.072349355            2 
 1536000   0.99714756   -3.5492854    1324.3615  0.071851208    0.0723364            2 
 1537000   0.99301896    -3.558136    1328.5226  0.072030069   0.07232392            2 
 1538000   0.98996759   -3.5259164    1327.3809  0.071921377  0.072311812            4 
 1539000    1.0234202   -3.5284557    1331.6329  0.072104879   0.07229919            2 
 1540000    1.0040368   -3.5578742    1326.5289  0.071781867  0.072286669            4 
 1541000     1.005765   -3.5297532    1326.6999  0.071744533  0.072273956            7 
 1542000   0.99573953   -3.5691565    1320.4374  0.071359566   0.07226124            2 
 1543000    1.0082122   -3.5558493    1328.2957  0.071737723  0.072248288            3 
 1544000   0.99460198   -3.5505485    1327.3744  0.071641536  0.072235386            4 
 1545000    1.0099183   -3.5562957    1329.8521  0.071728807   0.07222257            2 
 1546000   0.99939805   -3.5582646    1324.7907  0.071409588  0.072209415            2 
 1547000    1.0151543   -3.5311069    1335.9857  0.071966476   0.07219621            2 
 1548000   0.99021385   -3.5989029    1324.2557  0.071288531  0.072183025            2 
 1549000    1.0047972   -3.5372062    1332.5461  0.071688517  0.072169898            2 
 1550000     1.000399   -3.5373263    1335.5352  0.071802967  0.072156874            1 
 1551000   0.99921666   -3.5491896     1333.963  0.071672201  0.072144038            3 
 1552000    1.0233149   -3.5695915    1330.1244  0.071419911  0.072131088            2 
 1553000    1.0092329   -3.5545603    1332.5152  0.071502208  0.072118295            5 
 1554000    1.0132521   -3.5394461     1331.039  0.071377038  0.072105155            5 
 1555000    1.0118088   -3.5187357    1340.1184  0.071817706  0.072092306            1 
 1556000    1.0146976   -3.5746724    1339.3406  0.071729895  0.072079667            1 
 1557000   0.97984125   -3.5474023    1339.4014  0.071687081  0.072067038            6 
 1558000   0.98874331   -3.5317819     1342.137  0.071787387  0.072054365            2 
 1559000   0.99878374    -3.567775    1339.4406  0.071597207  0.072041778            4 
 1560000    0.9699527    -3.519052    1343.5877   0.07177285  0.072029092            2 
 1561000    1.0131167   -3.5305598     1338.951  0.071479341  0.072016684            2 
 1562000    1.0044142   -3.5585147    1340.5462  0.071518682  0.072003559            4 
 1563000     1.008874   -3.5567925     1339.385  0.071411013  0.071990511            4 
 1564000   0.98900833   -3.5419603     1341.414  0.071473463  0.071976838            3 
 1565000    1.0143081   -3.5761906    1336.5075  0.071166533  0.071963566            3 
 1566000   0.99604099   -3.5370606    1341.3713  0.071379913  0.071950115            1 
 1567000    1.0136511   -3.5835835    1337.2118  0.071113159    0.0719365            3 
 1568000    1.0056358   -3.5796483    1338.9405  0.071159677  0.071922869            2 
 1569000    1.0038169    -3.553281     1339.562  0.071147335  0.071909407            3 
 1570000    1.0012067   -3.5224151    1340.0071  0.071125643  0.071895885            6 
 1571000   0.99994599   -3.5540203    1340.7344  0.071118949  0.071882598            3 
 1572000    1.0388306   -3.5716075    1343.5948  0.071225339  0.071869099            3 
 1573000   0.99227359   -3.5444507    1344.2854  0.071216647  0.071855371            2 
 1574000    1.0043079   -3.5526595    1348.3657  0.071387426   0.07184164            1 
 1575000   0.98354473   -3.5707164     1344.831  0.071155078  0.071827814            2 
 1576000   0.98232983   -3.5497448    1349.9525  0.071380739  0.071814058            2 
 1577000   0.97766884   -3.5833079     1342.228  0.070927288  0.071800488            2 
 1578000    1.0137186   -3.5718974    1345.6942   0.07106539   0.07178686            5 
 1579000   0.98401187   -3.5212982     1351.119  0.071306681  0.071773474            2 
 1580000      1.01462     -3.58386    1350.3117  0.071218973  0.071759923            3 
 1581000    1.0047726   -3.5704367    1348.5268  0.071079845  0.071746492            5 
 1582000    1.0149597   -3.5706447    1351.6883   0.07120145   0.07173312            4 
 1583000   0.99802663   -3.5438527    1352.3873  0.071193268  0.071719588            2 
 1584000   0.98828548   -3.5517853    1350.3842  0.071042939  0.071706188            2 
 1585000   0.99634537   -3.5723001    1351.0429  0.071032751  0.071693054            3 
 1586000   0.98364385   -3.5464009    1350.4512   0.07095687  0.071679782            4 
 1587000   0.99025931   -3.5838731    1353.6247  0.071078804  0.071666304            2 
 1588000    1.0060734   -3.5636941    1352.1188  0.070955019  0.071652378            4 
 1589000   0.99959303   -3.5411174     1351.734  0.070890182  0.071638749            2 
 1590000   0.98764936   -3.5409705    1356.2953   0.07108466  0.071625096            2 
 1591000    1.0021562   -3.5708274    1354.2529  0.070933003  0.071611019            4 
 1592000    1.0008814   -3.5375216    1354.6063  0.070906945  0.071597204            2 
 1593000   0.99984633   -3.5490692     1351.487  0.070699259  0.071583569            1 
 1594000   0.99549077   -3.5417277    1358.5857   0.07102602  0.071569984            3 
 1595000    1.0117276   -3.5871881    1353.2507  0.070702753  0.071556397            3 
 1596000    1.0052017     -3.55078    1354.3736  0.070717086   0.07154281            4 
 1597000   0.99184757   -3.5671918    1358.2953  0.070877444  0.071529263            2 
 1598000   0.98958051   -3.6089477    1353.6044  0.070588464   0.07151569            4 
 1599000   0.95505762   -3.5471393    1360.1962  0.070887856  0.071501756            2 
 1600000   0.98623956   -3.5508088    1360.5461  0.070861776  0.071487809            3 
 1601000   0.99661363   -3.5662239     1358.258  0.070698419  0.071474135            2 
 1602000    1.0180107   -3.5685768    1358.2208  0.070652354  0.071460132            1 
 1603000   0.99045444   -3.5461142    1356.5389  0.070520843  0.071446747            3 
 1604000   0.99843508   -3.5727804    1359.1741  0.070613786  0.071432572            5 
 1605000    1.0002661   -3.5721165    1363.3697  0.070787628  0.071418478            4 
 1606000   0.98735808   -3.5661511    1366.2754  0.070894321  0.071404572            2 
 1607000   0.99746233   -3.5615698    1367.5179   0.07091464  0.071390593            5 
 1608000   0.98677857   -3.5823491    1365.7533  0.070779089  0.071376629            5 
 1609000    0.9887204   -3.5733968    1363.2955  0.070607804  0.071362761            3 
 1610000   0.98790131   -3.5722147    1366.8638  0.070748645  0.071348782            2 
 1611000    0.9972092   -3.5372681    1364.9115  0.070603738   0.07133445            3 
 1612000   0.99574601   -3.5800594    1369.1456  0.070778827  0.071320488            4 
 1613000   0.98283232    -3.542137    1366.8376  0.070615704  0.071306554            4 
 1614000     1.008084   -3.5914365    1361.3957   0.07029098  0.071292487            4 
 1615000   0.99707506   -3.5608314    1364.7739  0.070421768  0.071278381            2 
 1616000     1.017329   -3.5517167    1366.3558  0.070459766  0.071264213            2 
 1617000   0.98513292   -3.5722995    1366.8258  0.070440414   0.07125003            3 
 1618000    1.0031916   -3.5480414    1366.1035   0.07035968  0.071235912            5 
 1619000   0.99538004   -3.5903332     1366.784  0.070351247  0.071221747            4 
 1620000   0.99120426   -3.5655446    1369.2848  0.070436459  0.071207347            4 
 1621000    1.0052439   -3.5724235    1371.5432  0.070509107  0.071193095            1 
 1622000   0.98241046   -3.5571756    1369.5635  0.070363927  0.071178643            4 
 1623000   0.99578662   -3.5512737    1374.3137  0.070564475  0.071164363            2 
 1624000   0.97395883    -3.561908    1369.8607  0.070292524  0.071150251            2 
 1625000   0.97563752   -3.5783409    1372.2181   0.07037016  0.071135904            6 
 1626000    0.9687348   -3.5735641    1370.5608  0.070241944  0.071121525            2 
 1627000    0.9897566   -3.5642351    1371.3533  0.070239364  0.071106833            5 
 1628000    1.0051581   -3.5739618    1372.1673  0.070237884  0.071092459            2 
 1629000    1.0001922   -3.5861547    1369.3299  0.070049615  0.071077807            2 
 1630000   0.98875462   -3.5634944    1368.4583  0.069962081  0.071062854            4 
 1631000   0.97755808   -3.5667162    1371.1175  0.070055053  0.071048159            3 
 1632000   0.99323216   -3.5912147    1370.3727  0.069974094  0.071033266            3 
 1633000   0.97003542   -3.5965656    1372.0177  0.070015194  0.071018557            5 
 1634000   0.99894202   -3.5760311    1374.1852  0.070082885  0.071003523            5 
 1635000   0.99687228   -3.5621942    1375.4727  0.070105643  0.070988726            4 
 1636000   0.95995523   -3.5959751    1373.1013  0.069941997  0.070973947            3 
 1637000    1.0018384   -3.5733051    1378.3137  0.070164615   0.07095937            2 
 1638000   0.99869406   -3.5625202    1379.8902  0.070201984  0.070944941            2 
 1639000   0.99482878   -3.5522101     1380.682   0.07019941  0.070930451            2 
 1640000   0.97172531   -3.5686406    1377.2482  0.069982123  0.070915994            2 
 1641000   0.99679411   -3.5614791    1385.1571  0.070341108  0.070901577            4 
 1642000   0.98080142   -3.5894375    1376.4386  0.069855797  0.070887106            4 
 1643000   0.99298829   -3.5662912    1378.2361  0.069904448  0.070872678            4 
 1644000   0.97824195   -3.6009858    1372.5835  0.069575399  0.070858131            2 
 1645000   0.99880415   -3.5977336    1380.1945   0.06991867  0.070843312            5 
 1646000    1.0084497   -3.5950385    1383.0353  0.070020014  0.070828858            5 
 1647000   0.99094934   -3.5712344    1378.9666  0.069771636  0.070814151            2 
 1648000   0.99579992   -3.5887477    1375.6419   0.06956118  0.070799457            3 
 1649000   0.97908054   -3.5861173    1391.6245  0.070326688  0.070784798            4 
 1650000   0.99251905   -3.5476183    1386.4379  0.070022115  0.070770327           11 
 1651000   0.97939389   -3.5797845    1382.9073    0.0698015    0.0707557            5 
 1652000   0.98967562    -3.550681    1385.3539  0.069882661  0.070741032            2 
 1653000   0.98698519   -3.5707534    1386.7729  0.069911923  0.070726322            3 
 1654000   0.98861151   -3.5770079    1384.2275  0.069741412  0.070711761            4 
 1655000   0.98126345   -3.5654439    1387.4626  0.069862165   0.07069702            6 
 1656000   0.98652734   -3.5958494    1387.9176  0.069842876   0.07068217            1 
 1657000   0.98481047   -3.5793662    1383.5517  0.069581157  0.070667644            4 
 1658000   0.98878752   -3.5530072     1390.855  0.069906265  0.070653191            3 
 1659000   0.96971214   -3.5794194    1387.9217  0.069716783  0.070638818            3 
 1660000   0.97102437   -3.5710519    1391.7212  0.069865523  0.070624537            4 
 1661000   0.97119959   -3.5952583     1393.218  0.069898556  0.070610372            2 
 1662000   0.98037388   -3.6048959    1394.4701   0.06991928  0.070595955            3 
 1663000    1.0004655    -3.563354    1391.6695  0.069736895  0.070581913            2 
 1664000   0.97800154   -3.5776495    1394.5996  0.069841725  0.070567687            2 
 1665000    0.9983578   -3.5664414     1396.518  0.069895795  0.070553928            4 
 1666000    1.0087155   -3.5797709    1392.5088    0.0696533  0.070539898            2 
 1667000   0.99632914   -3.5901661    1394.5993  0.069716024  0.070525974            4 
 1668000   0.99401193    -3.569355    1400.3388   0.06996097  0.070511816            5 
 1669000    1.0059183   -3.5595583     1400.943  0.069949221   0.07049764            2 
 1670000     1.000856   -3.5747813    1390.9315   0.06940776  0.070483227            2 
 1671000    1.0015757   -3.5818735    1393.2126  0.069479984  0.070469045            5 
 1672000    1.0048922   -3.5469773    1399.8103  0.069767257  0.070454566            3 
 1673000   0.99566065   -3.5594131    1397.8605  0.069628436  0.070440254            3 
 1674000   0.97723439   -3.5595633     1398.887  0.069637941  0.070425901            2 
 1675000    1.0134815   -3.5723031    1403.5381  0.069827765  0.070411759            2 
 1676000   0.99609107   -3.5647012    1397.3203  0.069476942  0.070397398            3 
 1677000   0.98754864   -3.5863008    1402.1337    0.0696747  0.070382788            6 
 1678000   0.98681177   -3.5946203    1399.6948  0.069512056  0.070368771            2 
 1679000   0.98503212   -3.6230393    1401.7357  0.069571955  0.070354606            2 
 1680000   0.98297507   -3.6137775    1398.3144  0.069360833    0.0703404            3 
 1681000   0.98192908   -3.5989274    1402.9227  0.069548024  0.070326058            4 
 1682000   0.97404028   -3.5414544    1407.7132  0.069744017  0.070311778            1 
 1683000   0.97162277   -3.5849868    1407.2447  0.069679376  0.070297762            3 
 1684000   0.99108974   -3.6000784    1407.9717  0.069673978  0.070283319            3 
 1685000     0.988781   -3.5846526    1405.7475  0.069522627  0.070268838            3 
 1686000   0.99034611   -3.6018341     1405.046  0.069446719  0.070254703            3 
 1687000   0.98042657   -3.5531865    1409.0553  0.069603603  0.070240484            3 
 1688000    0.9760828   -3.5793107    1405.8449  0.069403876  0.070226117            5 
 1689000   0.96840454   -3.5914681    1407.1636  0.069427849  0.070211569            2 
 1690000   0.98009539   -3.6003078    1408.5922   0.06945721  0.070197339            6 
 1691000   0.98209342   -3.5831666     1409.255  0.069448798  0.070183061            2 
 1692000   0.97629369   -3.5948027    1406.0143  0.069248145  0.070168602            3 
 1693000    0.9785428   -3.5887249    1411.0576  0.069455481  0.070154113            3 
 1694000   0.98961382    -3.576915    1414.3851  0.069578172  0.070139531            6 
 1695000    1.0017201   -3.5762099    1413.5712  0.069497111   0.07012528            3 
 1696000    1.0119678   -3.5778786    1411.0045  0.069330017  0.070110888            2 
 1697000   0.98541925   -3.5253697    1418.7726  0.069670625  0.070096732            3 
 1698000   0.96380835   -3.6227703    1411.6681  0.069280923  0.070082502            5 
 1699000   0.97774685    -3.588203    1417.8638  0.069544034  0.070068261            2 
 1700000   0.98669719   -3.5783956    1412.0736  0.069219292  0.070054085            2 
 1701000   0.98597769   -3.5922148     1414.581   0.06930144  0.070040086            3 
 1702000   0.98001862   -3.5780848     1413.894  0.069227087  0.070025978            4 
 1703000   0.97037841   -3.5867103      1414.37  0.069209727  0.070012048            1 
 1704000   0.97019892   -3.5668802    1418.2045  0.069356638  0.069998175            3 
 1705000   0.98162453   -3.5780861    1419.7072  0.069389404  0.069984529            3 
 1706000   0.99293785   -3.5868676     1418.585  0.069293916  0.069970332            4 
 1707000    0.9830245   -3.5713912    1419.0706  0.069277024  0.069956923            4 
 1708000   0.96863391   -3.5734866    1422.4552  0.069401602    0.0699432            2 
 1709000   0.98109904   -3.5796337     1424.313  0.069451578  0.069929289            6 
 1710000    1.0027528   -3.6043645    1421.1367  0.069256175  0.069915372            2 
 1711000   0.94580881   -3.6168404    1417.5697  0.069041968  0.069901146            3 
 1712000   0.98172012   -3.5738066    1421.9439  0.069214557  0.069886847            3 
 1713000   0.96822468   -3.6000357    1418.6483   0.06901383   0.06987265            6 
 1714000    0.9641909   -3.5787424    1422.2761  0.069149945  0.069858951            5 
 1715000   0.97334007   -3.5883305    1419.7517  0.068986962  0.069845158            5 
 1716000   0.97263038   -3.5846917    1427.7817   0.06933672  0.069831499            4 
 1717000   0.98257313   -3.5991473    1421.3731  0.068985297  0.069817577            2 
 1718000   0.96855887   -3.5870464    1428.5562  0.069293567  0.069803372            2 
 1719000   0.96384733   -3.5914718    1426.0755  0.069133001  0.069789247            3 
 1720000   0.99022513   -3.5890728    1427.6043  0.069166873  0.069775362            5 
 1721000    0.9874105   -3.5869974    1431.2412  0.069302787  0.069761604            2 
 1722000   0.97602155   -3.5886172    1423.8157    0.0689032  0.069747872            4 
 1723000   0.97671939    -3.594206    1422.4521  0.068797258   0.06973377            1 
 1724000    0.9776621   -3.6033201    1434.1547  0.069323022  0.069719762            2 
 1725000   0.97119843   -3.5942908    1426.0495  0.068891281  0.069705705            1 
 1726000   0.96467392   -3.5997788    1426.9406  0.068894388  0.069691704            2 
 1727000   0.96584442   -3.5756464    1428.8279  0.068945564  0.069678039            3 
 1728000   0.96880985   -3.5870143    1434.7265  0.069190127  0.069663939            4 
 1729000   0.97442129    -3.613618    1429.2372   0.06888554  0.069650058            4 
 1730000   0.95118235   -3.5984854    1434.5554  0.069101897  0.069636217            4 
 1731000    0.9681208   -3.5853662    1436.4299  0.069152217   0.06962219            2 
 1732000   0.98909372   -3.5913749     1433.959  0.068993409  0.069608301            4 
 1733000   0.98837093   -3.5956607    1435.0215   0.06900469  0.069594631            2 
 1734000   0.97785496   -3.5868134    1434.6032  0.068944792  0.069580725            3 
 1735000   0.97573286   -3.5973333    1431.9862  0.068779359  0.069566692            3 
 1736000   0.96474331   -3.6050162    1438.7037  0.069062197  0.069552692            7 
 1737000   0.98433342   -3.6086667     1434.316  0.068811936   0.06953886            4 
 1738000   0.97399384   -3.6034544    1436.1518  0.068860367  0.069524848            4 
 1739000    0.9689369   -3.5793674    1439.8609  0.068998511  0.069510728            4 
 1740000   0.97099475   -3.5954455    1437.5127  0.068846393  0.069496857            3 
 1741000   0.96244042   -3.6051897    1436.1914  0.068743605  0.069482697            2 
 1742000   0.95529514   -3.6107134    1443.2617  0.069042369    0.0694685            5 
 1743000    1.0085179    -3.624723     1436.772  0.068692484  0.069454695            1 
 1744000   0.94919258   -3.5959161    1443.5414   0.06897656  0.069440299            2 
 1745000   0.98599976   -3.6241756    1434.3322  0.068497238  0.069425699            2 
 1746000   0.95276621   -3.6006907    1433.4922  0.068417917  0.069411556            3 
 1747000    0.9652935   -3.6109087    1434.2259  0.068413751  0.069397044            7 
 1748000   0.97537362   -3.5900259    1438.3917  0.068573213  0.069382352            5 
 1749000   0.97360781   -3.5999726    1435.4256  0.068392682    0.0693678            2 
 1750000   0.94190945   -3.5881913    1441.1278  0.068625136   0.06935307            2 
 1751000    0.9615837   -3.6083526    1444.4292  0.068743061  0.069338588            3 
 1752000     0.990262    -3.594732    1446.0653  0.068781647  0.069324189            3 
 1753000   0.95193746   -3.6227498    1433.7021  0.068154691  0.069309708            7 
 1754000   0.97195055    -3.580286    1439.0743  0.068371072  0.069295193            2 
 1755000   0.95388756   -3.5993266    1443.3085  0.068533165  0.069280778            4 
 1756000   0.95952751   -3.5810349    1441.6884  0.068417256  0.069266189            3 
 1757000   0.97842009    -3.592069    1450.8192  0.068811385  0.069252031            2 
 1758000   0.96888272   -3.6133936    1449.1386  0.068692575   0.06923758            2 
 1759000   0.96593477   -3.5955231    1450.3335  0.068710133  0.069223337            3 
 1760000     0.953896   -3.5783534    1444.9409  0.068415762  0.069209336            1 
 1761000   0.96514317   -3.6134661    1444.1331  0.068338683  0.069195423            4 
 1762000   0.99156994   -3.5878706    1447.9834  0.068481998  0.069181326            3 
 1763000   0.96191305    -3.645097    1446.8418  0.068389193  0.069167472            3 
 1764000   0.96223868   -3.5803378     1445.873  0.068304659   0.06915325            2 
 1765000   0.96213352   -3.5983993    1453.5008  0.068626099  0.069139221            2 
 1766000   0.98205209   -3.5951958    1445.0069  0.068186432  0.069125328            1 
 1767000    0.9603023   -3.6085707     1450.305  0.068397707  0.069111039            6 
 1768000   0.97821249   -3.5905422    1449.5258  0.068322294  0.069096832            4 
 1769000   0.95574222   -3.5881849     1455.042  0.068543525  0.069082867            3 
 1770000   0.98209579   -3.5808212    1456.5142  0.068574113  0.069069088            4 
 1771000   0.96506518   -3.5979696    1452.3975  0.068341687  0.069055098            3 
 1772000   0.96372629   -3.6203285    1457.4856  0.068542403  0.069041237            3 
 1773000   0.98274125   -3.6006156    1457.6127  0.068509713  0.069027591            2 
 1774000    0.9718724    -3.599602    1453.2159  0.068264556   0.06901404            3 
 1775000   0.96153524   -3.5914976    1455.9437  0.068354165  0.069000274            2 
 1776000    0.9647517   -3.6077387    1455.6164  0.068300321  0.068986322            4 
 1777000   0.97399383   -3.6124758    1453.6648  0.068170363  0.068972623            4 
 1778000   0.96913052   -3.5996286    1453.9671   0.06814619   0.06895877            6 
 1779000   0.96631423   -3.5989793    1459.1913  0.068352601  0.068944881            2 
 1780000   0.95698288   -3.6050286    1453.6853  0.068056429    0.0689311            3 
 1781000   0.95825619   -3.6070855    1461.0669  0.068363602  0.068917363            4 
 1782000   0.97329698   -3.6105333    1456.1076   0.06809332  0.068903615            4 
 1783000   0.96310119   -3.5995258    1467.0285  0.068565547  0.068889912            2 
 1784000   0.96524393   -3.5931983     1462.362  0.068309137  0.068876045            4 
 1785000    0.9598796   -3.6397967    1458.9132  0.068109859  0.068862406            3 
 1786000   0.95655287   -3.6214054    1459.0302  0.068077184  0.068848591            7 
 1787000   0.97865471   -3.5999924    1462.5024  0.068201008   0.06883517            1 
 1788000    0.9639006    -3.599039    1463.9906  0.068232225  0.068821312            3 
 1789000   0.95905445   -3.6275061    1463.5592   0.06817399  0.068807561            4 
 1790000   0.96656177   -3.6200915    1464.9718  0.068201665   0.06879418            2 
 1791000   0.96658426   -3.5903227    1465.5519  0.068190576  0.068780857            2 
 1792000   0.95901811   -3.6180169    1469.0239  0.068313982  0.068767241            3 
 1793000   0.95418656    -3.608668    1471.8218   0.06840592  0.068753824            5 
 1794000    0.9755072   -3.6340736    1466.5252  0.068121756      0.06874            3 
 1795000   0.95604799   -3.5887365    1471.3827  0.068309317  0.068726433            2 
 1796000   0.97776644   -3.6039737    1469.3114  0.068175177  0.068713039            6 
 1797000   0.97745218   -3.6058958    1468.6495  0.068106543  0.068699542            3 
 1798000    0.9827263   -3.5979241    1474.6491  0.068346731  0.068686282            1 
 1799000   0.96367288   -3.5891732    1472.9194  0.068228616  0.068672962            2 
 1800000   0.96258587   -3.6072451     1475.864  0.068327037  0.068659814            2 
 1801000   0.96825484   -3.6257432     1478.768  0.068423467  0.068646417            7 
 1802000   0.96554967   -3.6143376    1471.9749  0.068071353  0.068633079            4 
 1803000   0.97603669   -3.6264081    1475.0778   0.06817701  0.068619914            4 
 1804000   0.92477779   -3.5998852    1479.3874  0.068338295  0.068606781            4 
 1805000   0.97500825   -3.6142103    1474.3137  0.068066189  0.068593176            3 
 1806000   0.96765114   -3.6045164    1476.0914  0.068110531  0.068579607            2 
 1807000   0.94040647   -3.5778807    1487.6632  0.068606493   0.06856614            4 
 1808000   0.96681508   -3.6189749    1473.1795  0.067900973  0.068553223            3 
 1809000   0.96974718   -3.6243368    1476.9306  0.068036234  0.068540041            5 
 1810000   0.97840895   -3.6018801    1479.1364  0.068100205  0.068526837            2 
 1811000   0.94511857   -3.6047663    1482.7139  0.068227218  0.068513524            5 
 1812000   0.95721101   -3.6570419    1478.2813  0.067985712   0.06850003            4 
 1813000   0.95985067   -3.6116829    1478.2763   0.06794798  0.068486698            3 
 1814000   0.95273738   -3.6164865    1483.7863  0.068163648  0.068473621            3 
 1815000    0.9702568    -3.587785     1491.279  0.068470112  0.068460604            3 
 1816000   0.97591822   -3.6140959    1482.2634  0.068018696  0.068447746            2 
 1817000   0.97268546   -3.6413352    1485.5017  0.068129781   0.06843478            2 
 1818000   0.97146395   -3.6355103    1486.6252  0.068143804  0.068421968            5 
 1819000   0.96339083   -3.6121062    1485.0852   0.06803579   0.06840916            2 
 1820000   0.95162437   -3.6043867    1480.9705  0.067810003  0.068396224            3 
 1821000   0.96875157   -3.6067848     1488.486  0.068116693  0.068383433            3 
 1822000   0.94657319   -3.6149773    1487.3309  0.068026477  0.068370625            2 
 1823000   0.96971194   -3.5966113    1484.0825  0.067840669  0.068357846            6 
 1824000   0.96432746   -3.6502197    1486.0613  0.067893882  0.068344757            2 
 1825000   0.97704767   -3.6040069    1487.1385  0.067905869  0.068331684            4 
 1826000   0.96841741    -3.606967    1484.9539  0.067768982  0.068318667            3 
 1827000   0.95001722   -3.6151252    1483.2692  0.067655047  0.068305638            3 
 1828000   0.96735625   -3.6210953    1487.7192  0.067820895  0.068292551            5 
 1829000   0.95054431   -3.6311667    1493.2404  0.068035375  0.068279396            2 
 1830000   0.97396288   -3.5935166    1491.5302   0.06792032  0.068266668            3 
 1831000   0.95735759   -3.6128726    1491.5245  0.067882965  0.068253942            6 
 1832000   0.95574638   -3.5920029    1494.4654  0.067979685   0.06824141            3 
 1833000   0.95331984   -3.6294767     1490.151  0.067746453  0.068228434            2 
 1834000   0.97128599    -3.624035    1498.2728  0.068078555  0.068215262            2 
 1835000   0.96138666   -3.5745715    1498.8512  0.068067719  0.068202208            2 
 1836000   0.96544902   -3.6338892    1497.6251  0.067974997  0.068189386            4 
 1837000    0.9571033    -3.594439    1503.3309  0.068196829   0.06817668            2 
 1838000   0.96690716   -3.6288754    1497.8095  0.067909388  0.068163724            4 
 1839000   0.94101927   -3.6269837    1494.1354  0.067705972  0.068150581            6 
 1840000   0.96229533   -3.5955913    1498.7676  0.067878968  0.068137785            2 
 1841000   0.96409016   -3.6300588    1497.2525  0.067773514  0.068124928            6 
 1842000   0.93751792   -3.6276876    1500.8385  0.067898956  0.068112012            2 
 1843000   0.96376699   -3.6160171    1504.0107  0.068005547   0.06809919            2 
 1844000   0.94012408   -3.6214082    1493.5719   0.06749692  0.068086274            2 
 1845000    0.9722812   -3.6072647    1495.6738  0.067555275  0.068073353            2 
 1846000   0.95306268   -3.6211769    1499.6858  0.067699792  0.068060298            4 
 1847000   0.95475499   -3.6346767    1496.1988   0.06750581  0.068047462            4 
 1848000   0.97759373   -3.6364225    1502.6295  0.067759265  0.068034429            6 
 1849000   0.97529978   -3.6191335    1500.7162  0.067636388  0.068021715            2 
 1850000    0.9595501   -3.6284002    1498.7153    0.0675097  0.068008821            3 
 1851000   0.95820401   -3.6318537      1509.24  0.067947054  0.067995962            3 
 1852000   0.95525285   -3.6287977    1503.6932  0.067660782  0.067982839            3 
 1853000   0.95094348   -3.6421513    1502.2734  0.067560415  0.067969665            3 
 1854000   0.94976058   -3.6436359    1505.4052  0.067664742  0.067956833            4 
 1855000   0.95985519    -3.603646    1509.4828  0.067811444  0.067943726            2 
 1856000   0.97407508   -3.6480425    1502.8421  0.067476746  0.067930884            4 
 1857000   0.95667599   -3.6096319    1503.8267  0.067484593  0.067918052            4 
 1858000   0.94337433   -3.6459463    1506.2138  0.067555338   0.06790523            6 
 1859000   0.93692826   -3.6209674    1513.0872  0.067827111  0.067892376            4 
 1860000   0.94117406   -3.6128622    1506.4642  0.067493914  0.067879352            2 
 1861000   0.94579905    -3.616254    1510.6712  0.067646034  0.067866699            4 
 1862000   0.95952045   -3.6511908    1506.3199   0.06741496  0.067853814            2 
 1863000   0.95484765   -3.6262327    1510.0734  0.067546673  0.067840963            1 
 1864000   0.95042875   -3.6513994    1510.1672  0.067514626  0.067828035            3 
 1865000   0.94997289   -3.6283224    1511.8626  0.067554181  0.067815229            3 
 1866000   0.93925641   -3.6220879    1515.7094  0.067689773  0.067802447            6 
 1867000    0.9402454    -3.620805    1519.1707  0.067808012  0.067789723            3 
 1868000   0.94006808   -3.6512053    1513.1625  0.067503681  0.067776767            2 
 1869000     0.960413   -3.6170512    1511.5747  0.067396766  0.067763752            1 
 1870000   0.94298144   -3.6043763    1515.7761  0.067547955  0.067750994            6 
 1871000   0.94398973   -3.6149758    1512.3632  0.067359842  0.067738239            2 
 1872000   0.96196219    -3.617008    1513.2337  0.067362612  0.067725314            1 
 1873000   0.97378023   -3.6513852    1515.2017  0.067414206  0.067712563            2 
 1874000   0.96163985   -3.6315258    1517.1099  0.067463087  0.067699479            2 
 1875000   0.93329597   -3.6322834    1518.8276  0.067503449  0.067686914            3 
 1876000    0.9504006   -3.6659658    1516.7005  0.067372977  0.067674301            6 
 1877000   0.97041407   -3.6210975    1517.0087  0.067350766  0.067661332            5 
 1878000   0.95558207   -3.6332067    1516.6941  0.067300944  0.067648384            2 
 1879000   0.96245369   -3.6241544    1517.5213  0.067301816  0.067635295            2 
 1880000   0.96522939   -3.6261636    1520.8765   0.06741474  0.067622227            5 
 1881000   0.95015364    -3.656047    1510.6615  0.066926345  0.067608881            5 
 1882000   0.96356974   -3.6235551    1516.1327  0.067133045   0.06759541            1 
 1883000   0.96472544   -3.6065893    1524.1543  0.067452395  0.067582553            1 
 1884000   0.93804753   -3.6214797    1518.7175  0.067176112  0.067569336            6 
 1885000   0.94747718    -3.621577    1516.5249  0.067043541  0.067555828            3 
 1886000   0.94259507   -3.6253487    1521.4478  0.067225515  0.067542213            2 
 1887000    0.9592743   -3.6017699    1525.0466  0.067348815  0.067528886            4 
 1888000   0.96294673    -3.620946    1523.7543  0.067256102  0.067515289            3 
 1889000   0.96405324   -3.6260608    1522.1302  0.067148851  0.067501814            4 
 1890000   0.93326324   -3.6314405    1520.5691  0.067044495  0.067488407            4 
 1891000   0.95475021    -3.628177    1522.8917  0.067111393  0.067475036            4 
 1892000   0.95930523   -3.6300834    1518.9906  0.066904096  0.067461366            2 
 1893000    0.9513596   -3.6312559    1522.8286  0.067037707  0.067447957            2 
 1894000   0.95627749   -3.6184167    1525.2297   0.06710796  0.067434513            7 
 1895000   0.94997172   -3.6655966    1519.6161  0.066825686  0.067420884            3 
 1896000   0.93671919   -3.6268266    1517.7485  0.066708355   0.06740706            5 
 1897000   0.95807433    -3.642308    1524.3457  0.066962999   0.06739344            3 
 1898000   0.93569738   -3.6603034    1528.5479  0.067112218  0.067379923            3 
 1899000   0.94961099   -3.6332153    1521.2089  0.066754821  0.067366315            7 
 1900000   0.92701567   -3.6364441    1526.2687  0.066941608  0.067353043            4 
 1901000   0.91261258   -3.6437375    1529.0451  0.067028106  0.067339436            3 
 1902000   0.95356982   -3.6365244    1527.9567  0.066945175  0.067325844            3 
 1903000   0.93610041   -3.6260917    1529.0979   0.06695997  0.067312375            2 
 1904000   0.96530061   -3.6211906    1527.8843  0.066871687  0.067299007            1 
 1905000   0.93981214   -3.6339185    1526.2902   0.06676685  0.067285755            4 
 1906000   0.92811334   -3.6735831     1525.084  0.066679084  0.067272066            3 
 1907000   0.93034156   -3.6456844    1537.1691  0.067172222  0.067258379            2 
 1908000   0.95114469   -3.6459402    1533.7101  0.066985941   0.06724521            9 
 1909000   0.95533508    -3.659093    1533.7285  0.066951653  0.067231929            2 
 1910000   0.95359631   -3.6338463    1531.9749  0.066840093  0.067218513            6 
 1911000   0.94750578   -3.6513936    1528.4197  0.066650082  0.067205155            5 
 1912000   0.95238149   -3.6491998    1529.9979  0.066684011  0.067191373            4 
 1913000   0.94852636   -3.6396003    1531.1408  0.066698936  0.067178005            2 
 1914000   0.93291347   -3.6474039    1530.9202  0.066654487  0.067164393            4 
 1915000   0.94639947   -3.6640359    1524.1258  0.066324013   0.06715081            2 
 1916000   0.95593607   -3.6243026    1537.8714  0.066887238  0.067137516            4 
 1917000   0.96408664   -3.6454159    1535.5125  0.066749804  0.067123913            6 
 1918000    0.9577306   -3.6280187     1536.193   0.06674457   0.06711059            3 
 1919000   0.95169414   -3.6373172    1539.3191  0.066845541  0.067097277            4 
 1920000    0.9372948   -3.6343626    1532.7252  0.066524531  0.067083618            4 
 1921000   0.96284116   -3.6307409    1533.7927   0.06653621  0.067070211            4 
 1922000    0.9189718   -3.6605962    1535.1594  0.066560846  0.067056905            5 
 1923000   0.95191548   -3.6230061    1541.1313  0.066785028  0.067043759            2 
 1924000   0.95029261   -3.6245606    1543.0688  0.066834234  0.067030544            2 
 1925000   0.94733897   -3.6390611    1540.7945  0.066701062  0.067017485            2 
 1926000   0.95737712   -3.6276928    1539.9068  0.066628019  0.067004617            3 
 1927000   0.95896709   -3.6256997    1540.5834  0.066622702  0.066991434            6 
 1928000   0.93729925   -3.6537979    1534.8071   0.06633848  0.066978341            6 
 1929000   0.94298657   -3.6331792    1544.6149   0.06672779   0.06696542            3 
 1930000   0.95246258   -3.6398324    1544.9733  0.066708692  0.066952655            4 
 1931000   0.93360738   -3.6629996    1541.8964  0.066541358  0.066939903            2 
 1932000    0.9507371   -3.6790406    1544.8438  0.066634051  0.066926943            4 
 1933000   0.94518885   -3.6365821    1542.5594  0.066501096  0.066914219            3 
 1934000   0.94619119   -3.6255255    1548.5345  0.066724168  0.066901453            2 
 1935000   0.93524797   -3.6667274    1541.2773  0.066377143  0.066888608            5 
 1936000   0.93925179   -3.6710523    1545.9374  0.066543449  0.066875523            2 
 1937000   0.96136259   -3.6503375    1541.8709  0.066334147  0.066862581            3 
 1938000   0.92550011    -3.663067    1543.6665  0.066377129  0.066849329            7 
 1939000   0.93037003   -3.6604201     1544.831  0.066392944    0.0668361            1 
 1940000   0.93168585   -3.6533689    1548.1323  0.066500529  0.066822846            2 
 1941000   0.92297148   -3.6302948    1550.8685  0.066583739  0.066809723           10 
 1942000   0.92885174    -3.647747    1545.4499  0.066316937  0.066797002           10 
 1943000   0.93598135   -3.6374149    1550.2491  0.066488639  0.066784171            3 
 1944000   0.97093095   -3.6624403    1548.1214  0.066363229  0.066771356            4 
 1945000   0.92602601   -3.6249172    1551.5469  0.066475872  0.066758787            4 
 1946000   0.92941009    -3.635516    1551.0317  0.066419649  0.066746001            3 
 1947000   0.94498237   -3.6466263    1552.7716  0.066460008   0.06673289            2 
 1948000   0.90866631   -3.6242853    1547.7954  0.066213014  0.066719692            2 
 1949000   0.93198811   -3.6456821    1557.1552  0.066579237  0.066706724            2 
 1950000   0.93229958   -3.6378836    1558.3812  0.066597488  0.066693486            2 
 1951000   0.93570236   -3.6462976    1554.3031  0.066389164  0.066680301            2 
 1952000   0.93928859   -3.6181416    1555.6308  0.066411834  0.066667187            2 
 1953000    0.9477668   -3.6609003    1554.5065  0.066329854  0.066654306            2 
 1954000   0.93927102   -3.6354791    1556.1398  0.066365565  0.066641067            5 
 1955000   0.94428586   -3.6348489    1555.4582  0.066302564  0.066628276            3 
 1956000   0.94252398    -3.631363    1562.4894  0.066568227  0.066615371            4 
 1957000   0.93415918    -3.666266    1554.4359  0.066191276  0.066602482            3 
 1958000   0.93495363   -3.6410074    1557.2455  0.066277047  0.066589549            5 
 1959000   0.93464327   -3.6314172    1562.1571  0.066452147  0.066576573            3 
 1960000   0.92322878   -3.6257095    1560.6381   0.06635366  0.066563811            3 
 1961000    0.9357138   -3.6425974    1561.9146  0.066374067  0.066551297            2 
 1962000   0.92401319    -3.652893    1561.7844   0.06633471  0.066538631           10 
 1963000   0.93800807   -3.6704583    1562.3484   0.06632486  0.066525937            2 
 1964000   0.93882787   -3.6689117    1552.2015  0.065860553  0.066513479            2 
 1965000   0.94664069   -3.6776563    1559.3121  0.066128586  0.066500501            3 
 1966000   0.94198222   -3.6408398    1563.0738    0.0662544  0.066487995            3 
 1967000   0.93402376    -3.641442    1565.5383  0.066325125  0.066475192            3 
 1968000   0.94698679   -3.6428768    1555.0462  0.065847146   0.06646226            4 
 1969000   0.93277872   -3.6590555     1559.823  0.066015873    0.0664493            3 
 1970000   0.93354338   -3.6588208    1566.7719  0.066276306  0.066436371            4 
 1971000   0.93730405   -3.6372309     1567.707  0.066282218  0.066423498            8 
 1972000     0.923356   -3.6407177    1564.3843  0.066108192  0.066410626            4 
 1973000   0.94300363   -3.6465765    1564.7071  0.066088322  0.066397616            3 
 1974000   0.94737181     -3.66789    1562.9864  0.065982201  0.066384772            5 
 1975000   0.95220943    -3.623698    1574.5287  0.066435812  0.066372039            3 
 1976000   0.92328676   -3.6730299    1567.4642   0.06610426    0.0663591            2 
 1977000    0.9510799   -3.6706396    1573.4377  0.066322615  0.066346382            1 
 1978000    0.9272378   -3.6573689    1570.9232  0.066183148   0.06633352            1 
 1979000   0.93562625   -3.6612969    1569.3637  0.066084036  0.066320832            5 
 1980000   0.93996004   -3.6627401    1567.8906  0.065988663  0.066307949            5 
 1981000   0.95482563   -3.6456963    1569.2468  0.066012403  0.066295123            3 
 1982000   0.92429889   -3.6504774    1567.9917  0.065926323  0.066282204            2 
 1983000   0.94402738   -3.6180235    1573.5658  0.066127326  0.066269369            3 
 1984000   0.95864209   -3.6451207    1570.0203  0.065945072  0.066256465            5 
 1985000   0.92481889   -3.6767827    1569.3927  0.065885504  0.066243351            2 
 1986000   0.92735245   -3.6495742    1565.0292  0.065669235  0.066230414            6 
 1987000   0.93707439   -3.6715838    1570.2361  0.065854557  0.066217328            3 
 1988000   0.91571131   -3.6475213    1578.4694  0.066166559    0.0662047            8 
 1989000   0.93272299   -3.6446982    1576.8209  0.066064225  0.066191846            2 
 1990000   0.93431395   -3.6367128    1570.0863  0.065749008  0.066179066            3 
 1991000   0.92920784   -3.6390954     1576.272  0.065974889  0.066166305            4 
 1992000   0.92822192   -3.6508461    1572.0169  0.065763759  0.066153241            2 
 1993000   0.94676422   -3.6453874    1576.6766  0.065925599  0.066140217            3 
 1994000   0.91488932   -3.6433703    1578.1906  0.065955807  0.066127115            4 
 1995000   0.92335072   -3.6513277    1579.0449  0.065958433  0.066114078            3 
 1996000   0.91744853   -3.6395415    1580.7176  0.065995224  0.066101197            3 
 1997000    0.9346911   -3.6737069    1577.0217  0.065807949  0.066088218            6 
 1998000   0.93105624   -3.6732614    1572.5083  0.065586765  0.066075193            3 
 1999000   0.93538828   -3.6315778    1579.7254  0.065854817  0.066062145            2 
 2000000   0.91859128   -3.6579299    1585.5101  0.066062921  0.066049405            2 
 2001000   0.92894242   -3.6577381    1578.6187  0.065742909  0.066036315           10 
 2002000   0.93574253   -3.6696169    1581.1662  0.065816109  0.066023354            4 
 2003000     0.925596   -3.6368878     1576.383  0.065584248  0.066010458            3 
 2004000   0.92704016   -3.6555149    1579.4387  0.065678589  0.065997425            2 
 2005000    0.9210537   -3.6593477    1579.2903  0.065639663  0.065984648            4 
 2006000   0.93327129   -3.6569261    1578.0011  0.065553384  0.065971814            4 
 2007000   0.92639337   -3.6518105    1582.6418  0.065713411  0.065959061            5 
 2008000   0.90220645   -3.6730392    1583.1949  0.065703641  0.065946312            3 
 2009000   0.91627775   -3.6714903    1587.4792   0.06584865  0.065933439            2 
 2010000   0.94959898   -3.6662902    1581.7879  0.065579928  0.065920584            4 
 2011000   0.94427198   -3.6393141    1589.0076  0.065846496  0.065907909            2 
 2012000   0.94274962   -3.6655126     1581.167  0.065489026  0.065895392            9 
 2013000   0.93444665    -3.658866    1585.6011  0.065640054  0.065882624           11 
 2014000   0.92541388   -3.6665651    1581.7154  0.065446681   0.06586984            3 
 2015000   0.93419435   -3.6654876     1583.828  0.065501572  0.065856879            4 
 2016000   0.91508796     -3.66419     1585.388  0.065533563  0.065844323            4 
 2017000   0.91234662   -3.6500253    1591.2563  0.065743527  0.065831718            2 
 2018000   0.91185666     -3.65783    1590.1649  0.065665877  0.065819141            4 
 2019000   0.90212454   -3.6536576    1588.9498  0.065583203  0.065806342            2 
 2020000   0.91798184   -3.6704698    1589.6879  0.065581182  0.065793545            2 
 2021000   0.90806628   -3.6469007    1590.2742  0.065572908  0.065780968            2 
 2022000   0.90781923   -3.6829429    1591.9155  0.065608124  0.065768221            2 
 2023000   0.92603489   -3.6283042    1594.4302   0.06567928  0.065755604            6 
 2024000   0.91510204   -3.6869733    1593.4994  0.065608506  0.065743016            2 
 2025000   0.92729219   -3.6860436    1590.6261  0.065457864  0.065730225            2 
 2026000    0.9315368    -3.680424    1595.0895  0.065609145  0.065717599            3 
 2027000    0.9592707   -3.6676893    1595.7261   0.06560295  0.065705257            2 
 2028000   0.95365674   -3.6632073    1596.4446  0.065600121  0.065692772            3 
 2029000   0.92556572   -3.6792207    1599.4328  0.065690522  0.065680415            4 
 2030000   0.93388716   -3.6781599    1599.2956   0.06565253   0.06566813            3 
 2031000   0.92875685   -3.6780371     1600.657  0.065676064  0.065655803            1 
 2032000   0.93990339   -3.6451365     1598.412  0.065551673  0.065643722            3 
 2033000   0.93601531   -3.6600738     1602.624  0.065692079  0.065631525            4 
 2034000   0.92001426   -3.6678726    1599.2283   0.06552066  0.065619019            3 
 2035000   0.93078507    -3.684531    1595.0916  0.065319065  0.065606768            5 
 2036000   0.94004759   -3.6878128    1598.7647  0.065437324   0.06559444            5 
 2037000   0.92338998   -3.6584861    1605.8949  0.065696895  0.065582278            6 
 2038000    0.9036535   -3.6652692    1610.4556  0.065851144   0.06557003            2 
 2039000   0.93076467   -3.6783071    1601.6674  0.065459678  0.065557615            4 
 2040000   0.93773446   -3.6669617    1603.5706  0.065505336  0.065545407            2 
 2041000   0.93071291   -3.6624734    1605.5899  0.065555688  0.065533139            4 
 2042000   0.92410509   -3.6667995    1604.3857  0.065474442  0.065520923            2 
 2043000   0.93622752   -3.6722491    1608.6948  0.065618159  0.065508595            2 
 2044000   0.90759251   -3.6686431    1605.1496   0.06544152  0.065496664            2 
 2045000   0.93019507   -3.6698603    1605.0767   0.06540655  0.065484574            4 
 2046000   0.92993904   -3.6683863    1608.2691  0.065504605  0.065472546            2 
 2047000   0.91721816   -3.6749944    1601.3547  0.065191121  0.065460209            5 
 2048000    0.9256442   -3.6638731    1609.2425  0.065480245  0.065448277            4 
 2049000   0.91972084   -3.6617437    1611.1884  0.065527428   0.06543594            4 
 2050000   0.93577025   -3.6400375    1614.4589  0.065628411  0.065424084            1 
 2051000   0.92066043   -3.6660946    1612.4151  0.065513373  0.065411989            5 
 2052000   0.90814576   -3.6879012     1602.038  0.065060022  0.065399577            4 
 2053000   0.93300392   -3.6541853    1609.0943  0.065314754  0.065387321            4 
 2054000   0.92043393   -3.6595004       1613.8  0.065473872  0.065375171            4 
 2055000   0.91712814   -3.6659725    1615.8347  0.065524523  0.065362954            4 
 2056000   0.92182631   -3.6634027    1608.0342  0.065176482  0.065350625            5 
 2057000   0.93049509   -3.6564046    1616.3247  0.065480662  0.065338156            4 
 2058000   0.92301628   -3.7013899    1611.5491   0.06525547  0.065325733            2 
 2059000   0.91152797   -3.6815391    1608.2226  0.065089146  0.065313259            3 
 2060000   0.92394805   -3.6606866    1614.5836  0.065314871  0.065300699            4 
 2061000    0.9376196   -3.6720821    1609.2411  0.065067163  0.065288364            6 
 2062000   0.92207139   -3.6674366    1613.6992  0.065215778  0.065275734            6 
 2063000   0.91757585    -3.674998    1615.5595   0.06525931   0.06526327            6 
 2064000   0.91910503   -3.6378862    1619.9114  0.065403399  0.065250679            4 
 2065000   0.94167787   -3.6720412    1614.5816  0.065156644  0.065238232            5 
 2066000   0.92785335    -3.680886    1609.2932  0.064911794  0.065225595            3 
 2067000   0.92121486    -3.680661    1612.3806  0.065004863  0.065213066            4 
 2068000   0.91844968   -3.6693104    1619.4348  0.065257687  0.065200666            2 
 2069000   0.91083187   -3.6625389     1615.573  0.065070605   0.06518805            2 
 2070000   0.90796046   -3.6802094    1612.0695  0.064898127  0.065175584            2 
 2071000    0.9156195    -3.670928    1613.2176  0.064912988  0.065162959            3 
 2072000   0.91962121   -3.6693026    1613.2493  0.064882935  0.065150314            6 
 2073000   0.92174845   -3.6881385    1615.3753  0.064937099  0.065137602            4 
 2074000   0.90981594    -3.649644    1622.1823  0.065179295  0.065125132            2 
 2075000   0.91755522   -3.6940893    1620.4534  0.065078451  0.065112675            1 
 2076000    0.9234824   -3.6906436    1618.5006  0.064968714  0.065100109            2 
 2077000   0.94390197   -3.6677921    1622.7393  0.065107498  0.065087511            3 
 2078000   0.90942961   -3.6886945    1622.8978  0.065082525  0.065075228            5 
 2079000   0.92503312   -3.6838503    1624.1858  0.065102848  0.065062774            2 
 2080000   0.91589675   -3.6929283    1618.1824  0.064831025   0.06505016            3 
 2081000   0.92284292   -3.6815773     1618.604  0.064816753  0.065037552            5 
 2082000   0.92362486   -3.6692493    1621.3284  0.064894667   0.06502498            3 
 2083000   0.92925777   -3.6816436    1620.2492  0.064820339  0.065012143            6 
 2084000   0.91359264   -3.6809108     1622.545  0.064881039  0.064999572            6 
 2085000   0.91131755   -3.6668426    1617.9828  0.064667579  0.064986955            5 
 2086000   0.92938001   -3.6777791    1621.8847  0.064792455  0.064974342            5 
 2087000   0.92414495   -3.6880382    1625.3892  0.064901343  0.064961689            4 
 2088000   0.92653529    -3.694147    1621.7734  0.064725949  0.064948712            2 
 2089000   0.92785029   -3.6771542    1624.1317  0.064789042   0.06493585            3 
 2090000   0.94306054   -3.6607967    1624.7773  0.064783784   0.06492321            2 
 2091000   0.93344063   -3.6680916    1623.7862  0.064713301  0.064910549            3 
 2092000   0.93088108   -3.6852165    1630.9369  0.064967213   0.06489783            4 
 2093000   0.92683131   -3.6765388    1627.9334  0.064816588  0.064885195            3 
 2094000   0.91576417   -3.6688584    1623.2374  0.064598751   0.06487257            5 
 2095000    0.9314275   -3.6998922    1625.2908  0.064649595  0.064859857            3 
 2096000   0.91740595   -3.6885993    1624.7753  0.064598253  0.064846821            2 
 2097000   0.91727109   -3.6796703    1620.7515  0.064407548  0.064833795            4 
 2098000   0.91326169   -3.7016809    1622.8365  0.064459664  0.064820848            3 
 2099000   0.92779013   -3.6804748    1620.8706  0.064350904  0.064807772            2 
 2100000    0.9099583   -3.6697206    1626.4425   0.06454137  0.064794671            2 
 2101000   0.89511504   -3.6805753    1622.1022  0.064338498  0.064781708            3 
 2102000   0.91596321   -3.6863766    1624.8952  0.064418619  0.064768647            3 
 2103000   0.91724817   -3.6877117    1623.9027  0.064348655   0.06475541            2 
 2104000   0.92810061   -3.7048742    1624.1784  0.064328994  0.064742393            2 
 2105000   0.90297177   -3.6920816    1622.0958  0.064215985   0.06472933            4 
 2106000   0.90974095   -3.6777842    1626.7041  0.064367842  0.064716203            3 
 2107000   0.91190298   -3.6807288    1629.9359  0.064465111  0.064703288            3 
 2108000   0.90987544   -3.7157422    1626.6615   0.06430509  0.064690175            3 
 2109000   0.92570952   -3.6989476    1633.0536  0.064527171  0.064677414            3 
 2110000   0.89978131   -3.6815467    1632.0755   0.06445796  0.064664653            2 
 2111000    0.9194563   -3.7001797    1629.9911  0.064345141  0.064651862            4 
 2112000   0.93183026   -3.6653035    1638.1827  0.064637891  0.064639088            2 
 2113000   0.89591439   -3.6604039    1640.2212  0.064687694  0.064626492            4 
 2114000   0.91844702   -3.6888418    1632.1008  0.064336991  0.064613692            4 
 2115000   0.90247554    -3.706531    1636.6654  0.064486422   0.06460098            5 
 2116000   0.93727504   -3.6860838    1636.1336  0.064435003  0.064588354            4 
 2117000    0.9197408   -3.7192411    1633.0502   0.06428319  0.064575876            3 
 2118000   0.90816198   -3.6674989    1642.6228  0.064629477  0.064563305            2 
 2119000   0.91121155   -3.7069576    1633.5391  0.064241745  0.064550806            3 
 2120000   0.91182283   -3.7031519    1636.8809  0.064342804  0.064538113            2 
 2121000   0.89710716    -3.677352    1636.7165  0.064306009  0.064525417            1 
 2122000   0.91647845   -3.7054764    1636.6009  0.064271164  0.064512865            2 
 2123000   0.90106846   -3.6815562     1640.663  0.064400339  0.064500022            3 
 2124000   0.90828863   -3.7185892    1637.8293  0.064258839  0.064487196            1 
 2125000   0.91250322   -3.6754609    1648.1152  0.064631968  0.064474437            3 
 2126000   0.92079654   -3.6774823    1642.7574  0.064391558  0.064461746            3 
 2127000    0.9019287    -3.694567    1643.2367  0.064380061  0.064449379            2 
 2128000   0.91236086    -3.690193    1638.1799  0.064151781  0.064436814            3 
 2129000    0.9186024   -3.7146338    1643.5226  0.064330773  0.064424107            4 
 2130000   0.90156866   -3.6790386    1644.5971  0.064342611  0.064411466            6 
 2131000   0.91603815   -3.6917615    1644.4309  0.064305917  0.064398793            3 
 2132000    0.8971475   -3.7307079    1637.4451    0.0640027  0.064386287           10 
 2133000   0.90401025   -3.7153994    1638.1162  0.063998914  0.064373473            2 
 2134000   0.92693024   -3.7035813    1641.6635  0.064107448  0.064360892            5 
 2135000   0.90088912   -3.6784928     1639.954  0.064010695  0.064348035            3 
 2136000   0.91134098   -3.6679809    1644.6312  0.064163203  0.064335408            2 
 2137000   0.93416315   -3.6972107    1644.8242  0.064140702  0.064322668            1 
 2138000   0.91395944    -3.697441    1643.9097   0.06407506  0.064309731            2 
 2139000   0.90415867   -3.7020765    1639.5471  0.063875141  0.064296736            5 
 2140000   0.90161193   -3.6716805    1653.3077  0.064381139  0.064283786            3 
 2141000   0.90683932   -3.7203546    1646.7732   0.06409673  0.064271073            4 
 2142000   0.90961092   -3.7112353    1649.6688  0.064179459  0.064258162            4 
 2143000   0.90315132   -3.6966485    1642.2803    0.0638622  0.064244767            3 
 2144000   0.90269006   -3.6879884    1642.5965  0.063844702  0.064231636            2 
 2145000   0.92073658   -3.7070233    1645.7292  0.063936644   0.06421838            2 
 2146000   0.93970193   -3.6869801     1648.227  0.064003846  0.064205122            6 
 2147000   0.91932149   -3.7184508    1648.0327  0.063966493  0.064191842            3 
 2148000   0.91695395   -3.7156662    1647.3779  0.063911308  0.064178826            3 
 2149000   0.92542475   -3.6954704    1647.9835  0.063905053  0.064165591            3 
 2150000   0.91093896   -3.6836097    1648.7802  0.063906211   0.06415247            3 
 2151000   0.90708581    -3.686273     1648.409   0.06386212  0.064139412            6 
 2152000   0.92090125   -3.6941273     1648.884  0.063850836  0.064126203            3 
 2153000   0.91242058    -3.703296    1650.7392  0.063892986  0.064113158            4 
 2154000   0.90120332   -3.7044797    1647.9319  0.063754718  0.064100361            4 
 2155000   0.90363424   -3.6922686    1648.5388  0.063748602  0.064087477            4 
 2156000   0.89876103   -3.6795562    1653.2362  0.063900595  0.064074676            3 
 2157000   0.90850054   -3.6874103    1650.0458  0.063747714  0.064061872            2 
 2158000   0.90265847   -3.6995894    1647.4116  0.063616452  0.064048964            2 
 2159000   0.91592431   -3.6759388    1653.4572  0.063820333  0.064036161            4 
 2160000   0.89995077   -3.6665347    1655.6558  0.063875611  0.064023395            5 
 2161000   0.90533415   -3.6623454    1657.3715  0.063912211   0.06401054            2 
 2162000   0.88937818   -3.6749726    1653.7633  0.063743573  0.063997839            4 
 2163000   0.87933508   -3.6957312    1651.5827  0.063630093  0.063984941            6 
 2164000   0.90088461   -3.6843906    1657.3509  0.063822816  0.063972005            6 
 2165000   0.90280942   -3.6945757     1650.249  0.063519976  0.063959241            2 
 2166000   0.88818326    -3.703181    1656.7618   0.06374122  0.063946353            5 
 2167000   0.91036618   -3.6605832    1660.6194  0.063860153  0.063933527            2 
 2168000   0.88912416   -3.6993986    1653.5447  0.063558758  0.063920894            4 
 2169000   0.90816133   -3.6847121    1660.3189  0.063789723  0.063908224            2 
 2170000   0.91250969   -3.7043023    1657.9896  0.063670877  0.063895302            4 
 2171000   0.90074603    -3.703744    1655.4984  0.063545924  0.063882552            3 
 2172000   0.90409983   -3.6922534    1661.7932  0.063758179  0.063869997            2 
 2173000   0.89842494   -3.7057265    1662.3598  0.063750569  0.063857211            5 
 2174000   0.89155077   -3.6879019    1666.9916  0.063898788  0.063844547            4 
 2175000   0.90916578   -3.7259921     1661.929  0.063675439  0.063831857            3 
 2176000   0.91673176   -3.7160323    1659.9819  0.063571609  0.063819269            8 
 2177000   0.89580334   -3.7213954    1655.9348   0.06338749    0.0638067            2 
 2178000    0.9269416    -3.710022    1662.5292  0.063610697  0.063793967            4 
 2179000   0.89218649   -3.7150505    1671.1697  0.063911953  0.063781445            1 
 2180000   0.89165509   -3.7137753    1659.5806  0.063439624  0.063768906            4 
 2181000   0.90363576   -3.6894124    1670.7918  0.063838904  0.063756499            4 
 2182000   0.89715988   -3.7251177      1655.94   0.06324244  0.063744066            5 
 2183000     0.921116   -3.7115742    1673.1616  0.063870881  0.063731595            2 
 2184000   0.90703073   -3.7138151    1665.2677  0.063540436  0.063719416            5 
 2185000   0.89887865   -3.7247903    1674.6564  0.063869429  0.063707042            3 
 2186000   0.90924383   -3.7299835    1666.5176  0.063529946  0.063694707            4 
 2187000   0.92228378   -3.7185606    1670.3705   0.06364771  0.063682374            2 
 2188000   0.89919744   -3.7091983    1677.5878  0.063893504  0.063670201            2 
 2189000   0.91737364   -3.7138882    1666.9616  0.063459784  0.063657763            3 
 2190000   0.90622292   -3.6713863    1674.0995  0.063702416  0.063645399            1 
 2191000    0.8963459   -3.7156622    1674.9628  0.063706176    0.0636332            4 
 2192000   0.90782113   -3.7123104    1674.4126  0.063656196  0.063620741            1 
 2193000   0.92602115   -3.7381819    1675.1506  0.063655215   0.06360858            4 
 2194000   0.90978294   -3.7022738    1679.0606  0.063774711  0.063596413            3 
 2195000   0.90272211    -3.717941    1673.8369  0.063547338  0.063584442            7 
 2196000    0.9002661   -3.7124362    1675.3182  0.063574613  0.063572266            4 
 2197000    0.9047466   -3.6855245    1674.1578  0.063501661  0.063560231            2 
 2198000   0.90280922   -3.6912036    1675.9928   0.06354234  0.063548375            4 
 2199000   0.90833873   -3.6880188    1675.1298  0.063480741   0.06353641            1 
 2200000   0.89623866   -3.7249058    1676.6115  0.063508011  0.063524542            2 
 2201000   0.91710311   -3.7005515    1677.9771  0.063530861  0.063512377            1 
 2202000   0.91111284   -3.7003064    1678.4366  0.063519398  0.063500268            3 
 2203000   0.87259176   -3.7193568    1682.6339  0.063649336  0.063488118            2 
 2204000   0.89968692   -3.7184047    1678.1279  0.063450088  0.063475997            3 
 2205000   0.90680958   -3.7227559     1675.702  0.063329628  0.063463879            3 
 2206000    0.8906472   -3.7077103    1680.2796  0.063473843  0.063451586            3 
 2207000   0.90295252   -3.7158128     1684.782  0.063615089  0.063439426            3 
 2208000   0.88309182   -3.7181802    1684.5058  0.063575852  0.063427212            1 
 2209000   0.88740346   -3.7118298     1684.201  0.063535575  0.063415237            5 
 2210000   0.88367926    -3.736995    1676.9321  0.063232735   0.06340305            2 
 2211000   0.87192143   -3.6930313    1686.1151  0.063550247  0.063390854            5 
 2212000   0.91301583   -3.6954788    1689.8288  0.063661422  0.063378966            4 
 2213000   0.89840173     -3.71413    1683.4029   0.06339068  0.063366877            2 
 2214000   0.89724064   -3.6904696    1686.9508  0.063495589  0.063354727            5 
 2215000   0.90684201   -3.7040047    1686.3392  0.063443912  0.063342711            3 
 2216000   0.92256328   -3.6988641    1694.1527  0.063709113  0.063330818            3 
 2217000   0.89892976   -3.7007874    1686.2683  0.063384014  0.063318867            3 
 2218000   0.90147446   -3.7219609    1686.8516  0.063377354  0.063306664            4 
 2219000   0.89059401   -3.7361948    1692.7742  0.063571211   0.06329457            3 
 2220000    0.8954762   -3.7187454    1689.0346  0.063402201  0.063282603           12 
 2221000   0.92316037   -3.7428228    1692.1487  0.063490495  0.063270519           10 
 2222000   0.88986984   -3.7022099    1693.2674  0.063503879  0.063258689            3 
 2223000   0.88480132   -3.7097483    1691.8148  0.063420856  0.063246775            8 
 2224000   0.89891592   -3.7200913    1686.8027  0.063204536  0.063234871            3 
 2225000   0.88719248   -3.7357815    1688.7002  0.063247199  0.063222769            2 
 2226000   0.89557434   -3.7034902    1694.9427  0.063452483  0.063210809            2 
 2227000   0.90101432    -3.716195     1685.444  0.063068552  0.063198762            3 
 2228000   0.92365598   -3.7243564    1694.0565  0.063362377  0.063186892            3 
 2229000   0.89871724   -3.7248833    1692.4328  0.063273246  0.063175007            4 
 2230000   0.90237551   -3.7137342    1701.3464  0.063577967  0.063163336            4 
 2231000   0.86748362   -3.7130955    1694.9718  0.063311362  0.063151716            5 
 2232000   0.88792862   -3.7344624    1702.1291  0.063550221  0.063139851            4 
 2233000   0.89691761   -3.7157882    1697.2292  0.063338902  0.063128101            3 
 2234000   0.90919975   -3.6931531    1698.1785   0.06334596  0.063116385           12 
 2235000   0.89442544   -3.7029649    1699.0254  0.063349193  0.063104582            2 
 2236000   0.87929619    -3.711681    1696.9329  0.063242877  0.063092817            4 
 2237000   0.89892687   -3.7236332    1697.5702  0.063238347  0.063080832            2 
 2238000   0.90719288   -3.7412061    1691.9196  0.062999686  0.063068805            7 
 2239000   0.89418775   -3.6966675    1701.2673   0.06331946  0.063056592            3 
 2240000   0.88277124   -3.7167745    1696.0096  0.063095596  0.063044708            2 
 2241000   0.86935359   -3.7230244    1697.2774  0.063114585  0.063032787            4 
 2242000    0.8952117   -3.7458801    1699.5969  0.063172647  0.063020661            4 
 2243000   0.89253984   -3.7308047    1698.2467  0.063094319  0.063008595            3 
 2244000    0.8983551   -3.7077596    1696.6848  0.063008201  0.062996323            4 
 2245000   0.88283247   -3.7281681    1689.9638  0.062730653  0.062984129            5 
 2246000   0.91033664    -3.710739    1698.9792  0.063037223  0.062972024            7 
 2247000   0.90846889   -3.7284761    1699.7505  0.063037772  0.062960078            3 
 2248000   0.88939877   -3.7336966    1690.6457  0.062672217  0.062948019            4 
 2249000    0.8896011   -3.7464931    1698.6975  0.062942696  0.062935906            3 
 2250000   0.87632337   -3.7299053    1697.4594  0.062868868  0.062923733            6 
 2251000   0.90041392   -3.7181879    1702.3535  0.063022119  0.062911574            3 
 2252000    0.8896503   -3.7468906    1701.5165  0.062963164  0.062899628            5 
 2253000   0.86628513   -3.7255835    1704.1069  0.063031029  0.062887746            2 
 2254000   0.91163541   -3.7284159    1703.6569  0.062986426  0.062875765            6 
 2255000   0.89871956   -3.7070475    1703.6835   0.06295948  0.062863766            8 
 2256000   0.88109531   -3.7094318    1706.2015  0.063024584  0.062851738            3 
 2257000   0.90284286   -3.7100103    1705.2988   0.06296333  0.062839897            5 
 2258000   0.88805525   -3.7425899    1707.1595  0.063004115  0.062828044            3 
 2259000   0.88106321    -3.716973    1707.6586  0.062994635  0.062816345            3 
 2260000   0.89330927   -3.7118012    1708.0142  0.062979873  0.062804482            3 
 2261000   0.87749741   -3.7108761    1704.9776  0.062840101  0.062792759            2 
 2262000   0.89636474   -3.7255415    1707.3203  0.062898627  0.062780833            3 
 2263000   0.88640278   -3.7136112    1711.6944  0.063031904  0.062769091            6 
 2264000   0.88952453   -3.7752895    1701.4563  0.062627218  0.062757182            4 
 2265000   0.87892508   -3.7043237    1713.6368  0.063047713  0.062745228            3 
 2266000   0.88634472    -3.731077    1702.9939   0.06262849  0.062733555            4 
 2267000   0.89461328   -3.7331701     1707.067  0.062750588  0.062721602            4 
 2268000   0.93357884   -3.7212651    1708.2998  0.062768217  0.062709811            4 
 2269000   0.87824832   -3.6974942     1710.663  0.062827346  0.062697977            2 
 2270000   0.88522962   -3.7255114    1710.2512  0.062784553  0.062686074            4 
 2271000   0.90625906   -3.7066421    1714.3929  0.062908883  0.062674115            3 
 2272000   0.88291131   -3.7152627    1713.1874  0.062836978  0.062662082            3 
 2273000   0.89850284   -3.7138621    1706.2668  0.062555608  0.062649996            2 
 2274000   0.88955459   -3.7047452    1709.1337  0.062633159  0.062638092            4 
 2275000   0.89232671   -3.7054644    1715.8929  0.062853219   0.06262603            2 
 2276000   0.89528052   -3.6885828    1711.6053  0.062668618  0.062614323            6 
 2277000    0.8898694   -3.7149422    1713.1826  0.062698822  0.062602254            3 
 2278000   0.87622213   -3.7539893    1718.9467   0.06288216  0.062590301            2 
 2279000    0.8757554   -3.7083953    1716.1038  0.062750614  0.062578422            5 
 2280000   0.87485376    -3.739558    1711.8152  0.062566346  0.062566371            2 
 2281000   0.88467404   -3.7387239    1713.4135  0.062597306  0.062554491            6 
 2282000   0.89282443   -3.7227132    1715.2746  0.062637839  0.062542445            3 
 2283000   0.88749273   -3.7373218    1716.6668  0.062661221  0.062530387            4 
 2284000   0.88722792   -3.7274059    1715.1122  0.062577066  0.062518281            3 
 2285000   0.87862594   -3.7363831    1711.8427   0.06243044  0.062506362            3 
 2286000   0.91095173   -3.7407598    1713.9545  0.062480114  0.062494216            3 
 2287000    0.8973854   -3.7218243    1723.0824  0.062785397  0.062481958            4 
 2288000   0.88494582   -3.7342748    1713.7982  0.062419807  0.062469662            5 
 2289000   0.88636075   -3.7158857    1716.2672  0.062482422  0.062457405            4 
 2290000   0.88064603   -3.7362001    1713.0863  0.062339384  0.062445185            3 
 2291000   0.88392836    -3.728867    1718.9534  0.062525585  0.062432897            4 
 2292000   0.87763629   -3.7193507    1718.0075  0.062463915  0.062420669            3 
 2293000   0.88344182   -3.6947922    1723.2628  0.062627663  0.062408399            3 
 2294000   0.88173208   -3.7119686    1718.8638  0.062440562   0.06239623            3 
 2295000    0.8971677    -3.758912    1718.3877  0.062396067   0.06238407            5 
 2296000   0.86933493     -3.71079    1725.2126  0.062616602  0.062371775            3 
 2297000   0.87571208   -3.7289138    1717.8856  0.062323524  0.062359475            7 
 2298000    0.8953828   -3.7447336    1718.4773  0.062317858  0.062347238            5 
 2299000   0.88672257   -3.7229319     1717.133  0.062242025  0.062335036            3 
 2300000   0.90564768    -3.734216    1724.1816  0.062470348  0.062322844            4 
 2301000   0.88370528   -3.7330901     1721.252  0.062337099  0.062310713            4 
 2302000   0.89847409   -3.7395568    1721.2314  0.062309274  0.062298571            2 
 2303000   0.88933261   -3.7346637    1722.6595  0.062333895   0.06228657            2 
 2304000   0.87869299   -3.7335619    1724.6221  0.062377825  0.062274527            8 
 2305000   0.88313874   -3.7401388    1719.8074  0.062176695  0.062262308            3 
 2306000   0.87822244   -3.7019326     1724.529  0.062320361  0.062250285            5 
 2307000   0.89991752   -3.7248462    1726.6978  0.062371689  0.062238346            4 
 2308000   0.86908381   -3.7496153    1727.1699  0.062361708  0.062226309            3 
 2309000   0.91580459    -3.734943    1727.9256  0.062361976  0.062214155            3 
 2310000   0.88974182   -3.7276733    1726.4228  0.062280764  0.062202224            5 
 2311000   0.86342246    -3.742794    1726.9728  0.062273647  0.062190124            3 
 2312000    0.9138679   -3.7468885    1724.4426  0.062155515  0.062178075            3 
 2313000   0.87970978   -3.7601756    1726.0276  0.062185748  0.062165809            2 
 2314000   0.87908391   -3.7397819    1726.4475  0.062173995  0.062153797            4 
 2315000   0.86527045   -3.7398148    1730.3971  0.062289311  0.062141709            1 
 2316000   0.89807797   -3.7227487    1733.4573   0.06237253  0.062129737            3 
 2317000   0.88247765   -3.7326554    1728.7417  0.062176007  0.062117708            7 
 2318000    0.8798983   -3.7509832    1732.3005  0.062277126  0.062105731            4 
 2319000   0.87378171   -3.7397831    1733.9965  0.062311215  0.062093737            2 
 2320000    0.8906919   -3.7129561    1732.9798  0.062247839   0.06208182            2 
 2321000    0.8757232   -3.7720459    1734.9597  0.062292106  0.062069831            5 
 2322000   0.89440284   -3.7255653    1731.8047  0.062152049  0.062057821            5 
 2323000   0.89883893   -3.7150306     1740.853  0.062449887  0.062045908            3 
 2324000   0.88749045   -3.7269154     1733.115  0.062145545   0.06203394            5 
 2325000   0.87969114   -3.7561276    1735.6209  0.062208633  0.062022151            3 
 2326000   0.88664613   -3.7200988    1733.8735  0.062119284  0.062010297            4 
 2327000   0.88554097    -3.746628    1731.6093  0.062011508  0.061998273            4 
 2328000   0.87587733   -3.7190737    1735.1364  0.062111126  0.061986268            4 
 2329000   0.87308517   -3.7303021    1734.5412  0.062063159  0.061974018            4 
 2330000   0.88164642   -3.7468229    1739.7895  0.062224233  0.061961971            3 
 2331000   0.87139419   -3.7391385     1737.316  0.062109107  0.061950044            7 
 2332000   0.87658695     -3.75397    1738.7494  0.062133697  0.061937911            3 
 2333000   0.86055128   -3.7204612    1742.0114  0.062223582   0.06192591            4 
 2334000   0.89393869   -3.7723804    1733.5105  0.061893405  0.061913905            4 
 2335000    0.8689128   -3.7262414    1737.8324  0.062021142   0.06190184            8 
 2336000   0.88680819   -3.7345881    1733.1993  0.061829312  0.061889939            6 
 2337000   0.88889682   -3.7259978    1738.8309  0.062003671   0.06187798            5 
 2338000   0.88130043   -3.7512626    1738.6584  0.061970999   0.06186601            3 
 2339000    0.9085246   -3.7566161    1737.3563  0.061898115  0.061854056            6 
 2340000   0.88864994   -3.7420687    1735.5196  0.061806254  0.061841971            6 
 2341000   0.88914854   -3.7530438    1735.0844  0.061764359  0.061829913            5 
 2342000   0.88120458    -3.745577    1732.8789  0.061659511  0.061817795            4 
 2343000   0.89913566   -3.7422261    1739.6712  0.061874775  0.061805877            5 
 2344000   0.87670002   -3.7234406    1742.0679  0.061933586  0.061793891            3 
 2345000   0.88605838   -3.7653928    1735.9453    0.0616896  0.061781984            4 
 2346000   0.88245064    -3.736921    1742.4261  0.061893509  0.061769942            4 
 2347000   0.89197892   -3.7373276    1748.8185  0.062094109  0.061757941            3 
 2348000   0.87476966   -3.7456983    1742.6223  0.061847752  0.061746061            5 
 2349000   0.87480957   -3.7517205    1748.5263  0.062030874  0.061734031            4 
 2350000   0.85366851   -3.7248841    1736.4407   0.06157591  0.061722026            6 
 2351000   0.86489195   -3.7470054     1742.575  0.061767155  0.061710053            3 
 2352000   0.88280078   -3.7354762    1741.3599  0.061697842   0.06169816            8 
 2353000      0.86179   -3.7666314    1733.0349  0.061376783  0.061686014            2 
 2354000   0.86749883   -3.7642656    1739.8793  0.061593009  0.061673841            2 
 2355000   0.87328144   -3.7465723    1744.3667  0.061725643  0.061661864            4 
 2356000   0.87684632   -3.7612796     1750.807  0.061927241  0.061649965            4 
 2357000   0.88093797   -3.7549807    1741.6973   0.06157889  0.061637869            2 
 2358000   0.85363425   -3.7328062    1745.8697  0.061700228   0.06162584            3 
 2359000   0.88847149    -3.765017    1739.7901  0.061459308  0.061613564            3 
 2360000   0.87958876   -3.7663753    1742.4549  0.061527363  0.061601296            2 
 2361000   0.84996207   -3.7340462    1748.8133  0.061725729  0.061589059            4 
 2362000   0.89250607   -3.7423329    1745.4395  0.061580564   0.06157685            3 
 2363000    0.8686513   -3.7548153    1744.7875   0.06153151   0.06156444            3 
 2364000   0.85380349    -3.738339    1743.8896  0.061473831  0.061552093            3 
 2365000   0.86594746   -3.7505631    1746.2571  0.061531259  0.061539699            3 
 2366000    0.8882843   -3.7816183    1746.2188  0.061503902  0.061527406            3 
 2367000   0.89719997   -3.7549555    1749.6849  0.061599948  0.061514973            2 
 2368000   0.86810778   -3.7642161    1743.9081  0.061370641  0.061502628            2 
 2369000   0.86004484      -3.7532    1744.1595  0.061353576  0.061490475            3 
 2370000    0.8747833   -3.7887396    1748.0794  0.061465519  0.061478006            3 
 2371000   0.87455855   -3.7708315    1744.8475  0.061326005  0.061465705            8 
 2372000   0.86513838   -3.7239101    1745.2674  0.061314904  0.061453395            5 
 2373000   0.86453346   -3.7497096    1756.9939  0.061700868  0.061441318            2 
 2374000   0.88173633    -3.773756     1745.662  0.061277099  0.061429049            3 
 2375000   0.86811154   -3.7532581    1748.8617  0.061363568  0.061416633            5 
 2376000   0.85301494   -3.7579422    1747.4882  0.061289571  0.061404233            8 
 2377000   0.87981424   -3.7595356    1745.1496  0.061181799   0.06139179            4 
 2378000   0.84599665   -3.7583854    1747.5847  0.061241405  0.061379477            4 
 2379000   0.88353478   -3.7586091    1747.7084  0.061219994  0.061367081            5 
 2380000   0.86835056     -3.76144    1752.0909  0.061347721  0.061354776            3 
 2381000   0.86306027   -3.7838081    1749.4161   0.06122834   0.06134243            3 
 2382000   0.86117511   -3.7560387    1754.3982  0.061376933  0.061330093            2 
 2383000   0.89192284   -3.7661915    1749.7336  0.061188053  0.061317778            4 
 2384000   0.87361499   -3.7385295     1754.819  0.061340148  0.061305445            4 
 2385000   0.87076093   -3.7622206    1752.2868  0.061225954  0.061293044            2 
 2386000    0.8595713   -3.7385922    1749.1511  0.061090777  0.061280631            4 
 2387000   0.87888691   -3.7591007     1756.424  0.061319088  0.061268183            2 
 2388000   0.87315774   -3.7274989    1753.8153  0.061202376  0.061255667            3 
 2389000   0.87680435   -3.7705794    1750.8914  0.061074766  0.061243301            7 
 2390000   0.86670608     -3.74999    1758.5924  0.061317725  0.061230947            4 
 2391000   0.87129969   -3.7588707    1759.9302  0.061338706  0.061218638            3 
 2392000   0.85589273   -3.7518533    1758.1428  0.061250793  0.061206261            2 
 2393000   0.88377416   -3.7667042    1751.4268  0.060991321  0.061193834            4 
 2394000   0.85535552   -3.7296001    1759.3179  0.061240529  0.061181411            4 
 2395000   0.86636419   -3.7752776    1749.9826   0.06089014   0.06116897            6 
 2396000   0.86999314   -3.7501132    1755.7953  0.061066892   0.06115639            2 
 2397000   0.89966627     -3.74971    1753.4914  0.060961321  0.061143806            5 
 2398000   0.86044335   -3.7416825    1759.8923  0.061158335  0.061131072            2 
 2399000   0.85888838   -3.7568257    1755.0842  0.060965825  0.061118246            4 
 2400000   0.87589964   -3.7688171     1753.857  0.060897812  0.061105668            2 
 2401000   0.86037912   -3.7504934    1759.4449  0.061066391  0.061093322            4 
 2402000   0.84394356   -3.7709754    1752.1275  0.060787103  0.061080899            3 
 2403000   0.89143084   -3.7601245    1754.9393  0.060859317  0.061068303            3 
 2404000    0.8723703   -3.7386514    1755.5956  0.060856754  0.061055802            3 
 2405000    0.8876988   -3.7404193     1762.175  0.061059423  0.061043252            3 
 2406000    0.8572918   -3.7858206    1755.5055  0.060803045  0.061030675            4 
 2407000   0.86842959   -3.7569845    1756.4826  0.060811612  0.061018059            2 
 2408000   0.87781009   -3.7651367    1759.6248  0.060895101  0.061005727            7 
 2409000   0.86205636   -3.7514124     1759.323  0.060859381  0.060993277            5 
 2410000   0.88230903   -3.7853955    1761.3967  0.060905833  0.060980926            5 
 2411000   0.88861915   -3.7399969    1772.5831  0.061267216  0.060968614            6 
 2412000   0.87294698   -3.7610486    1765.2041  0.060986874  0.060956551            4 
 2413000   0.87873309   -3.7613184    1763.5379  0.060904057  0.060944269            3 
 2414000   0.87255026   -3.7492961    1758.0954  0.060690948  0.060931782            2 
 2415000   0.86317656   -3.7748519    1768.8173  0.061035794  0.060919515            7 
 2416000    0.8685605   -3.7624061    1768.9355  0.061014607  0.060907072            6 
 2417000   0.87594818   -3.7526864    1768.5879  0.060977378  0.060894676            4 
 2418000   0.85174079   -3.7683454    1761.9202  0.060722368  0.060882216            2 
 2419000   0.85306364   -3.7658092    1764.7853  0.060795965  0.060869609            4 
 2420000   0.87522805    -3.761748    1765.2054  0.060785311  0.060857144            4 
 2421000   0.86421775   -3.7895928    1765.9929  0.060787309  0.060844658            5 
 2422000   0.88512089    -3.760341    1763.2497  0.060667828  0.060832049            3 
 2423000    0.8646071   -3.7597986    1762.1263   0.06060415  0.060819777            4 
 2424000   0.85060237   -3.7791874    1764.6663  0.060666472  0.060807255            5 
 2425000   0.86091335   -3.7509741    1758.2145  0.060419744  0.060794772            3 
 2426000   0.86709689   -3.7582605    1763.8323  0.060587808  0.060782211            4 
 2427000   0.87271776   -3.7705988    1763.8903  0.060564835  0.060769646            5 
 2428000   0.88396253   -3.7550126     1762.189    0.0604815  0.060756982            2 
 2429000   0.87365878    -3.777065    1768.3866  0.060669225  0.060744377            3 
 2430000   0.85916568   -3.7684419    1769.6368  0.060687132  0.060731904            3 
 2431000   0.88996049   -3.7659641    1764.5683  0.060488424  0.060719325            6 
 2432000   0.86197944   -3.7550133    1764.2912  0.060454056  0.060706917            2 
 2433000   0.85143656   -3.7750965     1762.636  0.060372518  0.060694241            3 
 2434000   0.85874107   -3.7685176    1766.6018   0.06048349   0.06068152            5 
 2435000   0.85977025   -3.7786181    1766.0753  0.060440632   0.06066894            3 
 2436000   0.84714055    -3.774478     1767.018   0.06044807  0.060656296            4 
 2437000    0.8338235   -3.7696211     1767.861  0.060452094  0.060643519            4 
 2438000   0.85801678   -3.8045644    1769.6013  0.060486782  0.060630823            2 
 2439000    0.8589743   -3.7770848    1774.1537  0.060617524  0.060618342            5 
 2440000   0.83347189   -3.7776093    1767.6104  0.060369209   0.06060583            6 
 2441000   0.84924314      -3.7743    1769.0382  0.060393219  0.060593079            7 
 2442000   0.85561923   -3.7733271    1765.3081  0.060241199  0.060580652            4 
 2443000   0.87956153   -3.7652715    1773.5895  0.060499027  0.060568138            7 
 2444000   0.86585353   -3.7712723    1771.5747  0.060405575   0.06055554            5 
 2445000   0.85912042   -3.7642024    1780.7048  0.060692053  0.060543121            2 
 2446000   0.86370455   -3.7675301    1774.8012  0.060466109  0.060530672            2 
 2447000   0.85446284   -3.7720239    1772.8691    0.0603756  0.060518171            5 
 2448000   0.86897967   -3.7744469    1777.9658  0.060524434  0.060505914            4 
 2449000   0.84408593   -3.7679327    1773.7108  0.060354935  0.060493533            4 
 2450000   0.85112661   -3.7840454    1778.2122  0.060483408  0.060481195            3 
 2451000   0.85259271   -3.7657729    1783.4744  0.060637645  0.060469063            3 
 2452000   0.86817262   -3.7869363    1773.2415   0.06026514  0.060456725            4 
 2453000   0.85429308   -3.7647364    1780.1492  0.060475241  0.060444474            2 
 2454000   0.85369493   -3.7678163    1780.5723  0.060464964  0.060432069            5 
 2455000   0.86762108   -3.7570544    1781.1485  0.060459894  0.060419875            4 
 2456000   0.86037613   -3.7627621    1786.5764  0.060619448  0.060407641            1 
 2457000   0.89137823    -3.759188    1780.8468  0.060400447  0.060395277            3 
 2458000   0.85781775   -3.7830846     1784.006  0.060482979  0.060383004            6 
 2459000   0.86698909   -3.7576682    1788.0638    0.0605959  0.060370677            2 
 2460000   0.85108666   -3.7930988    1773.5144  0.060078403  0.060358356            3 
 2461000   0.86653017   -3.7871446     1773.365   0.06004893  0.060346012            2 
 2462000    0.8565259    -3.727642    1787.7671  0.060512019  0.060333813            4 
 2463000   0.87384212   -3.7596808    1777.4617  0.060138777  0.060321567            4 
 2464000   0.86441153   -3.7899485    1782.2445  0.060276126  0.060309294            4 
 2465000   0.84891623   -3.8010973    1784.2347  0.060318955  0.060297045            3 
 2466000   0.85094248   -3.7504147    1784.0237  0.060287365  0.060284903            2 
 2467000   0.84829771   -3.7864279    1781.8754  0.060190359   0.06027264            3 
 2468000   0.84693027   -3.7774219    1784.0906  0.060240767  0.060260297            2 
 2469000   0.82755207   -3.7839238    1785.9922  0.060280553  0.060247884            4 
 2470000   0.86519256   -3.7675193    1789.7562  0.060383138   0.06023562            5 
 2471000    0.8545894   -3.7783017    1782.8562  0.060126002   0.06022333            3 
 2472000   0.86320234   -3.7877218    1785.7054  0.060197727  0.060210887            5 
 2473000   0.86135375   -3.7495512    1787.8724  0.060246407  0.060198696            6 
 2474000   0.87549172   -3.7659305    1788.2275  0.060234017  0.060186443            4 
 2475000   0.87090421   -3.7591995    1788.7415  0.060226988  0.060174162            5 
 2476000   0.85970054   -3.7887848    1786.0456  0.060111928  0.060162054            4 
 2477000   0.86806881    -3.766722    1794.1066  0.060358854  0.060149773            4 
 2478000   0.85917015   -3.7622045    1794.3351  0.060342182  0.060137583            5 
 2479000   0.85877177   -3.7933125    1784.9422   0.06000209   0.06012542            9 
 2480000   0.86952386   -3.8180638    1784.0446  0.059947735   0.06011325            9 
 2481000   0.85801089   -3.7789848    1786.6681  0.060011691  0.060100946            4 
 2482000   0.86051042   -3.7813732    1790.6175  0.060120114  0.060088757            5 
 2483000   0.84946184   -3.8032113    1793.3672  0.060188188  0.060076465            7 
 2484000   0.84662507   -3.7880004    1788.9073  0.060014335  0.060064175            4 
 2485000   0.86885422   -3.7874892    1786.8224  0.059920267  0.060051967            2 
 2486000   0.85956221   -3.8114889    1787.9556   0.05993415  0.060039503            4 
 2487000   0.85561262   -3.7818722    1788.9461  0.059943242  0.060027013            3 
 2488000   0.85985895   -3.8122262    1788.6126  0.059907978  0.060014828            3 
 2489000   0.84097698   -3.7737899     1798.748  0.060223248  0.060002712            6 
 2490000   0.84023132   -3.7928173    1797.3741  0.060153081  0.059990489            3 
 2491000   0.84911023   -3.7561241    1799.1978  0.060189943  0.059978242            5 
 2492000   0.86571123    -3.805857    1791.6363  0.059912931  0.059965931            4 
 2493000   0.84893811   -3.7847064    1796.5187  0.060052103  0.059953765            4 
 2494000   0.83056517   -3.7634292    1802.0049  0.060211338  0.059941798            5 
 2495000   0.85098718   -3.7783603    1795.1524  0.059958331   0.05992969            4 
 2496000   0.86936245   -3.8018262    1792.9817  0.059861836  0.059917573            4 
 2497000   0.86973353   -3.7869157    1800.4444  0.060086917  0.059905429            6 
 2498000   0.86191569   -3.8085604    1795.6637  0.059903379  0.059893398            2 
 2499000   0.85470384   -3.7763153    1800.4265  0.060038231  0.059881438            5 
 2500000   0.86963729   -3.7964672    1800.9801   0.06003267  0.059869424            4 
 2501000   0.85280174   -3.7670703    1797.8622  0.059904777  0.059857541            3 
 2502000   0.87294362   -3.8002739    1798.4626  0.059900834  0.059845529            4 
 2503000   0.86371319   -3.7816162    1800.9568  0.059959942  0.059833743            5 
 2504000   0.82620021   -3.7998291    1800.3216  0.059914857  0.059821898            7 
 2505000    0.8485968    -3.807892     1807.707  0.060136628  0.059809974            3 
 2506000   0.86910816   -3.7673917    1801.7816   0.05991559  0.059798183            5 
 2507000   0.86986951   -3.7663165    1806.9657  0.060064011  0.059786396            4 
 2508000    0.8705246   -3.7387283     1808.299  0.060084363  0.059774745            2 
 2509000   0.84995035   -3.7648079    1809.7398  0.060108271  0.059762927            2 
 2510000   0.84579579   -3.7843937    1804.5099  0.059910689  0.059751073            3 
 2511000   0.87644756   -3.7830373    1807.3257  0.059980275  0.059739256            4 
 2512000   0.84754127   -3.7706505    1810.7273  0.060069244  0.059727527            3 
 2513000   0.85579527   -3.8009601    1807.8658   0.05995045  0.059715832            2 
 2514000   0.84675665   -3.7621553    1809.5891  0.059983728  0.059704063            4 
 2515000    0.8496702   -3.7729691    1813.5666  0.060091671  0.059692393            3 
 2516000   0.86896094   -3.7879459    1804.5948  0.059770627  0.059680529            2 
 2517000   0.85135568   -3.7822926    1813.7593  0.060050301  0.059668735            3 
 2518000   0.83394714   -3.8092842    1806.8176  0.059796716   0.05965687            9 
 2519000   0.86551875   -3.8029699    1810.0971  0.059881471  0.059645045            3 
 2520000   0.86592296   -3.7816395    1814.7116  0.060010303    0.0596333            8 
 2521000   0.85540748   -3.7792008    1810.8139  0.059857658  0.059621526            7 
 2522000   0.85537347   -3.7874058    1812.4882  0.059889249  0.059609738            2 
 2523000   0.85076442   -3.7966442     1814.788   0.05994147  0.059598024            5 
 2524000   0.84931415   -3.7942634     1816.315  0.059968139  0.059586355            4 
 2525000   0.84978149    -3.791019    1810.7812  0.059761757  0.059574672            4 
 2526000   0.83872516   -3.7624976    1814.8785  0.059873269  0.059562953            2 
 2527000     0.838463   -3.7854204    1816.7039  0.059909771  0.059551185            4 
 2528000   0.84903975   -3.7845971    1816.4886  0.059878975  0.059539414            4 
 2529000   0.83453899   -3.7759758    1816.0253  0.059840031  0.059527619            4 
 2530000   0.86118771   -3.7608184    1816.6719  0.059837679  0.059515865            4 
 2531000   0.83844199   -3.7778393    1813.8742  0.059721923  0.059504213            3 
 2532000   0.84478693   -3.7956245     1811.886  0.059632898  0.059492647            2 
 2533000    0.8512262   -3.7822326    1817.0337  0.059778712   0.05948091            5 
 2534000   0.83795453   -3.7688019    1821.3344  0.059896554  0.059469263            4 
 2535000   0.85814731    -3.773491    1820.7685  0.059854324  0.059457708            7 
 2536000   0.83868115   -3.7896655    1810.5221  0.059494024  0.059446081            3 
 2537000   0.84460208   -3.8050236    1814.9097  0.059614693  0.059434416            4 
 2538000   0.86801514   -3.7755915    1820.3688   0.05977045  0.059422816            5 
 2539000   0.85967337   -3.8154245    1815.3268  0.059581423  0.059411219            4 
 2540000   0.84436213   -3.7699771     1825.297  0.059885071  0.059399602            2 
 2541000   0.83517512   -3.7929953    1818.8485  0.059650023  0.059387943            4 
 2542000    0.8500133   -3.7988414    1823.4513  0.059777448  0.059376154            4 
 2543000   0.84179492   -3.7899762    1818.1094  0.059578889  0.059364509            5 
 2544000   0.84374429   -3.8007886    1819.9684  0.059616365  0.059352971            4 
 2545000    0.8455407   -3.7819797    1818.5174  0.059545428  0.059341294            3 
 2546000   0.82996519   -3.8096355    1819.9893  0.059570219  0.059329766            9 
 2547000   0.83827117   -3.7830116    1826.6671  0.059765317   0.05931844            1 
 2548000   0.84028592   -3.8282688    1817.9129  0.059455551  0.059307027            5 
 2549000   0.84081723    -3.791564    1826.0862   0.05969943  0.059295779            4 
 2550000   0.83754971   -3.8126207     1826.574  0.059691961  0.059284305            6 
 2551000   0.84460051   -3.7735795    1829.6173  0.059767976  0.059273059            6 
 2552000   0.82915424   -3.7851923    1829.8558  0.059752344  0.059261891            3 
 2553000   0.84497418   -3.8054884    1824.3309  0.059548599  0.059250521            6 
 2554000   0.82588932   -3.8045281    1822.3235  0.059459785  0.059239022            5 
 2555000   0.82670041   -3.7993697     1828.482  0.059637378  0.059227685            5 
 2556000   0.85245137   -3.8103449    1824.2719  0.059476783  0.059216231            5 
 2557000   0.82361018   -3.7937079    1827.1436  0.059547113  0.059204793            7 
 2558000   0.84421682   -3.8002396    1827.0412  0.059520497  0.059193184            4 
 2559000   0.84111641   -3.8034118     1822.564  0.059351439  0.059181573            4 
 2560000   0.85638005   -3.8282462     1822.283  0.059319108  0.059169974            3 
 2561000   0.85198255   -3.7661698    1838.1982  0.059813816  0.059158519            6 
 2562000   0.83760378   -3.8275086    1825.4224  0.059374916  0.059147073            5 
 2563000   0.82628618   -3.8089844    1820.9514   0.05920638  0.059135684            6 
 2564000   0.83487073   -3.7979791    1830.3197   0.05948777  0.059124233            7 
 2565000   0.83502249   -3.8023601    1831.0172   0.05948724  0.059112818            4 
 2566000   0.82198429   -3.7866533    1826.3043     0.059311  0.059101341            6 
 2567000    0.8417055   -3.8039055    1833.7224   0.05952871  0.059089816            6 
 2568000   0.83764016    -3.796418    1834.1931  0.059520804   0.05907825            5 
 2569000   0.84112671   -3.8010399    1832.7102  0.059449533  0.059066637            6 
 2570000   0.82098732   -3.7846079    1830.0853  0.059341288   0.05905519            9 
 2571000   0.84761694   -3.7865945    1826.7057  0.059208663  0.059043707            3 
 2572000   0.84257063   -3.8021017    1831.7667  0.059349622  0.059032008            3 
 2573000   0.85616103   -3.8089956    1827.1384  0.059176657  0.059020364            3 
 2574000   0.84236288   -3.8060952    1832.6513  0.059332146  0.059008696            2 
 2575000   0.83094077   -3.8262807    1827.4168  0.059139701  0.058997072            4 
 2576000   0.83394811   -3.7906719    1832.1304   0.05926923   0.05898547            7 
 2577000   0.83938477   -3.8050134     1828.036  0.059113826  0.058973808            5 
 2578000   0.85266567   -3.7991225    1828.6937  0.059112158  0.058961894            6 
 2579000   0.86537006    -3.827349    1829.3054  0.059109004  0.058950078            5 
 2580000   0.82898636   -3.7835747    1832.6643  0.059194584  0.058938414            8 
 2581000   0.83848818   -3.8078921    1832.2663  0.059158797  0.058926536            2 
 2582000   0.82832007   -3.8080086    1834.1243  0.059195854  0.058914811            4 
 2583000   0.83784359   -3.7945607    1827.2358  0.058950696  0.058903061            6 
 2584000   0.84178233   -3.8160031    1833.0501  0.059115393  0.058891366            4 
 2585000   0.83270019   -3.7970388    1832.8735  0.059086829  0.058879516            5 
 2586000   0.83571657    -3.807018    1838.5607  0.059247252  0.058867694            4 
 2587000   0.83893889    -3.808344    1832.7913  0.059038504  0.058856018            8 
 2588000   0.84815559   -3.8196353    1834.6937  0.059076948  0.058844257            4 
 2589000   0.83640347   -3.8060427    1836.4395  0.059110322   0.05883255            4 
 2590000   0.85313932   -3.8047159    1832.4823  0.058960175  0.058820813            3 
 2591000   0.84489342   -3.8227413    1833.1736  0.058959654  0.058809082            3 
 2592000   0.83364264   -3.8350171    1835.5749  0.059014111  0.058797284            3 
 2593000   0.83910931   -3.8229141    1838.1339  0.059073593  0.058785573            5 
 2594000   0.81413335   -3.7814812    1834.5132  0.058934503  0.058773822            3 
 2595000   0.83785423   -3.8263373     1839.168   0.05906127  0.058762205            2 
 2596000   0.84193715   -3.8173519    1833.8734  0.058868562  0.058750557            8 
 2597000   0.83404854   -3.8179927    1841.7107  0.059097378  0.058739074            3 
 2598000   0.82571813   -3.8224923    1841.8452  0.059078944  0.058727533            2 
 2599000   0.82750527   -3.8108407     1842.429  0.059074933  0.058716013            5 
 2600000   0.84755074   -3.8273916    1834.0988  0.058785217  0.058704437            6 
 2601000   0.84228569   -3.8051866    1845.6122  0.059131494  0.058692948            3 
 2602000   0.82524156   -3.7951556     1843.428  0.059038815  0.058681635           10 
 2603000   0.84709026    -3.830112    1848.0827  0.059165151  0.058670173           10 
 2604000   0.83752462   -3.8056033    1840.7723  0.058908484  0.058658664            3 
 2605000   0.82958532   -3.8169939    1843.4321  0.058970958  0.058647068            4 
 2606000   0.84582213   -3.7947784    1844.1171  0.058970231  0.058635739            4 
 2607000   0.83941867   -3.8051635    1842.5377  0.058897127  0.058624455            6 
 2608000   0.83213291   -3.7929037    1849.0936  0.059084024  0.058612973            4 
 2609000   0.84136395   -3.8153727    1851.1032  0.059125564   0.05860157            2 
 2610000   0.83950551   -3.8268668    1845.7245  0.058931179  0.058590063            4 
 2611000   0.84807258   -3.8261881    1846.7182  0.058940323  0.058578573            4 
 2612000   0.83839657   -3.7995788    1846.2342  0.058902318  0.058567126            6 
 2613000   0.83810655   -3.8003705    1842.9997  0.058776619  0.058555639            4 
 2614000   0.82119176   -3.8274682    1842.3739  0.058734184  0.058543941            5 
 2615000   0.83731503   -3.8318529    1849.4479  0.058937155  0.058532382            4 
 2616000   0.82422821   -3.8058328    1849.1437  0.058904936  0.058520751            5 
 2617000    0.8287895   -3.8082589    1848.3517  0.058857206  0.058509034            2 
 2618000   0.83453619   -3.8002297    1847.0984  0.058794831  0.058497323            3 
 2619000   0.82838588   -3.8033643    1849.5505  0.058850403  0.058485682            7 
 2620000    0.8160407   -3.8323597    1846.4486   0.05872928  0.058474107            3 
 2621000   0.83066386   -3.8484582    1841.3081  0.058543434  0.058462455           12 
 2622000   0.83726221   -3.8292848     1850.531  0.058814232  0.058450868            6 
 2623000   0.82668636   -3.8220112    1848.9529  0.058741672  0.058439358            7 
 2624000   0.82627891   -3.7969737    1846.8529  0.058652594  0.058427693            3 
 2625000   0.83230436   -3.8294775    1842.0244  0.058476966  0.058416039            4 
 2626000   0.84629322   -3.8133029    1847.8935  0.058640946  0.058404391            5 
 2627000   0.85016461   -3.8205367    1850.2407  0.058693082  0.058392888            6 
 2628000   0.81082111   -3.8254307    1857.9136  0.058914054  0.058381295            4 
 2629000   0.82090345   -3.8203725     1852.452  0.058718526  0.058369734            2 
 2630000   0.82771395   -3.8239583    1845.0136  0.058460506  0.058358136            6 
 2631000   0.83252704   -3.8157565    1855.8888  0.058782743  0.058346611            4 
 2632000   0.82419168   -3.7989208    1848.6567  0.058531431  0.058334916            4 
 2633000   0.83862188   -3.8181623    1839.8034  0.058228997   0.05832323            2 
 2634000   0.85191358   -3.8139305    1844.1589  0.058344688  0.058311531            3 
 2635000   0.84378381   -3.8152553    1847.0817   0.05841498  0.058299783            2 
 2636000   0.81419077   -3.8051769    1849.6571  0.058474239  0.058287922            2 
 2637000   0.84065127   -3.8181563    1850.9994  0.058494483  0.058276249            4 
 2638000   0.83537882     -3.82597    1846.9621  0.058344772  0.058264517            2 
 2639000   0.82877938    -3.830179    1844.0026  0.058229209   0.05825266            6 
 2640000   0.83788939   -3.8214325    1851.0933  0.058430975  0.058240869            4 
 2641000   0.84177367   -3.8141468    1853.8018  0.058494313  0.058229257            4 
 2642000   0.83067427   -3.8526243    1854.0758  0.058480818   0.05821757            3 
 2643000   0.83096742   -3.8138616    1855.7084  0.058510164  0.058205965            5 
 2644000   0.82780481   -3.8347467    1850.4547   0.05832245  0.058194261            3 
 2645000   0.82544868   -3.7738195    1854.5097  0.058428157   0.05818246            2 
 2646000   0.82363178   -3.8231064    1851.8862  0.058323451  0.058170842            3 
 2647000   0.83608963   -3.8101088    1856.1164  0.058434594  0.058159076            5 
 2648000   0.83848273   -3.8129899    1857.2657  0.058448694  0.058147455            4 
 2649000   0.84110363   -3.8388373    1848.5182  0.058151449  0.058135708            6 
 2650000   0.83355231   -3.8374207    1853.0457  0.058271879   0.05812385            4 
 2651000   0.81098915   -3.8097026    1861.2968  0.058509268  0.058112008            3 
 2652000   0.82582026   -3.8226888    1855.1803  0.058295008  0.058100175            4 
 2653000   0.83586465   -3.8064646    1862.1847   0.05849305  0.058088501            3 
 2654000   0.83582323   -3.8427191    1850.5048   0.05810427  0.058076708            1 
 2655000    0.8284674   -3.8300301    1855.0286  0.058224377  0.058064884            2 
 2656000    0.8219817   -3.8123148    1856.8468  0.058259501  0.058053073            5 
 2657000   0.82940048   -3.8388222    1858.4983  0.058289371  0.058041333            4 
 2658000   0.82643857   -3.8236507    1854.0309  0.058127378  0.058029525            4 
 2659000   0.83209039   -3.8384129    1853.0932  0.058076132   0.05801768            3 
 2660000   0.83451664   -3.8158974    1853.5968  0.058070074  0.058005885            2 
 2661000   0.83748084   -3.8182266    1855.7135  0.058114542  0.057994154            4 
 2662000   0.81499197   -3.8273633    1862.3285  0.058299789   0.05798252            4 
 2663000   0.82809843   -3.8136386    1857.6657  0.058131986  0.057970646            5 
 2664000   0.82069353   -3.8369797    1860.0341  0.058184251  0.057958877            6 
 2665000   0.84672381    -3.814556    1861.1517  0.058197365  0.057947013            6 
 2666000   0.82041933   -3.8263939    1864.1305  0.058268644  0.057935296            4 
 2667000   0.81667837   -3.8119798    1865.4316  0.058287451  0.057923538            3 
 2668000   0.80787448   -3.8216518     1861.868  0.058154299  0.057911766            3 
 2669000   0.83076085   -3.8119066    1860.3958  0.058086542  0.057899997            7 
 2670000    0.8194391   -3.8435919    1860.3098  0.058062103  0.057888117            6 
 2671000   0.81939813   -3.7912512    1866.1273  0.058221867  0.057876245            3 
 2672000   0.83717053   -3.8107684    1861.6304  0.058059831   0.05786453            5 
 2673000   0.81097718   -3.8471733    1863.7512  0.058104228  0.057852639            6 
 2674000   0.83184793   -3.8458355     1862.762  0.058051669  0.057840757            4 
 2675000   0.81112445   -3.8265556    1858.4612  0.057895987  0.057828846            3 
 2676000   0.81753078   -3.8113706    1865.4652  0.058092465  0.057817021            6 
 2677000   0.82314089   -3.8278733    1862.7466  0.057986136  0.057805271            5 
 2678000   0.81471487    -3.831232    1863.4033  0.057984918  0.057793286            3 
 2679000   0.82402258   -3.8380605    1859.4555  0.057840473  0.057781384            4 
 2680000   0.82589901   -3.8172992    1859.2257  0.057811745  0.057769556            4 
 2681000   0.81261274   -3.8331826    1862.6818  0.057897607  0.057757599            5 
 2682000   0.83427836    -3.817029    1864.5566   0.05793427  0.057745595            3 
 2683000   0.81497821   -3.8270622    1864.4579  0.057909613  0.057733734            2 
 2684000   0.82125368   -3.8517008    1863.0432  0.057844112  0.057721793            3 
 2685000   0.82014336   -3.8327814      1867.93   0.05797424  0.057709807            5 
 2686000   0.81709357   -3.8582887    1862.0097  0.057768978  0.057697836            4 
 2687000   0.83882633   -3.8368101    1862.1458  0.057751698  0.057685913            3 
 2688000   0.84502445   -3.8258815    1865.7019  0.057840461  0.057673975            5 
 2689000   0.82042974   -3.8153892    1862.3193  0.057714122  0.057662084            4 
 2690000   0.80635838   -3.8187683    1867.2421  0.057845171  0.057650339            2 
 2691000   0.83091261   -3.8473805    1868.1777  0.057852648  0.057638421            6 
 2692000   0.82008042   -3.8249731    1869.1123  0.057860089  0.057626439            4 
 2693000   0.80864393   -3.8621357    1862.5939  0.057636897  0.057614515            4 
 2694000   0.82168038   -3.8398875    1864.0896  0.057661766  0.057602562            6 
 2695000   0.82781179   -3.8601576    1867.3653   0.05774166  0.057590652            6 
 2696000   0.83457556   -3.8447773    1874.1228  0.057929117  0.057578696            4 
 2697000     0.812171   -3.8386024    1873.7238  0.057895311  0.057566805            8 
 2698000   0.81586371   -3.8528188    1870.5108  0.057774612  0.057554929            6 
 2699000   0.81517027   -3.8538346    1863.8609  0.057547886  0.057542849            3 
 2700000   0.80713234   -3.8245883    1871.9352  0.057775779  0.057530953            3 
 2701000   0.81792355   -3.8182609    1866.3235   0.05758125  0.057519053            8 
 2702000   0.82119534   -3.8508897    1864.0847  0.057490892  0.057507203           10 
 2703000   0.81682748   -3.8467054    1872.0426  0.057714965  0.057495227            4 
 2704000   0.82741727   -3.8711203    1866.8951  0.057534982  0.057483233            5 
 2705000   0.83724735   -3.8459951    1865.0402  0.057456569  0.057471242            5 
 2706000   0.81663173   -3.8294261    1869.9131  0.057585398   0.05745937            7 
 2707000   0.79409807   -3.8334237     1871.035  0.057598663  0.057447514            3 
 2708000   0.82208383   -3.8432286    1871.3183  0.057586112  0.057435661            4 
 2709000   0.82533071   -3.8468812    1868.3244  0.057472759  0.057423741            2 
 2710000   0.83039715   -3.8219736    1872.3326  0.057574802  0.057411886            3 
 2711000   0.83449078   -3.8273813    1873.7666  0.057597645   0.05739989            4 
 2712000    0.8316194   -3.8340871    1875.8444  0.057640254   0.05738817            6 
 2713000   0.81934113   -3.8470106    1879.0941  0.057718827  0.057376302            2 
 2714000   0.81353698   -3.8337613    1876.1225  0.057606317  0.057364465            5 
 2715000   0.81870732   -3.8190032    1876.6275  0.057600599  0.057352601            6 
 2716000   0.82619932    -3.838317    1878.7794  0.057645417  0.057340746            4 
 2717000   0.82821197   -3.8250907    1874.6523  0.057497616  0.057328969            3 
 2718000   0.82178614   -3.8471341    1876.5688  0.057535221  0.057317125            3 
 2719000   0.80623015   -3.8735227    1871.5872  0.057361384  0.057305155            4 
 2720000   0.82312202   -3.8592657    1876.3065   0.05748488  0.057293054            4 
 2721000   0.79823523   -3.8435983    1875.7751   0.05744748  0.057281004            5 
 2722000   0.83978458   -3.8478155    1879.1211  0.057528812  0.057269053            5 
 2723000   0.81745611   -3.8238188    1876.5056  0.057427642  0.057257211            3 
 2724000   0.81443225   -3.8308336    1875.8733  0.057387214  0.057245391            6 
 2725000   0.82119575   -3.8428215    1878.0483  0.057432671  0.057233659            3 
 2726000   0.81330245   -3.8618887    1874.1815  0.057293394  0.057221821            3 
 2727000   0.81540124   -3.8263337    1877.8922  0.057385777   0.05720985           11 
 2728000   0.82473078   -3.8307066    1880.6829  0.057449991  0.057198071            5 
 2729000   0.80405422   -3.7993984    1881.7055  0.057460164  0.057186205            4 
 2730000   0.80732001   -3.8128952     1879.605  0.057374999  0.057174522            4 
 2731000   0.82131658    -3.837105    1881.2534  0.057404289  0.057162775            2 
 2732000   0.83630946   -3.8403383    1879.5838   0.05733235   0.05715094            7 
 2733000   0.83455087   -3.8402796    1876.3955  0.057214156  0.057139126           12 
 2734000    0.8355651   -3.8569381    1880.6151  0.057321846  0.057127234            7 
 2735000   0.81497574   -3.8585932    1880.8743  0.057308785  0.057115207            4 
 2736000   0.82935288   -3.8488483    1881.4997  0.057306887  0.057103363            5 
 2737000   0.80742194   -3.8385474    1881.5061  0.057286142  0.057091462            6 
 2738000   0.82579345   -3.8471213    1873.0446  0.057007688  0.057079644            9 
 2739000   0.78942185   -3.8595706    1883.5441   0.05730632  0.057067667            7 
 2740000   0.82347179   -3.8540298    1877.8689  0.057112802  0.057055726            4 
 2741000   0.80859212   -3.8355246    1883.9312  0.057276272  0.057043755            4 
 2742000    0.7977168   -3.8449427    1878.5631   0.05709224  0.057031774            4 
 2743000   0.82841035   -3.8383801    1889.2331  0.057395586  0.057019891            4 
 2744000   0.82965237   -3.8690674    1876.2078  0.056979101  0.057008061            4 
 2745000   0.81551111   -3.8543513    1879.7322  0.057065338  0.056996181            3 
 2746000   0.83184889   -3.8487138    1886.3918  0.057246655   0.05698426            7 
 2747000   0.80969159   -3.8470357    1875.8598  0.056906315  0.056972264            6 
 2748000   0.79689196   -3.8632566    1883.7657  0.057125353  0.056960092            6 
 2749000   0.80136133   -3.8438732    1889.1064  0.057266472  0.056948127            3 
 2750000   0.82167315    -3.879094    1882.4587  0.057044203  0.056935989            4 
 2751000    0.7960281   -3.8579308      1879.82  0.056943534  0.056923902            4 
 2752000   0.82258524   -3.8330135     1890.688  0.057251939  0.056912127            5 
 2753000   0.81883354   -3.8558997    1884.6366  0.057047966  0.056900169            6 
 2754000   0.80781035   -3.8382346    1879.8955  0.056883789  0.056888365            3 
 2755000   0.80627474   -3.8434936    1881.1597  0.056901383  0.056876402            3 
 2756000   0.81145582   -3.8536014    1888.3747  0.057098895  0.056864441            2 
 2757000   0.80139752   -3.8374089    1883.6473  0.056935294  0.056852386            4 
 2758000   0.79981014   -3.8334478    1888.0367  0.057047276  0.056840458            3 
 2759000   0.81877867   -3.8357036    1884.9802   0.05693428  0.056828611            3 
 2760000   0.79148757   -3.8514321    1881.6909   0.05681434   0.05681669            5 
 2761000   0.83318263    -3.828302     1885.271  0.056901817  0.056804788            4 
 2762000   0.80919516   -3.8340207    1888.5744  0.056980884  0.056792942            4 
 2763000   0.79618441   -3.8412681    1886.4316  0.056895632  0.056781142            5 
 2764000   0.78225013   -3.8630242    1890.9796  0.057012168  0.056769306            4 
 2765000   0.80174414   -3.8413853    1887.7083  0.056892956   0.05675733            4 
 2766000   0.82256578   -3.8379637    1890.5985  0.056959463  0.056745487            6 
 2767000    0.8088304   -3.8529177    1885.8289  0.056795234  0.056733631            4 
 2768000   0.81385423   -3.8647874    1890.8959  0.056927261  0.056721747            3 
 2769000    0.7880641   -3.8658021    1876.9657  0.056487472  0.056709935            7 
 2770000   0.79629108   -3.8585498    1886.3324  0.056748869  0.056697963            3 
 2771000   0.82476453   -3.8493121    1889.3451   0.05681899  0.056686136            6 
 2772000   0.80855726   -3.8422592     1885.338   0.05667803  0.056674242            5 
 2773000   0.81676855   -3.8532431    1894.9021  0.056945007  0.056662528            3 
 2774000   0.81550447    -3.850095    1885.0666  0.056629015  0.056650681            4 
 2775000   0.80566443   -3.8396976    1890.8845  0.056783318  0.056638894            9 
 2776000   0.81559049   -3.8550017     1888.448  0.056689721  0.056627072            4 
 2777000   0.82225505   -3.8864585    1886.3981  0.056607794  0.056615125            4 
 2778000   0.79917456    -3.867201    1894.1053  0.056818612  0.056603225            9 
 2779000   0.81094343   -3.8560408    1891.2329  0.056712034  0.056591283           10 
 2780000   0.79645087    -3.850239    1897.0383  0.056865657  0.056579449            7 
 2781000   0.80020217   -3.8491369    1889.3187  0.056613889  0.056567588           11 
 2782000   0.80837843     -3.86742    1888.4956  0.056568884  0.056555613            5 
 2783000   0.81028857   -3.8556325    1888.6045  0.056551817  0.056543602            5 
 2784000   0.80419974   -3.8344579    1896.1664  0.056757856  0.056531675            4 
 2785000   0.79217807   -3.8445792    1890.8651  0.056578849  0.056519805           11 
 2786000   0.79581325   -3.8816922    1893.7544  0.056644962  0.056507978            4 
 2787000   0.79293415   -3.8655605    1896.6412  0.056710955  0.056495997            5 
 2788000   0.81041368   -3.8590192    1898.5794  0.056748547  0.056484026            4 
 2789000   0.82383422   -3.8714968    1889.7792  0.056465257  0.056471961           11 
 2790000   0.80882913   -3.8693146    1893.8285  0.056565965  0.056459825            4 
 2791000    0.8316963   -3.8786502    1891.9895  0.056490787  0.056447876            5 
 2792000   0.80528849   -3.8663634    1898.5938  0.056667675  0.056436004            3 
 2793000   0.78689946   -3.8546579    1891.4429  0.056434029   0.05642396            3 
 2794000   0.80701359   -3.8602047    1895.2719  0.056528034  0.056412058            4 
 2795000   0.81634564   -3.8835926    1896.7452  0.056551736    0.0564002            3 
 2796000   0.81264097   -3.8579324    1895.5054  0.056494559  0.056388229            3 
 2797000   0.80577229   -3.8630102    1899.1875  0.056584062  0.056376247            4 
 2798000   0.79687863   -3.8519656    1901.0958  0.056620675  0.056364399            5 
 2799000   0.81082034   -3.8538787    1896.9401  0.056476721  0.056352563            2 
 2800000      0.80231   -3.8870657    1897.4345  0.056471264  0.056340703            4 
 2801000   0.80458268   -3.8611009    1898.3639  0.056478754  0.056328725            3 
 2802000   0.80012623    -3.825677    1900.5416  0.056523365   0.05631672            8 
 2803000   0.81366415   -3.8657414     1899.046  0.056458734   0.05630488            3 
 2804000    0.8139015   -3.8473351    1897.8711  0.056403682  0.056292837            6 
 2805000   0.79765801   -3.8541575    1895.2604  0.056306012  0.056280879            5 
 2806000   0.80211262   -3.8612559     1887.842  0.056065633  0.056269015            2 
 2807000   0.80280328   -3.8676405    1901.3296  0.056446075  0.056256932            4 
 2808000   0.79905071   -3.8482756    1904.8949  0.056531781  0.056245017            5 
 2809000   0.77826151   -3.8560537    1898.3417  0.056317244  0.056233012            4 
 2810000   0.79419933   -3.8573459    1899.5518   0.05633309  0.056220986            5 
 2811000   0.80519642   -3.8672558    1902.7074  0.056406599   0.05620898            5 
 2812000   0.78989773    -3.871819    1903.0557  0.056396862  0.056197044            4 
 2813000    0.7925947   -3.8598058    1902.9589  0.056373945   0.05618511            6 
 2814000   0.80761186   -3.8707685     1899.742  0.056258648  0.056173112            5 
 2815000   0.80113195   -3.8406921     1907.004  0.056453642   0.05616114            4 
 2816000   0.81142111    -3.873676    1900.7947  0.056249844  0.056149361            4 
 2817000   0.81922101   -3.8837275    1906.5355  0.056399703  0.056137359            4 
 2818000   0.80878242   -3.8681081    1898.3136   0.05613655  0.056125357            3 
 2819000   0.81017241   -3.8930185    1892.3876  0.055941456  0.056113296            4 
 2820000   0.80337295   -3.8827116    1900.8911  0.056172906  0.056101177            4 
 2821000    0.7996039   -3.8644515    1908.4526  0.056376362  0.056089213            4 
 2822000   0.79118834   -3.8407461    1902.8977  0.056192347  0.056077456            3 
 2823000   0.81132389   -3.8804507    1903.9292  0.056202893  0.056065697            6 
 2824000   0.80364295   -3.8747626    1901.8498  0.056121631  0.056053902            5 
 2825000   0.81233403    -3.870413     1906.871  0.056249881  0.056041986           10 
 2826000   0.79854051   -3.8592917    1903.8122  0.056139781  0.056030108            3 
 2827000   0.81659172   -3.8648917    1899.1209  0.055981633  0.056018258            9 
 2828000   0.80627745   -3.8515039    1909.5933  0.056270431  0.056006436            4 
 2829000   0.80080158   -3.8810521    1903.8367  0.056080968  0.055994535            5 
 2830000   0.80282403   -3.8700219    1905.6573  0.056114762  0.055982674            3 
 2831000   0.79595698   -3.8600091    1903.6957  0.056037198  0.055970934            9 
 2832000    0.7866886   -3.8369215    1908.3768  0.056155157  0.055959143            4 
 2833000   0.79852546   -3.8812349    1900.4829  0.055903133  0.055947386            5 
 2834000   0.81044379   -3.8789592    1910.4251  0.056175755  0.055935518            5 
 2835000   0.80684711    -3.868917     1904.067  0.055969048  0.055923639            7 
 2836000    0.7903109   -3.8746604    1907.0952  0.056038292  0.055911744            9 
 2837000   0.80355819     -3.87126    1913.1534  0.056196492  0.055899789            6 
 2838000   0.79565224   -3.8955381    1909.9094  0.056081436  0.055888013            5 
 2839000   0.79548363   -3.8784286    1907.3393  0.055986242  0.055876175            6 
 2840000    0.7953703    -3.866175    1912.4057  0.056115192   0.05586427            2 
 2841000   0.80479811   -3.8620179    1909.7559  0.056017715  0.055852283            7 
 2842000   0.79747322    -3.872683    1907.3668  0.055927951  0.055840226            4 
 2843000   0.80065091    -3.889566    1906.1768  0.055873398  0.055828188            5 
 2844000    0.7955643   -3.8588443    1913.9084  0.056080297  0.055816183            5 
 2845000   0.80365807   -3.8784171    1912.9015  0.056031093  0.055804302            5 
 2846000    0.7971337   -3.8932869    1913.3213  0.056023696  0.055792511            5 
 2847000   0.80216708   -3.8745712    1912.9883  0.055994273  0.055780683            8 
 2848000    0.8155903   -3.8610753    1908.5829  0.055845708  0.055768805            7 
 2849000   0.78820105   -3.8824266    1913.5353  0.055970963  0.055757139            4 
 2850000   0.79840263   -3.8662099    1917.6494  0.056071618  0.055745293            3 
 2851000    0.7974059   -3.8750718    1912.6903     0.055907  0.055733496            3 
 2852000   0.79018203   -3.8860528    1911.2873  0.055846403  0.055721587            7 
 2853000    0.8018562    -3.877438    1906.9095  0.055698958  0.055709681            4 
 2854000   0.78912893   -3.8717561    1905.2251  0.055630258  0.055697851            4 
 2855000   0.81756147   -3.8511978     1910.898  0.055776358  0.055686014            4 
 2856000   0.79599697   -3.8535007    1914.4341  0.055860005   0.05567429           12 
 2857000   0.78951674   -3.8653597    1913.2271  0.055805248   0.05566243            4 
 2858000   0.79208059   -3.8951784    1911.7328  0.055742152  0.055650698            7 
 2859000   0.79205458    -3.881365    1912.7088  0.055751101  0.055639038            2 
 2860000   0.78807118   -3.8744683    1917.8352  0.055880978  0.055627306            5 
 2861000   0.78535985   -3.8432098    1916.5073  0.055822768  0.055615577            2 
 2862000   0.78648632   -3.8926255    1913.5105  0.055716005  0.055603696            4 
 2863000   0.81645662   -3.8697794    1918.7723  0.055849701  0.055591979            5 
 2864000   0.77344073   -3.8418663    1918.4136  0.055819763  0.055580357            7 
 2865000   0.78031457   -3.8829686    1912.9486   0.05564132  0.055568766            4 
 2866000   0.77670345   -3.9012956    1915.0082  0.055681793  0.055556984            7 
 2867000   0.79696337   -3.8727883    1918.6086  0.055767022  0.055545347            4 
 2868000   0.79365297   -3.8856006    1919.5791  0.055775776  0.055533825            5 
 2869000   0.79211053    -3.895581    1914.4022  0.055605966  0.055522194            7 
 2870000   0.77387122   -3.8631281    1924.7143  0.055886014  0.055510597            5 
 2871000   0.77074706   -3.8706027    1923.3237  0.055826184  0.055498919            4 
 2872000   0.81531749   -3.8941198    1925.5111  0.055870215  0.055487279            4 
 2873000   0.77687828   -3.8852658    1918.8251  0.055656837  0.055475518            6 
 2874000   0.78641028   -3.8809984    1918.8145  0.055637163  0.055463921            4 
 2875000   0.78481923   -3.8998078    1922.5919  0.055727302  0.055452319            4 
 2876000   0.80245966   -3.8836921    1926.7826  0.055829353  0.055440731            7 
 2877000   0.81108058   -3.8839712    1921.7153  0.055663171  0.055429163            4 
 2878000   0.77575057   -3.9070799    1920.9128  0.055620592  0.055417612            9 
 2879000   0.77129528   -3.8903977    1921.5755  0.055620455  0.055405911            3 
 2880000   0.79505119   -3.8751977    1925.3978  0.055711741  0.055394373            3 
 2881000   0.77918843   -3.8884317    1922.1448   0.05559831  0.055382962            4 
 2882000   0.78876243   -3.8909075    1927.6274  0.055737549  0.055371518            4 
 2883000   0.77649543   -3.8681799    1923.0428  0.055585697  0.055360008           11 
 2884000   0.77767945   -3.8631683    1927.7808  0.055703329  0.055348559            4 
 2885000   0.77854934   -3.9022019    1926.5895   0.05564961  0.055337092            7 
 2886000   0.78633836   -3.8801467     1928.227   0.05567761  0.055325635            4 
 2887000   0.80534578   -3.9100754    1924.0376  0.055537396   0.05531426            4 
 2888000   0.79705424   -3.8973201     1933.611  0.055794408  0.055302811            3 
 2889000   0.80458372   -3.8752176    1938.5811  0.055918458  0.055291425            2 
 2890000   0.79735599   -3.8848232    1927.8576  0.055589896  0.055280107            8 
 2891000   0.78805322   -3.8924737    1928.9909  0.055603335  0.055268873            3 
 2892000   0.77264516   -3.8863948    1922.4428  0.055395423  0.055257552            6 
 2893000   0.78196886    -3.894274    1936.2526   0.05577407  0.055246244            2 
 2894000   0.79296494   -3.9008774    1931.7902    0.0556263  0.055234982            3 
 2895000   0.78711391   -3.8793005    1935.2677  0.055707186  0.055223605            7 
 2896000   0.79340353   -3.8741528     1926.778  0.055443658  0.055212251            7 
 2897000   0.78533771   -3.8994253    1936.0501  0.055691235  0.055200934            8 
 2898000   0.77927088   -3.9061067    1934.0369  0.055614126  0.055189431            3 
 2899000   0.78228636   -3.8902791    1931.2382  0.055514493  0.055177944            3 
 2900000   0.80278644   -3.8974794    1924.2071  0.055293306  0.055166473            4 
 2901000   0.79439263   -3.8950382    1930.4452   0.05545344  0.055154934            4 
 2902000    0.7872383   -3.8705532    1940.5454  0.055724369  0.055143542            7 
 2903000   0.77480319   -3.8711498    1931.4699  0.055444653  0.055132012            4 
 2904000   0.79112939   -3.9039929    1934.4987  0.055512475  0.055120515            8 
 2905000   0.80106746   -3.8864345    1934.6577  0.055497926  0.055109109            2 
 2906000   0.77587467   -3.8882398    1929.0752  0.055318741   0.05509759            6 
 2907000   0.78162876   -3.8572903    1934.5818  0.055457567  0.055086046            3 
 2908000   0.78275589   -3.8862777    1935.8317  0.055474316  0.055074653            3 
 2909000   0.76289122   -3.8624494    1937.8234  0.055512301  0.055063232            5 
 2910000   0.78011369   -3.8508392    1936.6411  0.055459366  0.055051765            6 
 2911000   0.78835042   -3.8740161    1935.6403  0.055411667   0.05504033            4 
 2912000   0.78638493   -3.8873708    1934.4096  0.055357419  0.055028838            5 
 2913000   0.78845621   -3.8983069    1931.7895  0.055263459  0.055017245            2 
 2914000   0.79283731   -3.9026218    1930.1365  0.055197222  0.055005543            7 
 2915000   0.77987127   -3.9136969    1932.7612   0.05525332  0.054993848            6 
 2916000   0.78529484   -3.9089777    1928.0399  0.055099449  0.054982315            6 
 2917000   0.78368849   -3.8909609    1936.6545  0.055326663   0.05497079           20 
 2918000    0.7944568   -3.8953698    1934.7362  0.055252918  0.054959257            5 
 2919000   0.78553168   -3.8957308     1935.031  0.055242405  0.054947701            3 
 2920000   0.79197133   -3.9001848    1935.3458  0.055232472  0.054936126            4 
 2921000   0.78353956    -3.881578    1935.8962  0.055229265  0.054924677            7 
 2922000   0.80125699   -3.9074748    1938.5976  0.055287405  0.054913169            3 
 2923000   0.77927371   -3.9236205    1928.2758   0.05497422   0.05490163            5 
 2924000   0.78473448   -3.8945188    1939.8947  0.055286557  0.054890083            3 
 2925000   0.78211237   -3.8823459    1936.3283  0.055166048  0.054878559            6 
 2926000   0.78450771   -3.9031512    1939.7573  0.055244855  0.054866987            8 
 2927000   0.78199187   -3.8942026    1935.8232  0.055113972  0.054855472            6 
 2928000   0.78150879   -3.8860742    1938.4502  0.055169918  0.054843828            8 
 2929000   0.80647242   -3.8861065     1936.834    0.0551051  0.054832252            6 
 2930000   0.79988303   -3.9094577    1938.2682  0.055127081  0.054820722            2 
 2931000   0.78848928   -3.8950865    1938.9669  0.055128138  0.054809198            4 
 2932000    0.7875262    -3.903508    1939.4596  0.055123341   0.05479757            2 
 2933000   0.78400476   -3.9047675    1942.4501  0.055189514  0.054786026            3 
 2934000   0.78416706   -3.9078031    1935.8791  0.054984069  0.054774568            4 
 2935000   0.75669884   -3.9176185    1946.8374  0.055276474  0.054763055            4 
 2936000    0.7694658   -3.8910242    1942.8057  0.055143213  0.054751483            5 
 2937000    0.7783585    -3.897895    1942.5729  0.055117834  0.054739934            3 
 2938000   0.78997135   -3.9018446    1945.2111  0.055173902  0.054728479            4 
 2939000   0.77531028    -3.905469    1939.9985  0.055007331  0.054716987            6 
 2940000   0.79553921   -3.9111046    1938.0592  0.054933651  0.054705528            4 
 2941000   0.76619726   -3.8772071    1944.2931   0.05509161  0.054694169           10 
 2942000   0.77814613   -3.9161597    1943.7757   0.05505823  0.054682929            3 
 2943000   0.78897891   -3.9126912    1945.3876  0.055085162  0.054671459            7 
 2944000    0.7799508   -3.8755048    1943.6004  0.055015863  0.054659953            3 
 2945000   0.77696725   -3.9322961    1941.8342  0.054947204   0.05464852            6 
 2946000   0.78574827   -3.8823275    1950.4248  0.055171556  0.054637095            7 
 2947000   0.78250173   -3.8952898    1946.2609  0.055035091  0.054625643            4 
 2948000   0.78662805   -3.9060988    1945.6613  0.054999471  0.054614274            4 
 2949000   0.78970402   -3.8934245    1941.1971  0.054854672  0.054602885           11 
 2950000   0.75505419   -3.9193683    1937.7831  0.054739635  0.054591333            5 
 2951000   0.77721291   -3.8990153    1945.6655  0.054943677  0.054579845            4 
 2952000   0.77509371   -3.8919282    1946.1202  0.054937901  0.054568372            8 
 2953000   0.78064938   -3.9211405    1947.3314  0.054953476  0.054556855            5 
 2954000   0.77826478   -3.8869399    1945.2218  0.054875362  0.054545394            7 
 2955000   0.76865901   -3.8994628    1942.2732  0.054773637  0.054533812            5 
 2956000   0.77314645   -3.8974138    1939.0811  0.054665119  0.054522329            3 
 2957000   0.78432216   -3.9087407    1945.4583  0.054826353  0.054510843            6 
 2958000   0.78599648   -3.8762827    1949.6581  0.054926136  0.054499396            4 
 2959000   0.77705968    -3.919539    1945.9714  0.054803745  0.054487883            4 
 2960000   0.77888634   -3.8861582    1947.5675  0.054830165  0.054476493            5 
 2961000   0.77791528    -3.901168    1949.6191  0.054869388  0.054465075            8 
 2962000   0.77323452   -3.9134835    1947.0572  0.054778786  0.054453528            7 
 2963000   0.78432154   -3.8955965    1954.5291  0.054970443  0.054442085            3 
 2964000   0.78505748   -3.9201707    1947.9544  0.054767048  0.054430844            5 
 2965000   0.79313094   -3.9276891    1946.2477   0.05470061  0.054419392            5 
 2966000   0.77621179   -3.9288422    1951.6389  0.054833639  0.054407924            8 
 2967000   0.78997868    -3.920285    1944.4002  0.054611846  0.054396451            4 
 2968000   0.76310089   -3.9079823    1945.2466  0.054617212  0.054384967            5 
 2969000   0.78016672    -3.911492    1948.1854    0.0546813  0.054373536            7 
 2970000   0.79002286   -3.9024569    1952.7829   0.05479189  0.054362015            9 
 2971000   0.77496439   -3.9109254    1949.0696  0.054669291  0.054350649            6 
 2972000   0.77785062   -3.9250293    1954.6471  0.054807288  0.054339281            8 
 2973000   0.76161984    -3.921925    1949.6763  0.054649521  0.054327792           12 
 2974000   0.76239967   -3.9076603    1954.4224  0.054764134  0.054316333            3 
 2975000   0.78350147    -3.904762    1954.3586  0.054743939  0.054304911            5 
 2976000   0.77148126   -3.9115516    1950.5478  0.054618835   0.05429352            4 
 2977000   0.77197545   -3.8896391    1956.0592  0.054754766  0.054282152            6 
 2978000   0.75890121   -3.8930585    1955.7384    0.0547274  0.054270883            6 
 2979000    0.8024983   -3.9349067    1946.1399  0.054440524  0.054259585            4 
 2980000   0.78981163   -3.8783906    1960.3683  0.054820142  0.054248413            7 
 2981000   0.77091485   -3.9213232    1956.9513  0.054706232  0.054237111            4 
 2982000   0.77291478   -3.9078983      1959.49  0.054758831   0.05422575            3 
 2983000   0.76114332   -3.9240402    1952.3894   0.05454211  0.054214483            3 
 2984000   0.76250756   -3.9054579    1949.3476  0.054438884  0.054203084            5 
 2985000   0.76599278   -3.9130803     1952.908  0.054520043   0.05419175            8 
 2986000   0.77945596   -3.9122789    1960.4326  0.054711783  0.054180334            4 
 2987000   0.76612978   -3.9120995    1950.3268  0.054411528  0.054168853            9 
 2988000   0.78234045   -3.9087265    1951.2307  0.054418527  0.054157413            3 
 2989000   0.76859631   -3.8932786    1958.0582  0.054590671  0.054145904            6 
 2990000   0.78010638   -3.9041153    1953.7684  0.054452853  0.054134523            4 
 2991000   0.76673502   -3.9290812    1960.8687  0.054632473   0.05412306            7 
 2992000   0.78816304    -3.914528     1956.761  0.054499806  0.054111748            5 
 2993000   0.77879382   -3.9107379    1952.5297  0.054363785  0.054100365            3 
 2994000   0.75752888   -3.9155906    1955.5902  0.054430811  0.054088995            5 
 2995000   0.75892684     -3.92629    1948.4385  0.054213648  0.054077494            6 
 2996000   0.76121314   -3.9379571    1955.1546  0.054382361  0.054066064            9 
 2997000   0.77188135   -3.9208479    1953.1511  0.054308505  0.054054553           11 
 2998000   0.77564985    -3.932784    1955.9525  0.054368258  0.054043018            3 
 2999000   0.75352118   -3.9166954    1956.1409  0.054355366  0.054031471            4 
 3000000   0.78508602   -3.9137243    1956.3494  0.054343039   0.05401996            5 
 3001000   0.76389739   -3.9319955    1960.9747  0.054453369  0.054008417            5 
 3002000   0.77339676   -3.8957526    1955.0408  0.054270507  0.053996963            3 
 3003000   0.76161134    -3.901722    1948.0395  0.054058151  0.053985537            4 
 3004000   0.77285603   -3.9052994    1964.9982  0.054510602  0.053974044            2 
 3005000   0.78236582   -3.9141711    1952.9052  0.054157104  0.053962509            3 
 3006000   0.80330812   -3.8983489    1958.4469  0.054292719  0.053950891            3 
 3007000   0.76031214   -3.8979655    1956.9299  0.054232621  0.053939491            5 
 3008000   0.76119731   -3.9167207    1958.6421  0.054262027  0.053928113            4 
 3009000   0.77540407   -3.9433685      1956.62  0.054187991  0.053916594            6 
 3010000   0.75989363   -3.9351794     1956.433  0.054164812  0.053904943            4 
 3011000   0.76380488   -3.9247971    1957.3686  0.054172717  0.053893357            5 
 3012000    0.7713633   -3.9208668    1951.5578  0.053993963  0.053881755            5 
 3013000   0.76861303   -3.9137784    1949.8352  0.053928399  0.053870225            8 
 3014000   0.77970807   -3.9333885     1962.726   0.05426692  0.053858806            6 
 3015000   0.76773271   -3.9320042    1958.9526  0.054144628  0.053847214            7 
 3016000   0.76817594   -3.8991551    1964.2847  0.054274003  0.053835691            2 
 3017000   0.74411296   -3.9136132    1962.1707  0.054197621  0.053824233            6 
 3018000   0.78231461   -3.9238079    1959.4278  0.054103926  0.053812645            8 
 3019000   0.74447523   -3.9328759    1955.3334  0.053972989  0.053801147            6 
 3020000   0.78403926   -3.9008678    1960.4406  0.054096042  0.053789589            6 
 3021000   0.77076091   -3.9282471    1953.3683  0.053883048  0.053777891            5 
 3022000   0.76732136   -3.9044302    1955.6007  0.053926779  0.053766153            2 
 3023000   0.75853611    -3.911203    1964.3996  0.054151494  0.053754548            6 
 3024000    0.7645314   -3.9583016    1959.2617  0.053992001  0.053742966            3 
 3025000   0.75676302   -3.9367246    1958.8531  0.053962895  0.053731318            7 
 3026000   0.76936124   -3.9233682    1963.0117  0.054059587  0.053719837            5 
 3027000   0.76220809   -3.8966887     1966.689  0.054142964   0.05370835            6 
 3028000   0.77219397   -3.9132095    1961.6228  0.053985656    0.0536968           18 
 3029000   0.75604047    -3.909587    1966.9044  0.054113141  0.053685324            5 
 3030000   0.76395307   -3.9391369    1959.9163  0.053903087   0.05367385            5 
 3031000    0.7470575   -3.9357981    1961.0179  0.053915591  0.053662382            3 
 3032000   0.76031107   -3.9358355    1963.9833  0.053979312  0.053650765            3 
 3033000   0.75686025    -3.932304    1958.5251  0.053811549  0.053639339            4 
 3034000   0.77565671   -3.9180894    1965.2509  0.053978545   0.05362783            4 
 3035000   0.76190394     -3.91378    1963.1723  0.053903686  0.053616373            3 
 3036000   0.76710389   -3.9118891    1961.4296  0.053838099  0.053604903            4 
 3037000   0.77445979   -3.9549092    1962.1197  0.053839306  0.053593423            3 
 3038000   0.77899782   -3.9350484    1965.9202  0.053925835  0.053581873            7 
 3039000   0.75546877   -3.9352102    1962.7678  0.053821647  0.053570321            7 
 3040000    0.7503324   -3.9249237      1958.89  0.053697642  0.053558781            7 
 3041000   0.78024959   -3.9380488    1959.2909  0.053690972  0.053547267            5 
 3042000   0.76613096   -3.9488977    1967.9118  0.053909484  0.053535712            7 
 3043000   0.74353752   -3.9575016    1965.3609   0.05382191  0.053524199            5 
 3044000   0.76805174   -3.9325656    1967.0465  0.053850376  0.053512758            5 
 3045000   0.75590544    -3.915033    1972.5253   0.05398263  0.053501295            3 
 3046000   0.75428475   -3.9361544    1967.8676  0.053837481  0.053489814            6 
 3047000   0.76538512   -3.9368863    1967.6622  0.053814193  0.053478314           10 
 3048000   0.77427003   -3.9120696     1966.402  0.053762086   0.05346678            9 
 3049000    0.7740359   -3.9424955    1973.7427  0.053945083  0.053455357            5 
 3050000    0.7743896   -3.9169173    1969.9707  0.053824336  0.053443883            8 
 3051000   0.74682339   -3.9341905    1961.4115  0.053572914  0.053432416            6 
 3052000   0.76928326    -3.906107    1969.4469  0.053774763  0.053420917            2 
 3053000   0.77180353    -3.927575    1969.9473  0.053770807  0.053409357            3 
 3054000   0.76654702      -3.9235    1968.5365  0.053714705  0.053397816            6 
 3055000   0.77312085   -3.9501307    1964.7009  0.053592495   0.05338618            7 
 3056000   0.77597062    -3.911709     1970.213  0.053725267  0.053374564            6 
 3057000   0.75845974   -3.9340074    1969.6834  0.053693256  0.053362967            5 
 3058000   0.76001902   -3.9312365    1965.9903  0.053575056  0.053351316            3 
 3059000   0.75692899   -3.9474423    1967.5864  0.053601023  0.053339614            3 
 3060000   0.75788451   -3.9144468    1970.6057  0.053665733  0.053327979            6 
 3061000   0.75754687   -3.9448048    1970.9714  0.053658155   0.05331641            4 
 3062000   0.74721421   -3.9257562    1975.9659  0.053776558  0.053304904            4 
 3063000   0.76986923   -3.9112299    1971.4612  0.053636446  0.053293288            6 
 3064000    0.7574221   -3.9146722    1968.0646  0.053526561  0.053281801            6 
 3065000   0.77140724    -3.942172    1968.2113  0.053513085  0.053270238            3 
 3066000    0.7564886    -3.940479     1967.606  0.053479179  0.053258683            4 
 3067000      0.75649   -3.9340213    1972.0731  0.053583118  0.053247151            3 
 3068000   0.75021834   -3.9510202     1964.202  0.053351858  0.053235495            8 
 3069000   0.75808767   -3.9364179     1967.678  0.053428859  0.053223782           12 
 3070000   0.77878334   -3.9512273    1971.0861  0.053503966   0.05321212            6 
 3071000   0.76800059    -3.957083     1970.097  0.053459705  0.053200438            4 
 3072000   0.76006821   -3.9414149    1965.5406  0.053318702  0.053188811           13 
 3073000   0.76531203   -3.9466092    1964.5354  0.053274092  0.053177256            5 
 3074000   0.76058239   -3.9275385    1967.8166   0.05334571  0.053165507            8 
 3075000   0.75420872   -3.9477345    1969.4726   0.05337324  0.053153887           12 
 3076000    0.7477112   -3.9546947     1971.408  0.053408323  0.053142277            4 
 3077000   0.74560002   -3.9343146    1969.9489   0.05335145  0.053130686            6 
 3078000    0.7707571   -3.9593097    1969.9348  0.053333735  0.053119017            7 
 3079000   0.77302606   -3.9264596    1970.1431   0.05332205  0.053107448            4 
 3080000   0.76117057   -3.9404224    1974.8586  0.053432322  0.053095754            8 
 3081000   0.75196365   -3.9275041    1971.7939  0.053332088   0.05308416            9 
 3082000   0.75711277   -3.9443106    1970.2781  0.053273797  0.053072518            3 
 3083000   0.74327254   -3.9283415    1973.5343  0.053344532  0.053060788            4 
 3084000   0.76787548   -3.9539815     1961.878  0.053012268  0.053049141            6 
 3085000   0.76227049   -3.9597685    1965.2343  0.053085745  0.053037394            2 
 3086000   0.74302737   -3.9528006    1968.7157  0.053162555   0.05302568            5 
 3087000     0.764364   -3.9490726    1972.5095  0.053247746  0.053013985            8 
 3088000    0.7638605   -3.9251862     1977.761   0.05337222  0.053002385            7 
 3089000   0.76998036   -3.9305881    1976.6708  0.053325531  0.052990901            6 
 3090000   0.77194334   -3.9516059    1967.4964  0.053060852  0.052979288            4 
 3091000   0.78077391   -3.9437162    1975.4381  0.053257794  0.052967708            3 
 3092000   0.76502701   -3.9744785    1974.8563   0.05322489  0.052956212            6 
 3093000   0.76154703   -3.9438928    1973.3531  0.053167181  0.052944563            8 
 3094000   0.77452874   -3.9380663    1972.5336  0.053127925   0.05293308            4 
 3095000   0.75336889   -3.9644194    1972.4017  0.053107208  0.052921541            4 
 3096000   0.76013093   -3.9317578    1976.5403   0.05320145  0.052910114            3 
 3097000   0.75184301   -3.9630088    1968.3492  0.052963867  0.052898476            7 
 3098000   0.76492979   -3.9535154    1972.4432  0.053056896  0.052886903            7 
 3099000   0.75876656    -3.933184    1981.0801  0.053272027  0.052875377            6 
 3100000   0.77553373   -3.9614717    1981.7209  0.053272068  0.052863876            3 
 3101000   0.75625127   -3.9493766    1973.6104  0.053036934   0.05285235            4 
 3102000   0.74964637   -3.9414269    1976.3048  0.053092221  0.052840755            5 
 3103000   0.75610861   -3.9675711    1971.2446  0.052939214   0.05282918            3 
 3104000   0.75963978   -3.9482699    1976.9477   0.05307527  0.052817641            4 
 3105000   0.73332785   -3.9458082    1979.1527  0.053117357  0.052806064            7 
 3106000   0.75090037   -3.9575941    1974.3141  0.052970436  0.052794494            5 
 3107000   0.74685012    -3.936601    1980.0928  0.053108379  0.052783059            6 
 3108000   0.75514696   -3.9495343    1978.7953  0.053056502  0.052771626           11 
 3109000   0.75233402   -3.9450378    1980.6417  0.053088927  0.052760111            5 
 3110000   0.75632115    -3.968771    1979.6439  0.053045121  0.052748618            9 
 3111000   0.74385589   -3.9612914     1981.132  0.053067932  0.052737071           11 
 3112000   0.75622802   -3.9427577    1978.2696  0.052974229  0.052725501            8 
 3113000   0.75658241    -3.941903    1978.7165  0.052969174  0.052713913            4 
 3114000   0.75240831   -3.9368027    1979.5156   0.05297355  0.052702424            6 
 3115000   0.75373817   -3.9452456    1980.3757  0.052979552  0.052690946            6 
 3116000   0.76069785   -3.9319043    1982.8727   0.05302933  0.052679444            4 
 3117000   0.75063846   -3.9560237    1975.9626  0.052827574  0.052668021            9 
 3118000   0.74172687     -3.94491    1979.0628   0.05289349  0.052656532            3 
 3119000   0.75594712   -3.9294811    1978.5663  0.052863264  0.052645043            3 
 3120000   0.75970587   -3.9454888    1984.6363  0.053008448  0.052633468            6 
 3121000   0.75065681    -3.946469    1983.8626  0.052970805  0.052621911            8 
 3122000   0.75200818   -3.9352247    1982.6419  0.052921256  0.052610339            6 
 3123000   0.74493489   -3.9552715    1982.8284  0.052909285  0.052598855            3 
 3124000    0.7396879   -3.9575513    1982.7275  0.052889657  0.052587393            6 
 3125000   0.75130823   -3.9638094    1980.2754  0.052807344  0.052575833            5 
 3126000   0.74598246   -3.9503581    1983.8096  0.052884666  0.052564316            4 
 3127000   0.76275085    -3.962584    1976.1758  0.052664317  0.052552854           10 
 3128000   0.74555226   -3.9503269    1980.2078  0.052754897  0.052541272            5 
 3129000   0.73665034   -3.9592111    1982.5806   0.05280123  0.052529672            9 
 3130000   0.73218673   -3.9517617    1983.4635  0.052807866  0.052518179            4 
 3131000   0.74922005   -3.9519751    1981.5497  0.052740064  0.052506652           10 
 3132000   0.74150603   -3.9320403    1987.0661  0.052869999  0.052495136            3 
 3133000   0.75992531   -3.9509882    1985.1674  0.052802623  0.052483785            6 
 3134000   0.76194115   -3.9672174    1985.9774  0.052807312  0.052472267            3 
 3135000   0.73408739   -3.9654635    1986.4199   0.05280223  0.052460797            7 
 3136000   0.75274853   -3.9449001    1989.6337  0.052870793  0.052449301            7 
 3137000   0.74548041   -3.9531071    1984.4874  0.052717229  0.052437752            6 
 3138000   0.74483082   -3.9554108    1986.5268  0.052754589   0.05242631            7 
 3139000   0.74661373   -3.9386843     1985.959  0.052722709  0.052414883           10 
 3140000   0.74257042   -3.9388059    1984.5671  0.052668977  0.052403453            4 
 3141000   0.74862818    -3.938743    1988.7483  0.052763142  0.052391894            4 
 3142000   0.74289148   -3.9615081    1987.9099  0.052724112  0.052380414            6 
 3143000   0.75122778   -3.9676695    1989.5661  0.052751248  0.052368856            4 
 3144000   0.74681355   -3.9680073    1983.1097  0.052563342   0.05235732           10 
 3145000   0.74676832   -3.9581395    1986.2384  0.052629528  0.052345864            5 
 3146000   0.75252616   -3.9674542    1986.0572  0.052607999  0.052334362            4 
 3147000   0.73366999   -3.9883718    1990.8764  0.052718897  0.052322862            5 
 3148000   0.75311712   -3.9572524    1988.8059   0.05264734   0.05231147            5 
 3149000   0.74999195   -3.9738752    1991.4824  0.052701449  0.052300073            7 
 3150000    0.7471797   -3.9616815    1992.8903  0.052721965  0.052288641            5 
 3151000   0.74486112   -3.9726828    1987.0448  0.052550641  0.052277137            8 
 3152000   0.75082078   -3.9832248    1989.8578  0.052608338  0.052265724            6 
 3153000   0.73306493     -3.96743    1996.1389  0.052757662  0.052254358            4 
 3154000   0.75813141   -3.9528447    1991.8476  0.052627551   0.05224295            3 
 3155000    0.7447414   -3.9454174    1997.5606  0.052761771  0.052231641            4 
 3156000      0.72631   -3.9591318    1994.0784  0.052653104  0.052220175           12 
 3157000    0.7608676   -3.9834561    1991.8928  0.052578735  0.052208736            6 
 3158000   0.74891231   -3.9617549     1991.773  0.052558924  0.052197292            6 
 3159000   0.74687953    -3.943023    1996.7173  0.052672715  0.052185986            8 
 3160000   0.74384326   -3.9792711    1992.3729   0.05254148  0.052174536            5 
 3161000   0.74418637   -3.9528443    1993.8283  0.052563225  0.052163198            5 
 3162000   0.74727227   -3.9393492     1996.807  0.052625104  0.052151859            5 
 3163000   0.74570185   -3.9335194    1997.2257    0.0526195  0.052140591           13 
 3164000   0.75536705    -3.961509     1995.425  0.052555441  0.052129352            3 
 3165000   0.74844282   -3.9587105    1994.2899   0.05250895  0.052118053            7 
 3166000   0.74679763   -3.9832457    1993.1488  0.052462328  0.052106755            4 
 3167000   0.72966132   -3.9388522    2001.3132  0.052660593  0.052095466            6 
 3168000   0.74124172    -3.947673    1996.1459  0.052508047  0.052084273            3 
 3169000   0.73182029   -3.9692423    1996.5107   0.05250107  0.052073031            8 
 3170000   0.74140292   -3.9734424    1993.0847  0.052394445  0.052061719           10 
 3171000   0.75964747   -3.9862881    1996.2385  0.052460803  0.052050435            9 
 3172000   0.75565636     -3.99345    1993.3048  0.052367193   0.05203914            6 
 3173000   0.74198208   -3.9489675    1996.7396  0.052440897   0.05202776            5 
 3174000   0.74355627   -3.9928827    1995.4952  0.052391703  0.052016504            4 
 3175000   0.72514666    -3.979827    1991.8645  0.052279907  0.052005162            4 
 3176000   0.75776569   -3.9589359     1998.611  0.052440465  0.051993881            5 
 3177000   0.74446376   -3.9761781    1998.8179  0.052429385  0.051982565           13 
 3178000   0.73297838   -3.9924192    1992.9422  0.052258817  0.051971212            5 
 3179000   0.75447831   -3.9744421    2004.4736  0.052544658  0.051959915            5 
 3180000   0.74204303    -3.981854    1996.7154  0.052324828  0.051948608            7 
 3181000   0.73971159   -3.9595549    2001.3499   0.05242979  0.051937487            9 
 3182000   0.74623243   -3.9750441    2000.6605  0.052395257  0.051926226            5 
 3183000     0.728688     -3.98517    1995.1528    0.0522346  0.051914879            4 
 3184000   0.73808783   -3.9523937    2001.2482  0.052377727  0.051903504            4 
 3185000   0.74655662   -3.9746498    1996.7701  0.052244115  0.051892115            5 
 3186000    0.7342198   -3.9593899    2002.0719  0.052366391  0.051880726            7 
 3187000   0.74927876   -3.9561771    2001.2176  0.052327623   0.05186934           11 
 3188000   0.75554735   -3.9601765    1999.0115  0.052253542  0.051858074            5 
 3189000   0.75414778   -3.9787764    1996.5348  0.052172437  0.051846729            7 
 3190000   0.74694155   -3.9635037    1990.9507  0.052010206  0.051835391            7 
 3191000   0.75508448   -3.9504467    1997.7221  0.052170744  0.051824032           12 
 3192000   0.73727532   -3.9520888    2000.8111  0.052235043  0.051812696           13 
 3193000   0.75330196   -3.9728812     2005.039  0.052329027  0.051801557            3 
 3194000   0.75945202   -3.9761051    2004.0323  0.052286378   0.05179032            6 
 3195000    0.7308098   -3.9672416    1999.7689  0.052158813  0.051779055            9 
 3196000    0.7459894   -3.9715002    2000.6999  0.052166768  0.051767784            4 
 3197000   0.73028191   -3.9417814    2002.5321   0.05219821   0.05175658           10 
 3198000   0.76036974    -3.957834    2002.2384  0.052174234  0.051745343            7 
 3199000   0.74171752   -3.9674103     1993.957  0.051942195  0.051734047           13 
 3200000   0.72645811   -3.9662479    1997.1279  0.052008538  0.051722641           14 
 3201000   0.72485269    -3.959729    2003.3562  0.052154435  0.051711429            9 
 3202000   0.73537471   -3.9716258     2001.331  0.052085441  0.051700126            8 
 3203000   0.75628159   -4.0006773    1995.8337  0.051926155   0.05168878            6 
 3204000   0.74950792    -3.981818     2002.778  0.052090563  0.051677382            5 
 3205000   0.72585814   -3.9923634    2000.7696   0.05202209  0.051665945            5 
 3206000   0.73075962   -3.9811669    2000.5346  0.051999756  0.051654661            4 
 3207000   0.73354254   -3.9955109    2002.6611  0.052038797  0.051643356            5 
 3208000   0.75229639   -3.9757991    2002.7039  0.052023688  0.051632138            5 
 3209000   0.73515029   -3.9820978    1999.7643  0.051931139  0.051620933            5 
 3210000    0.7368564    -3.977975    1998.7113  0.051887625  0.051609735            5 
 3211000   0.74526852   -3.9842377    2007.2311  0.052092574  0.051598635            6 
 3212000   0.74095101   -3.9763191    2002.2677  0.051947584  0.051587446            8 
 3213000   0.75073849   -3.9832531    2005.2398  0.052008501  0.051576159            3 
 3214000   0.72357642   -3.9793771    2005.7556  0.052005694   0.05156487            2 
 3215000   0.74751251   -3.9631921    2006.7211  0.052014545   0.05155374            6 
 3216000   0.72853713   -3.9843113     2003.018  0.051902415  0.051542629           12 
 3217000   0.73590896   -3.9849581    2007.2363  0.051995551  0.051531413            6 
 3218000   0.72441281   -3.9701302    2002.9553  0.051868534  0.051520346            3 
 3219000   0.73604676   -3.9752941    2012.2231  0.052092345  0.051509143           11 
 3220000   0.72281761    -3.991966    2008.4593   0.05197876  0.051498001            4 
 3221000   0.72922622   -3.9774043    2009.3629  0.051986001  0.051486916            5 
 3222000   0.72432873   -3.9782758    2008.4018  0.051945008  0.051475804            8 
 3223000   0.73189075     -3.98882     2012.109  0.052024744  0.051464691            9 
 3224000   0.73031061   -3.9954769    2008.6295  0.051918671  0.051453665           11 
 3225000   0.74095651   -3.9748599    2016.5725  0.052107816  0.051442694           12 
 3226000   0.73325754   -3.9727227    2011.4538   0.05195944  0.051431711            4 
 3227000   0.73911746   -3.9665269    2017.0223  0.052087137  0.051420758            3 
 3228000   0.71208403   -3.9712972    2014.6654  0.052010156  0.051409765            9 
 3229000    0.7295597   -3.9749022    2016.0444  0.052029638  0.051398876            7 
 3230000   0.72830552   -3.9835398    2013.3066  0.051942895  0.051387861            7 
 3231000   0.74055525    -4.015075    2012.4159  0.051903844  0.051376839            9 
 3232000   0.74031374   -3.9708066    2009.4169  0.051810462  0.051365919            5 
 3233000    0.7165257   -3.9719526    2015.9869  0.051963783  0.051355005            2 
 3234000   0.71108304   -3.9755027     2016.711  0.051966373  0.051344003            2 
 3235000   0.73726518   -3.9675122    2017.0153  0.051958149  0.051332972            5 
 3236000   0.71990764   -3.9888466    2012.2949  0.051820533  0.051321965            7 
 3237000   0.74556088   -3.9919741    2017.3095  0.051933619  0.051310921            4 
 3238000   0.73398822   -3.9871834     2016.507  0.051896928  0.051299931            4 
 3239000   0.72640972   -3.9877662    2023.3528  0.052057034  0.051289051            7 
 3240000   0.72205204   -3.9719528    2018.5704  0.051917964  0.051278054            3 
 3241000   0.71822792   -4.0080361    2012.2184  0.051738618  0.051267032            2 
 3242000   0.73180032   -3.9859716    2011.1827  0.051696038  0.051255971           15 
 3243000   0.73544097    -3.973732    2020.8492  0.051928491  0.051244981            4 
 3244000   0.72795602   -3.9610795    2014.2643  0.051743328  0.051234007            7 
 3245000   0.72594319    -3.990834    2023.9462   0.05197602  0.051223052            7 
 3246000   0.72250644   -3.9969685    2010.8469  0.051623715   0.05121219           11 
 3247000   0.72366353   -3.9854538    2014.7198  0.051707211  0.051201297            3 
 3248000   0.73962812    -3.993624    2017.0263   0.05175047  0.051190381            3 
 3249000   0.73116853   -3.9974258    2022.7164  0.051880486  0.051179528            6 
 3250000   0.73082036   -3.9918477    2017.7463  0.051737085  0.051168653            5 
 3251000   0.73223927   -3.9745573    2017.0887  0.051704314  0.051157757            4 
 3252000   0.72147218   -3.9927691    2015.9069  0.051658132  0.051146775            5 
 3253000   0.72956902   -3.9943978    2016.9444  0.051668828  0.051135944           12 
 3254000   0.74232507   -3.9838377     2019.961  0.051730205  0.051124963            6 
 3255000   0.74064665   -4.0029694    2022.9348  0.051790445  0.051113903           10 
 3256000   0.71682276   -3.9875251    2017.5908  0.051637765  0.051102904            4 
 3257000   0.73228681    -3.967224    2014.2563  0.051536594  0.051092011            6 
 3258000   0.72703498   -3.9834967    2017.7647  0.051610515  0.051081101            5 
 3259000   0.73568458   -3.9909853    2019.3792  0.051635961  0.051070243            3 
 3260000   0.73301656   -3.9669074     2022.205  0.051692358   0.05105933            5 
 3261000   0.72441747   -4.0076264    2017.9216  0.051567044  0.051048331            8 
 3262000   0.73375398    -3.988799    2023.8483  0.051702644  0.051037399            4 
 3263000   0.73778872   -3.9733484    2020.0864  0.051590723  0.051026432            5 
 3264000   0.73035264   -3.9682989    2021.9957  0.051623664   0.05101547            5 
 3265000   0.73449694   -4.0204595    2021.3096  0.051590342  0.051004527            8 
 3266000   0.71555471   -3.9784069    2024.4685  0.051655148  0.050993608            6 
 3267000   0.73474348   -3.9776269    2021.4323  0.051561889  0.050982629            6 
 3268000   0.72423777   -3.9884272    2023.0044  0.051586199  0.050971759            4 
 3269000   0.72635583   -3.9627678    2024.3246  0.051604073   0.05096081            3 
 3270000   0.73614522   -3.9920461    2023.7571   0.05157383  0.050949853            4 
 3271000   0.70641679   -3.9806956     2019.791  0.051457021   0.05093896           12 
 3272000   0.73514012   -3.9850539    2022.4686   0.05150949  0.050928018           11 
 3273000   0.71911796   -4.0058013    2024.5206  0.051545997  0.050917139            7 
 3274000   0.73888203   -3.9832694    2023.8012  0.051511942  0.050906269            5 
 3275000   0.72997996   -3.9860831     2020.911  0.051422673  0.050895291            4 
 3276000   0.71608936   -4.0070759    2019.7007  0.051376187  0.050884356            6 
 3277000   0.72500688    -3.979473    2022.7955  0.051439211   0.05087344            5 
 3278000   0.71142886   -3.9943527    2027.4321  0.051541388  0.050862463            3 
 3279000   0.74935737   -4.0081725    2022.0131  0.051387951  0.050851379            8 
 3280000   0.72711219   -4.0023346    2022.0275   0.05137265  0.050840262            8 
 3281000   0.75147488   -3.9882007     2019.065  0.051281747   0.05082921            5 
 3282000   0.72148877   -3.9824175    2019.4929  0.051276987  0.050818167            7 
 3283000   0.72214065   -3.9958178    2022.3169  0.051333051  0.050807123            5 
 3284000   0.71993463   -3.9884555    2022.8365  0.051330606  0.050796101            6 
 3285000   0.72280194   -4.0120354     2024.184  0.051349162  0.050785158            6 
 3286000   0.74414787   -4.0143824     2021.957   0.05127706  0.050774165            3 
 3287000   0.71992814   -3.9855456    2027.2048  0.051394503  0.050763155            8 
 3288000   0.73047792    -4.003841     2024.638  0.051313817  0.050752204            5 
 3289000   0.72211452    -4.002844    2024.0162  0.051282463  0.050741212           11 
 3290000   0.71795137   -3.9810645    2024.9639  0.051290879  0.050730227            6 
 3291000   0.71862917   -4.0016959    2023.1057  0.051228242  0.050719262            4 
 3292000   0.73742929   -3.9991579     2024.252  0.051241698  0.050708272            3 
 3293000   0.71467717   -3.9887597    2031.7783  0.051416598   0.05069729            4 
 3294000   0.71265495   -3.9972271    2024.3708   0.05121359    0.0506864            7 
 3295000   0.72359836   -3.9875603    2026.3134  0.051247179  0.050675385            3 
 3296000    0.7303291   -3.9969525     2027.938  0.051272703  0.050664425            6 
 3297000   0.72907819   -3.9958376    2026.4702  0.051220052   0.05065351            5 
 3298000   0.73418366   -4.0053654    2027.9171  0.051241084  0.050642622            7 
 3299000   0.71960902   -3.9717988    2030.1617   0.05128225  0.050631809            5 
 3300000   0.71813046   -3.9954631    2029.6702  0.051254297   0.05062091            5 
 3301000   0.72899492   -4.0099538    2028.1811  0.051201178  0.050609979            4 
 3302000   0.72275086   -4.0175362    2025.7728  0.051124893  0.050599064            6 
 3303000   0.72266091    -3.977905    2029.0239  0.051191441  0.050588111            5 
 3304000   0.73990659   -4.0025268     2034.598  0.051316536  0.050577276            8 
 3305000   0.71394864   -3.9847199    2036.9924  0.051361382  0.050566466            3 
 3306000   0.72982433   -4.0046931    2025.6846  0.051060814   0.05055559            8 
 3307000   0.72904744    -3.990328    2036.2792  0.051312347  0.050544771            7 
 3308000   0.71745181   -4.0145468    2034.9842  0.051264214  0.050533989            5 
 3309000   0.69766434   -4.0156501    2033.4041  0.051208927  0.050523201            4 
 3310000   0.73057551   -4.0025815    2033.6183  0.051198849  0.050512378            8 
 3311000   0.72393447   -4.0017152    2035.8759  0.051240206  0.050501569           11 
 3312000   0.71304859   -4.0086157    2031.8344  0.051123048  0.050490872            7 
 3313000    0.7218171    -3.994378    2033.6178  0.051152476  0.050480169            4 
 3314000   0.73264165   -4.0074545    2033.2421  0.051127593  0.050469406            5 
 3315000   0.72411423   -3.9827066    2030.7264  0.051048928  0.050458688            4 
 3316000   0.73303199   -3.9802606    2033.6418  0.051106799  0.050447961            9 
 3317000   0.72972402   -3.9934396    2035.6459  0.051141741  0.050437225           11 
 3318000   0.69832118   -3.9909081    2034.8191  0.051105564  0.050426456            5 
 3319000   0.73011803   -4.0243253    2033.5772  0.051058984  0.050415642            4 
 3320000   0.71842735     -4.01982    2030.2139  0.050959184  0.050404758            7 
 3321000    0.7253464   -3.9813593    2035.5296  0.051077226  0.050393923           10 
 3322000   0.73127222   -3.9920099    2031.2247   0.05095386  0.050383109            5 
 3323000   0.72149304   -4.0158293    2035.7357  0.051051652  0.050372152            5 
 3324000   0.70566036   -4.0216055    2032.4317  0.050953463  0.050361281            5 
 3325000   0.71771065   -4.0119856    2035.9425  0.051026127   0.05035033            5 
 3326000   0.72211835    -3.994422    2027.1246  0.050789854  0.050339357            9 
 3327000   0.72815275   -4.0034951    2036.1305  0.051000164  0.050328468            5 
 3328000   0.72799256     -4.00691    2035.2655  0.050963177  0.050317614            7 
 3329000   0.72192306   -3.9871503    2033.5514  0.050904961  0.050306696            4 
 3330000   0.72255902   -3.9999891    2038.5239  0.051014112  0.050295796            6 
 3331000   0.71146927   -3.9968621    2039.5228  0.051023787  0.050284955            7 
 3332000   0.72087826   -4.0052151    2032.8689   0.05084206  0.050274024           12 
 3333000   0.71245712   -4.0124659     2029.144  0.050733674  0.050263086            4 
 3334000   0.71329452   -4.0176547    2032.7888  0.050809557  0.050252095            3 
 3335000   0.73581042   -4.0156868    2034.6694  0.050841314  0.050241217            9 
 3336000    0.7221836   -4.0233797    2034.0143  0.050809709  0.050230289            4 
 3337000   0.72479297   -4.0143175    2039.1921  0.050923786  0.050219372            6 
 3338000   0.72844865   -4.0008213    2034.7112  0.050796664  0.050208428            4 
 3339000   0.71483145   -4.0135642    2033.5534  0.050752557  0.050197548           10 
 3340000   0.71016826   -3.9794978    2033.4654  0.050735164  0.050186612            4 
 3341000   0.71837267   -4.0150147     2030.549  0.050647237  0.050175688            4 
 3342000   0.72830231   -4.0141427    2036.8431  0.050789027  0.050164857            5 
 3343000    0.7257302   -4.0166298    2032.9043  0.050675648  0.050153901            4 
 3344000   0.72003791   -4.0215925     2032.266  0.050644589  0.050142927            6 
 3345000   0.73100919   -4.0202622    2031.9863  0.050622479  0.050131946            9 
 3346000   0.72724213   -3.9957302    2027.2749   0.05049001  0.050121024            5 
 3347000   0.71524986   -4.0124532     2029.867  0.050539464  0.050110092            2 
 3348000   0.71070865   -3.9991228    2036.2901  0.050684242  0.050099127            9 
 3349000   0.70766034    -4.013842    2033.5208    0.0506002  0.050088164            5 
 3350000   0.70714068   -3.9940009    2038.2168  0.050701911  0.050077125            4 
 3351000   0.71040942   -4.0060428    2035.0788  0.050608743  0.050066122           12 
 3352000   0.70864678   -3.9955282    2039.0846  0.050693234  0.050055229            6 
 3353000   0.68756909   -4.0083818    2034.0694   0.05055347  0.050044182            5 
 3354000   0.71717303   -4.0168991    2027.7593  0.050381616  0.050033067            9 
 3355000   0.70366185    -4.030244    2033.7691  0.050515875  0.050021959            5 
 3356000   0.70492446   -4.0115178     2030.778   0.05042655   0.05001091            2 
 3357000   0.71490524   -4.0247494    2035.2337  0.050522134  0.049999817            4 
 3358000   0.71699158   -4.0173752     2034.848  0.050497519  0.049988635           14 
 3359000   0.72515884   -4.0016433    2032.8506   0.05043293  0.049977547            5 
 3360000   0.71868406   -4.0166106    2035.1043  0.050473817  0.049966541            4 
 3361000   0.71341586   -4.0278028     2037.457  0.050517134  0.049955476            5 
 3362000    0.7246061   -4.0362478    2032.7968  0.050386594  0.049944513            5 
 3363000    0.7056862   -4.0262416    2044.5025  0.050661674  0.049933535            7 
 3364000   0.70023769   -4.0300769    2037.2164  0.050466121  0.049922553            4 
 3365000   0.71452954   -4.0036239    2034.2964   0.05037881   0.04991149            5 
 3366000    0.7135504   -4.0377356    2036.6513  0.050422146  0.049900512            5 
 3367000   0.71611378   -4.0500842    2035.4126  0.050376512  0.049889422            7 
 3368000   0.70314154   -4.0573104    2037.3253  0.050408881  0.049878384           14 
 3369000   0.71000267   -4.0141523     2037.777  0.050405091  0.049867272            6 
 3370000    0.7050605   -4.0154993    2036.8685  0.050367669  0.049856161            6 
 3371000   0.72195914   -4.0238029      2037.85   0.05037699   0.04984512            5 
 3372000   0.69926386   -4.0455641    2036.1069  0.050318972  0.049834169            4 
 3373000   0.70185941   -4.0221039    2037.8219  0.050346424   0.04982316            4 
 3374000   0.69679985   -4.0139652    2031.3956  0.050172781  0.049812181            5 
 3375000   0.72037627   -4.0134146    2035.8064  0.050266825  0.049801129            7 
 3376000   0.72540603   -4.0336488    2035.4276  0.050242585  0.049790119            5 
 3377000    0.7069234   -4.0378367    2037.1349  0.050269838  0.049779048            6 
 3378000   0.70415011   -4.0058956    2043.4925  0.050411795  0.049768006            7 
 3379000   0.71456344   -4.0219805    2036.0298  0.050212828  0.049756955            7 
 3380000   0.71817318   -4.0201627    2039.3268  0.050279259  0.049745885            9 
 3381000   0.72594596   -4.0263192    2036.8305  0.050202862  0.049734853            5 
 3382000   0.71545086   -4.0140969    2035.9311  0.050165856  0.049723854            6 
 3383000   0.72027744   -4.0161579    2039.9814  0.050250798  0.049712794            6 
 3384000   0.71233071   -4.0344571    2039.6967  0.050228939  0.049701809           11 
 3385000   0.70764509   -4.0091177    2039.3371  0.050205246  0.049690752            7 
 3386000   0.69562884   -4.0427421    2037.2575  0.050139237  0.049679746            4 
 3387000   0.70121533   -4.0185523    2039.4669  0.050178793  0.049668638            9 
 3388000   0.70434985   -4.0083845    2038.1806  0.050132345  0.049657593            6 
 3389000   0.71391221   -4.0113491    2042.4482   0.05022249  0.049646437            6 
 3390000   0.71443703   -4.0326843    2035.6176  0.050039764  0.049635343            6 
 3391000   0.71800773   -4.0144396     2036.229  0.050040033  0.049624255           12 
 3392000   0.70312056   -4.0150678    2043.7561  0.050210203  0.049613179            7 
 3393000   0.70551842   -4.0221342    2041.2376   0.05013355  0.049602205            6 
 3394000    0.7175724   -4.0174475    2039.8178  0.050083919  0.049591203            5 
 3395000   0.70008963   -4.0138971    2045.3633  0.050205286  0.049580183           13 
 3396000   0.72056723   -4.0228588    2048.1804   0.05025963  0.049569221            9 
 3397000   0.71435957   -4.0032258    2039.5546   0.05003323  0.049558285            4 
 3398000   0.69913669   -3.9944994     2047.133   0.05020436  0.049547436            6 
 3399000   0.70660651   -4.0508949    2043.4253  0.050098689  0.049536386            6 
 3400000   0.69995252   -4.0067968    2046.6734  0.050163565  0.049525464           12 
 3401000    0.7136856   -4.0145836    2038.9946  0.049960664   0.04951457            6 
 3402000   0.69717366   -4.0496605    2043.7927  0.050063508  0.049503617           15 
 3403000   0.71648729   -4.0275169    2044.2121  0.050059069   0.04949256            5 
 3404000   0.70978369    -4.025182    2034.3759  0.049803562  0.049481612            6 
 3405000   0.70182444   -4.0447198    2042.8006  0.049995119  0.049470555            8 
 3406000   0.71531751   -4.0338616    2042.2642  0.049967316  0.049459597           16 
 3407000   0.69861414   -4.0399946     2044.052   0.04999638    0.0494486            7 
 3408000    0.7138785   -3.9983697    2054.3895  0.050234485  0.049437771            4 
 3409000   0.70949594   -4.0239482    2045.3543  0.049998883  0.049426923            4 
 3410000   0.71287947    -4.021966    2040.4007  0.049863166  0.049415997            5 
 3411000   0.71532493   -4.0297303    2044.8828  0.049958047  0.049405048            7 
 3412000   0.68952294   -4.0321735    2050.6632  0.050084584  0.049394128            4 
 3413000    0.6968565    -3.986925    2054.5369   0.05016449  0.049383314            8 
 3414000   0.70108638   -4.0233164    2047.7069  0.049983083  0.049372527            4 
 3415000   0.70815624    -4.025539    2044.1515  0.049881687  0.049361609           14 
 3416000   0.70759754   -4.0524197    2050.5879  0.050024099  0.049350614           18 
 3417000   0.70373763   -4.0434846    2046.3753  0.049906724  0.049339664            9 
 3418000     0.717969   -4.0335794    2047.4979  0.049919493  0.049328767            5 
 3419000   0.70607774   -4.0324646    2046.9802  0.049892274  0.049317932            8 
 3420000   0.70109889    -4.043175    2048.0042  0.049902637  0.049307051            5 
 3421000   0.70800572   -4.0412531    2045.4711  0.049826344  0.049296122            8 
 3422000   0.71209281   -4.0248021    2047.9261  0.049871568  0.049285231            4 
 3423000   0.70995262    -4.029407    2044.7034  0.049778543  0.049274369            6 
 3424000   0.70691641   -4.0477134    2040.6641  0.049665697  0.049263488           15 
 3425000   0.69538611   -4.0629543     2049.964  0.049877471  0.049252592            6 
 3426000   0.71737079   -4.0371027    2050.3605  0.049872556  0.049241644           11 
 3427000   0.69247964   -4.0529216      2045.74  0.049745647  0.049230851           10 
 3428000   0.71458986   -4.0346207    2049.2519  0.049816509  0.049219947            5 
 3429000   0.69754836   -4.0480756    2050.2494  0.049826223  0.049209013            4 
 3430000   0.69667544   -4.0285934     2052.335  0.049862367  0.049198127            4 
 3431000   0.71387896   -4.0243358    2057.8655   0.04998216  0.049187305            4 
 3432000   0.71254116   -4.0261925    2048.6853  0.049744691  0.049176538           14 
 3433000   0.70593671   -4.0448512    2050.7893  0.049781272  0.049165606            4 
 3434000   0.69718289   -4.0384747    2056.9442  0.049916137  0.049154691            6 
 3435000   0.69352297    -4.047279    2052.4395  0.049792322  0.049143815           17 
 3436000    0.6908097   -4.0455847    2051.0588  0.049744345  0.049132915            6 
 3437000   0.69159698    -4.042539    2050.1909  0.049708829  0.049122017           14 
 3438000   0.69300285   -4.0359056    2052.6913  0.049754976  0.049111124           13 
 3439000   0.69895489   -4.0243864    2052.7586  0.049742139  0.049100155            8 
 3440000    0.6960566   -4.0535737    2049.8975  0.049658369  0.049089187           10 
 3441000   0.69371411   -4.0177991    2051.7543  0.049688907  0.049078153            4 
 3442000   0.70938879   -4.0492279    2057.1863  0.049805982  0.049067229            6 
 3443000   0.70155779    -4.043858    2052.0889   0.04966814  0.049056246            5 
 3444000   0.70296232   -4.0242057     2060.204  0.049850078  0.049045365            5 
 3445000   0.70923739   -4.0428844    2042.4943  0.049407215  0.049034477            5 
 3446000   0.69425694   -4.0399225    2047.1581  0.049505661  0.049023456            5 
 3447000   0.68520959   -4.0555658    2053.1592   0.04963638  0.049012479            7 
 3448000   0.68556899   -4.0574662    2051.9937  0.049593815  0.049001511            4 
 3449000   0.70153271   -4.0469951    2053.0854  0.049605814  0.048990447            6 
 3450000   0.70321028   -4.0507033    2047.3038  0.049451783  0.048979433            8 
 3451000   0.70467297   -4.0425454    2047.7392  0.049447967  0.048968421            6 
 3452000   0.70188316   -4.0506239    2043.5183  0.049331747  0.048957412            7 
 3453000   0.69789752   -4.0601531    2052.5624  0.049535727  0.048946308            8 
 3454000   0.70881486     -4.05794    2052.6938  0.049524556  0.048935322            4 
 3455000   0.70147164   -4.0477662     2051.576  0.049483261  0.048924307            5 
 3456000   0.68273734   -4.0481564    2051.2345  0.049460708  0.048913349            5 
 3457000   0.69979296   -4.0386328    2051.7094  0.049457849  0.048902345            9 
 3458000   0.70760334   -4.0399475    2052.8504  0.049471043   0.04889146           16 
 3459000    0.7017189   -4.0397173    2046.2217  0.049297045  0.048880539            6 
 3460000   0.70466032    -4.055531    2054.4697  0.049481448  0.048869482           18 
 3461000   0.71017132   -4.0518855    2051.2118  0.049388708  0.048858495            4 
 3462000   0.69954454   -4.0547812    2056.8756  0.049510774  0.048847458            9 
 3463000   0.69340246   -4.0596597    2047.0474  0.049259972  0.048836509           18 
 3464000   0.69352512   -4.0445295    2049.4948  0.049304629  0.048825582            5 
 3465000   0.69472843   -4.0541239    2056.6595   0.04946271  0.048814675            6 
 3466000   0.70643139   -4.0502014    2051.7879  0.049331312  0.048803707            7 
 3467000   0.68520059   -4.0521598    2047.9071  0.049223803  0.048792731           12 
 3468000   0.71226271     -4.06736    2051.0203  0.049284416  0.048781786            5 
 3469000   0.70106964   -4.0590864    2053.8208  0.049337485  0.048770807            4 
 3470000   0.70333439   -4.0811736    2051.7011   0.04927236   0.04875984           10 
 3471000   0.68857435   -4.0579116    2054.1254   0.04931637  0.048748868            7 
 3472000   0.70857457   -4.0523449    2051.8669  0.049247957  0.048737954            3 
 3473000   0.68894524   -4.0636771    2055.0941  0.049311213  0.048726904            4 
 3474000   0.69799245   -4.0627635    2049.4522  0.049161682   0.04871583            3 
 3475000   0.69047614   -4.0358075    2061.7378  0.049442153  0.048704859            4 
 3476000   0.69556616   -4.0491284    2052.8282  0.049214332  0.048693897            8 
 3477000    0.6694605   -4.0668767    2051.8135  0.049175858  0.048682911            8 
 3478000   0.70258625   -4.0324348    2057.0031  0.049286062  0.048671906            5 
 3479000   0.69682006   -4.0641429    2051.0874  0.049130195   0.04866097           11 
 3480000   0.69255233   -4.0585441    2051.0062  0.049114133  0.048649948            7 
 3481000   0.69095502   -4.0425245    2054.3682  0.049180508  0.048638965            7 
 3482000   0.68144135   -4.0330562    2051.9539  0.049108603  0.048628075            8 
 3483000   0.68646534   -4.0484386    2054.7979   0.04916255  0.048617147            9 
 3484000   0.68776728   -4.0520577     2053.221  0.049110721  0.048606304           11 
 3485000   0.67054115   -4.0468524    2060.7102  0.049275711  0.048595465            5 
 3486000   0.68979057   -4.0380561    2059.6108  0.049235294  0.048584611            4 
 3487000    0.6866496   -4.0448557    2054.9818   0.04911055  0.048573793            5 
 3488000   0.69296984   -4.0729082    2054.9561  0.049095855  0.048562871            6 
 3489000   0.69285913    -4.072691    2064.7748    0.0493163  0.048552009            7 
 3490000   0.68165384   -4.0514986    2058.7028  0.049157183  0.048541066            8 
 3491000   0.69148702   -4.0498275    2059.3521  0.049158601  0.048530201           19 
 3492000   0.68982844   -4.0325393    2055.9398  0.049063092  0.048519405            8 
 3493000    0.6871017   -4.0539326    2059.9936  0.049145759  0.048508528            3 
 3494000   0.69826386   -4.0575212    2063.1661  0.049207359   0.04849766           13 
 3495000   0.68824829   -4.0510667    2057.3932  0.049055632  0.048486784            7 
 3496000   0.69909875   -4.0474226    2059.4758  0.049091244  0.048475934            7 
 3497000   0.69913015   -4.0415983    2056.3983  0.049003868  0.048465128            4 
 3498000   0.68686424   -4.0557672    2062.6622  0.049139084  0.048454291           10 
 3499000   0.70105997   -4.0463844    2060.8389  0.049081615  0.048443459            7 
 3500000   0.69230101   -4.0760993    2058.1043  0.049002483  0.048432547           13 
 3501000   0.68816237   -4.0605075    2053.3299  0.048874842  0.048421665            3 
 3502000   0.72770473   -4.0532293    2060.5329  0.049032289    0.0484107            5 
 3503000   0.69265334   -4.0453004    2053.6435  0.048854399   0.04839984           13 
 3504000   0.69729733   -4.0732394     2062.186  0.049043617  0.048389013            4 
 3505000   0.69005675   -4.0711397    2059.2343  0.048959445  0.048378145            9 
 3506000   0.68619332   -4.0680035     2060.481  0.048975113   0.04836729           11 
 3507000   0.68647645   -4.0750642    2064.3037  0.049051984  0.048356433            5 
 3508000   0.68118875   -4.0715772    2060.0104  0.048936012  0.048345598            5 
 3509000   0.69000144   -4.0587231    2056.5137  0.048839027  0.048334681            6 
 3510000   0.69059581    -4.044604    2063.2918  0.048986035  0.048323889            7 
 3511000   0.69474955   -4.0709193    2059.0159  0.048870595  0.048313041            8 
 3512000    0.6944129    -4.065009    2066.5464  0.049035365  0.048302219            6 
 3513000   0.70200766   -4.0652403     2058.821  0.048838148  0.048291354            5 
 3514000   0.67220372   -4.0617267    2061.3179  0.048883463  0.048280569           10 
 3515000    0.7009881   -4.0962503    2057.7321  0.048784544  0.048269643           15 
 3516000   0.70059117    -4.087816    2057.7611  0.048771358  0.048258844            5 
 3517000   0.68730976   -4.0647004    2056.9926  0.048739281  0.048247942           12 
 3518000   0.67648583   -4.0426936    2068.1377  0.048989428  0.048237164            3 
 3519000   0.68940149   -4.0907244    2059.9317  0.048781181  0.048226261            5 
 3520000   0.68736163   -4.0468197    2063.5604  0.048853228  0.048215479            8 
 3521000    0.6819382   -4.0749806    2066.3529  0.048905445  0.048204666            5 
 3522000   0.68882976   -4.1009437    2054.8613  0.048619659  0.048193779            4 
 3523000   0.68350747   -4.0659828    2065.5824  0.048859456  0.048182926            7 
 3524000   0.69513021   -4.0695517    2065.2977   0.04883886  0.048172102            7 
 3525000   0.67482897   -4.0817484    2062.4676    0.0487581  0.048161297            4 
 3526000   0.69404159    -4.061076    2062.9876   0.04875656  0.048150377           10 
 3527000   0.67430126   -4.0825743    2056.8894  0.048598652  0.048139479            4 
 3528000   0.68849611   -4.0918744    2060.0043  0.048658454  0.048128588            8 
 3529000   0.68034575   -4.0584846    2061.3848  0.048677265  0.048117749            7 
 3530000    0.6836904    -4.069711    2063.9011  0.048722878  0.048106943            7 
 3531000   0.67755257   -4.0613704    2069.1227  0.048832312  0.048096055           10 
 3532000   0.68959275   -4.0778743    2069.0178  0.048816012  0.048085131           14 
 3533000   0.68062361    -4.072096    2061.7165  0.048629977  0.048074277            7 
 3534000    0.6788293   -4.0880884    2063.2554  0.048652504  0.048063401            5 
 3535000   0.69188809   -4.0714807    2063.4002  0.048642154  0.048052515            6 
 3536000   0.68377175    -4.054293    2067.6299   0.04872808  0.048041765            8 
 3537000    0.6896324   -4.0700242    2066.9909  0.048699248     0.048031            6 
 3538000   0.69595561   -4.0820973    2062.7424  0.048585415  0.048020267            5 
 3539000    0.6859173   -4.0422004    2068.9372  0.048717557  0.048009564            4 
 3540000   0.67194337   -4.0736724    2066.2423  0.048640354  0.047998806            7 
 3541000   0.69667326   -4.0746338    2067.0899  0.048646566   0.04798811            5 
 3542000   0.67308167   -4.0902779    2072.4347  0.048758581   0.04797734            6 
 3543000    0.6644613   -4.0598144    2066.6712  0.048609257  0.047966581           12 
 3544000   0.67609031   -4.0635642     2075.561  0.048804575  0.047955841            4 
 3545000   0.66087019   -4.0550795    2067.2696  0.048595901  0.047945137            7 
 3546000   0.68721005   -4.0874392    2069.0756  0.048624639   0.04793451            7 
 3547000   0.68062597     -4.07496    2066.7584  0.048556489  0.047923721            5 
 3548000   0.68288571   -4.0739146    2066.0569  0.048526328  0.047912935            5 
 3549000   0.67329394   -4.0490036    2067.6478  0.048550008  0.047902184            6 
 3550000   0.69742725   -4.1011441    2070.2445  0.048597289   0.04789139            9 
 3551000   0.66419765    -4.065882    2066.9683  0.048506718  0.047880664            3 
 3552000   0.66817911   -4.0656477    2072.4277  0.048621144  0.047869977            9 
 3553000   0.67829346   -4.0646193    2074.0622  0.048645797  0.047859341            5 
 3554000   0.68016608   -4.0462233    2072.4312  0.048593867  0.047848607            6 
 3555000   0.68393579   -4.0809643    2071.7612  0.048564491  0.047837926            4 
 3556000   0.68972686   -4.0835966     2069.789  0.048504617  0.047827137           13 
 3557000   0.67898695   -4.0880731    2069.7793  0.048490753  0.047816419            7 
 3558000   0.69676454   -4.0979964    2068.9888  0.048458609  0.047805715            7 
 3559000   0.66615646    -4.048132    2060.6673  0.048250147  0.047794954            4 
 3560000   0.68379514   -4.0692932    2069.5193  0.048443805  0.047784254            6 
 3561000   0.68596889    -4.074983     2074.435  0.048545234  0.047773577            5 
 3562000   0.66340662   -4.1000567    2071.1852  0.048455577  0.047762805            4 
 3563000   0.69216637   -4.0840841    2076.7592  0.048572346  0.047752095            7 
 3564000   0.68401927   -4.0728381    2075.4296  0.048527627   0.04774154            9 
 3565000   0.69375728   -4.0910505    2067.2414  0.048322613  0.047730799            5 
 3566000   0.67652923   -4.0717799    2068.6792  0.048342662  0.047720198           15 
 3567000   0.67002458   -4.0647979    2076.3787  0.048508988  0.047709577            3 
 3568000   0.67158065    -4.088296    2071.7361   0.04838696  0.047698936            5 
 3569000   0.67142465   -4.0765332    2079.4076  0.048552526  0.047688243            6 
 3570000   0.68009876    -4.090702     2074.185  0.048417017  0.047677608            3 
 3571000    0.6779852   -4.0673856    2072.5826  0.048366064  0.047666912            7 
 3572000   0.67804119   -4.0854683    2071.2387   0.04832117  0.047656249            4 
 3573000   0.69267457   -4.0980483    2071.9667  0.048324627  0.047645498            9 
 3574000   0.70496723   -4.0890967    2079.8367  0.048494606  0.047634768           12 
 3575000   0.66384127   -4.0755974    2070.2013  0.048256439  0.047624103           29 
 3576000   0.68444541   -4.0596764    2072.3173  0.048292256  0.047613469            8 
 3577000   0.67919352   -4.0881891    2078.8483  0.048430909  0.047602776            8 
 3578000   0.67627655   -4.0867057    2076.4684  0.048361943  0.047592161            8 
 3579000   0.67318728   -4.0741991    2079.7688  0.048425276  0.047581548            8 
 3580000   0.68156858   -4.0895356    2082.5689   0.04847693  0.047570919            3 
 3581000   0.68763086   -4.0814505    2076.8257  0.048329743  0.047560319            4 
 3582000   0.66103913   -4.0679245    2072.7857  0.048222263  0.047549713            8 
 3583000   0.66921287   -4.0657809    2072.9057  0.048211594  0.047539135           10 
 3584000   0.67922036   -4.0897167    2078.8042  0.048335291  0.047528553            5 
 3585000   0.67555305   -4.0858838    2078.5669  0.048316292  0.047518015            5 
 3586000   0.68386338   -4.0899703    2075.6582  0.048235225  0.047507466            6 
 3587000   0.67645965    -4.083513    2071.7377  0.048130697  0.047496917           10 
 3588000   0.69916224   -4.0940657    2077.3784  0.048248292  0.047486434            4 
 3589000   0.66451028   -4.0856438    2074.6138  0.048170656  0.047475848            4 
 3590000   0.68609337   -4.0571121    2079.4821  0.048270245  0.047465331            7 
 3591000   0.68464713   -4.0774684    2077.6193  0.048213573  0.047454781            6 
 3592000   0.67810051   -4.1088214    2074.6036  0.048130187  0.047444145            9 
 3593000   0.67739218   -4.0793465    2074.2197  0.048107888  0.047433582           12 
 3594000   0.67573955   -4.0742465     2075.737  0.048129684   0.04742292           12 
 3595000   0.67079419   -4.1004536    2082.0329  0.048262236   0.04741223           14 
 3596000   0.66844986   -4.0927068    2076.2245  0.048114213  0.047401558           10 
 3597000   0.67065958   -4.0907118    2079.2803  0.048171631  0.047390951            6 
 3598000   0.66835364   -4.0839762    2071.9383  0.047988195   0.04738035            6 
 3599000   0.67609345   -4.0691617    2080.8993   0.04818235  0.047369754           11 
 3600000   0.67565174   -4.0807763    2070.6377  0.047931428  0.047359094            7 
 3601000   0.67597849   -4.0772173    2073.6167  0.047987056  0.047348438            5 
 3602000   0.66943584   -4.0799914    2073.7901  0.047977747  0.047337728           15 
 3603000   0.69164835   -4.0824422    2079.2029  0.048089621  0.047327107            5 
 3604000   0.66751727   -4.0914125    2072.8886  0.047930277  0.047316439            3 
 3605000   0.66704836    -4.091999    2072.3181  0.047903793  0.047305774            5 
 3606000   0.68584449   -4.0669883    2085.3636  0.048191986  0.047295142            6 
 3607000   0.68124176   -4.1030778    2078.6816   0.04802425   0.04728456            9 
 3608000   0.69148951   -4.0963767    2072.8672  0.047876644  0.047273918            7 
 3609000   0.67020504   -4.0947569    2074.3611  0.047897874  0.047263267            7 
 3610000    0.6758469   -4.1095277    2072.0502  0.047831261   0.04725259            4 
 3611000   0.69366716   -4.0943364    2078.2633  0.047961398  0.047241935            5 
 3612000   0.68266078   -4.0816659    2078.3905  0.047951055  0.047231272           11 
 3613000   0.67348239   -4.0806403    2079.5822  0.047965268  0.047220637            9 
 3614000   0.67745667   -4.0806654    2084.5276  0.048066031  0.047210069            7 
 3615000   0.68280867   -4.0984149    2076.9098  0.047877127  0.047199481            7 
 3616000   0.68701193   -4.1005628    2075.7271  0.047836632  0.047188876            8 
 3617000   0.67441301   -4.0765288    2084.8504  0.048033599  0.047178315            9 
 3618000   0.66046574   -4.0990068    2075.7359   0.04781039  0.047167766            4 
 3619000   0.68280257   -4.0829486    2080.7583  0.047912829  0.047157144            3 
 3620000   0.66401549   -4.0904063      2082.12   0.04793094  0.047146603           11 
 3621000   0.67915532   -4.1029854    2076.0079  0.047777039  0.047136041           10 
 3622000   0.66240119   -4.0851918    2076.8419  0.047783036  0.047125485            6 
 3623000   0.66725775   -4.0943729    2082.9864  0.047911178  0.047114987            5 
 3624000   0.68369105   -4.0952113    2079.0234  0.047806828  0.047104348           13 
 3625000   0.65538201   -4.0934087     2079.691  0.047808989  0.047093695            6 
 3626000   0.67998935   -4.0832491    2086.5437  0.047953292  0.047083203            4 
 3627000   0.67958629   -4.1104375    2076.4201  0.047707474  0.047072639            7 
 3628000   0.67459844   -4.1018445     2077.827  0.047726639  0.047061996            9 
 3629000   0.68368473   -4.1005636    2076.1753  0.047675561  0.047051426            8 
 3630000   0.66241454   -4.0927953    2086.4586  0.047898499  0.047040716            8 
 3631000   0.66703161   -4.0861621    2083.4886  0.047817143  0.047030087           10 
 3632000   0.67777692   -4.0874822    2079.5118  0.047712735  0.047019505            5 
 3633000   0.66444113   -4.0903063    2080.6437  0.047725563  0.047008912            5 
 3634000   0.66047436    -4.082296     2084.314  0.047796596  0.046998297            6 
 3635000   0.67617427   -4.0910334    2080.9124  0.047705465  0.046987661            6 
 3636000   0.66455243   -4.0795146    2076.4957  0.047591118  0.046976924           24 
 3637000    0.6734442   -4.0766682    2089.8525  0.047884073  0.046966359            6 
 3638000   0.68094105   -4.0945765    2084.6761  0.047752338  0.046955792            8 
 3639000   0.66984819   -4.0986418     2087.321  0.047799784  0.046945184           10 
 3640000    0.6735311   -4.0721548    2086.5452  0.047768893  0.046934662            4 
 3641000   0.67494598   -4.0862477    2085.2643  0.047726455  0.046924295           10 
 3642000   0.66282827   -4.0835529    2082.8211  0.047657448  0.046913822            6 
 3643000     0.668856   -4.1256263    2085.4042  0.047703454  0.046903386            8 
 3644000   0.66801934   -4.0922996    2087.9143  0.047747765  0.046892869            8 
 3645000    0.6736694   -4.1007815    2092.2299  0.047833331  0.046882371            6 
 3646000   0.67371881   -4.0912376    2084.2517  0.047637862  0.046871928            8 
 3647000   0.65863037   -4.0769432    2094.4701  0.047858287   0.04686153            7 
 3648000   0.66627915   -4.0902537    2087.0262  0.047675124   0.04685105            6 
 3649000   0.66986806   -4.0988799    2089.6676   0.04772238  0.046840651            6 
 3650000   0.66862533   -4.1129828    2086.0527  0.047626774  0.046830222            9 
 3651000   0.66372114   -4.1017338     2089.588  0.047694421   0.04681985            9 
 3652000   0.65804448   -4.1145246    2090.5555   0.04770344  0.046809392            7 
 3653000   0.66454648   -4.1062309     2090.237  0.047683115  0.046798975           10 
 3654000   0.64793416   -4.1296687    2089.6789  0.047657337  0.046788532            8 
 3655000   0.67380224   -4.0863577    2098.1449  0.047837321  0.046778152            8 
 3656000   0.66932011   -4.1104493    2090.6255  0.047652842   0.04676787            9 
 3657000   0.67189209   -4.0815117     2098.906  0.047828502  0.046757547            5 
 3658000   0.67895892   -4.0819921    2094.4377  0.047713635  0.046747316            8 
 3659000   0.66160927   -4.0999895    2089.2954  0.047583479  0.046736997            7 
 3660000   0.67509571   -4.1121841    2087.8063  0.047536573    0.0467266           10 
 3661000    0.6695487   -4.0750052    2094.7747  0.047682206  0.046716213            3 
 3662000   0.66032266   -4.1021645    2086.6586  0.047484494  0.046705829            5 
 3663000   0.67053148   -4.1104095    2089.4589  0.047535237  0.046695386            6 
 3664000   0.67497388   -4.1006835    2089.3422   0.04751961  0.046684982            6 
 3665000    0.6796113   -4.1066009    2090.1424  0.047524839  0.046674587            8 
 3666000   0.66527029   -4.1103833    2094.0295  0.047600233  0.046664159            5 
 3667000   0.66331862   -4.1007519    2088.6625  0.047465286  0.046653726            6 
 3668000   0.66394159    -4.101395    2092.9079  0.047548797  0.046643305            6 
 3669000   0.66207796   -4.1211161    2086.3892   0.04738778  0.046632848            7 
 3670000     0.674424   -4.1044466    2082.4608  0.047285669  0.046622302            3 
 3671000   0.67166857   -4.1062566     2091.744   0.04748352  0.046611826            9 
 3672000    0.6752523   -4.0996321    2087.3202  0.047370193  0.046601322            3 
 3673000   0.67891793   -4.1088774    2089.7009  0.047411309   0.04659081            8 
 3674000   0.65874372   -4.1197846     2088.671  0.047375045  0.046580305           18 
 3675000   0.66673409   -4.1057345    2087.7533  0.047341344  0.046569884            8 
 3676000   0.65369351   -4.1204202     2092.103  0.047427071  0.046559485            5 
 3677000   0.67240272   -4.0891593    2089.6575  0.047358751  0.046549055            9 
 3678000   0.64757055   -4.0968376    2087.0092  0.047285871   0.04653864            9 
 3679000   0.66276855   -4.1210259    2090.8992   0.04736113  0.046528211            4 
 3680000   0.67907469   -4.1234606    2087.2844  0.047266405  0.046517776            4 
 3681000   0.67609256   -4.1261192    2081.5507  0.047123759  0.046507365           12 
 3682000   0.65464052   -4.1008835    2093.6084  0.047383859  0.046496998            6 
 3683000   0.64743401   -4.1184544    2090.6268  0.047303529  0.046486576            5 
 3684000   0.66109382   -4.1131394    2090.6295   0.04729075   0.04647609            7 
 3685000   0.66560742   -4.1018659    2092.1099  0.047311395  0.046465708            8 
 3686000   0.65363242    -4.096691    2093.0246  0.047319239  0.046455315            6 
 3687000   0.66532627   -4.0953909    2091.3397  0.047268324  0.046444908           10 
 3688000   0.66084423   -4.1217792    2089.8583  0.047222034  0.046434558           10 
 3689000   0.65396356   -4.1228087     2098.768  0.047410501  0.046424153            6 
 3690000   0.64620202   -4.1299198    2091.8545  0.047241519  0.046413663            5 
 3691000   0.65467398   -4.1155539    2093.1822  0.047258696  0.046403195            4 
 3692000   0.65638948   -4.1098936    2087.9336  0.047127428  0.046392764           12 
 3693000   0.65964236   -4.1243493    2082.8608  0.047000199  0.046382271           10 
 3694000   0.67408545   -4.1080145    2093.3393  0.047223861  0.046371902            7 
 3695000   0.67574649    -4.125652    2084.4327  0.047010211  0.046361473            5 
 3696000   0.65236213   -4.1525201    2090.3754  0.047131479  0.046350995           15 
 3697000   0.66651275   -4.1218754    2094.0129  0.047200723  0.046340544            6 
 3698000   0.65680193   -4.1056394    2089.9339  0.047096041  0.046330221           14 
 3699000   0.66197544   -4.1323837    2088.2377  0.047045095  0.046319777            7 
 3700000   0.64965661    -4.137431    2092.6067  0.047130781  0.046309367            6 
 3701000   0.65356223   -4.1103713    2102.1967  0.047333979  0.046298936            6 
 3702000   0.66878813   -4.1392954    2092.4428  0.047101629  0.046288481            6 
 3703000   0.65340385   -4.1376624    2088.6919  0.047004499  0.046278081            8 
 3704000   0.65542536   -4.1477983    2095.3098    0.0471407  0.046267594           16 
 3705000    0.6595839   -4.1136683    2093.8976  0.047096211  0.046257124            9 
 3706000   0.65573484   -4.1139533    2094.9176   0.04710644  0.046246702            7 
 3707000   0.65020378   -4.1048924    2097.3373  0.047148128  0.046236309            9 
 3708000   0.66805106   -4.1221089    2092.0575  0.047016754  0.046225816            6 
 3709000   0.65854192   -4.1191966    2090.0512  0.046959002  0.046215399            6 
 3710000   0.68030376   -4.1143561    2094.4529  0.047045214  0.046204888            4 
 3711000     0.667119   -4.1181994    2096.8087  0.047085438  0.046194426           15 
 3712000   0.66024721   -4.1100102    2102.9825  0.047211352  0.046183989            3 
 3713000   0.65052023   -4.1205973    2089.3532  0.046892746  0.046173579           11 
 3714000   0.65804891   -4.1040698    2099.5363  0.047108606  0.046163247            9 
 3715000    0.6551152   -4.1387619    2090.5217  0.046893713  0.046152867           10 
 3716000   0.66133311   -4.0913398    2101.1493  0.047119424  0.046142457            8 
 3717000   0.65425571   -4.1129423    2094.9884  0.046968621  0.046132114           11 
 3718000    0.6498516   -4.1131315    2096.2213  0.046983623  0.046121784            3 
 3719000   0.65532872   -4.1066295    2095.7252  0.046959872  0.046111439            9 
 3720000   0.65763687   -4.1369393    2092.7727  0.046881109  0.046101119           10 
 3721000   0.66745693   -4.1337874    2102.2218  0.047080125  0.046090759            8 
 3722000   0.66480954   -4.1153631    2101.7844  0.047057684  0.046080416           14 
 3723000    0.6593863   -4.1270624      2100.12  0.047007788  0.046070072           13 
 3724000   0.64844828   -4.1301118    2095.0164  0.046880962  0.046059682            8 
 3725000   0.64262181   -4.1524378    2099.2785  0.046963725  0.046049393            6 
 3726000   0.65180821   -4.1356173    2095.4483  0.046865456  0.046039107            8 
 3727000   0.65959571   -4.1372561    2102.4116  0.047008578  0.046028874            5 
 3728000   0.64252912   -4.1493235    2095.3331  0.046837739  0.046018527            5 
 3729000   0.65077941   -4.1171852      2102.73   0.04699048  0.046008197            4 
 3730000   0.66474986   -4.1477479    2096.3549  0.046835453  0.045997832            7 
 3731000   0.64763145   -4.1440317    2104.3984  0.047002554  0.045987518            6 
 3732000   0.66571101   -4.1313063    2095.9458   0.04680122  0.045977113           11 
 3733000     0.649578   -4.1256838    2097.2237  0.046817209  0.045966866            5 
 3734000    0.6678308   -4.1261982    2102.6423  0.046925601  0.045956588            7 
 3735000   0.64932948   -4.1245436    2101.3452  0.046884097    0.0459463           15 
 3736000   0.65184335   -4.1428967    2108.4444  0.047029897  0.045936055            8 
 3737000   0.65191916   -4.1415687    2098.2932  0.046790946   0.04592582            3 
 3738000   0.64235341   -4.1299883    2099.0365  0.046794999  0.045915528           11 
 3739000   0.64861706   -4.1513619    2096.5474  0.046727008  0.045905259            8 
 3740000   0.64865324   -4.1279146    2101.7692  0.046830866  0.045894959            6 
 3741000   0.67147585   -4.1387258    2101.7518  0.046817958  0.045884725           10 
 3742000   0.66994568   -4.1430971     2105.388  0.046886424  0.045874486            9 
 3743000   0.66296555   -4.1207038    2110.2838  0.046982897  0.045864289            9 
 3744000   0.65661489   -4.1397514    2107.3363  0.046904744  0.045854196            6 
 3745000   0.65844592   -4.1351749    2103.9513  0.046816895  0.045844094            8 
 3746000    0.6529052   -4.1286427    2103.7027  0.046798867  0.045833944           18 
 3747000   0.64248177   -4.1430087     2107.341  0.046867294   0.04582378           10 
 3748000   0.66311658   -4.1307035    2109.2688  0.046897652  0.045813622            9 
 3749000   0.65967084   -4.1349327    2104.5859  0.046781051  0.045803591           12 
 3750000   0.65092281   -4.1106003    2108.4656  0.046854792  0.045793511            6 
 3751000   0.64710536   -4.1426992    2103.7241  0.046736962  0.045783386            9 
 3752000   0.66045154   -4.1318181    2108.7256  0.046835589   0.04577327            5 
 3753000   0.66021657   -4.1480548    2104.3129   0.04672513   0.04576315            8 
 3754000   0.64914933   -4.1206144    2109.6599  0.046831377  0.045752994           14 
 3755000   0.66130347   -4.1610128    2108.9113  0.046802293  0.045742888           14 
 3756000   0.65905463    -4.132749    2110.6156  0.046827644  0.045732721            2 
 3757000    0.6478251   -4.1349931    2108.6785  0.046772213  0.045722601            8 
 3758000   0.63846083   -4.1482092    2104.2661  0.046661923  0.045712428            7 
 3759000    0.6532253   -4.1431733    2108.5264  0.046743957  0.045702278            5 
 3760000   0.65111836   -4.1148508    2105.4375  0.046663065  0.045692165           12 
 3761000   0.61784136   -4.1298588    2104.7965  0.046636455  0.045682032           10 
 3762000    0.6551067   -4.1391699    2104.3082  0.046613242  0.045671918            5 
 3763000   0.66057925   -4.1520143    2107.6934  0.046675821  0.045661774           14 
 3764000    0.6565665   -4.1033652    2112.6862   0.04677396   0.04565166            8 
 3765000   0.64519175   -4.1377447    2109.7168  0.046695811  0.045641609           14 
 3766000   0.64177581   -4.1324767    2108.3659   0.04665352  0.045631553            9 
 3767000   0.63931354   -4.1347858    2107.6035  0.046624269  0.045621457           13 
 3768000   0.64562514    -4.145639    2107.8383  0.046617089  0.045611314            9 
 3769000   0.64616983    -4.123904    2104.9824  0.046541575  0.045601216            8 
 3770000   0.65699988   -4.1215029    2109.3043  0.046624763  0.045591071            6 
 3771000   0.64030526    -4.140871    2110.4402  0.046637501  0.045580885            6 
 3772000   0.64708076   -4.1403262    2104.2111  0.046487519  0.045570787            7 
 3773000   0.64417645   -4.1201575    2108.8106  0.046576788  0.045560717           15 
 3774000   0.64628422   -4.1544587    2111.4312  0.046622312  0.045550655            5 
 3775000   0.64471779    -4.151648    2103.3613  0.046431816  0.045540604            3 
 3776000   0.64550414    -4.121494    2108.9452  0.046542753  0.045530578            7 
 3777000   0.63350283   -4.1643833    2115.5265  0.046675635  0.045520574           18 
 3778000   0.65500403   -4.1308871    2110.0109  0.046541621   0.04551057            8 
 3779000   0.64095607   -4.1435443    2106.3739  0.046449101  0.045500532            4 
 3780000   0.64250382   -4.1514822    2110.7439  0.046533155  0.045490471            8 
 3781000   0.65129938   -4.1335213    2111.1572  0.046529957  0.045480377            4 
 3782000   0.65035475   -4.1451842    2115.3777   0.04661065  0.045470273            4 
 3783000   0.63174888   -4.1315614    2113.4429  0.046555708  0.045460194            6 
 3784000   0.64513847   -4.1498869    2114.3118  0.046562539   0.04545017            9 
 3785000   0.64029921   -4.1250498    2118.8104  0.046649283  0.045440182            3 
 3786000   0.64432943   -4.1298238    2109.2887  0.046427379  0.045430257            7 
 3787000   0.64844228   -4.1296914    2114.8983   0.04653856  0.045420234            7 
 3788000   0.64806464   -4.1442161    2110.9548   0.04643952   0.04541026           16 
 3789000   0.65103941   -4.1443605    2110.3365  0.046413664  0.045400171           10 
 3790000   0.64056099   -4.1281235    2114.2291  0.046487007  0.045390063            6 
 3791000   0.64346262   -4.1603979    2111.6679  0.046418445  0.045380044            5 
 3792000   0.64493492   -4.1416469    2114.2174  0.046462233  0.045370012            5 
 3793000   0.63104558   -4.1591814    2115.9925  0.046488983  0.045360016            7 
 3794000   0.64209482   -4.1503266    2117.2556  0.046504472  0.045349984            6 
 3795000   0.64535799   -4.1261101    2114.5299  0.046432365  0.045339971            6 
 3796000   0.63951754   -4.1567026    2113.3724  0.046394723   0.04533001           13 
 3797000   0.66340407   -4.1497061    2104.9033   0.04619663  0.045319939            6 
 3798000   0.63482498   -4.1610887    2112.0093  0.046340382  0.045309834           14 
 3799000   0.64019738   -4.1439311    2114.3859  0.046380318   0.04529982           17 
 3800000   0.66209043   -4.1534197    2116.1004   0.04640571  0.045289767            9 
 3801000    0.6495945   -4.1385371    2118.5059  0.046446239  0.045279743           20 
 3802000   0.65991135   -4.1533112    2106.9638  0.046181041  0.045269724            9 
 3803000   0.64475581   -4.1453553    2113.6958  0.046316412  0.045259698            8 
 3804000   0.65097627   -4.1481916    2111.6438  0.046259284  0.045249743            8 
 3805000   0.64511271   -4.1428353    2112.4403  0.046264572  0.045239734           10 
 3806000   0.63030433   -4.1511941      2112.25  0.046248248  0.045229732            7 
 3807000   0.65359726   -4.1440086    2116.9231  0.046338393  0.045219701            7 
 3808000   0.64534448   -4.1430495    2122.6341  0.046451202  0.045209709            8 
 3809000   0.63736784   -4.1559437    2113.2284  0.046233229  0.045199758           16 
 3810000   0.65015438   -4.1355254    2118.9053  0.046345261  0.045189764           12 
 3811000    0.6377623   -4.1316247     2116.615  0.046283018  0.045179793           12 
 3812000    0.6414293   -4.1554041    2112.4521  0.046179872  0.045169889           13 
 3813000   0.61491164   -4.1602476    2113.6912  0.046194842  0.045159879            9 
 3814000   0.64621397   -4.1587088    2113.0835  0.046169453  0.045149866            8 
 3815000   0.64647674   -4.1447976    2118.4557  0.046274699  0.045139889            8 
 3816000    0.6269257   -4.1463127    2113.6425  0.046157461  0.045129915            9 
 3817000     0.639925   -4.1409457    2120.4562  0.046294126  0.045119838            6 
 3818000   0.64221231   -4.1569135     2115.605  0.046176117  0.045109883           10 
 3819000    0.6547792   -4.1563797     2121.059  0.046283037  0.045099932            7 
 3820000   0.64502598   -4.1386468    2119.9075  0.046245801  0.045089993            9 
 3821000   0.64473932   -4.1559254    2123.1507  0.046304429  0.045080109           13 
 3822000    0.6320783   -4.1590045    2117.2251  0.046163116  0.045070195           19 
 3823000   0.63590595    -4.145022    2123.3076  0.046283625   0.04506028           15 
 3824000   0.63592773   -4.1622361     2115.528  0.046101987  0.045050237           11 
 3825000   0.65070933   -4.1383078     2125.538  0.046308018  0.045040281            6 
 3826000   0.64894412   -4.1457721    2117.4892  0.046120605  0.045030398           15 
 3827000   0.63798993   -4.1727166    2119.2527  0.046146954  0.045020472            6 
 3828000   0.65803929   -4.1546279    2121.8325  0.046191059  0.045010591            6 
 3829000   0.62391007   -4.1978815    2119.6629  0.046131776  0.045000657            6 
 3830000   0.65277552   -4.1575735     2120.839  0.046145322   0.04499068            9 
 3831000   0.62655254   -4.1488173    2123.5861  0.046193033  0.044980827            9 
 3832000   0.63729954    -4.142515    2118.0916   0.04606149  0.044970934           10 
 3833000   0.63268155   -4.1363488    2118.6147  0.046060847  0.044961052            9 
 3834000   0.63722204   -4.1297269    2120.2576  0.046084542  0.044951244            9 
 3835000    0.6368164   -4.1582211    2123.8483   0.04615055  0.044941393            7 
 3836000   0.64571965   -4.1739963    2125.5554  0.046175605  0.044931474            8 
 3837000   0.62860394   -4.1666758    2118.0787  0.046001187  0.044921531            9 
 3838000   0.64713889   -4.1718397    2119.4298  0.046018538  0.044911621            7 
 3839000   0.63423909   -4.1676245     2126.212  0.046153773  0.044901787            5 
 3840000   0.61815905   -4.1774405    2120.0995  0.046009104  0.044891895            7 
 3841000   0.63785034    -4.176928    2126.2669  0.046130932  0.044882034            8 
 3842000   0.63970881   -4.1504311    2119.6069  0.045974469  0.044872197            7 
 3843000   0.63945381   -4.1633849    2122.7112  0.046029821  0.044862443           10 
 3844000   0.65742678   -4.1643383    2123.0468  0.046025122  0.044852637            8 
 3845000   0.62861692   -4.1724774    2122.9593  0.046011254  0.044842856           20 
 3846000   0.64103793    -4.147901    2123.5627  0.046012366  0.044833117            3 
 3847000   0.63861842   -4.1617111    2126.6155  0.046066534  0.044823376            6 
 3848000   0.62993146   -4.1673747    2130.8625  0.046146536  0.044813637            8 
 3849000   0.63258353   -4.1756644    2123.9614  0.045985135  0.044803897           16 
 3850000   0.63430862   -4.1529718    2124.2178   0.04597874  0.044794143           11 
 3851000   0.64465542    -4.138557    2125.1574  0.045987133  0.044784375            9 
 3852000   0.61652077   -4.1493722    2128.5186  0.046047909  0.044774579            9 
 3853000   0.64336097   -4.1587848    2125.5988  0.045972808  0.044764791            7 
 3854000   0.63058857   -4.1678531    2129.2749  0.046040368  0.044755024            6 
 3855000   0.63748669   -4.1918308     2124.025  0.045914937  0.044745264            5 
 3856000   0.63577673   -4.1624157    2127.3154  0.045974141  0.044735488            5 
 3857000   0.63570505   -4.1569062    2128.6679  0.045991442  0.044725721            8 
 3858000   0.63608367    -4.153831    2130.1448  0.046011423  0.044715957            6 
 3859000   0.63567611   -4.1487034    2125.9095  0.045908039  0.044706202            8 
 3860000   0.63430634   -4.1688638    2127.9747  0.045940732  0.044696482           10 
 3861000   0.64809528   -4.1560402    2130.8545  0.045990988  0.044686752           11 
 3862000    0.6347831   -4.1504468    2124.5734  0.045843547  0.044677051            8 
 3863000   0.63283426   -4.1648073    2122.9953  0.045797637  0.044667345            5 
 3864000     0.633384   -4.1541963    2122.8666  0.045783011  0.044657579            8 
 3865000   0.64561913   -4.1580013    2132.5606  0.045980176  0.044647824           10 
 3866000   0.63182125   -4.1753402    2125.4472  0.045814951   0.04463806           11 
 3867000   0.64161513   -4.1651749    2130.3041  0.045907768   0.04462826           15 
 3868000   0.63543612   -4.1655458    2127.2015  0.045829057   0.04461852           10 
 3869000   0.62344412   -4.1723379    2126.5936  0.045804117  0.044608802           17 
 3870000   0.62514214   -4.1576654    2131.0069  0.045887314  0.044599102            5 
 3871000    0.6271149   -4.1659605    2124.1874  0.045728653  0.044589344            7 
 3872000   0.63318201   -4.1771388    2125.6979  0.045749352  0.044579528            6 
 3873000   0.63846731    -4.170529    2125.7406  0.045738458  0.044569683            7 
 3874000   0.62002661   -4.1560729    2128.3251  0.045782247  0.044559941            9 
 3875000   0.63462857   -4.1776834    2132.9821  0.045870584  0.044550195           10 
 3876000   0.62094417    -4.168779     2126.226  0.045713492  0.044540514            8 
 3877000   0.62637644   -4.1680106     2125.856  0.045693749  0.044530807            9 
 3878000   0.63801635   -4.1845967    2127.0658  0.045707963  0.044521073           10 
 3879000   0.62116851   -4.1553635    2130.2172  0.045763882  0.044511415           23 
 3880000   0.62169711   -4.1847654    2128.8991  0.045723777  0.044501766            9 
 3881000   0.63803561   -4.1664604      2135.12  0.045845572  0.044492103            9 
 3882000    0.6424398    -4.167629    2134.2145  0.045814324  0.044482471           10 
 3883000   0.63549269   -4.1622252    2137.3815  0.045870493  0.044472848            8 
 3884000   0.62092732   -4.1655033    2132.9456  0.045763507  0.044463205            6 
 3885000   0.61580385    -4.172199    2133.7441  0.045768857  0.044453565            6 
 3886000   0.62603633   -4.1635571    2129.6257  0.045668761  0.044443911            7 
 3887000   0.63194818   -4.1561547    2131.1706  0.045690135  0.044434217           20 
 3888000   0.63958391   -4.1655807    2131.3632   0.04568251  0.044424502            5 
 3889000   0.62013707   -4.1785562    2136.1143  0.045772569  0.044414824            7 
 3890000   0.63695739   -4.1749461    2128.2285  0.045591869  0.044405114            7 
 3891000   0.63789549   -4.1718479    2121.5049  0.045436153  0.044395352            8 
 3892000   0.63093666    -4.169528    2132.7484   0.04566522  0.044385553            7 
 3893000    0.6328597   -4.1615781    2125.0959  0.045489681  0.044375811            6 
 3894000   0.63089991   -4.1633605     2132.316  0.045632512  0.044366034           17 
 3895000   0.63720756   -4.1841188     2127.194  0.045511211  0.044356246           16 
 3896000   0.62522916   -4.1780869    2129.5125   0.04554912  0.044346458            6 
 3897000    0.6355474   -4.1837766    2126.9162  0.045481913  0.044336649           27 
 3898000   0.61592497   -4.1816913    2126.1429  0.045453713  0.044326859           12 
 3899000   0.62665016   -4.1766022    2129.4165  0.045512023  0.044317073            5 
 3900000   0.62117088   -4.1854634    2125.6887  0.045420699  0.044307235           29 
 3901000   0.62666408   -4.1881299     2129.208  0.045484234  0.044297448            8 
 3902000   0.62603155   -4.1877616    2131.1667   0.04551441  0.044287653            4 
 3903000   0.64209149   -4.1716511    2123.5755  0.045340668  0.044277843            8 
 3904000   0.62672835   -4.1730389    2131.8352  0.045505362  0.044268021           24 
 3905000   0.62420665   -4.1777487    2121.4153  0.045271347  0.044258174           20 
 3906000   0.63597624   -4.1869702    2130.2415   0.04544806  0.044248215            4 
 3907000   0.63283297   -4.1925092    2124.0499  0.045304366  0.044238265           17 
 3908000   0.61335785   -4.1553654    2132.8764  0.045480989  0.044228334           13 
 3909000   0.62639546   -4.1949465    2123.2334   0.04526378  0.044218426            7 
 3910000   0.62716275    -4.186225    2126.3062  0.045317694  0.044208552            7 
 3911000    0.6303474   -4.1903713    2128.5114  0.045353093  0.044198644            8 
 3912000   0.64521236   -4.2026698    2119.8993  0.045158046  0.044188766            8 
 3913000   0.62320552   -4.1820484    2123.5438  0.045224121  0.044178909            4 
 3914000   0.64156729   -4.1949628    2129.1941  0.045332867  0.044169091            7 
 3915000   0.61556231   -4.2009087    2122.7581  0.045184294  0.044159196            9 
 3916000   0.61876993   -4.1774737    2132.6695  0.045383671  0.044149353           12 
 3917000   0.63818093   -4.1724689    2128.8038  0.045289843  0.044139511            7 
 3918000   0.60966733   -4.1706139    2126.3789  0.045226707   0.04412965            6 
 3919000   0.62668475   -4.1882716    2128.9061  0.045268905  0.044119885           11 
 3920000   0.62284915   -4.1656011    2131.4461  0.045311353  0.044110103            8 
 3921000   0.62091208   -4.1597483    2129.5316   0.04525911  0.044100316            9 
 3922000   0.63575525    -4.175795    2132.0575   0.04530124  0.044090532           10 
 3923000   0.61259149   -4.1760045    2128.4842  0.045213787  0.044080693            6 
 3924000   0.60689338    -4.183937    2128.0279  0.045192573  0.044070896            8 
 3925000   0.62786975    -4.166441    2129.3704  0.045209563  0.044061016           11 
 3926000   0.62197024   -4.1913292    2126.8883  0.045145362  0.044051195            8 
 3927000   0.62561228   -4.1933103    2121.5308  0.045020176  0.044041285            7 
 3928000   0.61361007   -4.1810517    2128.0943  0.045147961  0.044031419            6 
 3929000   0.61447369    -4.190421    2136.1895  0.045308168  0.044021584            4 
 3930000   0.62452943   -4.1634779    2132.4453  0.045217246  0.044011812           18 
 3931000    0.6132138   -4.1766371    2128.7929  0.045128316   0.04400199            6 
 3932000   0.62903712   -4.2101291    2125.3103  0.045043029  0.043992124            5 
 3933000   0.64187059   -4.1762227    2134.2481  0.045220953  0.043982287           13 
 3934000   0.62138958   -4.1679911    2135.1295   0.04522813  0.043972488           17 
 3935000   0.62392921   -4.1910302    2130.4718  0.045117996  0.043962682           11 
 3936000   0.63708141    -4.203743    2127.5739  0.045045178  0.043952892            5 
 3937000   0.61932273   -4.1960807    2125.6963  0.044993994  0.043942983            9 
 3938000   0.62241967   -4.1965608    2127.5648  0.045022109  0.043933029            9 
 3939000   0.62189214   -4.1847067     2131.598  0.045096006  0.043923228            9 
 3940000   0.62465625   -4.1775012    2137.7229  0.045214105  0.043913363            9 
 3941000   0.62143872   -4.1919605    2132.8855  0.045100345  0.043903516           14 
 3942000   0.62764844    -4.188368      2131.96  0.045069338  0.043893669           14 
 3943000   0.61816211   -4.1758904    2136.7873  0.045159932  0.043883939            7 
 3944000    0.6264811   -4.2173091    2129.5366  0.044995279  0.043874098           11 
 3945000   0.62753695   -4.1855152    2131.4295   0.04502386  0.043864269            4 
 3946000   0.62027127   -4.1933456    2127.2827  0.044924876  0.043854499            5 
 3947000   0.62329095   -4.1811949    2135.9995  0.045097532  0.043844698            7 
 3948000   0.62764773   -4.1954668    2132.7848  0.045018254   0.04383496            7 
 3949000   0.62164482   -4.1787475    2127.9902  0.044905676  0.043825228           13 
 3950000   0.61881064   -4.1809709    2135.4998  0.045052739  0.043815482           14 
 3951000   0.62875583   -4.1841088    2132.3184  0.044974234  0.043805737            9 
 3952000   0.62891257   -4.2102658    2136.4238  0.045049422  0.043795989           10 
 3953000   0.61013633   -4.1916874    2134.7102  0.045001902  0.043786235            8 
 3954000   0.60557541   -4.1909445    2133.0172  0.044954839  0.043776524           13 
 3955000   0.61607827   -4.1994233    2134.8206  0.044981471  0.043766784           15 
 3956000   0.62043205   -4.2014299    2133.7946  0.044948488   0.04375701           12 
 3957000   0.62726894   -4.2024105    2133.5601  0.044932189  0.043747205            9 
 3958000   0.59692512   -4.2094595    2134.2161  0.044934649   0.04373748           15 
 3959000   0.61590591   -4.1849173    2140.1557  0.045048321  0.043727723           10 
 3960000   0.62337936   -4.1955757    2135.6609  0.044942359  0.043718029           10 
 3961000   0.62806115   -4.1954052    2133.6123  0.044887914  0.043708334            4 
 3962000   0.62112259   -4.2062458    2140.6126  0.045023823  0.043698602            7 
 3963000   0.62159703   -4.2052465     2130.142  0.044792287  0.043688857           22 
 3964000   0.63357166   -4.1904342    2142.5918  0.045042715  0.043679107            9 
 3965000   0.62076419   -4.1963122    2135.8892  0.044890483  0.043669406            4 
 3966000    0.6267964   -4.1983375    2140.4751  0.044975523  0.043659736           13 
 3967000   0.61580415   -4.2155174    2137.5743  0.044903249  0.043650028            8 
 3968000   0.61359732   -4.2136058    2131.9054  0.044772879  0.043640259            5 
 3969000   0.61167349   -4.2008661    2136.2601   0.04485303  0.043630525            5 
 3970000   0.62265531   -4.2209124    2131.5773  0.044743437  0.043620858            9 
 3971000   0.61239813   -4.1809213    2137.5866  0.044858277  0.043611159            8 
 3972000   0.60123715   -4.1949381    2131.2182  0.044713374  0.043601426            9 
 3973000   0.61288643    -4.179134    2136.4064   0.04481094  0.043591708            6 
 3974000   0.62438349   -4.1865811    2140.8366  0.044892565  0.043582033            8 
 3975000   0.61578191   -4.2140468    2133.0049  0.044717084  0.043572336            5 
 3976000   0.62125567   -4.2076798    2138.7726  0.044826723  0.043562636           11 
 3977000   0.61442234   -4.2003106    2143.3739  0.044911867  0.043552904            5 
 3978000   0.61787215   -4.2038393     2137.722  0.044782178  0.043543289            5 
 3979000   0.61300257   -4.1928191    2139.3977  0.044806016  0.043533641           19 
 3980000   0.62122797   -4.1943498     2137.099  0.044746628  0.043523949           14 
 3981000   0.63546655   -4.1927026    2133.6246  0.044662661  0.043514255           10 
 3982000   0.60996458   -4.2007763    2135.8941  0.044698939   0.04350454            7 
 3983000   0.61676182    -4.210869    2138.2233  0.044736448  0.043494822            5 
 3984000   0.62354591    -4.193674    2140.0179  0.044762758  0.043485133           15 
 3985000   0.60743276   -4.2010723     2138.152  0.044712505  0.043475387            8 
 3986000   0.59746158   -4.1909861    2133.6581  0.044607335  0.043465651           10 
 3987000   0.61439445   -4.2157592    2136.1277  0.044647765  0.043455961            9 
 3988000    0.6055896   -4.2059143     2132.048  0.044551321  0.043446213           11 
 3989000   0.61972697   -4.2210581    2135.2643  0.044607343  0.043436446           18 
 3990000   0.61335782   -4.2083319    2134.9647  0.044589906  0.043426687            8 
 3991000   0.63299567   -4.2181105    2139.8583  0.044680913  0.043416891           27 
 3992000   0.61930722   -4.1891679     2138.798  0.044647588  0.043407198            5 
 3993000   0.62123346    -4.207155    2137.7285  0.044614086  0.043397418           13 
 3994000   0.61030476   -4.2077334    2131.0675  0.044463936  0.043387626            7 
 3995000   0.60355567   -4.2026326    2140.2671  0.044644704  0.043377902            5 
 3996000   0.61348326   -4.2053947     2140.734  0.044643268  0.043368138           12 
 3997000   0.60996571   -4.1955929    2127.8935  0.044364387  0.043358361            7 
 3998000   0.61957698   -4.1901258    2140.2965  0.044611817  0.043348617            7 
 3999000   0.62299479   -4.1971173    2138.1286  0.044555486  0.043338879            9 
 4000000   0.60435702   -4.2129061    2136.0092  0.044500191  0.043329116           24 
 4001000   0.60802634   -4.1989441     2137.118  0.044512164  0.043319403            7 
 4002000   0.61569227   -4.2281291    2136.3526  0.044485103  0.043309651            9 
 4003000   0.61784226   -4.1952694    2140.8858  0.044568362   0.04329997            6 
 4004000   0.60752054   -4.2292975    2138.4802  0.044507165  0.043290284           14 
 4005000   0.61068777   -4.2171393    2138.0891  0.044487912  0.043280592           12 
 4006000   0.60725096   -4.2288667    2139.2663  0.044501296  0.043270828           10 
 4007000   0.60841584    -4.211575    2136.5997  0.044434733  0.043261078           10 
 4008000   0.60591021   -4.1957162    2137.8285  0.044449195  0.043251366           24 
 4009000   0.60842061   -4.1891511    2138.3066  0.044448045  0.043241625           13 
 4010000   0.60091344   -4.1981406    2137.1388  0.044412693  0.043231949            5 
 4011000   0.61492424   -4.2164958     2128.408  0.044220227  0.043222204            6 
 4012000   0.60181991   -4.2300658    2132.4568  0.044293303  0.043212402            8 
 4013000   0.61174614   -4.1994671    2139.9176  0.044437196  0.043202633            8 
 4014000   0.61131282    -4.195705    2140.4408  0.044436987  0.043192881            7 
 4015000   0.61279667    -4.194701    2138.9162  0.044394275  0.043183201            9 
 4016000   0.61040149   -4.2048299    2134.2312  0.044286005   0.04317341            9 
 4017000   0.61107192   -4.1970199     2135.686  0.044305162  0.043163671            7 
 4018000   0.60945526   -4.2209366    2143.0319  0.044446488  0.043153912            7 
 4019000   0.60164697   -4.2038534    2140.6844  0.044386755  0.043144185           10 
 4020000   0.61380773   -4.2189443    2128.9866  0.044133221  0.043134389           18 
 4021000   0.60002082   -4.2265474    2138.7477  0.044324539  0.043124554            8 
 4022000   0.60605336    -4.204143    2140.7074  0.044354123  0.043114761            9 
 4023000   0.60638102   -4.1978382    2139.1858  0.044311579  0.043104991            8 
 4024000   0.61803609   -4.2302735    2133.4941  0.044182698  0.043095252            8 
 4025000   0.58582177   -4.2154034    2134.2629  0.044187637  0.043085476            7 
 4026000   0.61288199   -4.2073312     2141.085  0.044317871   0.04307565           11 
 4027000   0.60981864   -4.2155935    2135.8238  0.044197992  0.043065872           10 
 4028000   0.61237235   -4.2169342    2138.8043  0.044248682  0.043056072           12 
 4029000   0.61586118   -4.2221052    2134.7985  0.044154846  0.043046295           10 
 4030000   0.61887765   -4.2113487    2136.6543  0.044182264  0.043036511            6 
 4031000   0.60396923   -4.2177468    2136.1776   0.04416145  0.043026744            6 
 4032000   0.59726217   -4.2128885    2143.7336  0.044306664  0.043017011            7 
 4033000   0.62446065   -4.2177202    2132.9685   0.04407324  0.043007227            7 
 4034000    0.6080715   -4.2077014     2139.582  0.044198933  0.042997436            6 
 4035000   0.60907483   -4.2249114    2130.9351  0.044009398  0.042987639           12 
 4036000   0.60236245   -4.2318233    2138.0615  0.044145636  0.042977829            7 
 4037000    0.6041749   -4.2308675    2139.5585  0.044165603  0.042968028           10 
 4038000   0.60157004   -4.2317662     2132.502  0.044009038  0.042958313           14 
 4039000   0.60291071   -4.2000723    2138.0069  0.044111721  0.042948543           25 
 4040000   0.60657184   -4.2325876    2141.1928  0.044166518  0.042938787           10 
 4041000   0.60703877   -4.2031955    2139.4514  0.044119678  0.042929143            8 
 4042000   0.59839895   -4.1924942    2144.9892  0.044222935  0.042919474           12 
 4043000   0.59524316   -4.2316862    2147.7168  0.044268216  0.042909806           10 
 4044000   0.61404225   -4.2196334    2144.8859  0.044198934  0.042900156           11 
 4045000   0.60427822   -4.2407513    2134.8515  0.043981284  0.042890407           10 
 4046000   0.59760768   -4.2434974    2139.7854  0.044072033  0.042880637            6 
 4047000   0.59269245   -4.2489243    2143.9561  0.044147025  0.042870906           13 
 4048000   0.59817282   -4.2151812    2143.7448  0.044131768  0.042861203           10 
 4049000   0.60129576   -4.2299817    2141.6845  0.044078465  0.042851563            9 
 4050000   0.59485854   -4.2305918    2141.2662  0.044058975  0.042841905           21 
 4051000   0.61120187   -4.2268048    2139.6246  0.044014329  0.042832267            6 
 4052000   0.59888266   -4.2187936    2141.0014  0.044031783  0.042822631            7 
 4053000   0.59803043   -4.2212372    2142.2408  0.044046402   0.04281298           10 
 4054000   0.61637901   -4.2217897    2141.4356  0.044018985  0.042803279           10 
 4055000   0.59847861    -4.221574    2143.1097  0.044042534  0.042793604           11 
 4056000    0.6091442   -4.2388502    2139.9288  0.043966321  0.042783919           10 
 4057000   0.60989994   -4.2173038     2141.817   0.04399427  0.042774222           18 
 4058000   0.60582645    -4.216021    2142.5381  0.043998237  0.042764594            7 
 4059000   0.61066951   -4.2222758    2142.5026  0.043986667  0.042754938           13 
 4060000   0.60759863   -4.2248759    2139.2449  0.043908968   0.04274524           12 
 4061000   0.59370616   -4.2347354    2137.6756  0.043865953  0.042735456            6 
 4062000   0.59996073   -4.2199395    2139.8332  0.043899417  0.042725719           15 
 4063000   0.60762328   -4.2246931    2144.6411  0.043987224  0.042716007           14 
 4064000   0.60229392   -4.2357008    2142.5251  0.043933011  0.042706254            9 
 4065000     0.601335   -4.2352934    2138.3753  0.043837132  0.042696521            6 
 4066000   0.59734907   -4.2424681    2137.3919  0.043806195  0.042686775           16 
 4067000   0.59940341    -4.218545    2142.2726  0.043895431   0.04267708            4 
 4068000   0.61144835    -4.214814    2143.2703  0.043905077  0.042667382            8 
 4069000   0.61183488   -4.1987707     2147.513  0.043981179  0.042657679           13 
 4070000   0.58370808   -4.2305694    2141.6166  0.043849644  0.042647999           11 
 4071000   0.62285434   -4.2340207     2137.984  0.043764513  0.042638253            8 
 4072000   0.60767052   -4.2416268    2141.7305  0.043830437   0.04262849           15 
 4073000   0.61915131   -4.2336276     2142.731  0.043840146  0.042618725           13 
 4074000   0.59623293   -4.2305374    2138.2262  0.043737241  0.042608972           12 
 4075000   0.59430707    -4.225302     2135.661  0.043674049  0.042599178            8 
 4076000   0.59049292   -4.2353593    2142.9604  0.043812569  0.042589421            3 
 4077000    0.5933282   -4.2200194    2141.8639   0.04377941  0.042579651           22 
 4078000   0.60360445   -4.2554426     2137.796  0.043685548  0.042569849           18 
 4079000   0.59276556   -4.2404848    2135.2212  0.043622235  0.042560053            7 
 4080000    0.6098612     -4.21419    2137.5681  0.043659479  0.042550327           14 
 4081000   0.60707278   -4.2492077    2143.5002  0.043769914  0.042540531            8 
 4082000   0.60047844    -4.241814     2136.244  0.043611057  0.042530745            8 
 4083000    0.5993195   -4.2275564    2140.5748  0.043688765  0.042520994            7 
 4084000   0.59198119   -4.2336176    2140.7074  0.043680774  0.042511218           11 
 4085000   0.58566099   -4.2286427    2144.2234  0.043741807  0.042501463           10 
 4086000   0.59245365   -4.2172705    2144.1055  0.043728697  0.042491726            9 
 4087000    0.5850277   -4.2223472    2141.3617  0.043662052  0.042481982           19 
 4088000   0.60540393   -4.2401347    2146.6653  0.043759485  0.042472251           14 
 4089000   0.59592574   -4.2259017    2140.8896  0.043631076  0.042462541           11 
 4090000   0.61259844   -4.2385182    2135.4852  0.043510294  0.042452792           25 
 4091000   0.61727458   -4.2379126    2139.9609  0.043590827  0.042443036           15 
 4092000   0.60137187   -4.2490802    2142.7706  0.043637394  0.042433339            7 
 4093000   0.61113035    -4.214225    2135.5272  0.043479256  0.042423634            8 
 4094000   0.59583865   -4.2270824    2143.7024  0.043635044  0.042413933            5 
 4095000   0.58799045   -4.2526961      2141.95  0.043588727  0.042404263            4 
 4096000   0.60415797   -4.2542438    2139.9181  0.043536746  0.042394477           11 
 4097000   0.58206887   -4.2516637    2140.3799  0.043535512   0.04238473            9 
 4098000   0.59568879   -4.2171912    2137.0346  0.043456861  0.042375031            7 
 4099000   0.59883094    -4.234181    2142.2781   0.04355286  0.042365327           17 
 4100000   0.60088319   -4.2528254    2140.9741  0.043515733  0.042355619            7 
 4101000    0.5933797   -4.2323138    2143.1093   0.04354851  0.042345911            3 
 4102000   0.59510711   -4.2525472    2146.7348  0.043611546  0.042336234           14 
 4103000   0.59995999    -4.245856    2141.1114  0.043486705  0.042326458           11 
 4104000   0.59231803   -4.2501236    2143.1129  0.043516749  0.042316751           17 
 4105000   0.59682122   -4.2549494    2140.2401   0.04344783  0.042307014           12 
 4106000    0.5994017    -4.247804    2142.5017  0.043483149  0.042297232            8 
 4107000   0.59906379   -4.2412673    2138.2559  0.043386411  0.042287471           21 
 4108000   0.59528877   -4.2379827    2141.2801  0.043437198  0.042277721            7 
 4109000    0.5941191    -4.254541    2146.5127  0.043532747  0.042267983            5 
 4110000   0.59694674   -4.2337001    2143.0837  0.043452629  0.042258254           18 
 4111000   0.59984964   -4.2390104    2143.2221  0.043444864  0.042248605            8 
 4112000   0.59279537    -4.234001    2144.1514  0.043453134  0.042238955           10 
 4113000   0.59996914   -4.2622202    2142.4528  0.043408152  0.042229236           16 
 4114000   0.59098064   -4.2498432    2144.5217   0.04343951  0.042219565           11 
 4115000   0.59291211   -4.2351248    2143.2558  0.043403317  0.042209921            7 
 4116000   0.58257942   -4.2618979    2138.3239  0.043292919  0.042200245            9 
 4117000   0.59129944   -4.2363534    2145.5603  0.043428878   0.04219059            7 
 4118000   0.58507869   -4.2483968    2142.4243  0.043354871  0.042180884           17 
 4119000   0.58808721   -4.2596378    2140.5145  0.043305707  0.042171158           14 
 4120000   0.57848321   -4.2539349    2145.6923  0.043399926  0.042161423            7 
 4121000   0.59258963   -4.2287815    2145.9626  0.043394859  0.042151714           10 
 4122000   0.60066493   -4.2473176    2149.2266  0.043450319  0.042142045           16 
 4123000   0.58624881     -4.23889    2144.9443  0.043353228  0.042132356           10 
 4124000   0.59545162     -4.21405    2140.5397  0.043253711  0.042122671           11 
 4125000   0.59895396   -4.2450229    2144.7322  0.043327923  0.042112973            8 
 4126000   0.58827881   -4.2454141    2142.8445  0.043279297  0.042103302            7 
 4127000   0.58460641   -4.2392174    2140.7875  0.043227273  0.042093618            5 
 4128000    0.5814826   -4.2294824    2144.6453   0.04329468  0.042083945           22 
 4129000   0.58750568   -4.2429766    2144.4246   0.04327974   0.04207433           11 
 4130000   0.58731172   -4.2351768     2154.877  0.043480165  0.042064684           28 
 4131000    0.5818741   -4.2510065    2140.2436  0.043174445  0.042055049            8 
 4132000   0.60402193   -4.2352851    2147.4713  0.043309763  0.042045404            6 
 4133000   0.57773885   -4.2636046    2144.7357  0.043244126   0.04203572           14 
 4134000   0.58750696   -4.2578009    2138.5744  0.043109466  0.042026033            7 
 4135000   0.59035504   -4.2502961    2144.8908  0.043226337  0.042016324           13 
 4136000   0.58633331   -4.2533165    2140.4076  0.043125557  0.042006656            9 
 4137000   0.58138526   -4.2711144    2142.9333  0.043166009  0.041996983           14 
 4138000   0.60135675   -4.2443477    2147.6729  0.043251025  0.041987258           24 
 4139000   0.59344762   -4.2417731    2144.1444  0.043169534  0.041977565            8 
 4140000   0.58623592   -4.2304331    2142.1418  0.043118797  0.041967881           10 
 4141000   0.58956699   -4.2382979    2144.2159  0.043150123  0.041958178           11 
 4142000    0.5970141   -4.2571447    2142.8113  0.043111445  0.041948474           10 
 4143000   0.58546591   -4.2520613    2144.2152  0.043129277  0.041938849            6 
 4144000   0.58568236   -4.2571065    2141.4143  0.043062546  0.041929208            5 
 4145000   0.59694957   -4.2557702    2142.0554  0.043065047  0.041919488            8 
 4146000   0.59028589   -4.2544629    2145.8647  0.043131224  0.041909817           17 
 4147000   0.58842079   -4.2597228     2145.329   0.04311006  0.041900113           18 
 4148000    0.5783393   -4.2490548    2143.0322  0.043053524  0.041890429           10 
 4149000   0.59746024   -4.2527542    2147.0726  0.043124299  0.041880757            4 
 4150000   0.59396445   -4.2558895    2142.4327  0.043020738  0.041871096            7 
 4151000   0.59559377   -4.2433319    2145.5968  0.043073893    0.0418614           15 
 4152000   0.58104266   -4.2464321    2144.3234  0.043037962  0.041851753           22 
 4153000   0.59887974   -4.2602872    2146.3858  0.043068982  0.041842066           31 
 4154000   0.59276468   -4.2451933    2153.3568  0.043198459  0.041832433           28 
 4155000   0.57949871   -4.2594419     2147.178  0.043064139  0.041822834           18 
 4156000   0.58399385       -4.221    2148.4138  0.043078557  0.041813205           17 
 4157000   0.58704238   -4.2561139    2146.3762  0.043027347  0.041803574           10 
 4158000   0.58901229   -4.2632504    2140.9571  0.042908391  0.041793918            7 
 4159000   0.58882041   -4.2814379    2137.0008  0.042818803  0.041784194            9 
 4160000   0.58609008   -4.2494885    2146.1723  0.042992234  0.041774525           14 
 4161000   0.58111826   -4.2530301    2147.9992  0.043018489  0.041764904           11 
 4162000   0.58617334   -4.2659107     2147.764  0.043003444  0.041755279           13 
 4163000   0.57826224   -4.2594775     2145.314  0.042944071  0.041745696           17 
 4164000   0.59781985   -4.2588951    2147.2205  0.042971912  0.041736058            9 
 4165000   0.57960731   -4.2637204    2148.7233  0.042991662  0.041726448            8 
 4166000   0.59360306   -4.2739642    2140.4246  0.042815343  0.041716828           13 
 4167000   0.59583016   -4.2696301    2147.9175  0.042954914  0.041707165            6 
 4168000   0.56604523    -4.243498    2150.8488  0.043003215  0.041697543           23 
 4169000   0.57621738   -4.2513808    2149.1365  0.042958672  0.041687897           21 
 4170000   0.58905288   -4.2634963    2148.0046  0.042925751  0.041678315           23 
 4171000   0.57442672   -4.2470934    2142.4878  0.042805239  0.041668669           24 
 4172000   0.58161477   -4.2578265    2151.6974  0.042978935  0.041659013            8 
 4173000    0.5898023   -4.2505892    2149.7661  0.042930068   0.04164943           12 
 4174000   0.59508052   -4.2555095    2148.2609  0.042889731  0.041639835           13 
 4175000   0.58640058   -4.2747051    2142.8898  0.042772251  0.041630192           17 
 4176000   0.58658125    -4.278239    2142.1971  0.042748186  0.041620532           15 
 4177000   0.58270178   -4.2615002    2147.0285  0.042834342  0.041610911           11 
 4178000   0.56987792   -4.2711481    2148.2364  0.042848181  0.041601341           16 
 4179000   0.58929771   -4.2595292    2145.6935   0.04278722  0.041591771           16 
 4180000   0.58388782   -4.2592879    2148.8953  0.042840815  0.041582156           20 
 4181000   0.57441456   -4.2185108    2150.9051  0.042870628  0.041572601            7 
 4182000   0.58092009   -4.2349323    2149.7144   0.04283665   0.04156303           11 
 4183000   0.58368379   -4.2485172    2146.2819  0.042758028  0.041553478           19 
 4184000   0.57706675   -4.2654349    2149.2848  0.042807616  0.041543898            5 
 4185000   0.57613065   -4.2712931    2150.5583  0.042822747  0.041534274           19 
 4186000   0.57584592   -4.2706737    2150.2219  0.042805819  0.041524684            6 
 4187000   0.57435537   -4.2726295    2145.5535  0.042702681  0.041515104           18 
 4188000   0.57750783   -4.2569858    2149.1686  0.042764418  0.041505513           13 
 4189000   0.59116488   -4.2411245    2149.5045  0.042760892  0.041495876            7 
 4190000   0.58043657   -4.2644309    2154.7992   0.04285599  0.041486327           39 
 4191000   0.58300725   -4.2568344    2153.0261  0.042810509   0.04147682            9 
 4192000   0.58626965   -4.2679289    2151.4445  0.042768855  0.041467296           12 
 4193000   0.58697948   -4.2759065    2150.0775  0.042731487  0.041457756           10 
 4194000   0.57526414   -4.2465062     2154.813  0.042815392  0.041448206            6 
 4195000   0.57395772   -4.2376517    2156.8973  0.042846589  0.041438662           10 
 4196000    0.5884434   -4.2611771    2147.5209   0.04265016   0.04142914           16 
 4197000   0.57868258   -4.2758245    2147.5098  0.042639778  0.041419498           10 
 4198000   0.58520592   -4.2445348    2155.2319   0.04278291  0.041409969           10 
 4199000    0.5667619   -4.2612894    2147.3062  0.042615428  0.041400452           14 
 4200000   0.57893236   -4.2876573    2144.0201  0.042540081   0.04139086           10 
 4201000   0.57999786   -4.2300943    2148.6946  0.042622681  0.041381296           19 
 4202000   0.57948804   -4.2770926    2149.2126  0.042622811   0.04137175           14 
 4203000   0.59022904   -4.2822826     2145.491  0.042538881  0.041362158           10 
 4204000    0.5730357   -4.2731098    2148.5871  0.042590135  0.041352552           19 
 4205000   0.57697146   -4.2823952    2146.0349  0.042529427  0.041342948           16 
 4206000   0.58259659   -4.2761613    2150.4134  0.042606066  0.041333356            8 
 4207000   0.57454832   -4.2738033    2148.0951  0.042550019  0.041323679            9 
 4208000   0.57025477   -4.2694219    2148.3452  0.042544859  0.041314027            7 
 4209000   0.57373957   -4.2552817    2146.1091  0.042490479  0.041304365           15 
 4210000   0.58372308    -4.277588    2146.4542  0.042487217  0.041294717           13 
 4211000    0.5728921   -4.2591429     2150.373  0.042554677  0.041285138            9 
 4212000   0.58573392   -4.2544767    2152.7897  0.042592389  0.041275565           23 
 4213000   0.59554146   -4.2567258    2147.8936  0.042485434  0.041265969            9 
 4214000   0.57175492   -4.2538225    2144.1072  0.042400474   0.04125636            6 
 4215000   0.58374039   -4.2565061    2147.6404  0.042460269  0.041246747            8 
 4216000    0.5898045   -4.2802042    2141.5778  0.042330365  0.041237127           17 
 4217000   0.57284503   -4.2875812    2142.6529  0.042341572  0.041227478            6 
 4218000   0.57996978   -4.2709358    2146.9149  0.042415737  0.041217868           10 
 4219000   0.58421311   -4.2670808    2145.6017  0.042379744  0.041208291            7 
 4220000   0.58356366   -4.2822411    2143.2506  0.042323274  0.041198689           12 
 4221000   0.58835185   -4.2711771    2143.7266  0.042322645  0.041189083            8 
 4222000   0.58346164   -4.2489426    2152.6442  0.042488635  0.041179526           26 
 4223000   0.58539474   -4.2870683    2145.9861  0.042347189  0.041169948           11 
 4224000   0.57144096   -4.2739684    2144.3657  0.042305195  0.041160305           17 
 4225000   0.57716974   -4.2884262    2146.0145  0.042327702  0.041150688           21 
 4226000    0.5736491   -4.2877181    2143.6454  0.042270969  0.041141101           20 
 4227000   0.57279702   -4.2721201    2143.3797  0.042255731  0.041131487           13 
 4228000   0.56603179   -4.2987578     2149.144  0.042359351    0.0411219           12 
 4229000   0.57162153   -4.2827162    2145.1668  0.042270963  0.041112283            7 
 4230000   0.57278751   -4.2722255    2147.8153  0.042313146  0.041102644            7 
 4231000   0.57546672   -4.2621443    2145.8886  0.042265198  0.041093048            9 
 4232000   0.57973199   -4.2902156     2146.064  0.042258663   0.04108343            7 
 4233000   0.58194389   -4.2760838    2142.4986  0.042178491   0.04107384           11 
 4234000   0.57092778   -4.2852132    2142.0947   0.04216058  0.041064205           18 
 4235000   0.56378452   -4.2910224    2144.5021  0.042197995  0.041054543           13 
 4236000   0.57411207   -4.2783889    2150.1519  0.042299181  0.041044966            9 
 4237000   0.58491506   -4.2741919    2154.2891  0.042370567  0.041035406           41 
 4238000   0.56565673   -4.2817551    2148.7786  0.042252214  0.041025849            9 
 4239000   0.58857556   -4.2716378    2158.2486  0.042428415  0.041016266            9 
 4240000   0.56550459   -4.2728879    2157.1043  0.042395918   0.04100671            4 
 4241000   0.58294583    -4.292646    2150.4431  0.042255032  0.040997147            7 
 4242000   0.57956518   -4.2776915    2150.9509  0.042255046  0.040987574           11 
 4243000   0.58733584   -4.2963113    2150.5121  0.042236469  0.040977999           11 
 4244000   0.57364341    -4.261173    2151.9576  0.042254901  0.040968435            8 
 4245000   0.57805343   -4.2800687    2147.8699  0.042164702  0.040958883            6 
 4246000   0.58129392    -4.275718    2148.7088  0.042171235  0.040949356            8 
 4247000   0.57937229   -4.2870357    2149.1503  0.042169968  0.040939793           11 
 4248000   0.57014907   -4.2919276    2148.0965   0.04213937  0.040930198            8 
 4249000   0.55624181   -4.2948464    2151.1787  0.042189901  0.040920611           17 
 4250000   0.57580775   -4.2759024    2145.1395  0.042061558  0.040911051           17 
 4251000   0.56885403    -4.292251    2147.1144  0.042090379  0.040901441           19 
 4252000   0.57007786   -4.2865846     2151.158  0.042159728   0.04089182            8 
 4253000    0.5800561   -4.2978568    2146.1522  0.042051731   0.04088219            8 
 4254000   0.58832798   -4.2988056    2148.6569  0.042090913  0.040872532            8 
 4255000   0.57750263   -4.2876388     2145.918   0.04202738  0.040862932            5 
 4256000   0.57727945   -4.2929002    2149.8647  0.042094783  0.040853345            8 
 4257000   0.56468348   -4.2729902    2151.4124  0.042115191  0.040843774           13 
 4258000   0.57349553   -4.2964334    2150.2121  0.042081808  0.040834127           15 
 4259000   0.57606071   -4.2942587    2149.8554  0.042064949  0.040824536            4 
 4260000   0.56943957   -4.2853593    2151.3437  0.042084189  0.040814932           10 
 4261000    0.5484558    -4.287684    2159.0751  0.042225515  0.040805344            7 
 4262000   0.57114025   -4.2947025    2148.3818  0.042006527  0.040795784            5 
 4263000   0.57728273   -4.2963747    2143.1751  0.041894892  0.040786196           10 
 4264000   0.56990512   -4.2933813     2150.509  0.042028397  0.040776648            9 
 4265000   0.58362123   -4.2973554    2149.2696  0.041994326  0.040767083           16 
 4266000   0.56782379   -4.2955529    2152.2899  0.042043482  0.040757495           13 
 4267000   0.56615436   -4.2997237    2148.4311  0.041958267   0.04074788           23 
 4268000   0.56634015    -4.298158     2151.264  0.042003749  0.040738276           10 
 4269000   0.58422598    -4.283657    2147.9763  0.041929732   0.04072871           12 
 4270000   0.57472937   -4.2996821    2148.7094   0.04193422  0.040719118           13 
 4271000    0.5793852   -4.2945643    2151.8002  0.041984707  0.040709556           11 
 4272000    0.5628939   -4.2842624    2151.8128  0.041975125  0.040699942           14 
 4273000   0.58036493   -4.2819788    2151.3646   0.04195656  0.040690394            9 
 4274000   0.56947177   -4.2779611    2154.0063  0.041998251  0.040680835           14 
 4275000   0.57248635    -4.301918    2147.2817  0.041857342  0.040671268           23 
 4276000     0.564958   -4.2820804    2148.7005  0.041875205  0.040661678           12 
 4277000   0.55352013   -4.3032007    2148.5563  0.041862604  0.040652062           20 
 4278000   0.55785197   -4.2823521    2149.9134  0.041879255  0.040642452           16 
 4279000   0.57562569    -4.306691    2148.4318  0.041840614  0.040632832            5 
 4280000   0.56263156   -4.3011321    2145.7672  0.041778956  0.040623217           10 
 4281000   0.57842364    -4.306623    2146.0677  0.041775046  0.040613632           15 
 4282000    0.5556596   -4.2877132    2147.6265  0.041795627  0.040604035           12 
 4283000   0.56873072   -4.2901901    2149.9753   0.04183157   0.04059445           12 
 4284000   0.57417181   -4.3047228     2145.149  0.041727922   0.04058487           21 
 4285000   0.56753493   -4.3198977    2141.8198  0.041653437  0.040575219           13 
 4286000   0.56443352   -4.3022644    2151.1619   0.04182536  0.040565607            9 
 4287000   0.55892928   -4.3012466    2149.6261  0.041785749  0.040556019           11 
 4288000   0.55273734   -4.2785526     2146.944  0.041723881  0.040546414            9 
 4289000   0.56542054   -4.2957878    2147.6152  0.041727194  0.040536801           13 
 4290000   0.56538058   -4.3001038    2146.8896  0.041703371  0.040527201           22 
 4291000   0.56347748   -4.2934631    2156.5481  0.041881225  0.040517625           13 
 4292000   0.57324669   -4.3135584     2147.817  0.041701945  0.040508007            8 
 4293000   0.55993283   -4.2710645    2151.1968  0.041757838  0.040498393           25 
 4294000   0.56673629   -4.2975969    2145.6861  0.041641167  0.040488821           15 
 4295000     0.570138    -4.284394    2153.2525  0.041778279  0.040479262           19 
 4296000   0.56975927   -4.2842716    2151.8724  0.041741782  0.040469709           18 
 4297000   0.55868945   -4.3095189    2147.5239  0.041647738  0.040460107            9 
 4298000   0.57165409   -4.3043504    2149.0749  0.041668119  0.040450509           32 
 4299000   0.56996075   -4.3051577    2152.3395  0.041721709  0.040440924            6 
 4300000   0.56041928   -4.3182987    2146.9689  0.041607925  0.040431304            7 
 4301000   0.55588567   -4.3210912    2145.3159  0.041566222  0.040421684            8 
 4302000   0.55715023   -4.2981371    2150.5926  0.041658774  0.040412101           18 
 4303000   0.56712699   -4.2978878    2147.6521  0.041592147  0.040402511            4 
 4304000   0.57499463   -4.2945915    2150.7971  0.041643377  0.040392981            8 
 4305000   0.56365055   -4.3002814     2147.807  0.041575822  0.040383456           14 
 4306000   0.55587262   -4.2744989    2152.5769  0.041658478  0.040373929            6 
 4307000   0.56943597   -4.2887049    2150.7519  0.041613495   0.04036442            9 
 4308000   0.56925772   -4.2918643    2148.6917  0.041563984  0.040354898           22 
 4309000   0.56130208   -4.3012594    2148.8116  0.041556656  0.040345373           16 
 4310000   0.56006315   -4.3152813    2143.9589  0.041453188  0.040335825           16 
 4311000   0.56036083   -4.2909604    2151.1039  0.041581689  0.040326267           18 
 4312000   0.55472738   -4.3063063    2153.7894  0.041623944  0.040316723            8 
 4313000   0.56528948   -4.2684638    2154.0417  0.041619169   0.04030721           11 
 4314000   0.57041298   -4.2985577    2148.8606  0.041509438  0.040297665           13 
 4315000   0.55370869   -4.3183132     2147.819  0.041479702  0.040288137           43 
 4316000   0.55744491   -4.3012479    2153.7824  0.041585233  0.040278603           22 
 4317000   0.57892753   -4.3350588    2150.3415  0.041509178  0.040269082            7 
 4318000   0.54535782   -4.2946417    2151.3028  0.041518118  0.040259542           10 
 4319000   0.55719911   -4.3017489    2149.7031  0.041477639  0.040250034            8 
 4320000   0.55796827   -4.2964612    2150.5219  0.041483832  0.040240526            6 
 4321000   0.55587782   -4.3059007    2148.7487  0.041440036  0.040231006            5 
 4322000   0.55080124   -4.3120005     2147.792  0.041412001  0.040221526           11 
 4323000   0.56325117   -4.3133208    2148.2268  0.041410803  0.040211998           13 
 4324000   0.55800776   -4.3157671    2147.0517  0.041378579  0.040202454           10 
 4325000   0.55517462   -4.3220881    2151.0428  0.041445911   0.04019296           38 
 4326000   0.55222809   -4.3242933    2149.6893  0.041410257  0.040183476           19 
 4327000   0.56206607   -4.3151686    2151.5098  0.041435747  0.040173969           15 
 4328000   0.56043786    -4.330483    2153.0591  0.041456006  0.040164488           12 
 4329000   0.54785197   -4.3166114    2154.6552  0.041477155  0.040154973           21 
 4330000   0.56174852   -4.3026975    2154.6522  0.041467518  0.040145482           21 
 4331000   0.55432582    -4.306556    2151.4497  0.041396322  0.040135985           21 
 4332000   0.56126587   -4.2882906    2154.9629   0.04145435  0.040126505           12 
 4333000   0.56700111   -4.3013828    2151.8379  0.041384681  0.040116989           16 
 4334000   0.55897489   -4.3123573     2150.303  0.041345619  0.040107442           10 
 4335000     0.572061   -4.3255193    2150.6262  0.041342295  0.040097926           17 
 4336000   0.55779026   -4.2970093    2156.4763  0.041445193  0.040088428           16 
 4337000   0.55380725   -4.3038728    2154.0582  0.041389174  0.040078938            8 
 4338000   0.56068201   -4.3174436    2150.2189  0.041305881  0.040069487           12 
 4339000   0.55386546   -4.2996379    2150.4981  0.041301722  0.040059978            7 
 4340000   0.55933544   -4.3369452    2149.8294  0.041279366  0.040050441           18 
 4341000   0.55120057   -4.3347726    2149.0813  0.041255496  0.040040905           10 
 4342000   0.56107555   -4.3085502     2154.904  0.041357746  0.040031373           16 
 4343000   0.55618831   -4.3251411     2150.824  0.041269937  0.040021875           24 
 4344000    0.5694952    -4.332031     2153.605  0.041313786  0.040012335           18 
 4345000   0.54672379   -4.3152843    2149.0297  0.041216527  0.040002788           17 
 4346000   0.57492913   -4.3383494    2154.9546  0.041320651  0.039993289            9 
 4347000   0.56771288   -4.3154576    2148.3808  0.041185124  0.039983767            6 
 4348000    0.5568429   -4.3082514    2155.1642  0.041305661  0.039974223           10 
 4349000   0.55263766   -4.3305613    2147.6411  0.041152009  0.039964715           12 
 4350000   0.55869191   -4.3095684    2146.5396  0.041121449    0.0399552            8 
 4351000   0.55418988   -4.3298338    2153.5735  0.041246716  0.039945731            8 
 4352000   0.55074996   -4.3141797    2149.9483   0.04116782  0.039936306            5 
 4353000   0.55032654   -4.2915546    2155.1603  0.041258142  0.039926875           15 
 4354000   0.55116139   -4.3173093    2153.7996  0.041222624  0.039917451           18 
 4355000   0.54734849   -4.2891161    2156.8278  0.041271102  0.039908004           17 
 4356000   0.55021208   -4.3098387    2150.1018  0.041132955  0.039898535           15 
 4357000   0.53940827   -4.3261894    2150.8385  0.041137605  0.039889033           23 
 4358000   0.54334745   -4.3151293    2155.2686  0.041212876  0.039879525           18 
 4359000   0.55211647   -4.3312387    2155.5388  0.041208587  0.039870055            5 
 4360000   0.56715459    -4.337666    2150.5714  0.041104194  0.039860591           14 
 4361000   0.55526826    -4.332011    2155.9519  0.041197583  0.039851159           12 
 4362000     0.558325   -4.3196324    2152.6673  0.041125389  0.039841717           10 
 4363000   0.55625736   -4.3151512    2157.6138  0.041210441  0.039832307           11 
 4364000   0.55744976   -4.3379188    2154.0848  0.041133609  0.039822846           17 
 4365000   0.53782677   -4.3230876    2157.9697  0.041198352  0.039813393           36 
 4366000   0.53823901   -4.3424513     2153.717  0.041107745  0.039803969           18 
 4367000   0.55510142   -4.3300711    2154.3133  0.041109712  0.039794524           23 
 4368000   0.54850467   -4.3493049    2151.5799  0.041048152  0.039785068           20 
 4369000   0.53794465   -4.3446426    2156.9249  0.041140705  0.039775613           20 
 4370000   0.54954389   -4.3194553    2155.0992  0.041096476  0.039766156           15 
 4371000     0.554522    -4.334077    2153.9076  0.041064356  0.039756691           12 
 4372000   0.55143115   -4.3370041    2154.2899  0.041062251  0.039747274            9 
 4373000   0.55909026   -4.3216339    2151.2337   0.04099462  0.039737811            6 
 4374000   0.55371467   -4.3183815    2151.2133   0.04098486  0.039728339           33 
 4375000   0.54705586   -4.3535235     2151.592  0.040982704  0.039718855           12 
 4376000   0.54573499   -4.3136026    2154.2255  0.041023489  0.039709385            7 
 4377000   0.54870461    -4.336596    2150.0576  0.040934764  0.039699937           10 
 4378000   0.54779319   -4.3384543    2152.1607  0.040965446  0.039690428           21 
 4379000   0.53736892   -4.3319289    2148.6895  0.040890034  0.039680931           25 
 4380000   0.55056654    -4.311555    2149.0729  0.040887992  0.039671496           18 
 4381000   0.54080008   -4.3243386    2155.1575  0.040994398  0.039662042           10 
 4382000   0.55933727   -4.3271709    2158.1569  0.041042083  0.039652561           13 
 4383000   0.54495708   -4.3256345    2155.2959  0.040978324  0.039643116           16 
 4384000    0.5584043   -4.3147356     2155.536  0.040973539  0.039633686           22 
 4385000   0.55773759   -4.3129343    2157.8462    0.0410081  0.039624288           17 
 4386000   0.54996854   -4.3313768    2150.3073  0.040855513   0.03961485           36 
 4387000   0.54960013    -4.314934    2156.4627  0.040963124  0.039605438           10 
 4388000   0.55093056   -4.3194081    2156.1801  0.040948421  0.039596042           12 
 4389000   0.54905175   -4.3117565       2156.8  0.040950862  0.039586604           15 
 4390000   0.54848062   -4.3263774    2151.2159  0.040835534  0.039577147            5 
 4391000    0.5581801   -4.3567378    2150.9259   0.04082073  0.039567658            6 
 4392000   0.54458254   -4.3276249    2154.4839  0.040878946  0.039558199           30 
 4393000   0.52837245   -4.3435222    2152.3384   0.04082894  0.039548774           22 
 4394000   0.54871175    -4.317639    2146.8686  0.040715912   0.03953936           30 
 4395000   0.54452728    -4.326077    2153.4121   0.04083072  0.039529948           10 
 4396000   0.54997374   -4.3339668    2147.6605    0.0407124  0.039520506           15 
 4397000   0.54723305   -4.3593488    2152.5346  0.040795516  0.039511035           15 
 4398000   0.55351189   -4.3411473    2144.8312  0.040640276  0.039501516           17 
 4399000   0.54084467   -4.3441886    2148.3231  0.040697187  0.039492035           17 
 4400000   0.54437415   -4.3356651    2150.3492  0.040726311  0.039482548           15 
 4401000   0.54420957   -4.3263089     2147.062  0.040654814  0.039473057           16 
 4402000   0.55393979   -4.3307139    2156.0111  0.040814991  0.039463611           22 
 4403000   0.55081173   -4.3333656    2145.1315  0.040599809  0.039454162           10 
 4404000   0.54771131    -4.332419     2154.415  0.040766253  0.039444683           25 
 4405000   0.55566765    -4.319029    2146.2458  0.040602455  0.039435231            6 
 4406000   0.55349322   -4.3463315      2151.54  0.040693373   0.03942581           10 
 4407000   0.55261545   -4.3261462    2157.7056  0.040800725  0.039416342           16 
 4408000   0.56064621   -4.3302337    2150.1845  0.040649284  0.039406922           14 
 4409000   0.55855652   -4.3398381    2156.4801  0.040759055  0.039397463           17 
 4410000    0.5456518   -4.3290916    2150.9825  0.040645928  0.039387997           13 
 4411000   0.54708977   -4.3557472    2153.5231  0.040684711  0.039378554           14 
 4412000   0.54345418   -4.3474716    2154.6008  0.040695846  0.039369079           12 
 4413000    0.5481473   -4.3401065    2157.0057  0.040732036  0.039359653           18 
 4414000   0.54362544   -4.3363812    2150.8115  0.040605865  0.039350238           16 
 4415000   0.55390009   -4.3355823    2152.4492   0.04062758  0.039340811            9 
 4416000   0.54081229   -4.3357901    2154.3517  0.040654282  0.039331407           30 
 4417000   0.55265155   -4.3204291     2152.861  0.040616953  0.039321994           12 
 4418000   0.54167497   -4.3464549    2155.7849  0.040662911  0.039312643           21 
 4419000   0.54650519   -4.3402915    2156.5065  0.040667317  0.039303218            7 
 4420000   0.53825663     -4.32052    2155.0156  0.040630008  0.039293804           23 
 4421000    0.5443666   -4.3161594    2156.8185  0.040654801  0.039284417            8 
 4422000   0.54304513   -4.3499655    2152.1216  0.040557092  0.039275024           14 
 4423000   0.54298646    -4.341212    2151.6708   0.04053943  0.039265606           11 
 4424000   0.54397544   -4.3377171    2157.8073  0.040645858   0.03925622           11 
 4425000    0.5580462   -4.3502504    2154.8391  0.040580775  0.039246851           15 
 4426000   0.55046403   -4.3250619    2158.3632  0.040637958  0.039237442            5 
 4427000    0.5588737    -4.339928    2151.1745  0.040493459  0.039228049           17 
 4428000   0.54591895   -4.3308414     2154.969  0.040555725  0.039218641            8 
 4429000   0.53158874   -4.3422936    2146.2913  0.040383294  0.039209219           18 
 4430000   0.54746605    -4.358048     2151.606  0.040474153  0.039199803            7 
 4431000   0.54518048    -4.355859    2154.8928  0.040526833  0.039190355            8 
 4432000   0.55348945   -4.3327471    2152.5797  0.040474198  0.039180945           28 
 4433000   0.55217499   -4.3386557    2152.3315    0.0404604  0.039171524           17 
 4434000   0.54925276   -4.3474356    2152.5681  0.040455723  0.039162103           10 
 4435000   0.54613201   -4.3474695    2151.9945  0.040435823  0.039152683           17 
 4436000   0.54488834   -4.3485831    2153.8936  0.040462384   0.03914328           14 
 4437000   0.54595188   -4.3309797    2154.5685   0.04046594  0.039133917            9 
 4438000   0.55668756   -4.3423798    2152.8802   0.04042512  0.039124555            6 
 4439000   0.54529212      -4.3397    2149.8469  0.040359068  0.039115135           15 
 4440000   0.53793774   -4.3513668    2152.8302  0.040405972  0.039105694           11 
 4441000   0.53896282   -4.3404257    2153.2166  0.040404124  0.039096262           12 
 4442000   0.53375509   -4.3589509    2150.1821    0.0403381  0.039086835           17 
 4443000   0.53363047   -4.3484741    2153.7006  0.040395014  0.039077396           15 
 4444000   0.53850108   -4.3382932    2155.7646  0.040424629  0.039067998            9 
 4445000   0.54297433    -4.345566    2151.3673  0.040333096  0.039058555            7 
 4446000   0.53246594   -4.3396123    2151.1366    0.0403197  0.039049119           10 
 4447000   0.54660268    -4.331981    2156.8661  0.040417999  0.039039725           10 
 4448000   0.53278275   -4.3340717    2156.6152  0.040404212  0.039030353           15 
 4449000   0.53756444   -4.3593246    2150.0554   0.04027226  0.039020954           12 
 4450000   0.53221329   -4.3603569    2150.5139  0.040271795   0.03901154           20 
 4451000   0.54643688   -4.3336584    2156.9235  0.040382752  0.039002154           12 
 4452000   0.53483614   -4.3495341    2154.2324  0.040323308  0.038992753           12 
 4453000   0.55290948   -4.3550872    2150.2829  0.040240342  0.038983303           13 
 4454000   0.53136509   -4.3523232    2154.8133   0.04031607  0.038973853            9 
 4455000   0.53572116   -4.3464587    2148.1978  0.040183273  0.038964402           16 
 4456000   0.52575952   -4.3648265    2150.8154  0.040223208   0.03895497           12 
 4457000    0.5467948   -4.3628914    2153.6562  0.040267299  0.038945513           16 
 4458000   0.53357231   -4.3690754    2151.0769  0.040210052  0.038936068           42 
 4459000   0.53648997   -4.3781916    2156.9067  0.040309986  0.038926629           11 
 4460000   0.53432148   -4.3450406    2156.3512  0.040290568  0.038917223           14 
 4461000   0.53531497    -4.377659     2149.001  0.040144231  0.038907783           24 
 4462000   0.54057504   -4.3617077    2155.1533  0.040250137  0.038898379           20 
 4463000   0.54212745   -4.3671927    2152.9812   0.04020056  0.038888971           12 
 4464000   0.53065135   -4.3630884    2150.0956  0.040137687  0.038879582           34 
 4465000    0.5224769   -4.3596735    2151.5869  0.040156531  0.038870179           17 
 4466000   0.54112872   -4.3355649    2158.7939  0.040282017    0.0388608           10 
 4467000   0.54002766   -4.3626727    2157.1487  0.040242307  0.038851468           14 
 4468000   0.54269713   -4.3778165    2151.3127  0.040124454  0.038842087            7 
 4469000   0.54733451   -4.3484436    2151.5451  0.040119809  0.038832689           11 
 4470000     0.528768   -4.3505789    2152.6532  0.040131491  0.038823317            7 
 4471000      0.52372   -4.3469331    2156.7131  0.040198186  0.038813962           17 
 4472000   0.52135433   -4.3556179    2155.6203  0.040168834  0.038804637           14 
 4473000     0.531893   -4.3611242    2154.5651  0.040140195  0.038795287           14 
 4474000   0.52764301   -4.3753414    2149.7067  0.040040729  0.038785931           17 
 4475000   0.54010086   -4.3623084    2153.9715  0.040111201  0.038776538           12 
 4476000   0.53187254   -4.3637382    2153.4338  0.040092229  0.038767149           10 
 4477000   0.53282698   -4.3755944    2153.3886  0.040082432  0.038757752           16 
 4478000   0.54033671   -4.3709209     2151.463  0.040037646  0.038748371           20 
 4479000   0.52826594   -4.3522198    2152.0281  0.040039222  0.038739002           23 
 4480000   0.53904096    -4.353786    2154.6159   0.04007842   0.03872963           10 
 4481000   0.53653965   -4.3542578    2153.9085   0.04005632  0.038720251           13 
 4482000   0.53430702   -4.3560799    2151.1566  0.039996218  0.038710922            7 
 4483000    0.5248109   -4.3617338    2153.6891  0.040034373  0.038701547           16 
 4484000   0.52331069    -4.385348    2157.5005  0.040096278  0.038692167            6 
 4485000   0.53316237   -4.3396339    2150.2732   0.03995305  0.038682798            7 
 4486000   0.53676133   -4.3585409      2155.32  0.040037896  0.038673445           16 
 4487000   0.54031938   -4.3796438    2158.0298    0.0400793   0.03866412            9 
 4488000   0.55010288   -4.3383594    2155.1521  0.040016935  0.038654777           13 
 4489000   0.53645596   -4.3648431    2159.9097  0.040096341  0.038645425           22 
 4490000   0.53265226   -4.3538935    2159.1913  0.040074078  0.038636055           40 
 4491000     0.525993    -4.386811    2148.9539  0.039875193  0.038626684            9 
 4492000   0.53439614   -4.3460642    2150.2085  0.039889592  0.038617323           23 
 4493000   0.54190996   -4.3761134    2156.3536  0.039994688  0.038607974            8 
 4494000     0.525329   -4.3433421    2156.4557  0.039987681   0.03859861           13 
 4495000   0.53290785   -4.3622508    2153.0319  0.039915312  0.038589259           19 
 4496000   0.53594187   -4.3476397    2151.4098  0.039876367  0.038579921           25 
 4497000   0.52873383   -4.3619899    2150.7012   0.03985437  0.038570569           18 
 4498000   0.53983259   -4.3577299    2150.1688  0.039835645  0.038561182           15 
 4499000   0.54222388   -4.3655939    2149.3788  0.039812157  0.038551813           27 
 4500000   0.53442524   -4.3732756    2148.7379  0.039791442  0.038542433           31 
 4501000   0.52680794   -4.3692694    2153.0913  0.039863202  0.038533101           12 
 4502000   0.53493778   -4.3709758    2157.1756   0.03992995  0.038523797            5 
 4503000   0.52934676   -4.3646623    2153.7878  0.039858388  0.038514484           12 
 4504000   0.52945499   -4.3671406    2149.9513  0.039778553  0.038505147           10 
 4505000   0.53190494   -4.3698254     2152.906   0.03982438  0.038495797           12 
 4506000   0.53292512   -4.3700289    2152.9132  0.039815675  0.038486424           11 
 4507000    0.5297619   -4.3767176    2150.4403  0.039761117  0.038477093           12 
 4508000   0.52923307   -4.3569794    2152.8265  0.039796408  0.038467803           33 
 4509000   0.52206047   -4.3649994    2155.3263  0.039833783  0.038458527           12 
 4510000   0.53703434   -4.3672953     2153.956  0.039799631  0.038449161           14 
 4511000   0.52415912   -4.3540717    2146.2302  0.039648086  0.038439814           20 
 4512000   0.53046527   -4.3698797    2148.0812  0.039673486  0.038430477           37 
 4513000   0.51528767   -4.3756126    2152.7771  0.039751405    0.0384211           59 
 4514000   0.53886547   -4.3904502    2152.3382  0.039734497  0.038411721            8 
 4515000   0.52692414    -4.361852    2154.9993  0.039774813  0.038402369           42 
 4516000   0.52812702   -4.3850423    2145.7446  0.039595228  0.038392992           20 
 4517000   0.52639311    -4.366699    2153.1755  0.039723554  0.038383651           62 
 4518000   0.53150929   -4.3657169    2154.2824  0.039735178  0.038374322           35 
 4519000   0.53459469   -4.3692644    2153.8606  0.039718607  0.038364985           30 
 4520000   0.53395155   -4.3806396    2156.8654  0.039765217  0.038355625           14 
 4521000   0.52328658   -4.3714662    2154.2901  0.039708953  0.038346284           17 
 4522000    0.5265883    -4.387833    2155.7594  0.039727248  0.038336939           27 
 4523000   0.54660302   -4.3764122    2155.4778  0.039713277   0.03832762           19 
 4524000   0.51889669   -4.3671278    2149.3723  0.039592033  0.038318331           16 
 4525000   0.54153299   -4.3652505    2155.1747  0.039690141  0.038309034           35 
 4526000    0.5267893   -4.3603129    2153.4747  0.039650072  0.038299725           18 
 4527000   0.53608014   -4.3725405    2162.1154  0.039800373  0.038290456           13 
 4528000   0.52537892   -4.3460905    2157.4715  0.039706116  0.038281186            7 
 4529000   0.52176257   -4.3474217     2158.918  0.039723963  0.038271946           16 
 4530000   0.53147141   -4.3608849    2147.0068  0.039496077  0.038262671           15 
 4531000   0.51677545   -4.3662288    2157.2429  0.039675622  0.038253405           16 
 4532000   0.51214533   -4.3611092    2153.8318  0.039604145   0.03824416           27 
 4533000   0.52345172   -4.3519732    2155.2396  0.039621288  0.038234893            8 
 4534000   0.52705725   -4.3739233    2157.5061  0.039654207  0.038225571           15 
 4535000   0.53286365   -4.3749613     2155.105  0.039601341  0.038216255           16 
 4536000   0.51476957   -4.3746642    2150.7786  0.039513129  0.038206987            8 
 4537000   0.52255165   -4.3737356    2155.9614  0.039599615  0.038197696           13 
 4538000   0.52167943   -4.3712126     2156.346   0.03959795  0.038188406           13 
 4539000   0.52408131   -4.3876853    2155.4112  0.039572064  0.038179132            7 
 4540000    0.5236123   -4.3824838    2154.7571  0.039551342  0.038169826           18 
 4541000    0.5321814   -4.3774559    2155.2696  0.039552038  0.038160531           30 
 4542000   0.52997102   -4.3713515    2156.6457  0.039568576  0.038151229           31 
 4543000   0.52009715   -4.3668368     2156.431  0.039555928  0.038141955           15 
 4544000   0.52453045   -4.3935273    2152.3872  0.039473064  0.038132631           20 
 4545000   0.52079077   -4.3742707    2154.9528  0.039511419  0.038123313            5 
 4546000    0.5172401   -4.4034931     2149.461  0.039402056  0.038113965            6 
 4547000   0.52447158   -4.3654978    2159.4429   0.03957633   0.03810469            8 
 4548000   0.52137319   -4.3676361    2157.1224  0.039525111  0.038095429           14 
 4549000   0.52161684   -4.3832462    2150.9704  0.039403722  0.038086158            8 
 4550000   0.52440229   -4.3463033    2151.2684   0.03940052  0.038076902           26 
 4551000   0.51634559   -4.3644123    2153.3341  0.039429687  0.038067655           18 
 4552000   0.51385447   -4.3811083    2150.1396  0.039362543  0.038058387           11 
 4553000   0.51156767   -4.3570845    2153.6191  0.039417584  0.038049109           10 
 4554000   0.52542487   -4.3868138    2150.2146  0.039346629  0.038039789            7 
 4555000    0.5145684   -4.3863291    2143.5099  0.039215329  0.038030453           22 
 4556000   0.51504234   -4.3782355    2154.3393  0.039404801  0.038021142           25 
 4557000   0.52728812   -4.3909447    2152.8274  0.039368506  0.038011848           11 
 4558000   0.53003658   -4.3939527     2152.307  0.039350354  0.038002552           27 
 4559000    0.5167713   -4.3804065    2151.5478  0.039327846  0.037993283            9 
 4560000   0.52421735   -4.3903475     2153.984  0.039363742  0.037983979            8 
 4561000   0.52695795   -4.3938178    2152.5311  0.039328566  0.037974691           14 
 4562000   0.51557702   -4.3723151    2155.9754  0.039382861   0.03796544           19 
 4563000   0.52200145   -4.3802709     2154.642   0.03934988   0.03795619           20 
 4564000   0.51640795   -4.4015466    2149.9904  0.039256326  0.037946926           23 
 4565000   0.52282823     -4.36827    2152.3371  0.039290564  0.037937638           16 
 4566000   0.51616663   -4.3859831    2152.4734  0.039284447   0.03792837           12 
 4567000   0.52760678   -4.3900797     2154.333  0.039309778  0.037919117            6 
 4568000   0.51769106   -4.3773125    2153.3293   0.03928286  0.037909858           21 
 4569000   0.52073291   -4.3872623    2157.7202  0.039354349  0.037900642           14 
 4570000   0.52581199   -4.3798589    2156.3506  0.039320762    0.0378914           21 
 4571000   0.51791232   -4.3891097    2152.8162  0.039247724  0.037882151           11 
 4572000   0.51823292    -4.381892    2158.9552  0.039351035  0.037872947           26 
 4573000   0.52095359   -4.3780909    2159.0125  0.039343474  0.037863741           11 
 4574000   0.51183372   -4.3742996    2157.2825  0.039303354  0.037854551           11 
 4575000   0.51568832   -4.3968819    2150.5063  0.039171336  0.037845321           11 
 4576000   0.50600708    -4.397929    2154.8999  0.039242786  0.037836089           28 
 4577000   0.51411781   -4.3887634    2153.7351  0.039213006  0.037826884           20 
 4578000   0.51131257   -4.3965333    2156.3824  0.039252628  0.037817614           27 
 4579000   0.52852917   -4.3903933    2156.6429  0.039248797  0.037808367            8 
 4580000   0.52099561   -4.3959049    2155.1209  0.039212534  0.037799159           14 
 4581000   0.51840103   -4.4055549    2151.5976  0.039139881  0.037789936            5 
 4582000   0.51321431   -4.3887267    2157.5981  0.039240472  0.037780714           13 
 4583000   0.52460771   -4.3952906    2155.0237  0.039185099  0.037771538            5 
 4584000   0.51647129   -4.3928702    2152.9245  0.039138388  0.037762328           22 
 4585000   0.51169876   -4.4013516    2148.9796  0.039058154  0.037753085           11 
 4586000   0.52279404   -4.3908878    2153.2286  0.039126846  0.037743838           29 
 4587000   0.51938892   -4.3794435    2153.1358  0.039116631  0.037734569           29 
 4588000    0.5221517   -4.4051519    2159.2546  0.039219242  0.037725308           30 
 4589000   0.51343689    -4.391193    2154.9075  0.039131754  0.037716071            8 
 4590000   0.51348925   -4.3662411    2154.1303  0.039109119  0.037706882           34 
 4591000   0.52916447   -4.3945508    2149.7526   0.03902114  0.037697659           25 
 4592000    0.5164078   -4.3976425     2150.272  0.039022067  0.037688426           36 
 4593000   0.51161375   -4.3959043    2150.8813  0.039024627  0.037679173           24 
 4594000   0.51468584   -4.3994209    2151.5128  0.039027586  0.037669928           21 
 4595000   0.51245636   -4.3976484    2148.6585  0.038967329  0.037660653           42 
 4596000   0.51495468    -4.395781    2148.7267  0.038960086  0.037651374           34 
 4597000   0.51615766   -4.3953014    2151.6432  0.039004482  0.037642101           32 
 4598000   0.51410102   -4.4036829    2156.6837  0.039087352  0.037632828           25 
 4599000   0.51416729    -4.408391    2149.6403  0.038951226   0.03762356           27 
 4600000   0.50600337   -4.3907218    2149.7127   0.03894407  0.037614302           20 
 4601000   0.51087758   -4.4072974    2151.7486   0.03897248  0.037605006           11 
 4602000   0.50956989   -4.4094764    2152.8336  0.038983659  0.037595734           14 
 4603000   0.52415735   -4.4149115    2148.9492  0.038904866  0.037586442           27 
 4604000   0.51184531    -4.393034    2154.1359  0.038990297   0.03757717           28 
 4605000   0.50786845   -4.4089512     2153.232  0.038965473  0.037567932           21 
 4606000   0.50448694   -4.4075626    2152.0814  0.038936195  0.037558699           20 
 4607000   0.51628714   -4.4128917    2152.6446  0.038937932  0.037549466           17 
 4608000   0.52520774   -4.3785658     2155.081  0.038973542  0.037540268           19 
 4609000   0.50779309   -4.3927342    2153.4728  0.038936009  0.037531063           36 
 4610000   0.51729387   -4.3991211    2154.3543  0.038943498   0.03752183           20 
 4611000   0.51859777   -4.4183894    2151.3728  0.038881168  0.037512578           19 
 4612000   0.51694714   -4.4068907    2153.9615  0.038919512  0.037503299           24 
 4613000    0.5141704   -4.4193746    2149.5464  0.038831317  0.037494036           24 
 4614000   0.51449206   -4.4026163     2147.122  0.038779114  0.037484781           25 
 4615000   0.51386871   -4.4029875    2153.4245  0.038884516  0.037475523           11 
 4616000   0.51038698   -4.3866723    2150.3493  0.038820574  0.037466295           13 
 4617000   0.51282506   -4.3987433    2153.0941  0.038861709  0.037457071           11 
 4618000   0.51581786    -4.390891    2151.8842   0.03883146  0.037447814           20 
 4619000   0.50812057   -4.4044609    2151.2326  0.038811298  0.037438569           30 
 4620000   0.51217219   -4.4099052    2146.3341   0.03871454  0.037429316           28 
 4621000   0.50857423   -4.3927403    2150.3171   0.03877799  0.037420091           15 
 4622000   0.51632252    -4.402892    2154.8662  0.038851618  0.037410863           35 
 4623000   0.51362524   -4.3916385    2152.1812  0.038794816  0.037401644           12 
 4624000   0.50752611   -4.4080574    2152.1301  0.038785505  0.037392437           27 
 4625000   0.51509407   -4.4124127    2147.2058  0.038688394  0.037383189            9 
 4626000   0.50679779   -4.4073268    2153.5258  0.038793879  0.037373945           15 
 4627000   0.51576134   -4.3956075    2151.3041  0.038745481  0.037364724           18 
 4628000   0.50241298     -4.41789    2153.7257  0.038780713  0.037355526           19 
 4629000   0.50231969   -4.4100366    2150.2387  0.038709561  0.037346336           18 
 4630000   0.51256951   -4.3950395    2152.6743  0.038745039  0.037337149           22 
 4631000   0.50823703   -4.3944361    2154.7628  0.038774253  0.037327955           34 
 4632000   0.51468582   -4.4183841    2157.2265  0.038810206  0.037318744           18 
 4633000   0.50414821   -4.4032973    2152.4922  0.038716674  0.037309542           45 
 4634000   0.51513434   -4.4191414    2154.8238  0.038750249  0.037300404           20 
 4635000   0.51010651   -4.4177805    2150.6414  0.038666692  0.037291239            5 
 4636000   0.51692904   -4.4039792    2153.1954   0.03870426  0.037282058            8 
 4637000   0.50526247   -4.4140768    2155.3654  0.038734911  0.037272854           15 
 4638000    0.5075274   -4.3908714    2150.1298  0.038632488  0.037263638            7 
 4639000   0.51767665   -4.4035852    2153.2921  0.038680968  0.037254459           14 
 4640000    0.5025294   -4.4071212    2157.3424  0.038745374  0.037245279           12 
 4641000   0.50235019   -4.3959951    2162.9577  0.038837853  0.037236154            8 
 4642000   0.51533439   -4.4221699    2155.9768  0.038704166  0.037227001            7 
 4643000   0.50103333   -4.4311424    2153.1242   0.03864463  0.037217813           10 
 4644000    0.5100028   -4.4134114    2149.7205  0.038575232  0.037208623           15 
 4645000   0.51699502   -4.4131621    2150.1552  0.038574726  0.037199431           11 
 4646000   0.51557046   -4.3970202    2154.4646  0.038643718  0.037190229           11 
 4647000    0.5068891   -4.4144217    2146.9409  0.038500482  0.037181075           43 
 4648000   0.50928491    -4.426092    2151.9361  0.038581758  0.037171937           10 
 4649000   0.51121404   -4.4111459    2155.5336  0.038637943  0.037162788           13 
 4650000   0.50146644   -4.4205173    2157.0758  0.038657273  0.037153619           22 
 4651000   0.51323296   -4.3884806    2156.1027  0.038631526  0.037144498           15 
 4652000   0.51260506   -4.4053455    2155.7126  0.038616234  0.037135355           29 
 4653000   0.50569977   -4.4075586    2156.7215  0.038626003  0.037126267           15 
 4654000   0.50401419   -4.4165614    2151.1801  0.038518481  0.037117179           19 
 4655000   0.51625689   -4.4105294     2153.337  0.038548818  0.037108069           19 
 4656000   0.49978822   -4.3993118    2157.7961  0.038620348  0.037098964           23 
 4657000   0.50936908   -4.4152381     2157.523  0.038607168  0.037089872           25 
 4658000   0.51664523   -4.4124979    2158.1857  0.038610735  0.037080824           12 
 4659000   0.49140702   -4.4169529    2152.7975  0.038506073  0.037071741           18 
 4660000   0.50214472    -4.433109    2157.4776  0.038581502  0.037062622           14 
 4661000   0.51928691    -4.406475    2156.4721  0.038555247  0.037053559           14 
 4662000   0.50659046   -4.4266902    2155.1872   0.03852401  0.037044476           32 
 4663000   0.50578075   -4.4150211     2158.319  0.038571718  0.037035391           36 
 4664000   0.49606317   -4.4146143    2151.9038  0.038448824  0.037026286           50 
 4665000   0.51320634    -4.421743    2156.8774  0.038529428  0.037017221           20 
 4666000   0.49701336   -4.4245569      2152.79  0.038448171  0.037008091           19 
 4667000   0.50548047   -4.4136955    2157.3709  0.038521728  0.036998971           10 
 4668000   0.50692066   -4.4180155    2150.9679  0.038399169  0.036989867           12 
 4669000   0.50999835   -4.4166033    2153.2602  0.038431858  0.036980763           14 
 4670000    0.4969554   -4.4214072    2149.3934  0.038354629  0.036971659           20 
 4671000   0.50288785   -4.4188237     2155.044  0.038447228  0.036962589           25 
 4672000   0.50768104   -4.4148525    2153.4294  0.038410199   0.03695351           45 
 4673000   0.52270265   -4.4085857    2153.0251   0.03839477  0.036944432           25 
 4674000    0.5128084   -4.4379872    2153.7628  0.038399708  0.036935361           36 
 4675000    0.5096624   -4.4277866    2157.9836   0.03846673  0.036926273           17 
 4676000   0.49912198   -4.4278592    2151.0188   0.03833438  0.036917154           22 
 4677000   0.50245825    -4.435898    2149.0685  0.038291434  0.036908036           31 
 4678000   0.50525824   -4.4188777    2149.6418  0.038293461  0.036898907           13 
 4679000    0.4985153   -4.4212202    2153.5504  0.038354891  0.036889809           22 
 4680000   0.50789246   -4.4144857    2153.1942  0.038340353  0.036880734           40 
 4681000   0.51458138    -4.423931    2153.3091  0.038334208  0.036871633           16 
 4682000   0.50415986   -4.4251156    2151.7832   0.03829886  0.036862516           33 
 4683000   0.49540773   -4.4352115    2151.9825  0.038294229  0.036853391           38 
 4684000   0.49859667   -4.4192301    2152.0613  0.038287456   0.03684427           11 
 4685000   0.50277487   -4.4371103    2151.1619  0.038263286  0.036835171           24 
 4686000   0.51203704   -4.4427379    2151.2678  0.038257003  0.036826034           23 
 4687000   0.50281219   -4.4132122    2151.0755  0.038245422  0.036816921           20 
 4688000   0.50444473   -4.4273147    2154.3125  0.038294805  0.036807835           33 
 4689000   0.49408287   -4.4380434    2155.9167  0.038315147  0.036798725           27 
 4690000   0.49955891   -4.4324259    2152.0285  0.038237891  0.036789644           15 
 4691000   0.50019834   -4.4288802    2151.0468    0.0382123  0.036780508           26 
 4692000   0.48801214   -4.4357614    2153.7783  0.038252669  0.036771384           26 
 4693000   0.49330506   -4.4307057    2151.8914  0.038211012  0.036762293           16 
 4694000   0.50710279   -4.4276656    2151.9457  0.038203836  0.036753174           12 
 4695000   0.50001046   -4.4360624    2149.9787  0.038160787  0.036744036           15 
 4696000   0.50117924   -4.4309473    2153.0708  0.038207531  0.036734882           21 
 4697000   0.49586492   -4.4269521    2155.6392  0.038244965  0.036725776           50 
 4698000   0.49378361   -4.4187513      2147.77   0.03809724  0.036716678           16 
 4699000   0.49913716   -4.4323088    2151.2365  0.038150608  0.036707561            9 
 4700000   0.48552477   -4.4281713    2150.4208  0.038128029  0.036698505            8 
 4701000   0.50231939   -4.4154787    2153.0158  0.038165918  0.036689428           13 
 4702000   0.50061977   -4.4390235    2152.3279  0.038145609  0.036680342           14 
 4703000    0.5006348   -4.4267845    2152.4618  0.038139872  0.036671268           63 
 4704000   0.49574653   -4.4508738    2148.9792  0.038070068  0.036662154           32 
 4705000   0.50035147   -4.4214191    2151.5314  0.038107181  0.036653028           19 
 4706000   0.50250664   -4.4426294    2152.5043   0.03811631  0.036643937           27 
 4707000   0.49640594   -4.4300391    2152.0326  0.038099862  0.036634849           52 
 4708000   0.49793342   -4.4365827    2151.2494  0.038077907  0.036625751           24 
 4709000   0.49963534   -4.4394503    2151.4327  0.038073064   0.03661665           88 
 4710000   0.49898172   -4.4234669    2149.0921  0.038023568  0.036607539           71 
 4711000   0.49925926   -4.4221804    2150.5793  0.038041805  0.036598449           22 
 4712000   0.49618781   -4.4031813    2149.3352  0.038011729  0.036589341           39 
 4713000   0.49688322   -4.4378249    2150.8344  0.038030173  0.036580255           26 
 4714000   0.49567144   -4.4402924    2149.7316  0.038002609  0.036571154           21 
 4715000   0.50060866   -4.4257068    2151.3262  0.038022732  0.036562054           24 
 4716000   0.49617078   -4.4220862    2149.6721  0.037985442  0.036552928           29 
 4717000   0.49534335   -4.4246717    2148.9228  0.037964151  0.036543821           18 
 4718000   0.49838472   -4.4354902    2150.4004  0.037982203  0.036534713           23 
 4719000    0.5040054   -4.4601741    2149.5217  0.037958637  0.036525594           18 
 4720000   0.50391907    -4.430863    2148.3218   0.03792941  0.036516489           40 
 4721000   0.49660331   -4.4433802    2152.2149  0.037990095  0.036507427           26 
 4722000   0.50145279   -4.4457861    2151.4446  0.037968456  0.036498379           18 
 4723000   0.49507145   -4.4449524     2150.681  0.037946944  0.036489294           21 
 4724000   0.48873408   -4.4402769    2153.7281  0.037992663  0.036480243           16 
 4725000    0.4976182   -4.4575973    2150.8097  0.037933152  0.036471202           19 
 4726000   0.48480379   -4.4422422    2153.4417  0.037971536  0.036462158           18 
 4727000    0.4893582   -4.4403176    2152.2525  0.037942537   0.03645311           14 
 4728000   0.49395064   -4.4286817    2153.4336   0.03795533  0.036444048           37 
 4729000    0.4905321   -4.4292059    2148.8645  0.037866788  0.036434983           35 
 4730000   0.49247706   -4.4236315    2154.0437  0.037950029  0.036425926           23 
 4731000   0.48618482   -4.4280963    2150.1681  0.037873743  0.036416872           33 
 4732000   0.49354232   -4.4456582     2153.865  0.037930842  0.036407802           18 
 4733000   0.49703268   -4.4231872    2154.1416    0.0379277   0.03639872           25 
 4734000   0.49375583   -4.4378283    2147.8985  0.037809788  0.036389643           31 
 4735000   0.48075288   -4.4468407    2152.1609  0.037876821  0.036380572           22 
 4736000   0.49196119   -4.4350132    2152.6966  0.037878248  0.036371514           14 
 4737000   0.49084872    -4.436187    2154.1094  0.037895105  0.036362469           15 
 4738000   0.49630911   -4.4254747    2151.8747  0.037847804   0.03635345           16 
 4739000   0.49449496   -4.4212073    2151.2348  0.037828565  0.036344453           22 
 4740000   0.49153016   -4.4342616    2154.0199  0.037869548  0.036335433           27 
 4741000   0.50198425   -4.4604926    2154.0125   0.03786143  0.036326428           17 
 4742000   0.49783667    -4.416978    2155.6687  0.037882551  0.036317411           21 
 4743000   0.48832893   -4.4276021    2156.6234  0.037891337  0.036308395           12 
 4744000    0.4934552   -4.4522339    2150.5116  0.037775991  0.036299391           21 
 4745000   0.48551116   -4.4336277    2154.9556  0.037846077  0.036290384           48 
 4746000   0.49117815   -4.4159687    2154.8615  0.037836449  0.036281411           20 
 4747000   0.48702601   -4.4416155    2150.9257  0.037759387  0.036272407           27 
 4748000    0.4941092   -4.4400138    2150.8323  0.037749795  0.036263385           21 
 4749000   0.48419585    -4.439729    2156.9572  0.037849323  0.036254357           20 
 4750000    0.4915644   -4.4469059    2149.4329  0.037709348  0.036245304           12 
 4751000   0.48746492   -4.4352647    2154.5659  0.037791446  0.036236257           19 
 4752000   0.49595028   -4.4506417    2145.3576  0.037622012  0.036227195           12 
 4753000   0.49676902   -4.4465655    2150.8819  0.037710953  0.036218117           11 
 4754000   0.48805582   -4.4689137    2155.0892  0.037776771   0.03620907           54 
 4755000   0.49297945   -4.4454644    2151.8116  0.037711385  0.036199985           31 
 4756000   0.48936452   -4.4489592    2151.3811  0.037695912  0.036190926           47 
 4757000   0.48907021   -4.4498468    2150.6756  0.037675629  0.036181863           22 
 4758000   0.47817663    -4.447857    2156.1618  0.037763797  0.036172852           15 
 4759000   0.49205525   -4.4509038    2149.4873  0.037638988  0.036163802           20 
 4760000   0.48985241   -4.4574317     2155.838  0.037742262  0.036154782           39 
 4761000    0.4938952   -4.4579089    2154.7805  0.037715825  0.036145749           25 
 4762000     0.483017   -4.4435241    2154.0027  0.037694294  0.036136721           28 
 4763000   0.48547503    -4.455055    2152.2058   0.03765494  0.036127715           48 
 4764000   0.48513839   -4.4587492     2151.803  0.037639991  0.036118717           51 
 4765000    0.4976822   -4.4504652    2151.8967  0.037633731  0.036109713           58 
 4766000   0.48216525    -4.448266    2153.2483  0.037649466  0.036100705           60 
 4767000   0.48874282   -4.4494466    2150.4531  0.037592705  0.036091713           36 
 4768000   0.49513385    -4.446444    2155.5551  0.037673992   0.03608273           31 
 4769000   0.48757038   -4.4546782    2149.2336  0.037555631  0.036073714           30 
 4770000   0.49302071   -4.4509604    2153.1332  0.037615884  0.036064689           81 
 4771000    0.4855326   -4.4500617    2148.8751  0.037533624   0.03605563           19 
 4772000   0.49419292   -4.4636542     2149.495  0.037536585  0.036046604           23 
 4773000   0.48773314   -4.4705057    2146.3613  0.037474009  0.036037566           24 
 4774000   0.48318265   -4.4554154    2150.2311  0.037533708  0.036028522           28 
 4775000   0.48676781   -4.4563284    2151.7302  0.037552011  0.036019503           15 
 4776000    0.4867483   -4.4617678    2151.9132  0.037547341  0.036010484           35 
 4777000   0.48808642   -4.4580052    2153.8717  0.037573647  0.036001466           65 
 4778000   0.49514267    -4.466003    2151.4179  0.037522985  0.035992465           29 
 4779000   0.48793066   -4.4644205    2152.8837  0.037540694  0.035983498           60 
 4780000   0.47792347   -4.4646339    2149.5131  0.037474078  0.035974508           32 
 4781000   0.48440847   -4.4380585    2149.8076  0.037471373  0.035965536           15 
 4782000   0.47973928   -4.4610929    2150.5982  0.037477315  0.035956571           24 
 4783000    0.4930584   -4.4610614    2151.1844  0.037479692  0.035947613           11 
 4784000   0.47831398   -4.4503695     2154.426  0.037528323  0.035938647           15 
 4785000   0.48627485   -4.4475826    2152.9603  0.037494955  0.035929698           33 
 4786000   0.48418294   -4.4443957    2151.8046  0.037466998  0.035920739            8 
 4787000   0.48526658   -4.4651288    2153.3402  0.037485903  0.035911772           10 
 4788000    0.4756667   -4.4693923    2149.8312  0.037417001    0.0359028           11 
 4789000   0.48262566   -4.4560889    2151.1808  0.037432672  0.035893851           17 
 4790000   0.47905971   -4.4275991    2146.2433  0.037338957  0.035884896           11 
 4791000   0.48669811   -4.4645597    2152.7836  0.037444924  0.035875921           12 
 4792000   0.48966142   -4.4560759    2150.5517  0.037398298  0.035866955           23 
 4793000   0.49100398   -4.4639772    2153.5526   0.03744267   0.03585798           14 
 4794000   0.48498123   -4.4548237    2146.1075  0.037305443  0.035849015           23 
 4795000   0.48075015   -4.4527901    2153.7959  0.037431281  0.035840057           48 
 4796000   0.48545245    -4.442746     2150.435  0.037365078  0.035831093           20 
 4797000   0.48101569   -4.4619125    2154.8926  0.037434726  0.035822143           26 
 4798000    0.4951272   -4.4606435    2149.3084  0.037329937  0.035813168           14 
 4799000   0.47908119   -4.4609625    2151.2936  0.037356629   0.03580419           22 
 4800000   0.48607738   -4.4691694    2148.9509  0.037308176  0.035795212           44 
 4801000   0.48372274   -4.4604445    2149.6904   0.03731324  0.035786263           15 
 4802000   0.48687028    -4.466704    2154.8473  0.037394962  0.035777318           19 
 4803000   0.50949724   -4.4815206    2148.8859  0.037283744  0.035768361           75 
 4804000   0.48859004   -4.4756831    2151.2614   0.03731719  0.035759384           45 
 4805000   0.47723617    -4.466728    2144.5686  0.037193351  0.035750391           26 
 4806000   0.48494081    -4.481926    2156.0281  0.037384313  0.035741414           50 
 4807000   0.48328839   -4.4618701    2149.2654    0.0372593   0.03573245           33 
 4808000   0.48541506   -4.4421473    2151.5733  0.037291551    0.0357235           27 
 4809000   0.49180411   -4.4913064    2154.3274   0.03733152   0.03571456           43 
 4810000   0.47713857   -4.4739521    2148.0781   0.03721549  0.035705603           23 
 4811000    0.4816896   -4.4639383    2148.3849  0.037213068  0.035696658           60 
 4812000   0.48229251   -4.4759874    2145.8706  0.037161794  0.035687714           97 
 4813000   0.48344164   -4.4806007    2152.7687  0.037273507  0.035678773           38 
 4814000    0.4863328   -4.4482804    2147.2601  0.037170408  0.035669847           26 
 4815000   0.47296088   -4.4743572    2150.0465  0.037210913  0.035660924           21 
 4816000   0.48207203   -4.4535263    2153.5777  0.037264287  0.035651997           30 
 4817000   0.48813732   -4.4665135    2152.1817  0.037232401  0.035643066           51 
 4818000   0.48771931   -4.4633473    2150.4545  0.037194799  0.035634129           20 
 4819000   0.47869268   -4.4955226    2151.8953  0.037211996  0.035625207           24 
 4820000     0.482602   -4.4711526     2149.068  0.037155395  0.035616246           30 
 4821000   0.47166846   -4.4905722    2147.8388   0.03712644  0.035607272           78 
 4822000   0.47479159   -4.4858333    2146.4523  0.037094779  0.035598273           37 
 4823000    0.4868641   -4.4568313    2149.3655  0.037137424  0.035589293           29 
 4824000   0.48220854   -4.4693693    2149.7215  0.037135875  0.035580357           20 
 4825000   0.47250471   -4.4723702    2146.8078  0.037077855  0.035571417           20 
 4826000   0.48510022   -4.4523273     2147.462  0.037081468  0.035562447           25 
 4827000    0.4731213   -4.4601068    2153.0595  0.037170422  0.035553513           18 
 4828000   0.48083555   -4.4641015    2150.4144  0.037117068  0.035544577           42 
 4829000   0.49163843   -4.4614273      2148.03  0.037068233  0.035535648           28 
 4830000   0.48255114   -4.4720734    2150.2538  0.037098927  0.035526723           19 
 4831000   0.47863488   -4.4849899     2148.175  0.037055389  0.035517767           14 
 4832000    0.4742559   -4.4857216    2151.7583  0.037109518  0.035508833           16 
 4833000   0.48137352   -4.4686766    2148.1225  0.037039149  0.035499942           16 
 4834000   0.47828019    -4.473873    2146.2117  0.036998547  0.035491006           26 
 4835000   0.47941888   -4.4853829    2149.7513  0.037051901   0.03548203           32 
 4836000   0.47670013   -4.4916731     2147.171  0.036999777  0.035473075           20 
 4837000   0.48361342    -4.480034    2152.8767  0.037090426  0.035464143           30 
 4838000   0.47554939   -4.4886993    2149.4465  0.037023675  0.035455223           35 
 4839000   0.47313789   -4.4805006    2148.0677   0.03699228  0.035446298           34 
 4840000   0.47016624   -4.4654153    2148.5491  0.036992926  0.035437383           12 
 4841000   0.47508492   -4.4704064     2151.141  0.037029902  0.035428472           24 
 4842000   0.46848424   -4.4922744     2148.422  0.036975457  0.035419573           31 
 4843000   0.48812028    -4.485109    2151.7507    0.0370251  0.035410661           32 
 4844000   0.47301186    -4.477024    2148.7538    0.0369659   0.03540174           29 
 4845000   0.48551977   -4.4671744     2147.868  0.036943034  0.035392843           29 
 4846000   0.48297777   -4.4768683    2146.6275  0.036914079  0.035383955           60 
 4847000   0.45499134   -4.4839454    2151.2059  0.036985178  0.035375041           42 
 4848000   0.47538497   -4.4738212       2144.1  0.036855404  0.035366112           66 
 4849000    0.4826262   -4.4861575     2148.767  0.036928009  0.035357208           39 
 4850000   0.46280133   -4.4731778    2154.3599  0.037016493  0.035348339           51 
 4851000   0.47475223   -4.4675439      2151.63  0.036961967  0.035339474           46 
 4852000   0.46082415   -4.4669401    2153.9815  0.036994735  0.035330622           24 
 4853000    0.4859468   -4.4830757    2148.8025  0.036898181  0.035321744           31 
 4854000   0.47214658   -4.4932367    2153.9452  0.036978869  0.035312863           49 
 4855000   0.47640901   -4.4802983    2147.2913  0.036857043  0.035303954           23 
 4856000   0.48219297   -4.4809569    2148.3875  0.036868264   0.03529507           42 
 4857000   0.48085907   -4.4820055     2152.899  0.036938079  0.035286191           28 
 4858000   0.46699493   -4.4728567    2152.3657  0.036921327   0.03527734           37 
 4859000   0.48166355   -4.4826324    2147.9653   0.03683826  0.035268479           57 
 4860000   0.47589241   -4.4648726    2144.8886  0.036777925  0.035259603           35 
 4861000   0.48530378   -4.4894107    2148.6041  0.036834054   0.03525075           86 
 4862000    0.4861878   -4.4774934    2150.5576  0.036859961  0.035241909           55 
 4863000   0.47875895   -4.4773683    2151.8808  0.036875057  0.035233087           86 
 4864000   0.46904768   -4.4691512    2149.5549  0.036827627  0.035224267           73 
 4865000   0.46939588    -4.476778    2149.6647  0.036821936  0.035215415           63 
 4866000   0.46996073    -4.478581    2150.2832  0.036824962   0.03520657           12 
 4867000   0.47120315   -4.4829922    2151.5194  0.036838562  0.035197727           30 
 4868000   0.47358451   -4.4802183    2151.8335  0.036836371  0.035188866           23 
 4869000    0.4689848   -4.5066956    2149.5174  0.036789166  0.035179978           19 
 4870000   0.47448154   -4.4934482    2149.3291   0.03677839  0.035171086           21 
 4871000   0.46958847    -4.483088    2146.5239  0.036722848  0.035162223           26 
 4872000   0.47809374   -4.4877844     2149.401  0.036764522  0.035153339           19 
 4873000   0.47524707    -4.494964    2145.3937  0.036688448  0.035144474           17 
 4874000   0.46925673   -4.4870429    2150.1406   0.03676208  0.035135616           32 
 4875000   0.46378079   -4.5031835    2152.6116  0.036796779  0.035126771           36 
 4876000   0.46738042   -4.4961001    2145.7934  0.036672706  0.035117914           21 
 4877000   0.46906177   -4.4944112    2144.0987   0.03663623  0.035109055           25 
 4878000   0.46448438   -4.4853827    2151.4961  0.036755092  0.035100196           31 
 4879000   0.47611845   -4.4978441    2148.1837  0.036690984  0.035091309           47 
 4880000   0.47158775   -4.4869444    2149.1186   0.03669943  0.035082445           21 
 4881000   0.47523403   -4.4846304    2151.1144  0.036725984  0.035073598           34 
 4882000   0.47990942   -4.4790484    2153.8098  0.036764472  0.035064772           14 
 4883000   0.46633496   -4.4957578     2150.003  0.036691975  0.035055954           24 
 4884000   0.48033252   -4.5009671    2148.7973   0.03666389  0.035047159            7 
 4885000   0.46722917   -4.4939416    2149.1262  0.036661996   0.03503833           17 
 4886000    0.4749912   -4.4811136     2147.069  0.036619405  0.035029522           20 
 4887000   0.47488559   -4.4994013    2148.2197  0.036631535    0.0350207           16 
 4888000   0.46987535   -4.5021422    2148.9206   0.03663599  0.035011842           26 
 4889000   0.47694999   -4.4807484    2151.4754  0.036672042   0.03500302           50 
 4890000   0.46714632    -4.502394    2151.7459  0.036669153  0.034994184           21 
 4891000   0.47069405   -4.4876266    2145.1672  0.036549567  0.034985361           17 
 4892000   0.47703204   -4.4901487     2147.548  0.036582652  0.034976522           30 
 4893000   0.47606305   -4.4950755    2150.2279  0.036620818  0.034967709           30 
 4894000   0.46782159   -4.4939075    2148.7532  0.036588224  0.034958905           17 
 4895000   0.47587436   -4.4877134    2149.3643  0.036591153  0.034950098           11 
 4896000   0.46465622     -4.50518    2149.2118  0.036581084  0.034941308           14 
 4897000   0.48146919   -4.4928876    2152.3154  0.036626428  0.034932516           45 
 4898000   0.46777836   -4.4945336    2152.9291  0.036629392  0.034923754           20 
 4899000   0.46194624   -4.4923113    2148.1216  0.036540137  0.034914977           33 
 4900000   0.47429451   -4.4965118    2147.7524  0.036526401  0.034906201           56 
 4901000   0.46748129   -4.4882625     2149.407  0.036547083  0.034897399          114 
 4902000   0.46677448   -4.4977149    2146.7813   0.03649499   0.03488859           46 
 4903000   0.48017894   -4.5000672    2150.8713  0.036557062  0.034879789           14 
 4904000   0.47046408   -4.4968733    2152.7111  0.036580871  0.034871003           66 
 4905000   0.46362463   -4.5018193    2151.9714  0.036560846  0.034862202           75 
 4906000   0.46340836   -4.5020952    2146.8863  0.036467019  0.034853394           33 
 4907000   0.45594399   -4.4955665    2150.1396  0.036514836  0.034844594           39 
 4908000   0.46640367   -4.4747917    2148.8569  0.036485617  0.034835788            7 
 4909000   0.47215978   -4.4978467    2152.6539  0.036542642  0.034827018           21 
 4910000   0.46240004   -4.4984922    2148.5824  0.036466096  0.034818247           23 
 4911000   0.46483768   -4.5049952    2146.7496   0.03642757  0.034809443           24 
 4912000   0.47444552   -4.5044416    2142.1919  0.036342832  0.034800647           12 
 4913000   0.46192271   -4.5124295    2145.4296  0.036390352  0.034791836           18 
 4914000   0.47371306   -4.5083383    2150.6705  0.036471823  0.034783039           20 
 4915000   0.47055511   -4.5025244    2150.9771  0.036469602  0.034774239           21 
 4916000   0.45646945    -4.497608     2148.012  0.036411921  0.034765457           14 
 4917000   0.46227581   -4.5033496    2148.9771  0.036420872   0.03475666           20 
 4918000   0.47149388   -4.5113483    2147.3236  0.036385448  0.034747864           22 
 4919000   0.46965505   -4.4938641     2149.308  0.036411669  0.034739086           28 
 4920000    0.4677158   -4.4871035    2148.1746  0.036385071  0.034730327           46 
 4921000    0.4600508   -4.4939223    2149.9839  0.036408316  0.034721548           34 
 4922000   0.46146195   -4.5033689    2148.6957  0.036379109  0.034712807           16 
 4923000   0.47559891   -4.5012124     2149.579  0.036386672  0.034704083           22 
 4924000    0.4520637   -4.4953891    2149.1011  0.036371194  0.034695367           26 
 4925000   0.47614543   -4.5011857    2152.3337  0.036418506  0.034686625           23 
 4926000   0.46797816   -4.5056236    2152.3842  0.036411968  0.034677903           23 
 4927000   0.46539371   -4.5060771    2147.8324  0.036327589   0.03466915           20 
 4928000   0.44661223   -4.4943914    2149.9973  0.036356827  0.034660411           15 
 4929000   0.46141758   -4.5011472    2148.2985   0.03632073   0.03465166           25 
 4930000   0.46099695   -4.4938617    2145.0605  0.036258629  0.034642888           36 
 4931000   0.46116786   -4.4866238     2147.559    0.0362935  0.034634185           33 
 4932000   0.45427688   -4.4952696    2147.6681  0.036287986  0.034625471           31 
 4933000   0.45218366   -4.5084715    2146.2424  0.036256545  0.034616744           29 
 4934000   0.46145548   -4.4971551    2147.3739  0.036268306     0.034608           17 
 4935000   0.45652531   -4.5007654    2145.0143  0.036221113  0.034599285           34 
 4936000   0.46540911   -4.5057005    2150.1232  0.036300028  0.034590586           29 
 4937000   0.46117088   -4.5028672    2147.5292   0.03624889  0.034581838           19 
 4938000    0.4611826   -4.4890995    2148.1883  0.036252671  0.034573098           41 
 4939000   0.45657734    -4.494483    2146.7338   0.03622079  0.034564361           31 
 4940000   0.46607759   -4.5223249    2147.3297  0.036223511   0.03455561           35 
 4941000   0.46299856   -4.5065875    2151.3455  0.036283908  0.034546872           92 
 4942000   0.45686565    -4.505456    2150.6044  0.036264069  0.034538138           89 
 4943000   0.45860703    -4.509541     2146.623  0.036189612  0.034529373           94 
 4944000   0.45998309   -4.5123545    2144.9562  0.036154196  0.034520589          100 
 4945000   0.45392382   -4.5239763    2143.5464  0.036123127  0.034511811           42 
 4946000   0.45102587   -4.5049505    2145.6658  0.036151532  0.034503058           62 
 4947000   0.44931445   -4.5299241    2145.9226  0.036148551   0.03449431           71 
 4948000   0.46423937    -4.493171    2145.6949  0.036137411  0.034485565           52 
 4949000   0.46076739   -4.5206604    2148.3766  0.036175264  0.034476829           29 
 4950000   0.46136722   -4.5007186    2149.3252  0.036183926  0.034468107           41 
 4951000   0.45846297   -4.5120812    2149.5575  0.036180528  0.034459366           30 
 4952000   0.45717017   -4.5009218    2144.7943  0.036093066  0.034450654           22 
 4953000   0.46919411   -4.4967429    2150.4983  0.036181747  0.034441937           49 
 4954000   0.45982947   -4.5258059    2149.3844  0.036155707  0.034433214           27 
 4955000   0.46381811   -4.5245228     2145.515  0.036083333  0.034424468           43 
 4956000    0.4683727   -4.5342856    2145.2802  0.036072105  0.034415706           59 
 4957000   0.45224734   -4.5172899    2143.7224  0.036038639  0.034406929           41 
 4958000   0.46147983   -4.5181568    2145.5794  0.036062582  0.034398168           58 
 4959000   0.45610249   -4.5275113    2146.9002  0.036077505  0.034389395           51 
 4960000   0.45116027   -4.5011809    2143.7076  0.036016592  0.034380625           54 
 4961000   0.46300083   -4.5170583    2147.0724  0.036065853  0.034371873           33 
 4962000   0.46971657   -4.5099665    2143.1757  0.035993143  0.034363136           25 
 4963000   0.45148071   -4.5225212    2147.9688  0.036066371  0.034354411           20 
 4964000   0.45112028    -4.522409    2149.8475  0.036090645  0.034345675            9 
 4965000   0.46099461   -4.5304167    2140.3392  0.035923787  0.034336917           16 
 4966000   0.46062362   -4.5374044    2146.8079  0.036025103   0.03432815           20 
 4967000   0.46393149   -4.5033638    2146.6821   0.03601574  0.034319439           34 
 4968000   0.46287343    -4.514956     2148.671  0.036041852  0.034310722           18 
 4969000   0.46481526   -4.5062263    2147.8917  0.036021528  0.034301979           20 
 4970000   0.46168669   -4.5123988    2146.9083  0.035997791  0.034293286           11 
 4971000   0.45241886   -4.5169906     2149.564  0.036035071    0.0342846           21 
 4972000     0.452776   -4.5215639    2146.3961  0.035974726  0.034275892           38 
 4973000   0.45311047   -4.5139233    2146.3908  0.035967405  0.034267194           33 
 4974000   0.45823872   -4.5081032    2141.8432  0.035883983  0.034258486           56 
 4975000   0.45982339   -4.5236122    2147.0118  0.035963347  0.034249773           49 
 4976000   0.45364292    -4.523164    2141.9321  0.035871049  0.034241047           56 
 4977000   0.45177466    -4.523163    2143.6872  0.035893229  0.034232311           65 
 4978000   0.46055181   -4.5110743    2140.7612  0.035837037   0.03422357           34 
 4979000   0.45931503    -4.512322    2141.5244  0.035842612  0.034214849           53 
 4980000   0.44686064   -4.5247333    2142.2415  0.035847414  0.034206119           55 
 4981000    0.4595038    -4.526494    2144.4678  0.035877465   0.03419742           22 
 4982000   0.45396474   -4.5313094    2144.7577  0.035875112  0.034188711           47 
 4983000   0.46028204   -4.5170043    2146.7338  0.035900959  0.034180022           87 
 4984000   0.45004024   -4.5273754     2147.252  0.035902421  0.034171351           85 
 4985000   0.45404426   -4.5273321    2141.7916  0.035803938   0.03416265          102 
 4986000   0.45683709   -4.5261395    2145.6492  0.035861232  0.034153945          158 
 4987000    0.4586228   -4.5340579    2147.1753  0.035879542  0.034145239          120 
 4988000   0.44799144   -4.5331937    2141.2725  0.035773732  0.034136541          144 
 4989000   0.45532162    -4.536948    2144.7134  0.035824037  0.034127844           95 
 4990000   0.46319295   -4.5407058    2146.7476  0.035850828  0.034119128           83 
 4991000   0.46470083   -4.5261503    2144.5936  0.035807681  0.034110422          143 
 4992000   0.44247474   -4.5278299    2145.5194  0.035815962  0.034101713          107 
 4993000   0.45973933   -4.5297664    2145.2408  0.035804139  0.034092965          144 
 4994000   0.45213027   -4.5445343    2141.5342  0.035735118  0.034084225          234 
 4995000   0.45886699   -4.5393951    2144.1755   0.03577203  0.034075516          117 
 4996000   0.44475727   -4.5344315    2144.8309  0.035775803  0.034066818          124 
 4997000   0.44662996   -4.5442259    2144.4247  0.035761868  0.034058096          102 
 4998000   0.44519292   -4.5333646    2136.8018  0.035627614  0.034049376           89 
 4999000   0.44939437   -4.5447476    2139.5765  0.035666742  0.034040638          125 
 5000000   0.44657819   -4.5398865    2143.8115  0.035730192  0.034031932           62 
 5001000   0.46467328   -4.5175323    2140.3247  0.035664946  0.034023227           55 
 5002000    0.4506245    -4.537943    2143.7966  0.035715657  0.034014523           48 
 5003000   0.44525028   -4.5269665     2144.193  0.035715121  0.034005844           41 
 5004000    0.4580496   -4.5218301    2140.3133  0.035643373  0.033997189           39 
 5005000   0.45336155   -4.5220667    2145.5356  0.035723204  0.033988531           29 
 5006000   0.45232907   -4.5525921    2146.0842  0.035725199  0.033979881           88 
 5007000   0.44102366   -4.5463238    2144.3718  0.035689564  0.033971204           28 
 5008000   0.44505987   -4.5346252    2142.5807  0.035652633  0.033962516           50 
 5009000   0.44639796   -4.5336788    2143.6803   0.03566381  0.033953842           50 
 5010000    0.4494796   -4.5591269    2142.2489  0.035632882  0.033945146           24 
 5011000   0.44637267   -4.5587122    2143.4793  0.035646233   0.03393644           35 
 5012000   0.44968859   -4.5548816      2141.74  0.035610203  0.033927743           91 
Loop time of 12329.6 on 48 procs for 5000000 steps with 4000 atoms

Performance: 70075.531 tau/day, 405.530 timesteps/s
99.4% CPU use with 48 MPI tasks x no OpenMP threads

MPI task timing breakdown:
Section |  min time  |  avg time  |  max time  |%varavg| %total
---------------------------------------------------------------
Pair    | 831.11     | 889.83     | 942.7      |  95.7 |  7.22
Neigh   | 82.575     | 86.392     | 90.591     |  21.1 |  0.70
Comm    | 801.48     | 854.47     | 924.12     |  96.3 |  6.93
Output  | 16.475     | 16.479     | 16.571     |   0.3 |  0.13
Modify  | 10345      | 10370      | 10399      |  10.8 | 84.11
Other   |            | 112.1      |            |       |  0.91

Nlocal:        83.3333 ave          93 max          77 min
Histogram: 3 8 3 14 6 5 5 0 2 2
Nghost:        2259.23 ave        2291 max        2234 min
Histogram: 2 8 6 8 3 7 4 6 2 2
Neighs:        15122.9 ave       17706 max       13460 min
Histogram: 3 9 4 6 11 7 6 1 0 1
FullNghs:      30244.9 ave       33686 max       27851 min
Histogram: 4 6 7 8 10 4 3 1 3 2

Total # of neighbors = 1451756
Ave neighs/atom = 362.93900
Neighbor list builds = 270474
Dangerous builds = 0

#clear
#
#next RN
#
#jump SELF
Total wall time: 3:25:33
