
units lj                  # Use reduced LJ style units
atom_style atomic         # Uncharged point particles
atom_modify map hash      # Needed for indexing of clusters etc
                          # Used to be able to find where atoms are in relation to each other.

lattice fcc 1.0 spacing 1 1 1
Lattice spacing in x,y,z = 1.5874011 1.5874011 1.5874011
region box block 0 10 0 10 0 10 units lattice
create_box 2 box
Created orthogonal box = (0.0000000 0.0000000 0.0000000) to (15.874011 15.874011 15.874011)
  3 by 4 by 4 MPI processor grid
create_atoms 1 box
Created 4000 atoms
  using lattice units in orthogonal box = (0.0000000 0.0000000 0.0000000) to (15.874011 15.874011 15.874011)
  create_atoms CPU = 0.003 seconds
set type 1 type/fraction 2 0.32 78393
Setting atom values ...
  1310 settings made for type/fraction
mass 1 1.0
mass 2 1.0
pair_style lj/cut  3.5
pair_modify tail  yes
pair_coeff 1  1  1.0  1.0   # Intearaction between 1 and 1 set with epsilon = 1 and sigma = 1
pair_coeff 1  2  1.5  0.8
pair_coeff 2  2  0.5  0.88

write_data data.0
System init for write_data ...
Neighbor list info ...
  update every 1 steps, delay 10 steps, check yes
  max neighbors/atom: 2000, page size: 100000
  master list distance cutoff = 3.8
  ghost atom cutoff = 3.8
  binsize = 1.9, bins = 9 9 9
  1 neighbor lists, perpetual/occasional/extra = 1 0 0
  (1) pair lj/cut, perpetual
      attributes: half, newton on
      pair build: half/bin/atomonly/newton
      stencil: half/bin/3d
      bin: standard
WARNING: Not all mixed pair coeffs generated from mixing. Use write_data with 'pair ij' option to store all pair coeffs. (../write_data.cpp:312)


#############################
#   M E L T   S Y S T E M   #
#############################

velocity all create 2.4 1741580 mom yes dist gaussian # Assign velocities
                                                    # Temperature 2.4, random number seed, zero linear momentum
                                                                                # Gaussian distribution

timestep 0.002   # simulation timestep
thermo 1000       # output thermodynamic data every 1000 steps bf 100

# Define a fix  in this case with index 1 applied to all
# particles in the simulation. This fix is for simulations
# in the anisotropic NPT ensemble. Note that we use the MTK
# correction.
fix 1 all npt temp 2.4 2.4 0.1 iso 5.68 5.68 0.5 mtk yes tchain 5 pchain 5 # Use NPT ensemble
                                                                         # Set temperature and pressure and damping
                                                                         # Numbers of thermostats in chain and in barostat
run 10000          # run for 10000 steps
Per MPI rank memory allocation (min/avg/max) = 3.642 | 3.644 | 3.648 Mbytes
Step Temp E_pair E_mol TotEng Press Volume 
       0          2.4   -6.3097323            0   -2.7106323   -4.0355096         4000 
    1000    2.3840016   -4.9912317            0   -1.4161233    5.6668411    4098.7572 
    2000    2.3891963   -4.9648202            0   -1.3819217     5.320418    4145.6716 
    3000     2.369262   -5.0280203            0   -1.4750157    6.0882946    4040.9202 
    4000    2.3914541   -5.0554924            0    -1.469208    5.4372935    4089.3013 
    5000    2.3898289    -4.924134            0   -1.3402867    5.8458804    4122.6431 
    6000    2.3794218   -4.9651814            0   -1.3969411    5.2733088    4143.7578 
    7000    2.3720939   -5.0029204            0   -1.4456692    5.6295273    4092.4966 
    8000    2.4396612   -4.9906678            0    -1.332091    5.7888835    4097.9529 
    9000     2.382714   -5.0413779            0   -1.4682004    5.6881788    4076.4366 
   10000    2.3426107   -4.9569449            0   -1.4439073    5.4834751    4121.9346 
Loop time of 2.44713 on 48 procs for 10000 steps with 4000 atoms

Performance: 706133.378 tau/day, 4086.420 timesteps/s
99.6% CPU use with 48 MPI tasks x no OpenMP threads

MPI task timing breakdown:
Section |  min time  |  avg time  |  max time  |%varavg| %total
---------------------------------------------------------------
Pair    | 1.0666     | 1.1258     | 1.2731     |   3.3 | 46.01
Neigh   | 0.20472    | 0.21322    | 0.23646    |   1.2 |  8.71
Comm    | 0.71147    | 0.84684    | 0.94417    |   5.2 | 34.61
Output  | 0.000243   | 0.00024806 | 0.00031331 |   0.0 |  0.01
Modify  | 0.21061    | 0.24613    | 0.29585    |   4.9 | 10.06
Other   |            | 0.01486    |            |       |  0.61

Nlocal:        83.3333 ave          95 max          75 min
Histogram: 4 5 2 7 9 13 3 3 1 1
Nghost:        1601.69 ave        1626 max        1577 min
Histogram: 2 3 1 10 7 8 8 6 1 2
Neighs:        9255.77 ave       10514 max        8210 min
Histogram: 4 4 5 7 4 13 4 2 3 2

Total # of neighbors = 444277
Ave neighs/atom = 111.06925
Neighbor list builds = 912
Dangerous builds = 239

# Equilibrate just above the melting temperature to avoid step fn in T

fix 1 all npt temp 1.25 1.25 0.1 iso 5.68 5.68 0.5 mtk yes tchain 5 pchain 5
run 2000
Per MPI rank memory allocation (min/avg/max) = 3.643 | 3.645 | 3.649 Mbytes
Step Temp E_pair E_mol TotEng Press Volume 
   10000    2.3426107   -4.9569449            0   -1.4439073    5.4834751    4121.9346 
   11000     1.232537   -6.8586902            0   -5.0103469     5.613334    3302.1562 
   12000    1.2478827   -6.9504475            0   -5.0790913    5.5470335    3276.0957 
Loop time of 0.581914 on 48 procs for 2000 steps with 4000 atoms

Performance: 593902.202 tau/day, 3436.934 timesteps/s
99.6% CPU use with 48 MPI tasks x no OpenMP threads

MPI task timing breakdown:
Section |  min time  |  avg time  |  max time  |%varavg| %total
---------------------------------------------------------------
Pair    | 0.24759    | 0.27525    | 0.31237    |   2.8 | 47.30
Neigh   | 0.036871   | 0.03975    | 0.044805   |   0.8 |  6.83
Comm    | 0.17618    | 0.21964    | 0.25041    |   3.4 | 37.74
Output  | 4.9708e-05 | 6.1216e-05 | 8.2673e-05 |   0.0 |  0.01
Modify  | 0.039583   | 0.04257    | 0.045129   |   0.7 |  7.32
Other   |            | 0.004644   |            |       |  0.80

Nlocal:        83.3333 ave          91 max          74 min
Histogram: 1 3 2 2 11 10 4 10 3 2
Nghost:        1885.23 ave        1908 max        1858 min
Histogram: 2 3 1 5 6 9 11 5 3 3
Neighs:        11662.5 ave       12704 max       10150 min
Histogram: 1 2 3 7 3 8 6 8 3 7

Total # of neighbors = 559801
Ave neighs/atom = 139.95025
Neighbor list builds = 142
Dangerous builds = 7

#############################
# L I N E A R  Q U E N C H  #
#############################

# Define solid atoms. This closely follows ten Wolde  Ruiz-Montero and Frenkel  Faraday Discuss  1996  104  93-110
# Compute components of the per-atom q6 vector
compute q6 all orientorder/atom degrees 1 6 components 6 nnn NULL cutoff 1.3 # compute the Q6 parameter.
                                                                             # Use all neighbours within 1.3 unit cell.

# get number of connections
compute coord_number all coord/atom orientorder q6 0.5

# An atom is solid if it has 8 or more connections (of a possible 14)
variable is_solid atom c_coord_number>=8
group solid dynamic all var is_solid    # Must be dynamic to update
dynamic group solid defined

# do clustering
compute cluster solid cluster/atom 1.3 # Create a cluster where all atoms within are solid and max 1.3 units from another member

# define chunks one chunk per cluster
compute clus_chunks solid chunk/atom c_cluster nchunk every compress yes  # Says which atoms are in which chunk

# count the size of each chunk
compute size_chunks solid property/chunk clus_chunks count


# Find the maximum entry in the vector of chunk sizes
variable max_n equal max(c_size_chunks)


# Thermo style which includes this variable
# thermo_style custom step temp pe vol v_max_n

thermo ${N}  # Print the thermo information every 100 steps
thermo 1000  

# Reset the npt fix at a lower temperature (below freezing)
fix 1  all npt temp  ${temp} ${temp}  0.1  iso  5.68  5.68  0.5  mtk yes tchain  5  pchain  5
fix 1  all npt temp  0.45 ${temp}  0.1  iso  5.68  5.68  0.5  mtk yes tchain  5  pchain  5
fix 1  all npt temp  0.45 0.45  0.1  iso  5.68  5.68  0.5  mtk yes tchain  5  pchain  5

dump dmp2 all dcd ${N} traj.dcd
dump dmp2 all dcd 1000 traj.dcd


compute msd all msd com yes
variable twopoint equal c_msd[4]/6/(step*dt+1.0e-6)
fix 9 all vector 10 c_msd[4]
variable fit equal slope(f_9)/6/(10*dt)
thermo_style custom step temp pe c_msd[4] v_twopoint v_fit v_max_n

fix 1 all npt temp 1.25 ${temp} 0.1 iso 5.68 5.68 0.5 mtk yes tchain 5 pchain 5
fix 1 all npt temp 1.25 0.45 0.1 iso 5.68 5.68 0.5 mtk yes tchain 5 pchain 5
run 5000000 # 5000000  # Run for this many steps
Neighbor list info ...
  update every 1 steps, delay 10 steps, check yes
  max neighbors/atom: 2000, page size: 100000
  master list distance cutoff = 3.8
  ghost atom cutoff = 3.8
  binsize = 1.9, bins = 8 8 8
  4 neighbor lists, perpetual/occasional/extra = 1 3 0
  (1) pair lj/cut, perpetual
      attributes: half, newton on
      pair build: half/bin/atomonly/newton
      stencil: half/bin/3d
      bin: standard
  (2) compute orientorder/atom, occasional
      attributes: full, newton on
      pair build: full/bin/atomonly
      stencil: full/bin/3d
      bin: standard
  (3) compute coord/atom, occasional
      attributes: full, newton on
      pair build: full/bin/atomonly
      stencil: full/bin/3d
      bin: standard
  (4) compute cluster/atom, occasional
      attributes: full, newton on
      pair build: full/bin/atomonly
      stencil: full/bin/3d
      bin: standard
Per MPI rank memory allocation (min/avg/max) = 9.815 | 9.819 | 9.824 Mbytes
Step Temp PotEng c_msd[4] v_twopoint v_fit v_max_n 
   12000    1.2478827   -6.9504475 3.0095044e-30 2.0899335e-32 8.3333333e+20            1 
   13000    1.2517976     -6.91726    0.4820044 0.0030897717  0.039515374            2 
   14000    1.2567616   -6.9466731   0.95822996 0.0057037495  0.039168659            1 
   15000    1.2512668   -6.9362809    1.4265564 0.0079253131  0.039270747            2 
   16000    1.2283676   -6.9059784     1.887681 0.0098316715   0.03910807            1 
   17000    1.2508505   -6.9562249    2.3573364   0.01155557  0.039048819            1 
   18000    1.2159312    -6.999867     2.797489  0.012951337  0.038815048            1 
   19000    1.2901426   -6.9330604    3.2269928  0.014153477  0.038544549            1 
   20000    1.2500586   -6.9469224    3.6380804  0.015158668  0.038099077            1 
   21000    1.2351726   -6.9454027    4.1109492   0.01631329  0.037784889            3 
   22000    1.2605368    -6.936888    4.6202421  0.017500917  0.037758272            1 
   23000    1.2310129   -6.9133631    5.0854092  0.018425395  0.037823907            1 
   24000    1.2370486   -6.9399622    5.5528461  0.019280715  0.037944514            2 
   25000    1.2302326   -6.9772318    5.9629469  0.019876489  0.037948013            2 
   26000    1.2701893     -6.95961    6.5093853  0.020863414  0.038110423            2 
   27000    1.2296589   -6.9267105    6.9533602  0.021460988   0.03819192            4 
   28000    1.2448192   -6.9176357     7.408888  0.022050262  0.038259444            1 
   29000    1.2368062   -6.9510454    7.8218055  0.022476452   0.03831726            1 
   30000    1.2551483   -6.9256707    8.4473107  0.023464752  0.038419706            2 
   31000    1.2411317   -6.9584175    9.0840122  0.024419387  0.038683092            1 
   32000    1.2568249   -6.9655772    9.5112721  0.024768937  0.038962188            2 
   33000    1.2440835   -6.9139739    9.9376461  0.025095065   0.03907547            1 
   34000    1.2487578   -6.9230702      10.3803  0.025441912  0.039156178            1 
   35000    1.2310305   -6.9239567    10.733941  0.025557002  0.039191775            1 
   36000    1.2495217   -6.9593865    11.111335  0.025720683  0.039135981            1 
   37000    1.2281498   -6.9628451    11.445017  0.025777064  0.038974265            1 
   38000    1.2324152   -6.9045778    11.965998  0.026241224  0.038834301            1 
   39000    1.2369218   -6.9354945    12.429574  0.026558919   0.03871871            2 
   40000    1.2654161   -6.9292742    12.991624  0.027065883  0.038640414            1 
   41000    1.2466225   -6.9438941    13.470983  0.027380046  0.038642847            1 
   42000    1.2510866   -6.9830436     13.88068  0.027541032  0.038653636            3 
   43000    1.2543585   -6.9380734    14.403538  0.027913834  0.038645189            1 
   44000    1.2735877    -6.940542    14.918152  0.028254075  0.038658852            1 
   45000    1.2586051   -6.9523191    15.244777  0.028231068  0.038664137            1 
   46000    1.2590887   -6.9919343    15.737794  0.028510497  0.038648086            4 
   47000    1.2335481   -6.9269204    16.205863  0.028733799  0.038639845            1 
   48000    1.2390812   -6.9598737    16.637165  0.028883967  0.038612835            2 
   49000    1.2145232    -6.901306    17.117264  0.029110993  0.038590436            1 
   50000    1.2212013    -6.954575    17.463859  0.029106432  0.038554054            1 
   51000    1.2231544   -6.9485632     17.95688  0.029341306  0.038508418            1 
   52000    1.2332332    -6.924673    18.495761  0.029640642  0.038482137            1 
   53000    1.2551619   -6.9407891    18.853146   0.02964331  0.038454001            2 
   54000     1.255558   -6.9113275    19.426784  0.029979604  0.038427861            1 
   55000    1.2531687   -6.9521568    20.077421  0.030420335  0.038447284            2 
   56000    1.2416452   -6.9583153    20.611831  0.030672367  0.038501865            1 
   57000    1.2313862   -6.9247677     21.13014  0.030892017  0.038566761            2 
   58000    1.2472454   -6.9767317    21.486082  0.030870807  0.038607336            2 
   59000    1.2209056   -6.9080735    22.063364  0.031162943  0.038637386            2 
   60000    1.2412256   -6.9297662    22.513954  0.031269381   0.03867711            2 
   61000    1.2028385   -6.9375617    22.949893  0.031352312  0.038717522            1 
   62000    1.2285926   -6.9486227    23.346418  0.031379594  0.038746452            1 
   63000    1.2235352   -6.9293348    23.877399   0.03158386  0.038761896            1 
   64000     1.247559   -6.9449365    24.352262  0.031708674  0.038773247            3 
   65000    1.2454821   -6.9497985     24.82714  0.031829666  0.038796247            1 
   66000     1.231058   -6.9364071    25.391098  0.032059467  0.038818493            2 
   67000    1.2626317   -6.9332512    26.118478  0.032485669  0.038862478            1 
   68000    1.2872625   -6.9743797     26.34014  0.032279583  0.038922271            2 
   69000    1.2413779   -6.9530684    27.179339  0.032825288  0.038994073            1 
   70000     1.254569   -6.9280924    27.721252   0.03300149  0.039088227            3 
   71000    1.2339804   -6.9765553    28.154867  0.033045619  0.039175618            1 
   72000      1.25543   -6.9418836    28.596032  0.033097259  0.039258076            3 
   73000    1.2711453   -6.9107165    29.166082  0.033294614  0.039312717            1 
   74000    1.2668639   -6.9364135    29.632103  0.033369486  0.039370765            1 
   75000    1.2171463   -6.9708186    30.087321  0.033430356  0.039429174            2 
   76000    1.2113008   -6.9169388    30.511184  0.033455245  0.039477072            2 
   77000    1.2469494   -6.9479947    30.934038  0.033478396  0.039521142            3 
   78000    1.2394954   -6.9652866    31.186892  0.033319329  0.039539472            2 
   79000    1.2463801   -6.9278626    31.763123  0.033505404  0.039550901            1 
   80000    1.2197977   -6.9656081    32.330301  0.033677397  0.039567395            1 
   81000    1.2328436   -6.9858176    32.714279  0.033656666  0.039581352            2 
   82000    1.2370674    -6.945578    33.236232  0.033776659  0.039598062            4 
   83000    1.2297594   -6.9458434     33.83855  0.033974448  0.039615225            2 
   84000    1.2444007   -6.9647701    34.168038  0.033896863  0.039631439            2 
   85000    1.2320078   -6.9760492    34.630444  0.033951416  0.039647955            1 
   86000    1.2428728   -6.9545456    35.083525  0.033995664  0.039661477            1 
   87000    1.2536965   -6.9324252    35.736509  0.034230372  0.039679293            1 
   88000    1.2126151   -6.9215298    35.956961  0.034050152  0.039695188            3 
   89000    1.2346233   -6.9733294    36.452785  0.034131821  0.039701777            3 
   90000    1.2547114    -6.982187    36.700006  0.033981487  0.039691248            2 
   91000    1.2725546   -6.9623753    37.208316  0.034073549  0.039678696            3 
   92000     1.264332   -6.9789909    37.670807  0.034122108  0.039663227            1 
   93000    1.2741485   -6.9388656    38.249078  0.034273367  0.039651141            1 
   94000    1.2426493   -6.9817606    38.610976  0.034229588  0.039639903            1 
   95000    1.2446555   -6.9970097    39.129059  0.034323735  0.039635898            1 
   96000    1.2306444   -6.9333967    39.693368  0.034456048  0.039630219            1 
   97000    1.2577091    -6.974117     40.06655  0.034421435  0.039631576            1 
   98000    1.2637009   -6.9992288    40.488598   0.03442908  0.039626328            1 
   99000    1.2419181   -6.9413675    41.103055  0.034598531  0.039621875            1 
  100000     1.238187   -6.9451129    41.633772   0.03469481  0.039617682            2 
  101000    1.2182648   -6.9524413    42.214422  0.034830381  0.039616765            1 
  102000    1.2047524   -6.9636289    42.687289  0.034875236  0.039621199            2 
  103000    1.2207009   -6.9404552    43.245855  0.034988555  0.039629532            1 
  104000    1.2546744   -6.9704107    43.681883  0.035001509  0.039639325            3 
  105000    1.2117776   -7.0093297    44.065949  0.034972975  0.039652509            2 
  106000    1.2506585   -7.0209507    44.374283  0.034885443  0.039659691            1 
  107000    1.2285542   -6.9416004    44.912954  0.034978936  0.039654533            2 
  108000    1.2444629   -6.9660844    45.234379   0.03490307  0.039643966            1 
  109000     1.222288   -6.9728643    45.777656  0.034998208  0.039634058            2 
  110000    1.2521929   -6.9545413    46.169406  0.034976822  0.039623136            1 
  111000    1.2339624   -6.9616636    46.534076  0.034935492  0.039608191            2 
  112000    1.2522598   -6.9690754    46.969636  0.034947646  0.039591129            2 
  113000    1.2245487   -6.9179557    47.350769  0.034919446  0.039571861            1 
  114000    1.2375898    -6.986937    47.887642  0.035005586  0.039555996            1 
  115000    1.2255501    -6.972703    48.281687   0.03498673  0.039535468            2 
  116000    1.2422485    -6.994188    48.778658  0.035042139  0.039519019            2 
  117000    1.2190356   -6.9360599    49.368322  0.035162623  0.039504581            1 
  118000    1.2314696   -6.9396467     49.75719  0.035139258  0.039488081            1 
  119000     1.219696    -6.939252    49.971983  0.034994386  0.039469039            1 
  120000    1.2223551   -6.9409315    50.459425  0.035041267  0.039440041            3 
  121000    1.2279973   -6.9540517    50.638578  0.034875054  0.039412076            1 
  122000    1.2274966    -6.954507    51.254227  0.035009717  0.039378975            1 
  123000    1.2264623    -6.959573    51.557009  0.034930223  0.039348229            1 
  124000    1.2135741   -6.9905131    51.873829  0.034861444   0.03931925            1 
  125000    1.2424276   -6.9592379    52.370058  0.034913372  0.039294282            1 
  126000    1.2227876   -6.9607508    52.848297  0.034952577  0.039261578            2 
  127000    1.2148376   -6.9773742    53.310528  0.034980661  0.039234929            3 
  128000    1.2592929   -6.9440489      53.6871  0.034952539  0.039206489            1 
  129000    1.2248636   -6.9705539    54.359305   0.03511583  0.039178311            1 
  130000    1.2228361   -6.9985921     54.57601  0.034984621  0.039151686            2 
  131000    1.2114803   -6.9862441    55.388922  0.035234683    0.0391286            2 
  132000    1.2236076   -6.9883254    55.814407  0.035236368  0.039112667            2 
  133000    1.2083229   -6.9380883    56.354478  0.035309823  0.039094819            2 
  134000    1.2164513   -6.9914988    56.645832  0.035227507  0.039077815            1 
  135000    1.2518638   -6.9575588    57.355922   0.03540489   0.03906024            1 
  136000    1.2308845   -6.9943218    57.567659  0.035274301  0.039042525            1 
  137000    1.2597177   -6.9518237    57.866562  0.035198638  0.039021896            4 
  138000    1.2434641   -6.9929525    58.294538  0.035202016  0.038998409            1 
  139000    1.2249752   -6.9905712    58.317102  0.034962291  0.038966891            1 
  140000    1.2354145   -6.9526981    58.840491  0.035024102  0.038932905            1 
  141000    1.2074951   -6.9742807    59.130433  0.034947064  0.038898939            1 
  142000    1.2540079   -7.0025203    59.417979  0.034869706   0.03886154            1 
  143000    1.2650101   -6.9556615    59.889479  0.034900629  0.038822119            2 
  144000    1.2206312   -7.0226327    60.102703  0.034781657  0.038784431            1 
  145000    1.2397195   -6.9719012    60.818575  0.034953204  0.038745936            1 
  146000     1.219652    -7.002077    60.950494  0.034789094  0.038712205            1 
  147000    1.2378951   -7.0220004    61.519515  0.034875009  0.038678467            1 
  148000    1.2156503   -6.9853582    61.935773  0.034873746  0.038642094            2 
  149000    1.2292262   -6.9662499     62.41086  0.034905403  0.038610296            1 
  150000    1.2014264    -6.959945    62.897512  0.034943062  0.038575622            3 
  151000    1.2094991   -6.9781759    63.233852  0.034897269  0.038537368            1 
  152000    1.2313881   -6.9971472     63.45299  0.034787823  0.038498559            1 
  153000    1.2348454   -7.0088683    63.788817  0.034743364  0.038458897            1 
  154000    1.2168512   -6.9574239    64.703546  0.035012741  0.038424345            1 
  155000    1.1945537   -6.9677215    65.206548  0.035057284  0.038394804            1 
  156000    1.2392429   -7.0051381    65.433937  0.034954026  0.038365425            1 
  157000     1.220223   -6.9860488    65.674862  0.034859269  0.038335868            5 
  158000    1.2177939   -6.9718082    66.341918  0.034990463  0.038305035            1 
  159000    1.2435735    -6.950792    67.014535  0.035122922  0.038277627            2 
  160000    1.2446947   -7.0204125    67.026565  0.034909669  0.038247705            3 
  161000    1.2062616   -6.9890584    67.516235  0.034946291  0.038220188            3 
  162000    1.1822778   -7.0406391    67.699637  0.034824916  0.038189485            1 
  163000    1.2172228   -6.9982036    68.438261  0.034988886  0.038158832            2 
  164000     1.227586   -7.0336996    68.638019  0.034877042  0.038130791            1 
  165000    1.2214529   -6.9943895    69.353585  0.035027063  0.038103328            1 
  166000     1.241976   -6.9487743    69.949215  0.035115068  0.038077734            3 
  167000      1.23424   -6.9402494    70.003192  0.034931733  0.038052528            2 
  168000    1.2383855     -6.98274    70.331335  0.034886575  0.038021797            1 
  169000    1.2385447   -6.9562699    70.751263   0.03488721  0.037990958            1 
  170000    1.2360699   -6.9951955    71.376179  0.034988323  0.037963528            1 
  171000    1.1972263   -7.0134003    71.851818  0.035015506  0.037941896            1 
  172000    1.2009231   -6.9776919    72.408382   0.03508158  0.037920751            2 
  173000     1.197597   -6.9988567    72.622427  0.034981901  0.037894696            2 
  174000    1.2098728   -7.0072814    72.713797  0.034824616  0.037867132            1 
  175000     1.220497   -6.9613743    73.424075  0.034963845  0.037835408            1 
  176000    1.1889467   -6.9981052    73.505851  0.034803907  0.037805985            3 
  177000    1.2339063   -6.9976276    73.797469  0.034744571  0.037774554            1 
  178000    1.2061261   -7.0347612    74.141741  0.034710553  0.037744224            2 
  179000    1.2192657   -6.9750255    75.113371  0.034968981  0.037715769            1 
  180000    1.2222489   -6.9751602    75.348309  0.034883476  0.037688352            3 
  181000    1.2275494   -7.0292634    75.414849  0.034721385  0.037660355            2 
  182000    1.2346456   -6.9661827    76.034238  0.034814211   0.03763195            1 
  183000    1.2131995   -6.9914358    76.681569  0.034918747  0.037604937            2 
  184000    1.2506974   -6.9738514    77.199733  0.034963647  0.037581682            2 
  185000    1.2084024   -7.0033892      77.5827  0.034947162  0.037559358            2 
  186000    1.2318132   -7.0245152    78.118994  0.034999549  0.037539486            1 
  187000    1.2305667   -7.0160375    78.512056  0.034987547  0.037520575            2 
  188000    1.2473106   -7.0035926    78.960198  0.035000088  0.037500778            2 
  189000    1.2375192   -6.9687398    79.156062  0.034901262  0.037480095            4 
  190000      1.24464   -6.9958697    79.639484  0.034929598  0.037457874            1 
  191000      1.21585    -7.031965    79.874738  0.034849362  0.037433281            4 
  192000    1.2130667   -6.9939503     80.52825  0.034951497  0.037411267            1 
  193000    1.2221735   -7.0253588    80.804226  0.034889562  0.037389611            1 
  194000    1.2280173   -6.9839791    81.073692  0.034825469  0.037367192            4 
  195000    1.2106094     -6.97982    81.117132  0.034665441   0.03734295            1 
  196000      1.22329   -6.9661155    82.152191  0.034928653   0.03731669            1 
  197000     1.250606   -6.9786932    82.249553  0.034792535  0.037291965            1 
  198000     1.205448   -6.9534386    82.473445  0.034711046  0.037264204            1 
  199000    1.2448348   -7.0247034    82.369394  0.034493046  0.037234394            1 
  200000    1.2252302    -6.985803    83.250941  0.034687892  0.037204247            2 
  201000     1.232501   -7.0138058    83.219966  0.034502473  0.037174006            1 
  202000    1.2314271    -7.018239    83.269078   0.03435193  0.037139136            1 
  203000    1.2399253   -7.0118207     83.61562  0.034324967  0.037103759            4 
  204000    1.2364485   -7.0228291    84.339282  0.034452321  0.037068034            2 
  205000    1.2245832   -6.9927299    84.648524  0.034409969  0.037034067            1 
  206000    1.2498654   -6.9962763    84.888578  0.034340039  0.037001174            1 
  207000    1.1714659   -7.0161515     85.49358  0.034417705  0.036969201            2 
  208000    1.2284057   -6.9929203     86.47658  0.034646066  0.036940933            1 
  209000    1.2081877   -6.9727079    86.598938  0.034529082  0.036915103            1 
  210000    1.2085916   -7.0075139    87.196283    0.0346017  0.036887303            1 
  211000    1.2143801    -6.994526    87.320114  0.034486617  0.036860638            2 
  212000    1.1893381   -6.9998888    87.861683  0.034536825  0.036833338            1 
  213000    1.2175038   -7.0327842    88.019117  0.034436274  0.036806061            2 
  214000    1.2069517   -6.9600042    88.691231  0.034537084  0.036780354            2 
  215000    1.2445927   -7.0357436    88.548279  0.034321038  0.036756309            1 
  216000    1.2051506   -7.0628889      89.1466  0.034392978  0.036731655            2 
  217000    1.2150539   -7.0273314    89.600164  0.034408665  0.036707178            1 
  218000    1.2229064   -7.0072265    90.662161  0.034656789    0.0366834            2 
  219000    1.2208235   -6.9448669    91.136638  0.034679086  0.036661923            2 
  220000    1.2256751    -6.967181    91.524562  0.034668395  0.036640161            3 
  221000    1.2162953   -6.9940353    91.488935   0.03449809  0.036616821            1 
  222000     1.209246   -6.9892913    91.710147  0.034425731  0.036593686            2 
  223000    1.2555694   -7.0114627    92.173598  0.034444543   0.03657148            3 
  224000    1.2140715   -7.0415904    92.593101  0.034446838  0.036547593            1 
  225000    1.2274216   -7.0052026    93.549118  0.034647821  0.036529078            2 
  226000    1.2003985   -6.9834713    94.034997  0.034673671  0.036511897            2 
  227000    1.2074734   -7.0237738    94.406758    0.0346574  0.036498721            2 
  228000    1.2057006   -7.0023871    94.970961  0.034711608  0.036485962            3 
  229000    1.2452117   -7.0513824    95.628463  0.034799295  0.036472732            2 
  230000    1.2175421   -7.0107633     96.05021  0.034800801  0.036461602            1 
  231000    1.2265595   -7.0058092    96.612833  0.034853114  0.036448352            1 
  232000    1.2096414   -7.0582712    96.275045  0.034581554  0.036435246            1 
  233000    1.2185867   -7.0257962     96.90651  0.034658981  0.036419618            2 
  234000    1.2171039   -7.0233859    97.139138   0.03459371  0.036403418            2 
  235000    1.2319661   -6.9994529    97.334872  0.034515912  0.036386243            1 
  236000    1.1987746   -6.9971536    98.156975  0.034659949  0.036368659            2 
  237000    1.1972102   -6.9840499    98.328129  0.034573885  0.036352442            2 
  238000    1.2228034   -7.0228467    99.161329  0.034720353  0.036338408            2 
  239000    1.2178231   -6.9819227    99.686544  0.034758209  0.036324708            2 
  240000    1.2317207   -7.0044744    100.03942  0.034735909  0.036311866            2 
  241000    1.2202925   -7.0439546    100.18313  0.034641471  0.036299398            2 
  242000    1.2162882   -7.0221284    100.86279  0.034732367  0.036287184            2 
  243000    1.2188687   -7.0433349    100.95166  0.034619909  0.036274782            2 
  244000    1.2057232   -7.0478573     101.3648  0.034619124  0.036261857            1 
  245000    1.2158507   -7.0323203    101.90629  0.034662004   0.03624692            1 
  246000    1.2007388   -7.0233473    102.13263  0.034597773  0.036231141            2 
  247000    1.1887134   -6.9969181    102.73394  0.034660573  0.036216787            2 
  248000    1.2268584   -7.0349686    103.15355  0.034661812  0.036202935            1 
  249000    1.1958341   -7.0116123    103.32245  0.034579134  0.036188375            1 
  250000    1.2007915   -7.0195034     103.5996  0.034533201  0.036172224            1 
  251000    1.2332645   -7.0167768    104.04302  0.034542837  0.036158116            2 
  252000    1.2363849   -7.0085983    104.73854  0.034635761  0.036144843            6 
  253000    1.2139212   -6.9801407    105.44729  0.034732309  0.036133158            1 
  254000    1.2285014   -7.0197502    105.79629  0.034710069  0.036123645            1 
  255000    1.2084156   -6.9702705    106.42829  0.034780488  0.036113076            3 
  256000    1.2165808   -7.0281574    106.69567  0.034731663  0.036103815            1 
  257000    1.2093915   -7.0139515    107.21808  0.034765914  0.036094531            1 
  258000    1.2406565    -7.012716    108.17475  0.034940165  0.036088272            2 
  259000    1.2058224    -7.002879    108.03096  0.034758995   0.03607989            3 
  260000    1.2179821    -7.029319    108.03635  0.034627034  0.036070534            1 
  261000    1.2059528   -7.0731175    108.20868  0.034549385  0.036057656            1 
  262000    1.2130085   -7.0110949    108.64515  0.034556345  0.036043171            1 
  263000    1.2071543   -7.0785117    108.40948  0.034350279  0.036028432            2 
  264000    1.2044363   -6.9793944    109.11096  0.034441592  0.036013309            1 
  265000    1.2237737   -6.9922984     110.0432  0.034604781  0.036000237            1 
  266000    1.2143303   -7.0311053    110.03917  0.034473423  0.035987684            3 
  267000    1.2129755   -7.0353293    111.07373  0.034667205  0.035977792            1 
  268000    1.2062537   -7.0321835    111.44933  0.034654642  0.035969544            1 
  269000    1.2050645   -7.0390148    111.71662  0.034608619  0.035960216            3 
  270000    1.2002444   -7.0162286    112.51899  0.034728083  0.035951233            3 
  271000    1.2056862   -7.0149554    112.96212  0.034736198  0.035942057            1 
  272000    1.1807282   -7.0301187    112.77539  0.034551283  0.035931589            3 
  273000    1.1997115   -7.0342415    113.10749  0.034526097  0.035920274            1 
  274000    1.2380576   -7.0740086    112.91776  0.034342386  0.035909008            1 
  275000    1.2372561   -7.0354075    113.90226  0.034515837  0.035896834            3 
  276000    1.2100598   -7.0087607    114.87061  0.034683154  0.035884345            2 
  277000    1.2177412    -7.032292    114.63532  0.034487159  0.035874919            1 
  278000    1.1770476   -7.0204942    115.47983  0.034616256  0.035863216            2 
  279000    1.2156023   -7.0603862    115.42225  0.034474986  0.035851081            1 
  280000    1.1873857   -7.0323591    116.14911  0.034568188  0.035839334            1 
  281000    1.2334483   -6.9980796    116.85005  0.034653039  0.035830323            3 
  282000    1.2014949    -7.001143    117.53801  0.034733455  0.035822777            1 
  283000    1.1971612   -7.0395063    117.90212  0.034717938  0.035815596            3 
  284000    1.2312329   -7.0581856    118.21299  0.034686911  0.035806474            1 
  285000    1.2254502   -7.0214213    118.31211  0.034594184  0.035798813            1 
  286000    1.1976257     -7.03389    119.37362  0.034782522  0.035791284            1 
  287000    1.1638373   -7.0374674    119.50352  0.034699048  0.035784043            1 
  288000    1.1975921   -7.0507893    119.97498  0.034714984  0.035777066            2 
  289000     1.220397   -7.0334538    120.73092  0.034812837  0.035771533            1 
  290000    1.2098132   -7.0594738    120.78416  0.034708093  0.035766875            5 
  291000    1.1962674    -7.006429    121.75843  0.034867822  0.035763255            4 
  292000    1.1946148   -6.9975591    122.70752   0.03501927  0.035762409            2 
  293000    1.2236986   -7.0151391    123.14855  0.035025184  0.035762839            3 
  294000    1.1964733   -7.0575085    122.96835  0.034854973  0.035763392            1 
  295000    1.2298857   -7.0432574    124.05777  0.035044566  0.035762936            1 
  296000    1.2577351   -7.0409658    124.27647  0.034987746  0.035763787            1 
  297000    1.2138174   -7.0006503    125.00386  0.035074035  0.035764675            1 
  298000    1.2182202   -6.9949146    125.61204   0.03512641  0.035766451            2 
  299000    1.2049269   -7.0520253    125.68264  0.035028605  0.035767608            2 
  300000    1.1933187   -7.0754946    126.07939  0.035022052   0.03576889            2 
  301000    1.2049068    -7.052976    126.69966  0.035077426  0.035771858            2 
  302000    1.1954051   -7.0424805    127.85708  0.035280652  0.035774547            4 
  303000    1.2173173   -7.0085592    127.90703  0.035177951  0.035777553            3 
  304000    1.2062868   -7.0282512    128.41421  0.035201263  0.035779407            1 
  305000    1.2021011   -7.0101887    128.07196   0.03499234  0.035780713            1 
  306000    1.2053294   -7.0242155    129.62634   0.03530129   0.03578216            2 
  307000    1.2042532   -7.0316412    129.08041  0.035038112  0.035783247            1 
  308000    1.1873436   -7.0454549    129.22014  0.034962158  0.035782941            1 
  309000     1.197022   -7.0347633     129.5747  0.034944634  0.035782503            2 
  310000    1.1870902   -7.0256892    130.15299  0.034987363  0.035781574            1 
  311000    1.2095624   -6.9943441    131.07027  0.035120651  0.035781637            1 
  312000    1.2243209   -7.0228573    131.20814  0.035044908  0.035781269            3 
  313000    1.2167657   -7.0451485    131.15256  0.034918148  0.035779885            2 
  314000    1.2176789   -7.0156756    131.65043  0.034939074  0.035777492            4 
  315000    1.1948167   -7.0659453    132.00719  0.034922537  0.035775583            2 
  316000    1.2156262   -7.0247666    132.78395  0.035016865   0.03577327            3 
  317000    1.1881289     -7.07881    132.94057  0.034947572  0.035770299            1 
  318000    1.1886166   -7.0379505    133.21441  0.034909438  0.035766733            3 
  319000    1.2285115   -7.0495549    133.42992  0.034856302  0.035763003            2 
  320000     1.188794   -7.0691654    133.56168  0.034781688  0.035759362            1 
  321000    1.1949154   -7.0571121    134.39568  0.034889843  0.035756893            4 
  322000    1.1975722   -7.0655514    135.01645  0.034942144  0.035755842            2 
  323000    1.2075926   -7.0411451    135.35603  0.034921575  0.035754492            1 
  324000    1.1589092   -7.0241933    135.98121  0.034974591  0.035752267            2 
  325000    1.1891459   -7.0412195    136.72737    0.0350583  0.035751186            2 
  326000    1.1759226   -7.0490974     136.6847  0.034939853  0.035749612            1 
  327000    1.1752381   -7.1023836    136.89073  0.034885507  0.035747745            1 
  328000    1.2110336    -7.043026    137.24562  0.034869314  0.035744868            1 
  329000    1.1897602   -7.0459505    137.51102  0.034830553  0.035741184            4 
  330000    1.1729124   -7.0132301    137.76468  0.034789059  0.035736883            2 
  331000    1.1980872   -7.0855982    138.19513  0.034792329  0.035732137            1 
  332000    1.1781326   -7.0434869     139.6689  0.035057456  0.035729108            1 
  333000    1.2085305   -7.0636858    139.53954  0.034919805  0.035726786            1 
  334000    1.2078551   -7.0669731    139.88464  0.034901356  0.035723798            1 
  335000    1.1943861   -7.0424282    140.32308  0.034906238  0.035720592            2 
  336000    1.1917002   -7.0425429    140.57262  0.034864242  0.035716763            4 
  337000    1.1845192   -7.0623083    141.29508  0.034939436  0.035714392            1 
  338000    1.2069119   -6.9864521    142.36606  0.035100114  0.035713572            1 
  339000    1.2030599   -7.0489076    141.76878  0.034849749   0.03571106            2 
  340000    1.2176571   -7.0781113    142.57578  0.034945044  0.035708181            1 
  341000    1.2106442   -7.0515986    143.32928  0.035026706  0.035705644            1 
  342000    1.2008658   -7.0383976    143.27912  0.034912065  0.035703741            2 
  343000    1.1847995   -7.0206049    144.17967  0.035029075  0.035700857            2 
  344000    1.1874148   -7.0746788    143.90864   0.03486159  0.035697878            1 
  345000    1.2050385   -7.0742457     144.7969  0.034975097  0.035694465            2 
  346000    1.1980571   -7.0836633    144.93878  0.034908184  0.035692106            1 
  347000    1.2051805   -7.0617813    145.16846  0.034862742  0.035688751            1 
  348000    1.2131395   -7.0630059    145.83054  0.034921106  0.035686096            1 
  349000    1.1732587   -7.0475861    146.16137  0.034900041  0.035683875            1 
  350000    1.1952905   -7.0812382    146.13262  0.034793482  0.035680742            2 
  351000    1.1915826   -7.0475101    146.25893  0.034724342  0.035676509            2 
  352000    1.2191405   -7.0611445    147.03515  0.034809459  0.035672058            1 
  353000    1.1962868   -7.0442794    147.60937  0.034846405  0.035667447            2 
  354000    1.1981033   -7.0792332     147.2581  0.034665279  0.035662086            2 
  355000    1.1994429   -7.0194215    148.14926  0.034776821  0.035656278            1 
  356000    1.2002317   -7.0721829    148.11042  0.034670043  0.035649551            3 
  357000    1.1763757   -7.0175765     148.9969  0.034779856  0.035644297            2 
  358000    1.2023719   -7.0930351    149.03632  0.034691881  0.035639007            1 
  359000    1.2009287   -7.0598871    149.48627  0.034699691  0.035633066            1 
  360000    1.2061899   -7.0511651    150.41013  0.034817161  0.035629093            1 
  361000    1.1843653   -7.0525523    150.37139  0.034711771  0.035625571            2 
  362000    1.1812439   -7.0814706    150.84034  0.034723835  0.035620679            2 
  363000    1.1843593     -7.04051    152.34043   0.03497255  0.035617086            2 
  364000     1.198744   -7.0515751    151.77684  0.034747445  0.035613379            2 
  365000    1.1941982   -7.0650325    152.54464  0.034827543  0.035610066            3 
  366000    1.1978076   -7.0970076    152.53124  0.034729334  0.035605551            2 
  367000     1.204602   -7.0470132    152.61971  0.034654794  0.035600511            2 
  368000    1.1726001   -7.0740746    153.68975  0.034802932  0.035595379            1 
  369000    1.1997554   -7.0238753    153.68334  0.034707167  0.035590519            1 
  370000    1.1962378   -7.0348797    154.63236  0.034827108  0.035586025            2 
  371000    1.1929546    -7.062025    154.59338  0.034724478  0.035581847            1 
  372000    1.1767259   -7.0503586    155.76516   0.03489363  0.035577431            1 
  373000    1.2030829    -7.078524    155.12513  0.034657089  0.035573163            2 
  374000    1.1957369    -7.059719    156.07431  0.034775917  0.035568686            1 
  375000    1.1717385   -7.0763896     156.2117   0.03471371   0.03556493            1 
  376000    1.2214843   -7.0656039    157.31636  0.034866215  0.035560943            1 
  377000     1.210928   -7.0625594    157.27901  0.034765475  0.035557066            3 
  378000    1.1838461   -7.0204391    157.89399  0.034809081   0.03555287            1 
  379000    1.2177148   -7.0388266    158.49483  0.034849347  0.035548205            2 
  380000    1.1956623   -7.0334076    158.62421  0.034786011    0.0355439            2 
  381000    1.2316615     -7.02773    158.78691  0.034730295  0.035539741            1 
  382000    1.1761358   -7.0657636    159.37701  0.034768109   0.03553479            1 
  383000    1.1905611   -7.0243996    159.96969  0.034806285  0.035529035            1 
  384000    1.1857918   -7.0447559      159.682  0.034653211  0.035523786            1 
  385000    1.2062657   -7.0606433    160.11436  0.034656789  0.035518273            3 
  386000    1.2064945    -7.055158    160.57488  0.034666426   0.03551292            1 
  387000    1.2073153   -7.0689864    160.81019  0.034627516  0.035506902            2 
  388000    1.2108177   -7.0725588    161.06347  0.034592669  0.035499548            1 
  389000    1.1921963   -7.0348535    161.47814  0.034592575  0.035492138            2 
  390000    1.2104339   -7.0600333    162.32514  0.034684858   0.03548465            2 
  391000    1.2145351     -7.06285    162.12766  0.034554062  0.035477637            1 
  392000    1.1681827   -7.0375072    162.44369  0.034533097  0.035469924            2 
  393000    1.1980942   -7.0695516    162.18246  0.034389835  0.035461844            2 
  394000     1.199013   -7.1325276      162.288  0.034324873  0.035452762            1 
  395000    1.1790834    -7.064274     163.3356  0.034458987  0.035443437            2 
  396000    1.2162635   -7.0311828    163.77828  0.034465126  0.035435502            1 
  397000    1.1696483    -7.082067    164.11597  0.034449197  0.035426668            1 
  398000    1.1576228   -7.0680757    164.11783  0.034363031  0.035417703            2 
  399000    1.1750829   -7.0687456    164.49218  0.034355093  0.035408934            2 
  400000    1.2160444   -7.1105905    164.82285  0.034338093  0.035399595            2 
  401000    1.1896238   -7.0836593    165.33666   0.03435924  0.035390366            1 
  402000    1.1742761    -7.048277    166.18313   0.03444924  0.035380934            3 
  403000    1.1937718   -7.1234127    165.80147  0.034284836  0.035370541            1 
  404000    1.2180883   -7.0830931    166.28816  0.034300362  0.035359506            1 
  405000    1.1915102   -7.0946585    166.45978  0.034250985  0.035348766            1 
  406000    1.1932302   -7.0377953    166.99427  0.034276327  0.035338756            2 
  407000    1.1789075   -7.0452401    167.40766  0.034276753   0.03532836            1 
  408000    1.1754127   -7.0814643    167.88102  0.034289425  0.035317925            2 
  409000    1.1880334   -7.0967216    167.97907  0.034225565  0.035308076            3 
  410000    1.1944216   -7.1059358    167.79217    0.0341041  0.035297763            2 
  411000    1.2121422   -7.0439954    169.13816   0.03429403  0.035287319            3 
  412000    1.1806681    -7.082864    169.38505   0.03426073  0.035276805            2 
  413000    1.1582298   -7.0490927    169.58004  0.034217118  0.035266385            2 
  414000    1.2057476    -7.033172    169.63439  0.034145408  0.035254961            1 
  415000    1.2042375   -7.0466942    169.95554  0.034127618  0.035244046            2 
  416000     1.196351   -7.0877342    170.85304  0.034225368  0.035233708            1 
  417000    1.2182647   -7.1097798    171.62358  0.034297279  0.035224002            1 
  418000    1.1708706   -7.0562529    172.13226   0.03431664  0.035214669            2 
  419000    1.1862489   -7.0480817    172.03691  0.034215775  0.035204621            2 
  420000    1.1927357   -7.0719552    172.00909  0.034128789   0.03519389            1 
  421000    1.1624292   -7.0759957    172.01282  0.034048461  0.035182808            3 
  422000    1.1756959   -7.0374757    172.97229  0.034157246   0.03517242            2 
  423000    1.1778599   -7.0738079    172.89404  0.034061079  0.035161604            1 
  424000    1.1624842    -7.086438    173.31276  0.034063043  0.035151143            1 
  425000    1.2013674   -7.0461881    173.69197  0.034057248  0.035140067            2 
  426000    1.1793234   -7.0725766    173.89874   0.03401775  0.035128608            2 
  427000    1.1929465   -7.0875524    174.65321  0.034085326  0.035117065            3 
  428000     1.188074   -7.0527376    174.59525  0.033994403  0.035105537            2 
  429000    1.1590871   -7.0447392    175.39625  0.034070756  0.035094452            4 
  430000    1.1877131   -7.1159513    175.33212  0.033979092  0.035083115            2 
  431000    1.1824317   -7.0924115    176.10102  0.034048921  0.035072121            1 
  432000    1.1692074   -7.0686726    176.00611  0.033951796   0.03506111            1 
  433000    1.1719992   -7.1266176    176.08482  0.033888533   0.03504935            1 
  434000    1.1860844    -7.053936    176.70318  0.033929182  0.035038171            1 
  435000     1.179313   -7.1104768    177.16972  0.033940559  0.035026498            1 
  436000     1.197248   -7.0652444    177.98112  0.034017798  0.035014005            1 
  437000    1.1747962   -7.0880992    178.34718   0.03400976  0.035003241            2 
  438000    1.1869768   -7.0668165    178.49056  0.033959391  0.034992426            2 
  439000    1.1635319   -7.1049569    178.88709  0.033957306  0.034981238            1 
  440000    1.1876478    -7.065301    179.24686   0.03394827   0.03497058            1 
  441000    1.1657908   -7.1302102    179.80532  0.033976818  0.034960183            1 
  442000     1.180498   -7.0510895     180.8688  0.034100452  0.034950116            1 
  443000    1.1806135   -7.1141449    180.86252  0.034022295  0.034940126            2 
  444000    1.1603616   -7.0783137    181.55306  0.034075275  0.034931213            2 
  445000    1.1722199   -7.0940478    182.11919  0.034104716  0.034923056            2 
  446000    1.1959842   -7.0711032    182.81716  0.034158663  0.034914847            2 
  447000     1.187589   -7.0674117    183.16932  0.034147898  0.034906605            1 
  448000    1.1855696   -7.1029355    183.61338  0.034154275   0.03489888            1 
  449000     1.176866   -7.0846608    183.81895   0.03411636  0.034891383            1 
  450000    1.1615749   -7.1039985    183.93205  0.034061491  0.034883602            2 
  451000    1.1931797   -7.0681154    184.52702  0.034095901  0.034875266            3 
  452000    1.1761658   -7.0887548    185.16576  0.034138231   0.03486765            2 
  453000    1.1780608   -7.0917353     185.0015  0.034032652  0.034859982            1 
  454000    1.1775589   -7.0941202    186.52089  0.034236579  0.034852717            1 
  455000    1.1654767   -7.0830983    186.46697   0.03415146  0.034845732            1 
  456000    1.1660406   -7.0938016    186.33463  0.034052381  0.034838896            3 
  457000    1.1699724   -7.0669141    186.99275  0.034097876  0.034832082            2 
  458000    1.1699487   -7.0533285    188.20374  0.034243767  0.034825818            1 
  459000    1.1803795   -7.0829837    188.49423  0.034221902  0.034819765            2 
  460000    1.1778809   -7.0872606    189.05681  0.034249422  0.034813737            2 
  461000    1.1928242   -7.0546814    189.33521  0.034225453  0.034808091            1 
  462000    1.1709688    -7.086124    189.32832  0.034150129  0.034801842            2 
  463000    1.1744693    -7.088306    189.65417   0.03413502  0.034796236            1 
  464000    1.1769204   -7.1077684    190.45072  0.034204511  0.034790396            1 
  465000    1.1779668   -7.0908303    191.29232  0.034281778   0.03478471            2 
  466000     1.194135   -7.0987588    191.08263  0.034170713  0.034779245            2 
  467000    1.2179544   -7.1189341    190.99583  0.034082054  0.034773437            1 
  468000    1.1874416   -7.0959535    191.84631  0.034160668  0.034767261            3 
  469000    1.1674544   -7.0434388    192.36503  0.034179999  0.034761046            2 
  470000    1.1679425   -7.0545018    192.69058  0.034164997  0.034754842            1 
  471000     1.169334   -7.0836215    192.59205  0.034075027  0.034748452            1 
  472000    1.1780847   -7.0497106    193.12154  0.034096317  0.034741417            1 
  473000    1.1532084   -7.1276749    193.32886  0.034060758  0.034734748            3 
  474000    1.1700197   -7.0716875    193.85021  0.034080557  0.034727214            3 
  475000     1.148314    -7.102408      193.523  0.033951404  0.034719832            1 
  476000    1.1652166   -7.0764553     194.3295   0.03402127  0.034711985            1 
  477000    1.1814723   -7.1123401    194.45527   0.03397192  0.034704779            1 
  478000    1.1879601   -7.1358363    194.95683   0.03398829  0.034697142            1 
  479000    1.1710663   -7.0941156    195.81995  0.034067493  0.034690074            1 
  480000    1.1658399   -7.0815154    196.19877  0.034062286  0.034682987            2 
  481000    1.1760564   -7.0788151    196.67943  0.034074745   0.03467742            1 
  482000    1.1729759   -7.0914047    197.18017  0.034090624  0.034671813            1 
  483000    1.1605553    -7.120182    197.58111  0.034089219  0.034665544            2 
  484000    1.1837616   -7.0818503    197.95696  0.034083498  0.034659618            1 
  485000    1.1777642   -7.0881765    198.16421  0.034048833  0.034653738            2 
  486000     1.188807   -7.0925562    197.88067  0.033930157  0.034647517            1 
  487000      1.17887   -7.1223337    197.63561   0.03381855  0.034639657            1 
  488000    1.1853146   -7.0955586    198.23747  0.033852027  0.034631152            2 
  489000    1.1622476    -7.135849    198.68662  0.033859342  0.034622753            6 
  490000    1.2078209   -7.1436201     198.8235  0.033813521  0.034614579            1 
  491000    1.1461001   -7.1174288    199.73297   0.03389901  0.034606539            1 
  492000    1.1273592   -7.0978582    200.10538  0.033893188  0.034598515            2 
  493000    1.1644976   -7.0937588    200.84364  0.033949228  0.034590552            1 
  494000    1.1710895    -7.087782    201.45062  0.033982899  0.034583145            2 
  495000    1.1726716   -7.1029983    201.18431  0.033869412  0.034575581            2 
  496000    1.1751297   -7.0888091    201.78196   0.03390154  0.034568526            1 
  497000    1.2059414   -7.0887377    202.45838  0.033946744  0.034561436            3 
  498000    1.1781549   -7.1480281    202.29019  0.033850433   0.03455372            1 
  499000    1.1501887   -7.0755085    202.99751  0.033900721  0.034546156            1 
  500000    1.1959753   -7.0988014    203.12603  0.033854338  0.034538608            3 
  501000    1.1814404   -7.0766316    204.15693  0.033958238  0.034531958            1 
  502000    1.1907382   -7.0952226    203.86922  0.033842831  0.034525093            2 
  503000     1.155282   -7.1253167    204.53499  0.033885851  0.034518231            1 
  504000    1.1824372   -7.0322695    206.25626  0.034103218  0.034512203            1 
  505000     1.186563   -7.0961444    205.63578  0.033933298  0.034505844            3 
  506000    1.1546877   -7.0683877    205.57376   0.03385602  0.034499001            1 
  507000    1.1808952   -7.1175313    206.82507  0.033994916  0.034492633            1 
  508000    1.1769639   -7.0934004    207.29683  0.034005386  0.034486034            1 
  509000    1.1797493   -7.0704874    207.85809  0.034030467  0.034479962            2 
  510000    1.1672308   -7.1154384    207.70376  0.033938523  0.034473788            2 
  511000    1.1883616    -7.125879    208.19468  0.033952165  0.034468272            1 
  512000    1.1825225    -7.110825    209.17586   0.03404555  0.034463364            2 
  513000    1.1720769   -7.0978845    209.02405  0.033954524  0.034457897            1 
  514000    1.1639196   -7.0761294    209.68406   0.03399547  0.034452418            1 
  515000    1.1615351   -7.1084198    209.48986  0.033898036  0.034446484            1 
  516000    1.1757401   -7.1305972    209.90165  0.033898845   0.03444056            1 
  517000    1.1732829   -7.0874902    210.62689  0.033950176  0.034434592            1 
  518000    1.1699258   -7.1323694    211.06595  0.033955268  0.034429468            1 
  519000    1.1508062   -7.0786506    212.01726  0.034042592  0.034423968            1 
  520000    1.1648152   -7.0918087    211.98896   0.03397259  0.034418396            2 
  521000    1.1480143    -7.062532      212.203  0.033941619  0.034412623            2 
  522000    1.1631557   -7.1010592    212.81025  0.033973539  0.034406824            1 
  523000    1.1736544   -7.0980876    212.81938  0.033910035  0.034401306            1 
  524000     1.173388   -7.0935671    213.69208   0.03398411  0.034395869            1 
  525000    1.1701242   -7.0651708    214.75493  0.034088084  0.034390532            2 
  526000    1.1748267   -7.0952764    214.38208  0.033964209  0.034385668            1 
  527000    1.1779065    -7.103402    213.92405  0.033827332   0.03438091            3 
  528000    1.1790366   -7.0868533    213.82014  0.033746865    0.0343748            1 
  529000    1.1702445    -7.088793    214.89409  0.033852251  0.034368802            1 
  530000    1.1488948   -7.1194289    215.97185  0.033957838  0.034363509            2 
  531000    1.1584578   -7.1392778    216.12427  0.033917808  0.034358374            2 
  532000    1.1678561    -7.073232    216.90013  0.033975584  0.034353087            1 
  533000     1.193114   -7.1032642    216.94292  0.033918531  0.034348363            1 
  534000    1.1643361   -7.1157838    217.38505   0.03392401  0.034343808            2 
  535000    1.1604054   -7.1035558     217.6294  0.033898661   0.03433935            1 
  536000    1.1596189   -7.1357025     218.1549  0.033917118  0.034334287            1 
  537000    1.1567892   -7.0879942    218.91753  0.033972305  0.034329046            2 
  538000    1.1645916    -7.130033     218.6809  0.033872505  0.034324286            1 
  539000    1.1484416   -7.1353685    219.28864  0.033903624  0.034319238            3 
  540000    1.1298236   -7.1368024    219.05693  0.033805082    0.0343146            3 
  541000     1.166304   -7.1266219    220.04781  0.033895226  0.034309162            1 
  542000    1.1766894   -7.1529228    219.43171  0.033737962  0.034303619            2 
  543000     1.177522   -7.1320079    220.46258  0.033834036  0.034298155            1 
  544000    1.1853159   -7.1037956    221.19076  0.033883389  0.034292227            2 
  545000    1.1787701   -7.0922176    221.04449  0.033798851  0.034286623            1 
  546000    1.1839873   -7.1491075    220.18033  0.033605056    0.0342804            1 
  547000    1.1595154   -7.1294223    221.31221  0.033716058  0.034273965            1 
  548000    1.1689482   -7.0996456    222.61691  0.033852936  0.034267812            1 
  549000    1.1818262   -7.1018523    222.20387  0.033728578  0.034261357            1 
  550000    1.1616715   -7.1181896    222.99931  0.033787774  0.034255965            2 
  551000    1.1691404   -7.1198584    223.46849  0.033797412  0.034250324            1 
  552000     1.170547    -7.143944    223.11962  0.033683517  0.034244301            1 
  553000    1.1433066   -7.1466324    223.42248  0.033668246  0.034238518            1 
  554000    1.1856847   -7.1163848    223.87493  0.033675532  0.034233051            1 
  555000     1.175036   -7.1495255    224.67316  0.033734708  0.034227209            2 
  556000    1.1374734   -7.1038062    224.85689  0.033701572  0.034221152            3 
  557000    1.1695765   -7.1433308    225.65139  0.033759932  0.034215631            2 
  558000    1.1436584   -7.1288726    225.64384  0.033698304  0.034210133            3 
  559000    1.1573117   -7.1057705    227.10794  0.033856283   0.03420484            1 
  560000    1.1630765   -7.0783015      227.488  0.033852381  0.034200294       -1e+20 
  561000    1.1629354   -7.1045898    227.88009   0.03385028  0.034195683            1 
  562000     1.160032   -7.1679527    227.35481  0.033712161  0.034190839            1 
  563000    1.1299235   -7.1438223    228.57087  0.033832278  0.034186219            1 
  564000    1.1573535   -7.1419916    229.14933  0.033857762  0.034181979            1 
  565000    1.1441592    -7.126946    229.43685  0.033840244  0.034177927            1 
  566000    1.1665677   -7.1218338    228.69255  0.033670871   0.03417325            2 
  567000    1.1853091   -7.1532377    229.04459  0.033663225  0.034167413            3 
  568000    1.1623377   -7.1479326    230.20347  0.033773983   0.03416167            1 
  569000     1.165054   -7.0964299    230.08843  0.033697779  0.034155943            1 
  570000    1.1605372     -7.13584    230.99517  0.033771224  0.034150386            2 
  571000    1.1550953   -7.1598906    229.91979  0.033555136  0.034144896            1 
  572000    1.1578617   -7.0964449    230.99332  0.033652872  0.034139475            1 
  573000    1.1354672   -7.1387246    231.51118  0.033669456  0.034134268            1 
  574000    1.1709434    -7.153207    231.37026  0.033590339  0.034128311            1 
  575000    1.1658338   -7.1310423    231.61372  0.033567206  0.034122599            1 
  576000    1.1639269   -7.1291972    232.75574  0.033674153  0.034116938            2 
  577000    1.1566219   -7.1645513    231.75501  0.033471261  0.034111119            2 
  578000    1.1895547   -7.1312174    232.19365  0.033476593  0.034104274            1 
  579000    1.1759246   -7.1396207    233.06983   0.03354488  0.034097431            1 
  580000    1.1754287    -7.090045    234.24299  0.033655602  0.034090767            1 
  581000    1.1508823   -7.0959008    233.90005  0.033548487  0.034083862            1 
  582000    1.1683951   -7.1312648    234.12515  0.033523074  0.034077118            1 
  583000     1.177045   -7.1330983    234.19914  0.033476149  0.034070163            1 
  584000    1.1654668   -7.1393364    235.31011  0.033577355  0.034062788            1 
  585000    1.1658033   -7.1287629    235.09762  0.033489689  0.034055393            1 
  586000    1.1394353   -7.1657617    235.06509  0.033427914  0.034047529            1 
  587000    1.1585696   -7.1872784    234.38963  0.033275075  0.034039364            1 
  588000    1.1465041   -7.1530401    235.79412  0.033417534  0.034031556            2 
  589000    1.1720939   -7.1286977    237.07173  0.033541557  0.034024301            1 
  590000     1.187096   -7.1690748    236.70259  0.033432569  0.034016928            2 
  591000    1.1439796    -7.118032    237.22738  0.033449998  0.034009556            1 
  592000    1.1611391    -7.129035    238.04945  0.033509213   0.03400238            1 
  593000    1.1597556    -7.139083    237.92782  0.033435613  0.033994956            1 
  594000    1.1522864   -7.1603114     237.3895  0.033303802  0.033987531            1 
  595000      1.13815   -7.1553094    238.44463  0.033395606   0.03398018            3 
  596000    1.1685354   -7.1257686    238.56848  0.033356891  0.033972788            1 
  597000    1.1368291   -7.1591182    238.78022  0.033330572  0.033965266            2 
  598000    1.1355054   -7.1061474    239.33289  0.033351852  0.033957745            1 
  599000    1.1232613   -7.1851743    239.58344  0.033331029  0.033950186            1 
  600000    1.1345252   -7.1654981    239.83894  0.033310964  0.033942467            2 
  601000    1.1392425    -7.124023    240.51568  0.033349373  0.033934706            2 
  602000    1.1607178   -7.1337259    240.90221  0.033347482  0.033926966            2 
  603000    1.1671023   -7.1832526    240.83485  0.033282871  0.033919125            1 
  604000    1.1739389    -7.128348    241.36024  0.033300254  0.033910824            1 
  605000    1.1386449   -7.1455025    240.86951  0.033177618  0.033902663            1 
  606000    1.1774024   -7.1407251    241.81252  0.033252547  0.033894532            1 
  607000    1.1725169    -7.125385    241.65211  0.033175743  0.033885939            1 
  608000    1.1538926   -7.1101097    242.03006  0.033172979  0.033877496            4 
  609000    1.1306644   -7.1104451    242.45965  0.033177292  0.033868747            2 
  610000    1.1776174    -7.135389    242.74135  0.033161387  0.033860056            3 
  611000    1.1220557   -7.1414381    242.51406  0.033076113  0.033851141            6 
  612000    1.1513588   -7.1385964      242.956  0.033082245  0.033841484            2 
  613000     1.175647   -7.1770755    242.21841  0.032928005  0.033831647            1 
  614000    1.1596274   -7.1295108    243.11359  0.032995872  0.033821446            1 
  615000    1.1319474   -7.1586978    243.05836  0.032934737  0.033810942            1 
  616000    1.1665878   -7.1854389    243.26384  0.032909069  0.033800961            2 
  617000    1.1314515   -7.1461593     244.1123  0.032970327  0.033790814            2 
  618000    1.1444587   -7.1155039    245.79259  0.033143553  0.033781311            2 
  619000    1.1567462   -7.1192353    247.00021  0.033252586  0.033772928            2 
  620000    1.1535136   -7.1080334    246.67208   0.03315485  0.033764485            1 
  621000    1.1650289   -7.1057083    246.84707  0.033124942  0.033756188            1 
  622000    1.1472606   -7.1298473    246.78292  0.033063093  0.033747688            2 
  623000    1.1470562   -7.1557311    246.37507  0.032955467  0.033738949            4 
  624000    1.1356027   -7.1921364    246.68418  0.032943934   0.03373024            1 
  625000     1.177544   -7.1272887    248.28862  0.033105149  0.033721427            1 
  626000    1.1555829   -7.1119199    249.43257  0.033204549  0.033713556            1 
  627000    1.1421425   -7.1620887    249.29058   0.03313272  0.033705814            5 
  628000    1.1478286   -7.2031296    248.63945  0.032993558  0.033697707            5 
  629000     1.116772   -7.1446026    249.88634  0.033106299  0.033689344            1 
  630000    1.1522961   -7.1623834    249.90211  0.033055835  0.033681264            1 
  631000    1.1545308   -7.0670307    250.03713   0.03302128  0.033672909            2 
  632000     1.138357   -7.1774216    250.95438  0.033089977   0.03366492            2 
  633000    1.1679195    -7.166737     250.8548  0.033024591  0.033656954            2 
  634000    1.1449032   -7.1230602    251.28515  0.033029068  0.033649109            1 
  635000    1.1463784   -7.1619535    251.48121  0.033002784  0.033641416            2 
  636000    1.1451688   -7.1672936    252.42784  0.033074927  0.033633817            1 
  637000    1.1510464   -7.1538277    252.74522  0.033064524  0.033626258            1 
  638000    1.1490781   -7.1883694     252.5701  0.032989825  0.033618462            1 
  639000    1.1589543   -7.1304151    254.12762  0.033141317  0.033611509            2 
  640000    1.1623716   -7.1341327     254.5148  0.033139948  0.033604601            1 
  641000    1.1540016   -7.1275532     253.8521  0.033002092   0.03359693            1 
  642000    1.1545789    -7.195021     253.2898    0.0328777  0.033588932            2 
  643000    1.1556541   -7.1327687    254.51517  0.032985377  0.033580607            1 
  644000     1.145873   -7.2141046    253.28847  0.032775423  0.033571799            2 
  645000     1.164782   -7.1528732     254.7859  0.032918075  0.033563361            1 
  646000    1.1321879   -7.1261207    256.26148  0.033057466   0.03355554            2 
  647000    1.1529855   -7.1228231    256.01415  0.032974517  0.033547518            1 
  648000    1.1380879   -7.1859797    255.96304  0.032917058  0.033539113            2 
  649000     1.141567   -7.1715484    256.41844  0.032924813  0.033531077            1 
  650000     1.130961   -7.1665162    256.70869  0.032911371  0.033522622            1 
  651000    1.1752041   -7.1599284    256.65298  0.032853683  0.033515045            1 
  652000    1.1455663   -7.1571503    258.24279  0.033006492  0.033507767            2 
  653000    1.1449647   -7.1411574    259.01078  0.033053953  0.033500848            3 
  654000    1.1466657   -7.1637954    259.48547  0.033063898  0.033493796            1 
  655000     1.144198   -7.0998847    259.36267  0.032997795  0.033486717            2 
  656000    1.1663437   -7.1821532    259.50145  0.032965123  0.033479488            1 
  657000    1.1371188   -7.1506478    260.27981  0.033013675  0.033471947            2 
  658000    1.1275298   -7.1278189    260.94925  0.033048283  0.033464696       -1e+20 
  659000    1.1220044   -7.1097294    260.39977  0.032928651  0.033457312            1 
  660000    1.1426448   -7.1085922    261.43869  0.033009935  0.033449669            1 
  661000    1.1348546   -7.1813393    260.84801  0.032885528  0.033442063            1 
  662000    1.1626206   -7.1662333    261.67594  0.032940073  0.033434895            2 
  663000    1.1653752   -7.1650544    262.70815   0.03302013  0.033427946            2 
  664000     1.133644   -7.1685241    262.49114  0.032943165  0.033421119            1 
  665000    1.1281249   -7.1629526    262.99954  0.032957335  0.033413862            2 
  666000    1.1506922   -7.1934419    263.27688  0.032942552  0.033406616            1 
  667000    1.1327663   -7.1296549    264.10279  0.032996351  0.033399804            5 
  668000    1.1481184   -7.1998083     263.1637  0.032829803  0.033392605            2 
  669000     1.165078    -7.174131    264.28548  0.032920464  0.033385189            1 
  670000    1.1436748   -7.1376009    264.61467  0.032912273  0.033378376            2 
  671000    1.1400112   -7.1896338    264.71841  0.032876107   0.03337137            1 
  672000    1.1324257   -7.2057869    264.95411  0.032856413  0.033364224            3 
  673000    1.1387164   -7.1483537    266.47789  0.032996272  0.033357261            1 
  674000    1.1504182    -7.174498    266.74248   0.03298003  0.033350724            1 
  675000    1.1274521   -7.1029083    266.66213  0.032921251  0.033343927            2 
  676000    1.1523025   -7.1356401    267.32951  0.032954821   0.03333694            2 
  677000    1.1235023   -7.1764856    267.00669  0.032866407  0.033329902            1 
  678000    1.1564325   -7.2044177    266.37621  0.032740439  0.033322714            1 
  679000    1.1840816   -7.2013821    267.35931  0.032812875  0.033315349            2 
  680000    1.1341391   -7.1815709    266.80229  0.032696359  0.033308236            1 
  681000    1.1482928   -7.1159695    268.31603  0.032833582  0.033301091            1 
  682000    1.1415099   -7.1474148    268.97257  0.032865661  0.033294272            1 
  683000    1.1256842   -7.1499419    269.10823  0.032834093  0.033287303            3 
  684000    1.1265167   -7.1779699    268.98463  0.032771032  0.033279667            3 
  685000    1.1352966   -7.1708569    269.71256  0.032811747   0.03327229            1 
  686000    1.1384466   -7.1674927    269.54422  0.032743468  0.033264629            4 
  687000    1.1668978   -7.1763066     270.2248   0.03277836  0.033256825            1 
  688000     1.126257   -7.1794995    269.97382  0.032700317  0.033249031            6 
  689000    1.1302566   -7.1555326    271.05488  0.032783609  0.033241757            1 
  690000    1.1304063    -7.195053    270.21089  0.032634165   0.03323477            2 
  691000    1.1482661   -7.1518657    271.54949  0.032748371  0.033227021            2 
  692000    1.1374241   -7.1766421    271.87422  0.032740152    0.0332195            1 
  693000    1.1367626   -7.1386942    271.45548  0.032642554  0.033211773            3 
  694000    1.1355075   -7.1515871    271.75604  0.032631609   0.03320393            1 
  695000    1.1254234   -7.1714409    272.12406  0.032628784  0.033195828            3 
  696000     1.148836   -7.1921049    272.54216  0.032631964  0.033188081            4 
  697000    1.1447408   -7.1721481     273.7869  0.032733967  0.033180191            1 
  698000    1.1225159   -7.1466764    272.79174  0.032568259  0.033171997            1 
  699000    1.1558311   -7.1457739    274.32825  0.032704847  0.033164274            1 
  700000    1.1507145   -7.1400363    273.95027  0.032613127  0.033156355            2 
  701000    1.1259707   -7.2004104    273.76203  0.032544226  0.033148124            2 
  702000    1.1434459   -7.1368727     275.1985  0.032668388  0.033140383            1 
  703000     1.146742   -7.1691258    274.75938  0.032569865  0.033132169            1 
  704000     1.139433   -7.1605914    275.64465  0.032628391   0.03312467            3 
  705000    1.1337506   -7.1632281    275.73938  0.032593308   0.03311711            1 
  706000    1.1300262   -7.1488801    276.88071  0.032681859  0.033109623            1 
  707000    1.1357745   -7.1753193    276.71555  0.032616165  0.033101961            1 
  708000    1.1459848   -7.1500599    277.78587  0.032696077  0.033094365            3 
  709000    1.1268406   -7.1787473    277.25139   0.03258714  0.033086921            2 
  710000    1.1167587   -7.1588276    277.90928  0.032618461  0.033079186            2 
  711000    1.1375606   -7.2066514    277.05685  0.032472674  0.033071322            1 
  712000    1.1433642   -7.1933577    277.23528   0.03244795  0.033063254            3 
  713000    1.1588263   -7.2006656    277.35336  0.032416241  0.033055513            3 
  714000    1.1207477    -7.192686    279.01116  0.032564328  0.033047922            1 
  715000    1.1319872   -7.1744857    279.38799  0.032562703  0.033040185            1 
  716000    1.1270878   -7.1877699    278.62003  0.032427844  0.033031999            2 
  717000    1.1506367   -7.2348197    278.59721  0.032379964  0.033023423            1 
  718000    1.1111544    -7.195007    279.53865  0.032444132  0.033015332       -1e+20 
  719000    1.1439591   -7.2046071    279.75921  0.032424572  0.033007517            1 
  720000    1.1433921   -7.1945501    280.91805  0.032513663  0.032999892            2 
  721000    1.1355238   -7.2180347    280.73899  0.032447872   0.03299205            1 
  722000     1.152735   -7.2126093    280.42843  0.032367085  0.032983938            2 
  723000    1.1579375    -7.221014    281.64325  0.032462338  0.032975636            2 
  724000    1.1426547   -7.2033021    281.94879   0.03245267  0.032967427            3 
  725000    1.1235845   -7.1644834    282.28433  0.032446474  0.032959176            1 
  726000    1.1458767   -7.1919786    282.25876  0.032398847  0.032951014            3 
  727000    1.1232451   -7.2105197    282.77064  0.032412957  0.032942854            2 
  728000    1.1047544   -7.1749835    282.75179  0.032366276  0.032934637            2 
  729000    1.1412353   -7.1851146    283.66908  0.032426735  0.032926213            2 
  730000    1.1492573   -7.1590933     282.8889  0.032293253  0.032917848            1 
  731000    1.1326781   -7.1712643    283.95687  0.032370824  0.032909646            2 
  732000    1.1159185   -7.1581137     284.5794  0.032397473  0.032901719            2 
  733000    1.1165879    -7.188434    284.90836  0.032390673  0.032893985            1 
  734000    1.1357291   -7.1972874    284.65115  0.032317342  0.032886022            1 
  735000    1.1301863   -7.2087828    284.20355  0.032222624  0.032877463            2 
  736000    1.1406228   -7.1895989    286.25701  0.032411346  0.032869341            2 
  737000    1.1204631   -7.1716931    286.18034    0.0323587  0.032861419            1 
  738000    1.1164006   -7.1795111    285.46732  0.032234341  0.032853263            4 
  739000    1.1478338   -7.1687137    286.81635  0.032342845  0.032845113            2 
  740000    1.1339238   -7.1641074    287.03859  0.032324165  0.032837365            2 
  741000     1.131277   -7.1437304    286.83322  0.032257447  0.032829675            4 
  742000    1.1407699   -7.1894063    287.92647  0.032336756  0.032821726            1 
  743000    1.1385268   -7.1536483    289.01597   0.03241543   0.03281398       -1e+20 
  744000    1.1270023   -7.2125647    287.92214  0.032249344  0.032806193            1 
  745000    1.1170091   -7.1896195    288.69355  0.032292343  0.032798041            2 
  746000    1.1470467   -7.2118454    289.20348  0.032306019  0.032790035            2 
  747000    1.1484922   -7.2126122    288.67196  0.032203476  0.032781901            1 
  748000    1.1266413   -7.1984543    289.46257  0.032248504   0.03277416            2 
  749000    1.1144353    -7.205831    290.43235  0.032313345  0.032766569            1 
  750000    1.1351322   -7.1707768    290.66066  0.032295628  0.032758863            3 
  751000    1.1486799   -7.2132107    290.24289  0.032206268  0.032751138            2 
  752000    1.1328864   -7.1727825     291.4278  0.032294747  0.032743322            1 
  753000     1.113504    -7.200132    291.61575  0.032272659  0.032735787            1 
  754000     1.110897   -7.2005193    290.84205  0.032144347  0.032728033            2 
  755000    1.1437447   -7.2165497    292.23142  0.032255124  0.032719737            3 
  756000    1.1353531   -7.2026955    292.27308   0.03221705  0.032711535            1 
  757000    1.1278568   -7.1780027      293.143  0.032270256  0.032703622            1 
  758000    1.1489623   -7.1842963     293.3185  0.032246977  0.032696314            2 
  759000    1.1239602    -7.201464    293.83936  0.032261678  0.032688986            1 
  760000    1.1151321   -7.1713782     294.8226   0.03232704  0.032681551            2 
  761000    1.1340231   -7.2361321    294.59086  0.032259183  0.032674445            3 
  762000    1.1374339   -7.1753839      295.895   0.03235947  0.032667331            1 
  763000    1.1082739   -7.1894017    295.29544  0.032251577  0.032659868            1 
  764000    1.1303414   -7.2260524    294.63637  0.032137475   0.03265239            2 
  765000    1.1425975   -7.1838042    295.74405  0.032216128  0.032645146            1 
  766000    1.1393611   -7.1557117    296.31411  0.032236087  0.032637549            1 
  767000    1.1238367    -7.206159    295.99402  0.032159281  0.032630077            4 
  768000    1.1151993   -7.2050377     295.8444  0.032101172  0.032621914            1 
  769000    1.1293448   -7.2080589     295.7283  0.032046846  0.032613545            1 
  770000    1.1238005   -7.2145318    295.70611  0.032002825  0.032605266            2 
  771000    1.1240877   -7.2356928    296.05956   0.03199952  0.032596747            3 
  772000    1.1210775   -7.2133504    297.34884  0.032097241  0.032587981            1 
  773000    1.1230519    -7.187555    297.88106  0.032113094  0.032579673            2 
  774000    1.1157656   -7.1718722    297.82163  0.032065206  0.032571555            2 
  775000    1.1181329   -7.2120336    298.43858   0.03209017  0.032563603            2 
  776000    1.1309066   -7.2139701    299.60323  0.032173886  0.032555717            2 
  777000    1.1348347   -7.2096004    299.25998  0.032095665  0.032548363            2 
  778000    1.1299116   -7.2168619    298.98239  0.032024677  0.032540656            3 
  779000    1.1405205   -7.2104455    299.30579  0.032018164  0.032532951            2 
  780000    1.1039031    -7.224298    300.26679  0.032079785  0.032525437            1 
  781000    1.1171248   -7.2220545    300.46572  0.032059936   0.03251769            3 
  782000    1.1082278   -7.1754562    301.58465  0.032138177  0.032510065            1 
  783000    1.1196275    -7.212487    301.11557  0.032047208  0.032502537            2 
  784000    1.1136097    -7.229866    302.14869  0.032116145  0.032495242            2 
  785000     1.119271   -7.1930227    302.76069    0.0321402  0.032488238            4 
  786000    1.1286592   -7.2055773    302.84268  0.032108003  0.032481389            3 
  787000    1.1479096   -7.1920557    303.52197  0.032139132  0.032474203            1 
  788000    1.1069042   -7.2188081    302.91124   0.03203376  0.032466997            1 
  789000    1.1379343   -7.2236605    303.82406  0.032089571  0.032460144            2 
  790000    1.1362933   -7.2009966    304.97421  0.032170275  0.032453043            1 
  791000    1.1582549    -7.220853     304.6679  0.032097335  0.032446192            2 
  792000    1.1230833    -7.174278    305.95642  0.032192384  0.032439099            1 
  793000    1.1645069   -7.2176908    305.01592  0.032052955  0.032432137            1 
  794000    1.1207109   -7.2204192    305.47401  0.032060664   0.03242472            2 
  795000    1.1328315   -7.2141469    306.24574   0.03210123  0.032417298            2 
  796000    1.1244209   -7.2100539     305.2023  0.031951664  0.032409824            1 
  797000    1.1239023   -7.1885912    306.12016  0.032007545  0.032402459            2 
  798000    1.1375834   -7.2164711    306.21831  0.031977684  0.032394842            1 
  799000    1.1483098   -7.2167096    306.14338  0.031929848  0.032387596            3 
  800000    1.1530651   -7.2130512    307.45733  0.032026805  0.032380209            1 
  801000    1.1274956    -7.221086    307.96527  0.032039666  0.032373154            1 
  802000    1.1308588   -7.2407762    307.50585  0.031951979  0.032366064            1 
  803000    1.1230041   -7.2155015    308.11492  0.031975396  0.032358738            3 
  804000    1.1217515   -7.1801352    309.23054  0.032051259  0.032351497            1 
  805000     1.097621   -7.2017398     308.9228  0.031979586  0.032344331            1 
  806000    1.1379116   -7.2456112    308.23825  0.031869132   0.03233722            2 
  807000    1.1375228   -7.2391398    308.68181  0.031875445  0.032329967            2 
  808000    1.1320429   -7.2162897    310.03776  0.031975841   0.03232278            4 
  809000    1.1133015   -7.1941737    310.76898  0.032011638  0.032316162            2 
  810000    1.1201713   -7.1866917    311.70863  0.032068789  0.032309665            1 
  811000    1.1260085    -7.237471    310.45033  0.031899952  0.032303031            4 
  812000    1.1172036   -7.1993166    312.35286  0.032055917   0.03229617            1 
  813000    1.1321368   -7.1957076    312.16996  0.031997741  0.032289607            2 
  814000    1.1378693   -7.2329141    312.45924  0.031988047  0.032282851            1 
  815000    1.1127179   -7.2178351     311.9775   0.03189954  0.032276359            1 
  816000    1.0962005   -7.2223639    312.86887  0.031951478  0.032269496            2 
  817000     1.141315   -7.1905969    313.21815  0.031947996  0.032262545            1 
  818000    1.1134321   -7.2013084    313.25248  0.031912437  0.032255573            1 
  819000    1.1294484   -7.2141813    313.29681  0.031877983  0.032248572            1 
  820000    1.1215439   -7.2213901    312.85189  0.031793891  0.032241357            1 
  821000    1.0908654   -7.2259915    313.46271  0.031817165   0.03223416            2 
  822000    1.1016137   -7.2077234    313.99118  0.031832033  0.032226609            1 
  823000    1.1186464   -7.2600079    313.72044  0.031765942  0.032218867            1 
  824000    1.1219464   -7.2086814     315.0805  0.031864937  0.032211056            1 
  825000     1.121505   -7.1995384    315.54212  0.031872941   0.03220338            2 
  826000    1.1055257   -7.1596633    316.52809  0.031933826  0.032196107            1 
  827000    1.1056474   -7.2270064    315.66742  0.031808487  0.032188444            1 
  828000    1.1215898   -7.2098277    316.07165  0.031810754  0.032180866            1 
  829000    1.1200144   -7.2302219    315.99991   0.03176517  0.032173726            5 
  830000    1.1258308   -7.2188868    317.35819  0.031863272  0.032166616            2 
  831000    1.1108709   -7.2648029    316.26608  0.031715411  0.032159831            1 
  832000    1.1166874    -7.216031    317.30187  0.031781036  0.032152734            2 
  833000      1.14339   -7.2402184     316.8657  0.031699249   0.03214569            1 
  834000    1.1010645   -7.2250517    317.90101  0.031764689  0.032138353            3 
  835000    1.1331988   -7.2433084    318.06792  0.031743305   0.03213068            1 
  836000    1.0961049   -7.2466179    318.28768  0.031727241  0.032123393            2 
  837000    1.1181418   -7.2231227    318.63446  0.031723861  0.032115906            2 
  838000    1.1277582   -7.2383893    318.88428  0.031710847  0.032108547            2 
  839000    1.1174351   -7.2452974    320.13731  0.031797508   0.03210131            1 
  840000    1.1355779   -7.2192967     320.7553  0.031820962   0.03209461            1 
  841000    1.1210703    -7.235186    320.65386  0.031773074  0.032087874            2 
  842000    1.1242549   -7.2440668    321.38455  0.031807655  0.032081192            2 
  843000    1.1116835   -7.2220397    322.49778  0.031879971  0.032074993            1 
  844000    1.1051232   -7.1809138    323.58309  0.031949357  0.032068837            1 
  845000    1.1035789   -7.1989534    322.47323  0.031802094  0.032062693            1 
  846000    1.1275002   -7.2173109     322.7113  0.031787953  0.032056524            2 
  847000    1.1197958   -7.2292262    323.31735   0.03181005  0.032050405            1 
  848000    1.1251884   -7.2128878    323.80823  0.031820777  0.032044791            3 
  849000    1.1005008   -7.2317777    323.81544  0.031784004  0.032038713            3 
  850000    1.1189533   -7.2325812    324.74487  0.031837732  0.032032821            1 
  851000    1.1266832   -7.1991396    325.61379  0.031885408  0.032026904            1 
  852000    1.1165054   -7.2234336    325.01555  0.031789471  0.032020765            2 
  853000     1.112941   -7.1863015    325.77683  0.031826575  0.032014587            3 
  854000    1.1183636   -7.2344505    325.62529   0.03177452  0.032008708            1 
  855000    1.1328881    -7.208732    326.06491  0.031780206  0.032002352            1 
  856000    1.1013306   -7.1871624    326.18854  0.031755115  0.031995829            2 
  857000    1.1058749   -7.2069658    326.44265   0.03174277  0.031989044            2 
  858000    1.1109114   -7.2022569    326.91863  0.031752004  0.031982489            1 
  859000    1.1135523   -7.2394323    325.75508  0.031602161  0.031975516            2 
  860000    1.1335878   -7.2155066    326.23703  0.031612115  0.031968657            1 
  861000    1.1089215   -7.2325512    327.07191  0.031656205  0.031961818            1 
  862000    1.1323519   -7.1947932    328.04376  0.031713433  0.031955152            1 
  863000    1.1221273   -7.1895814    328.79676  0.031749397  0.031948765            2 
  864000    1.1214485   -7.1847582    329.41356  0.031772141  0.031942445            2 
  865000     1.113126   -7.2053717    328.01605  0.031600776  0.031935806            1 
  866000    1.1060975    -7.247655    328.33324  0.031594807  0.031929338            2 
  867000    1.0934036   -7.2226437      329.196  0.031641292  0.031922723            1 
  868000    1.1166939   -7.2569233    330.22508  0.031703636   0.03191623            1 
  869000     1.116133   -7.2317402     330.8739  0.031729373  0.031910012            2 
  870000    1.1154975   -7.2392067    330.72377  0.031678522  0.031903618            1 
  871000    1.1119916   -7.2392627    330.62701  0.031632894  0.031897185            1 
  872000     1.126855    -7.223557    332.73992   0.03179854  0.031891161            1 
  873000    1.1309087   -7.2498624     331.3385  0.031628341  0.031884932            1 
  874000    1.1129843   -7.2174465    332.36589  0.031690111  0.031878591            1 
  875000    1.1188601   -7.2034977    332.45174   0.03166207  0.031872409            1 
  876000    1.1121651   -7.2305214    332.29752  0.031611256  0.031865935            1 
  877000    1.1046721   -7.2011142    332.61225  0.031605117  0.031859354            1 
  878000    1.1105242   -7.2634486    332.63383  0.031571169  0.031852677            2 
  879000    1.0987579   -7.2554491    333.72754   0.03163894  0.031846254            3 
  880000    1.0931431   -7.2011544    333.44979  0.031576684  0.031839987            1 
  881000    1.1079142   -7.2450632    334.12019  0.031604256  0.031833469            3 
  882000    1.1085223   -7.2334252    333.18712  0.031480265  0.031826767            2 
  883000    1.1292908   -7.2210283     333.8052  0.031502945  0.031819816            2 
  884000    1.1050568   -7.2636563     333.7271  0.031459945  0.031812937            1 
  885000    1.1307689   -7.2603264    335.00619  0.031544839  0.031806269            4 
  886000    1.0789034   -7.2730262    334.62519    0.0314734  0.031799569            1 
  887000    1.0953787   -7.2609452     335.4182   0.03151242  0.031792502            3 
  888000    1.1219434   -7.2563342    335.46287  0.031481125   0.03178572            1 
  889000    1.1181771     -7.23573    335.96887  0.031493145  0.031778794            1 
  890000    1.1275217   -7.2858023    336.01854   0.03146241  0.031771965            3 
  891000     1.138327   -7.2446519    336.49142  0.031471326  0.031765214            2 
  892000    1.1126142   -7.2399977     336.2482  0.031413322    0.0317584            1 
  893000    1.0879045   -7.2208467    337.13305  0.031460717  0.031751423            3 
  894000    1.1160955   -7.2314571    337.70675  0.031479004  0.031744535            3 
  895000    1.1093152    -7.233952    337.67363  0.031440748  0.031737459            1 
  896000    1.1155694   -7.1977179    338.62285   0.03149394  0.031730486            2 
  897000    1.1095863   -7.2088506    338.35899  0.031434317  0.031723641            3 
  898000    1.0855066     -7.22001    337.83835  0.031350998  0.031716461            3 
  899000     1.123284   -7.2447568    338.31663  0.031360458  0.031709095            2 
  900000    1.1082895   -7.2097858    338.77303  0.031367873  0.031701667            2 
  901000    1.1171018   -7.2166863     338.6844  0.031324861  0.031694457            2 
  902000     1.128111   -7.2418319    338.22796  0.031247963  0.031687052            2 
  903000    1.1079176    -7.272162    339.24871  0.031307559  0.031679286            1 
  904000     1.133826   -7.2706271    339.37452  0.031284524  0.031671602            3 
  905000    1.1234084   -7.2923146    338.21767  0.031143432  0.031663891            1 
  906000    1.1001352   -7.2029579    341.02972  0.031367708  0.031656431            2 
  907000    1.1086231    -7.260391    340.14074  0.031251446  0.031648835            2 
  908000    1.0980897   -7.2741617    341.23942  0.031317862  0.031641372            3 
  909000    1.1159169    -7.230806    340.74626  0.031238197  0.031633939            1 
  910000    1.1295038   -7.2633572    341.95238   0.03131432  0.031626577            2 
  911000    1.1035728   -7.2568526     342.4721  0.031327488  0.031619235            1 
  912000    1.1080317   -7.2237202    343.11289   0.03135169  0.031611903            2 
  913000    1.0824603   -7.2249849    342.82587  0.031291153  0.031604561            1 
  914000     1.105191   -7.1741476     343.2865  0.031298915  0.031597478            1 
  915000    1.0902455   -7.2710548    342.81271  0.031221558  0.031590404            1 
  916000    1.1236107   -7.2905099     343.3757  0.031238692  0.031582957            1 
  917000    1.0861034   -7.2683933    343.02386  0.031172652  0.031575425            1 
  918000    1.1033283    -7.247236    344.52645  0.031275095  0.031568199            1 
  919000    1.1185527   -7.2477628    343.39644  0.031138597  0.031560759            2 
  920000    1.1164977   -7.2649784    345.34626  0.031281364  0.031553206            4 
  921000    1.1174126   -7.2516434    344.59919  0.031179804  0.031545871            2 
  922000    1.0924418   -7.2740606    344.53928  0.031140571  0.031538159            2 
  923000    1.1257153   -7.2399479    344.55892  0.031108606  0.031530461            1 
  924000    1.1011329   -7.2448758    344.64359  0.031082575   0.03152265            1 
  925000    1.0817104   -7.2625134    345.25741  0.031104271   0.03151488            1 
  926000    1.1026304   -7.2129457    346.57099  0.031188894  0.031507068            2 
  927000    1.1126874   -7.2585611    345.44248  0.031053801  0.031499042            2 
  928000     1.108809    -7.246761    345.85568  0.031057443  0.031491075            3 
  929000    1.0972383    -7.268763    347.04995   0.03113114  0.031483274            1 
  930000    1.0879858   -7.2686851    346.27614  0.031028328  0.031475447            1 
  931000    1.0707196   -7.2415834    346.49192  0.031014314  0.031467545            2 
  932000    1.0787131   -7.2308164    347.09059  0.031034567  0.031459918            1 
  933000    1.1117776    -7.291426    347.14089  0.031005796  0.031452096            2 
  934000    1.1003842   -7.2377293    348.40289  0.031085197  0.031444403            2 
  935000    1.0943066    -7.215384    348.38395  0.031050263  0.031436868            1 
  936000    1.0717599   -7.2948024    348.91185  0.031064089  0.031429211            2 
  937000    1.1282513   -7.2982349    349.50504  0.031083692  0.031421742            2 
  938000    1.1260911   -7.2928335    349.18826  0.031022411  0.031414449            1 
  939000    1.0908068   -7.2533052    350.53261   0.03110868  0.031407074            3 
  940000    1.0943527    -7.268429    349.72841  0.031004292   0.03139977            1 
  941000    1.1192258   -7.2759588    350.27188  0.031019473  0.031392461            2 
  942000    1.0996234    -7.244251    350.68128  0.031022761  0.031385141            4 
  943000    1.0948247    -7.241499    351.25594  0.031040645  0.031377651            2 
  944000    1.1131467   -7.2440998     351.2089   0.03100361  0.031370144            1 
  945000    1.0795382   -7.2075187    351.87011   0.03102911  0.031362645            1 
  946000    1.0692756   -7.2287283    351.71167  0.030982353  0.031355363            3 
  947000     1.092881   -7.2719662    352.44242   0.03101394  0.031347969            2 
  948000    1.0983959   -7.2461376    352.64928  0.030999409  0.031340576            6 
  949000    1.0918545   -7.2680873     353.0871  0.031005189  0.031333063            1 
  950000    1.1006222   -7.3032635     353.5933  0.031016956  0.031325576            2 
  951000     1.092827   -7.2783146    353.91782  0.031012778  0.031318419            3 
  952000    1.0948557   -7.2092894    356.07917  0.031169395  0.031311341            3 
  953000    1.0931666   -7.2793559    354.66796  0.031013288  0.031304183            2 
  954000    1.1009697   -7.2732587     355.0592  0.031014954  0.031296726            3 
  955000    1.0800038   -7.2603105    355.26968  0.031000845  0.031289349            3 
  956000    1.0597226   -7.2666921    355.53002   0.03099111  0.031281843            3 
  957000    1.0965974   -7.2616325    355.05114  0.030917027  0.031274475            1 
  958000    1.1086242   -7.2729826    355.71494  0.030942497  0.031266856            1 
  959000    1.0970641   -7.2806756    354.19331  0.030778007  0.031259175            2 
  960000    1.1072901    -7.280084    354.74566  0.030793894   0.03125139            1 
  961000      1.08228   -7.2811839    355.07444  0.030790361  0.031243696            1 
  962000    1.0891741   -7.2224721    356.70101  0.030899256  0.031236158            2 
  963000    1.0951735   -7.2647979    356.97683  0.030891038  0.031228534            1 
  964000    1.1198423   -7.2557532    356.30441  0.030800866  0.031220758            1 
  965000     1.082431   -7.2726298    357.65926  0.030885947  0.031213081            2 
  966000    1.0730084   -7.2598597    357.03675  0.030800272  0.031205193            1 
  967000    1.1107569   -7.2057993     358.7859  0.030919157  0.031197522            2 
  968000    1.1193769   -7.2523214    358.34732  0.030849459  0.031189852            2 
  969000    1.1077814   -7.2918536    358.74111  0.030851489  0.031182167            2 
  970000    1.1158957   -7.2917952    358.76008  0.030821313  0.031174685            2 
  971000    1.1011801   -7.2663119    360.15003  0.030908859  0.031167195            1 
  972000    1.0670607   -7.2421033    360.50338  0.030907354  0.031159894            1 
  973000    1.0951191   -7.2747305    360.05886  0.030837518  0.031152562            2 
  974000    1.0942261   -7.2768027    360.85486  0.030873961  0.031145338            4 
  975000    1.0989914   -7.2474449    360.86271  0.030842966  0.031138162            1 
  976000     1.089209     -7.26192    361.40279  0.030857479  0.031131066            1 
  977000    1.0889752   -7.3042036    360.90731  0.030783632  0.031123919            1 
  978000    1.0883841   -7.2916851    360.49315  0.030716867  0.031116861            2 
  979000    1.1016931    -7.272321    361.04939  0.030732839  0.031109404            1 
  980000    1.0866197   -7.3002276    361.99553  0.030781933  0.031102109            2 
  981000    1.0917134   -7.2829199    362.45315  0.030789428   0.03109454            1 
  982000    1.0989682   -7.2543426    362.01355   0.03072077  0.031087252            1 
  983000     1.093864   -7.2442526    364.24746  0.030878896  0.031079796            3 
  984000    1.0995897   -7.2746088    362.86293  0.030730262  0.031072224            1 
  985000    1.0990535   -7.2660263    362.88989  0.030701344  0.031064853            2 
  986000    1.0661647   -7.2696744    363.48652  0.030720632  0.031057419            1 
  987000    1.0978816   -7.2521442    363.18524   0.03066407  0.031050122            1 
  988000    1.0930155   -7.2562058    365.08259  0.030793066  0.031042943            4 
  989000    1.0905625   -7.2709513    364.72792  0.030732046  0.031035655            1 
  990000    1.0956873   -7.2748066     365.1825  0.030739268  0.031028378            1 
  991000    1.1061657   -7.2651817    364.81554  0.030677391  0.031021122            1 
  992000    1.0971368   -7.2620443    365.24923  0.030682899  0.031013665            3 
  993000    1.0775089   -7.2808768    366.09825   0.03072325  0.031006437            1 
  994000    1.0708566   -7.2483694    365.82541  0.030669467  0.030998967            2 
  995000    1.1041014   -7.2983982    366.72231  0.030713761  0.030991441            2 
  996000    1.0964112   -7.2699948    366.57684  0.030670753  0.030983852            2 
  997000    1.0805789   -7.2736271    366.77529  0.030656577  0.030976349            4 
  998000    1.0738611   -7.2762223    367.76604  0.030708587  0.030968943            1 
  999000    1.1092658   -7.2892413    367.87283  0.030686756  0.030961695            5 
 1000000    1.0933708   -7.2783936    367.55856   0.03062988  0.030954579            1 
 1001000    1.0777169   -7.2797535    366.94961  0.030548586  0.030947331            1 
 1002000    1.0995065   -7.3135068    367.71246  0.030581542  0.030939865            3 
 1003000    1.0932873   -7.2879777    368.91023  0.030650567  0.030932632            1 
 1004000    1.1078312   -7.2458976    369.57044  0.030674837  0.030925278            1 
 1005000    1.0880826   -7.3058134    368.55487  0.030560105  0.030917984            2 
 1006000    1.0926209   -7.2717873    369.70202  0.030624753  0.030910663            1 
 1007000     1.081205   -7.2278495    369.70825  0.030594857  0.030903397            4 
 1008000    1.1038524   -7.3208565    369.75768  0.030568592  0.030896079            4 
 1009000    1.1011173   -7.2866191    370.89044   0.03063185  0.030888451            3 
 1010000    1.0797625   -7.2439462    371.32538  0.030637407  0.030880871            2 
 1011000    1.0608573   -7.2787635    369.59221  0.030464244  0.030873352            2 
 1012000    1.1024707   -7.2688014    371.06821  0.030555682  0.030865677            1 
 1013000    1.0908024   -7.3080794    370.16143  0.030450924   0.03085814            3 
 1014000    1.0934762   -7.2611078    371.90761    0.0305644  0.030850438            2 
 1015000    1.0825705   -7.2913355    371.62186  0.030510826  0.030843003            1 
 1016000     1.090512   -7.2557037    372.33942  0.030539651  0.030835635            3 
 1017000    1.1007776   -7.2400351    373.03291  0.030566446  0.030828306            1 
 1018000    1.0921559   -7.2607781    373.12855   0.03054425  0.030821047            2 
 1019000    1.1087233   -7.2623945    373.00101  0.030503845  0.030813894            1 
 1020000    1.0823473   -7.2284617    375.14928  0.030649451  0.030806764            2 
 1021000    1.0751624   -7.3042992    375.07906    0.0306137  0.030799737            2 
 1022000    1.0686402   -7.2607732    374.88498   0.03056792  0.030792722            4 
 1023000    1.0883842   -7.2845343    374.91419   0.03054042  0.030785728            1 
 1024000    1.0962014   -7.2435756    374.67517  0.030491143  0.030778899            1 
 1025000    1.1151472    -7.309446    376.46975  0.030607296  0.030772155            1 
 1026000     1.096762   -7.3361362    375.88949  0.030530336  0.030765315            2 
 1027000    1.0815136   -7.2548937    376.51006  0.030550962  0.030758208            1 
 1028000    1.1020653   -7.2834955    376.39071  0.030511569  0.030751423            2 
 1029000    1.1006299   -7.2901435    377.62981  0.030582265  0.030744609            1 
 1030000    1.0734478   -7.2652716    378.60791  0.030631708  0.030737777            1 
 1031000     1.092987   -7.2875244    378.03404  0.030555613  0.030731114            1 
 1032000    1.0922318    -7.264414    377.60775  0.030491582  0.030724306            1 
 1033000    1.0769886   -7.3203928    378.02998  0.030496126  0.030717549            4 
 1034000    1.0720192   -7.2843884    378.43844  0.030499552  0.030710585            1 
 1035000    1.0888821   -7.2800983    378.01009  0.030435595  0.030703691            1 
 1036000    1.1025758   -7.3404516    378.30039  0.030429568  0.030696767            2 
 1037000    1.0811427   -7.2706696    380.58541  0.030583848  0.030689883            2 
 1038000    1.0936064   -7.2955937    379.09686   0.03043488  0.030683023            1 
 1039000    1.0747131   -7.2817096    380.21157  0.030494993  0.030676218            1 
 1040000    1.0861643   -7.3352368    379.65279  0.030420897  0.030669405            2 
 1041000    1.0689417   -7.2793796    380.60906  0.030468225  0.030662408            2 
 1042000    1.0668677   -7.2862646    381.35342  0.030498514  0.030655588            3 
 1043000    1.0806036   -7.2910926    380.76532  0.030422285  0.030648824            1 
 1044000    1.0835829   -7.3346017    380.35227  0.030360175  0.030641964            2 
 1045000    1.0998714   -7.2898236    382.43392  0.030497123  0.030635168            1 
 1046000    1.1012085   -7.3080454    380.80316  0.030338046  0.030628467            1 
 1047000    1.0944225   -7.3212344    381.46583  0.030361814  0.030621753            3 
 1048000    1.0723741   -7.2877279    383.56869  0.030500055  0.030615144            1 
 1049000    1.0860385   -7.3439914    382.36353  0.030375241  0.030608461            1 
 1050000    1.0865474   -7.3274338    382.63917  0.030368188  0.030601573            1 
 1051000    1.1043566   -7.2927809    383.27292  0.030389543  0.030594737            2 
 1052000    1.0755195   -7.3198282     383.7726  0.030400238  0.030587919            6 
 1053000    1.0548881   -7.2703681    384.95852   0.03046522  0.030581253            2 
 1054000    1.1013435   -7.2868258     383.9327   0.03035521  0.030574621            2 
 1055000    1.0681974   -7.3357918    384.74046  0.030390242  0.030567806            2 
 1056000    1.1001645   -7.2872898    385.12133  0.030391519  0.030561074            1 
 1057000    1.0801622   -7.2990448    385.08756  0.030360104   0.03055411            2 
 1058000    1.0884818   -7.3083478    384.16946  0.030259094  0.030547106            2 
 1059000    1.0921987   -7.3407406    383.72495  0.030195542   0.03053998       -1e+20 
 1060000    1.0928865   -7.2919971    385.30197  0.030291035  0.030532889            2 
 1061000    1.0904847    -7.312062    386.81546  0.030381359  0.030526147            1 
 1062000    1.0706049   -7.2602044    386.79862   0.03035143  0.030519083            5 
 1063000    1.0915995   -7.3296755      385.602  0.030229069  0.030512243            3 
 1064000    1.0922104    -7.296314    386.27091  0.030253048  0.030505013            1 
 1065000    1.0758955   -7.2855198    386.19767   0.03021891   0.03049784            2 
 1066000    1.0796913   -7.3337796    386.29984  0.030198549  0.030490763            1 
 1067000    1.0749598   -7.2950978    387.27253  0.030246214  0.030483662            1 
 1068000    1.0584384   -7.3197834    387.66171  0.030248261  0.030476775            2 
 1069000    1.0592979   -7.3005749    387.93179  0.030241019   0.03046982            2 
 1070000    1.0751025   -7.3168232    388.35915   0.03024604  0.030462551            4 
 1071000    1.0782871   -7.2862779    389.54616  0.030310159  0.030455635            3 
 1072000    1.0893424   -7.3381464    387.42991  0.030117375  0.030448271            2 
 1073000    1.0762564   -7.3352703    388.70099  0.030188023  0.030441025            2 
 1074000    1.0657541   -7.2901246    388.78688  0.030166579  0.030433833            1 
 1075000    1.1037635   -7.2621255     388.6724  0.030129643  0.030426614            2 
 1076000    1.0980381   -7.2941827    389.05854  0.030131547  0.030419531            2 
 1077000      1.06851   -7.2743694     390.1728  0.030189786  0.030412597            1 
 1078000    1.0789591   -7.3472388    390.33606  0.030174401  0.030405467            3 
 1079000    1.0727751    -7.320211    390.32921  0.030145908  0.030398387            1 
 1080000    1.0800846   -7.2932865    391.12886  0.030179696  0.030391499            3 
 1081000    1.0756583   -7.3342969    390.93887  0.030137131  0.030384553            1 
 1082000    1.0946668    -7.331366    389.89848   0.03002915  0.030377451            2 
 1083000    1.0793559   -7.3328106    391.07579  0.030092012  0.030370258            2 
 1084000     1.064712   -7.3227406    391.81427  0.030121023  0.030362946            3 
 1085000    1.1063825   -7.3127337    392.60144   0.03015372  0.030355584            1 
 1086000    1.0514594   -7.3141364    392.78872  0.030140325  0.030348476            1 
 1087000    1.0672017   -7.3019307    391.60073  0.030021522  0.030341254            2 
 1088000    1.0722429   -7.2717472    393.54501  0.030142847  0.030334272            1 
 1089000    1.0851932   -7.3080463    393.28337  0.030095146  0.030327163            1 
 1090000    1.0660416   -7.3319568    392.12394  0.029978894  0.030319998            4 
 1091000    1.0757583   -7.3179677    393.02226  0.030020032  0.030312517            2 
 1092000     1.087211   -7.2846493    393.79011  0.030051138  0.030305211            3 
 1093000    1.0896245   -7.3453464    394.30637  0.030063005  0.030298154            2 
 1094000    1.0640481   -7.2686224    393.60096  0.029981792  0.030290688            4 
 1095000     1.067848   -7.3002563    395.55058  0.030102784  0.030283658            1 
 1096000    1.0686792   -7.3560862    394.59669  0.030002789  0.030276386            3 
 1097000    1.0698022   -7.2823072    395.39346  0.030035966  0.030269191            2 
 1098000    1.0724813   -7.3172296    395.93915  0.030050026  0.030261927            2 
 1099000    1.0710203   -7.2864316    394.72691  0.029930764  0.030254352            1 
 1100000    1.0754467   -7.3391045    394.65492    0.0298981  0.030246785            1 
 1101000    1.0744723   -7.3101167    395.98027  0.029971259  0.030239245            4 
 1102000    1.0871226   -7.3073191    395.88313  0.029936716  0.030231783            2 
 1103000    1.0718959    -7.330713    395.50108   0.02988071  0.030224307            4 
 1104000    1.0850179   -7.2888712    396.36357  0.029918748  0.030216808            1 
 1105000    1.0936508   -7.2846091     396.8809  0.029930686  0.030209437            3 
 1106000    1.0767816   -7.2916286    397.13968  0.029923123  0.030201897            1 
 1107000     1.095149   -7.2794803    399.06855  0.030041294  0.030194322            1 
 1108000    1.0534658   -7.2781115    396.85571  0.029847752  0.030186749            2 
 1109000    1.0799424   -7.3596243    397.22841  0.029848844  0.030179314            1 
 1110000    1.0838214   -7.3348428    397.18513  0.029818703  0.030171812            1 
 1111000    1.0828565   -7.3329134    398.01005  0.029853739  0.030164542            1 
 1112000    1.0790935   -7.3304723    398.96757  0.029898649  0.030157037            2 
 1113000    1.0870488   -7.3182856    398.41809  0.029830645   0.03014953            2 
 1114000     1.051199   -7.3206526    399.17573  0.029860542  0.030141758            2 
 1115000    1.0740738   -7.3219132    397.55265  0.029712455  0.030134064            1 
 1116000    1.0785257   -7.2989349    399.12749  0.029803426  0.030126117            4 
 1117000    1.0869733    -7.236341    399.29878  0.029789524   0.03011832            1 
 1118000    1.0882793   -7.3247404    397.96101  0.029663164  0.030110396            2 
 1119000    1.0663951   -7.3565345    399.54908  0.029754921  0.030102214            1 
 1120000    1.0804675   -7.3384965    399.14052  0.029697955  0.030094154            1 
 1121000    1.0696981   -7.3397967    399.51823  0.029699541  0.030086227            2 
 1122000    1.0544198   -7.3453125    399.68835  0.029685706   0.03007812            2 
 1123000    1.0792359    -7.350804    400.27113  0.029702518  0.030070271            1 
 1124000    1.0649619   -7.3411801    400.58028  0.029699013  0.030062574            2 
 1125000    1.0706432   -7.3486566    399.68334  0.029606173  0.030054686            2 
 1126000    1.0865021   -7.2970202    401.90139  0.029744034  0.030046787            2 
 1127000    1.0915512   -7.3196352    401.87033  0.029715345  0.030039036            2 
 1128000    1.0927322   -7.3614614    401.05835  0.029629015    0.0300312            4 
 1129000     1.095478    -7.317582    401.30754  0.029621165  0.030023413            2 
 1130000     1.068276   -7.2917276    403.83416   0.02978128  0.030015679            2 
 1131000    1.0695065   -7.3022077    402.96936  0.029691229  0.030008033            1 
 1132000    1.0723741    -7.310909    403.27322  0.029687369  0.030000339            3 
 1133000    1.0556166   -7.3111077    403.33566  0.029665759  0.029992667            2 
 1134000    1.0663844   -7.3286269    402.99039  0.029614226  0.029985012            2 
 1135000      1.07533   -7.3162513    404.52629  0.029700902  0.029977121            1 
 1136000    1.0383814   -7.3401512    403.92825  0.029630887  0.029969193            1 
 1137000    1.0823213   -7.3143987    404.27663   0.02963036  0.029961387            2 
 1138000    1.0629314   -7.3203805    404.16642  0.029596252  0.029953602            3 
 1139000    1.0533786   -7.3160008    405.60865  0.029675786  0.029945839            1 
 1140000    1.0852456   -7.3100597    404.96862  0.029602969  0.029938024            3 
 1141000    1.0737997    -7.350378    404.98883  0.029578501  0.029929996            2 
 1142000    1.0705716   -7.3590037    405.70379  0.029604771  0.029922162            2 
 1143000    1.0688252   -7.3583054    405.09799  0.029534703  0.029914356            1 
 1144000    1.0406809   -7.2889067    407.41697   0.02967781   0.02990682            2 
 1145000    1.0567351   -7.3352064    406.17167  0.029561257  0.029899307            4 
 1146000    1.0475698   -7.3786302    405.56434  0.029491299  0.029891815            4 
 1147000     1.084531   -7.3164872    406.63187  0.029543147  0.029884121            2 
 1148000    1.0537513   -7.3095333    406.82023  0.029531085  0.029876377            3 
 1149000    1.0748443   -7.3135716     408.5364  0.029629852  0.029868853            1 
 1150000    1.0922715     -7.35554    407.40855  0.029522358   0.02986138            1 
 1151000    1.0504131   -7.3259634     408.1202  0.029548233  0.029853885            2 
 1152000    1.0838437   -7.3381018    408.25808  0.029532558  0.029846158            1 
 1153000    1.0522216   -7.3881064    408.82805  0.029548139  0.029838608            3 
 1154000    1.0740875   -7.3281035    408.65144   0.02950978  0.029831244            2 
 1155000    1.0486879   -7.3255248    410.19924  0.029595905  0.029823854            2 
 1156000    1.0540647   -7.3582236    410.03811  0.029558687  0.029816281            2 
 1157000    1.0654832   -7.3351598    410.37049   0.02955708  0.029808722            1 
 1158000    1.0845468   -7.3153791     410.9887  0.029576044  0.029801337            2 
 1159000    1.0554203   -7.3036095     412.1702  0.029635476  0.029793933            1 
 1160000    1.0647685   -7.3096228    412.09279  0.029604367  0.029786627            1 
 1161000    1.0799985    -7.350363    410.58759  0.029470829  0.029779193            3 
 1162000    1.0910151   -7.3265245    412.42352  0.029577131  0.029771784            4 
 1163000    1.0682388   -7.3670438    411.98509  0.029520284  0.029764411            1 
 1164000    1.0542996   -7.3434995    412.40636  0.029525083  0.029756985            2 
 1165000    1.0981652   -7.3255885    413.54631  0.029581281  0.029749603            1 
 1166000    1.0834349    -7.345737    411.32081  0.029396856  0.029742203            2 
 1167000    1.0835468   -7.3634075    413.49074  0.029526617  0.029734716            1 
 1168000    1.0855989   -7.3562512    412.73762  0.029447604  0.029727353            3 
 1169000    1.0435019   -7.3026481    413.92685  0.029507189  0.029720132            3 
 1170000    1.0875289   -7.3846968    412.90965   0.02940952  0.029712746            3 
 1171000    1.0773793   -7.3427399    413.26746  0.029409867  0.029705393            2 
 1172000    1.0440764   -7.3496272    413.77565  0.029420908  0.029697918            2 
 1173000    1.0789952   -7.3059658     415.0353  0.029485316  0.029690529            1 
 1174000    1.0478877   -7.3157728    415.30993  0.029479694  0.029683428            1 
 1175000    1.0530717   -7.3478632    414.59048   0.02940358  0.029676234            1 
 1176000    1.0819221   -7.3492666     415.1732   0.02941987  0.029669005            1 
 1177000    1.0640254   -7.3636293     415.0886  0.029388884  0.029661768            2 
 1178000    1.0610888   -7.3161643    415.36434  0.029383443  0.029654442            2 
 1179000    1.0838362    -7.342105    416.04439  0.029406587  0.029647096            2 
 1180000    1.0527634   -7.3598123    416.45083  0.029410369  0.029639572            2 
 1181000    1.0776277   -7.3804922    415.72241  0.029334068  0.029632024            2 
 1182000     1.051608   -7.3386789    417.32514  0.029422246  0.029624478            1 
 1183000    1.0438229   -7.3559596    415.09802  0.029240492  0.029616894            2 
 1184000     1.061079    -7.363445    417.37867  0.029376314  0.029609164            2 
 1185000    1.0703596   -7.3395292    417.03691   0.02932749  0.029601667            2 
 1186000     1.070524   -7.3559993    417.42792  0.029330236  0.029594121            3 
 1187000     1.052869   -7.3511632    418.54173  0.029383722  0.029586755            2 
 1188000    1.0801285   -7.3258863    417.20849  0.029265467  0.029579308            4 
 1189000    1.0853486   -7.3165425    417.75384  0.029279075  0.029571813            1 
 1190000    1.0571063   -7.3432245    416.84109  0.029190552  0.029564234            1 
 1191000    1.0654566   -7.3404477    418.33328   0.02927045  0.029556576            1 
 1192000    1.0468438   -7.3266706    420.24573  0.029379595  0.029549114            2 
 1193000    1.0456961   -7.2993206    419.31526  0.029289973  0.029541757            1 
 1194000    1.0535786   -7.3428174    419.50434  0.029278639  0.029534364            1 
 1195000    1.0626516   -7.3077214    420.06901  0.029293515  0.029527183            1 
 1196000    1.0556034   -7.3825635    419.74077  0.029246152  0.029519863            1 
 1197000    1.0844623   -7.3712313    420.24856  0.029257071  0.029512729            1 
 1198000    1.0747516   -7.3646739    423.06439  0.029428519  0.029505616            4 
 1199000    1.0649699   -7.3697894    421.76567  0.029313711  0.029498546            5 
 1200000    1.0499715   -7.3822353    422.52321   0.02934189  0.029491524            2 
 1201000    1.0543923   -7.3390084     422.4313  0.029311081  0.029484428            2 
 1202000    1.0371068   -7.3278611     423.2719  0.029344974  0.029477746            2 
 1203000    1.0721034   -7.3801506    422.44139   0.02926305  0.029470821            1 
 1204000    1.0564948   -7.3468115     421.5187  0.029174882  0.029463782            6 
 1205000    1.0388372   -7.3752704    423.95012  0.029318819  0.029456799            1 
 1206000    1.0364162   -7.3826349    422.71593  0.029209227  0.029449871            1 
 1207000    1.0389314   -7.3657884    424.32504  0.029296123  0.029442758            2 
 1208000    1.0619586   -7.3788913    424.16682  0.029260956  0.029435694            2 
 1209000    1.0708324   -7.3590157    423.78298  0.029210296  0.029428516            2 
 1210000    1.0396503   -7.3920639     423.2472  0.029149256  0.029421259            2 
 1211000    1.0654995   -7.3459614    424.73895  0.029227839  0.029414066            2 
 1212000    1.0461955   -7.3664765    425.36274  0.029246613  0.029407126            4 
 1213000    1.0429809   -7.3648834    425.37467  0.029223321  0.029400253            2 
 1214000    1.0813134   -7.3683189    426.10097  0.029249106  0.029393366            1 
 1215000    1.0696172   -7.3634553     425.9505  0.029214712  0.029386357            1 
 1216000    1.0548736   -7.3499186    427.01867  0.029263889  0.029379412            2 
 1217000    1.0711993    -7.330367    427.15594  0.029249242   0.02937269            2 
 1218000    1.0550802   -7.3826333    427.00775  0.029215089  0.029365639            2 
 1219000    1.0624068    -7.372937    426.49055  0.029155766  0.029358673            1 
 1220000    1.0596495   -7.3542833    427.39684  0.029193773  0.029351784            3 
 1221000    1.0290488   -7.3551576    428.39807  0.029238197  0.029344834            3 
 1222000    1.0731397   -7.3635128    428.57799  0.029226541  0.029338029            1 
 1223000    1.0573862    -7.355208     428.1606  0.029174203  0.029331356            3 
 1224000    1.0427542   -7.3648866    427.36288  0.029096057  0.029324574            1 
 1225000    1.0511401   -7.3135905    429.58033  0.029223152  0.029317878            1 
 1226000    1.0521678   -7.3545869    429.84385  0.029217227  0.029311083            1 
 1227000    1.0605437   -7.3568836    430.52432  0.029239631  0.029304427            2 
 1228000    1.0663607    -7.365143    429.36756  0.029137321  0.029297812            2 
 1229000    1.0668028   -7.3543833    430.03301  0.029158734  0.029291043            2 
 1230000    1.0483459   -7.3908207    429.96221  0.029130231  0.029284151            1 
 1231000    1.0430424   -7.3451316    432.02851  0.029246446  0.029277397            2 
 1232000    1.0455827   -7.4237862    431.04356  0.029156085  0.029270786            2 
 1233000     1.037792   -7.3459516    431.37218  0.029154648  0.029264104            1 
 1234000    1.0520896   -7.3948577    431.90595  0.029167068  0.029257396            2 
 1235000    1.0343561   -7.3722643    432.07065  0.029154565  0.029250802            1 
 1236000      1.04258   -7.3121006    432.07679  0.029131391  0.029244157            2 
 1237000     1.062061   -7.3789467    432.00361  0.029102911  0.029237531            2 
 1238000    1.0326681   -7.3633281    433.22746  0.029161784  0.029230802       -1e+20 
 1239000    1.0495515   -7.3654675    432.60937  0.029096675   0.02922415            2 
 1240000    1.0671172   -7.3941308    432.34427  0.029055395  0.029217477            2 
 1241000    1.0671754    -7.382446    434.56577  0.029181155  0.029210863            4 
 1242000    1.0276037   -7.3882611     432.1194  0.028993519  0.029203958            2 
 1243000    1.0661902   -7.3328954    434.53539  0.029132166  0.029197222            2 
 1244000    1.0302571   -7.4026756    433.57926  0.029044699  0.029190426            1 
 1245000    1.0415224   -7.4035003    433.21803  0.028997191  0.029183616            2 
 1246000    1.0484942   -7.3869194    434.45936  0.029056939  0.029176959            1 
 1247000    1.0587398   -7.3763495    435.30299  0.029090015  0.029170126            2 
 1248000     1.058152   -7.3568493    434.10617   0.02898679  0.029163289            2 
 1249000    1.0423545   -7.3442054    434.34268  0.028979362  0.029156482            1 
 1250000    1.0519266   -7.3703744    435.97451  0.029064967  0.029149584            2 
 1251000    1.0657125   -7.3905317    434.83857  0.028966065  0.029142631            1 
 1252000    1.0533017   -7.3513539     436.3667  0.029044642  0.029135724            2 
 1253000    1.0478174   -7.3735122    435.70328   0.02897734  0.029128957            1 
 1254000    1.0465535   -7.3853313    436.21921  0.028988517  0.029122224            2 
 1255000    1.0641046   -7.3956925     436.8211  0.029005385   0.02911525            2 
 1256000    1.0164254    -7.348299    437.29908  0.029014005  0.029108455            2 
 1257000    1.0441456   -7.3553857    436.82029  0.028959181  0.029101702            2 
 1258000    1.0858132   -7.3967814    435.43291  0.028844257   0.02909453            1 
 1259000    1.0480085   -7.3285996    438.29663  0.029010897  0.029087618            1 
 1260000    1.0758604   -7.3376511    437.33535  0.028924295  0.029080867            2 
 1261000    1.0432147    -7.359865    438.92137   0.02900617  0.029074217            2 
 1262000    1.0666928   -7.3974759    438.78736  0.028974337  0.029067456            1 
 1263000    1.0386345   -7.3741414    440.30604  0.029051599  0.029060743            2 
 1264000    1.0460025   -7.3518881    438.45479  0.028906566  0.029053972            4 
 1265000    1.0456227   -7.3428427    439.13401  0.028928459  0.029047221            2 
 1266000    1.0531899   -7.4036064    438.44351  0.028860157  0.029040511            2 
 1267000    1.0437766   -7.4125038    438.63194  0.028849772  0.029033642            1 
 1268000    1.0433602   -7.4078681    439.61453  0.028891596   0.02902684            3 
 1269000    1.0670612   -7.3606646    440.50669  0.028927416  0.029020118            1 
 1270000    1.0476938   -7.3867771    440.71116  0.028918055  0.029013463            2 
 1271000    1.0419086   -7.4026094    439.75646  0.028832708  0.029006849            3 
 1272000    1.0510211   -7.3846646    441.70274  0.028937548  0.029000101            2 
 1273000    1.0592171   -7.3756053     441.8796  0.028926394  0.028993352            1 
 1274000    1.0338525   -7.4192859    440.25436  0.028797381  0.028986409            1 
 1275000    1.0615583    -7.373582    440.85863  0.028814289  0.028979516            3 
 1276000    1.0460412   -7.3768048    440.55403  0.028771815  0.028972588            1 
 1277000    1.0777274    -7.382668    441.02098  0.028779756  0.028965447            3 
 1278000     1.035747   -7.3720271    441.80158  0.028808136  0.028958304            2 
 1279000    1.0369199   -7.3662009    441.72919  0.028780896  0.028951107            2 
 1280000    1.0305288   -7.3886413    440.92637  0.028706144  0.028943948            3 
 1281000    1.0426821   -7.3645467    442.38427  0.028778576  0.028936784            1 
 1282000    1.0306108   -7.4239504    442.21859  0.028745358  0.028929729            4 
 1283000    1.0620293   -7.3801644     441.2488  0.028659964  0.028922582            6 
 1284000    1.0531077   -7.3966564    441.24363  0.028637307  0.028915469            1 
 1285000    1.0462388   -7.3597803    444.19958  0.028806717  0.028908579            1 
 1286000    1.0284334   -7.3149343    444.76122  0.028820711  0.028901646            3 
 1287000    1.0706362   -7.3735508    443.20781  0.028697734  0.028894643            2 
 1288000    1.0465836   -7.4107428    443.14743  0.028671547  0.028887657            2 
 1289000    1.0479274   -7.3974506     442.5835  0.028612846   0.02888057            1 
 1290000    1.0365023   -7.4112263    443.52759  0.028651653  0.028873409            1 
 1291000     1.054142   -7.3670452    444.33933  0.028681857  0.028866261            2 
 1292000    1.0451921   -7.3922888    443.96266  0.028635362  0.028859169            1 
 1293000    1.0473619   -7.4081407    443.40743  0.028577432  0.028851928            1 
 1294000    1.0431573   -7.4305423    444.34375  0.028615646  0.028844549            1 
 1295000    1.0726263   -7.3768854    444.97227  0.028633994  0.028837235            2 
 1296000    1.0282499    -7.371468    446.53075  0.028712111  0.028830063            3 
 1297000    1.0542047   -7.3783189    446.28953  0.028674475  0.028823061            2 
 1298000     1.041677   -7.3802561    446.27493  0.028651446  0.028815938            1 
 1299000    1.0705023   -7.3676422    446.17031  0.028622679   0.02880887            3 
 1300000    1.0384551   -7.4252424    446.01708  0.028590839   0.02880174            1 
 1301000    1.0458693    -7.374192    446.97621  0.028630298   0.02879456            2 
 1302000    1.0207378     -7.39932    447.00998  0.028610469  0.028787483            2 
 1303000    1.0554274   -7.3951202     447.5157  0.028620856  0.028780457            1 
 1304000    1.0329015   -7.3710558    447.32056  0.028586437  0.028773371            3 
 1305000    1.0333307   -7.3836107    447.23717  0.028559206  0.028766278            4 
 1306000    1.0521488   -7.3440189     449.4334  0.028677476  0.028759237            1 
 1307000    1.0450293   -7.3701023    447.72526  0.028546625  0.028752194            1 
 1308000    1.0197897   -7.4084274    447.72498  0.028524782  0.028744941            1 
 1309000    1.0391255   -7.3922217    448.15164  0.028530153  0.028737774            2 
 1310000     1.035628   -7.3532399    448.69544  0.028542967  0.028730556            3 
 1311000    1.0287233   -7.3813856    447.06269  0.028417409   0.02872338            2 
 1312000    1.0201909   -7.3909559    448.82257  0.028507531  0.028716218            4 
 1313000    1.0476988   -7.3985181     450.0808  0.028565676  0.028709139            1 
 1314000    1.0331882   -7.4063019    450.15724  0.028548785  0.028702048            2 
 1315000    1.0343003   -7.4144928    450.38009  0.028541197  0.028694943            1 
 1316000    1.0470788   -7.3967031    450.62312  0.028534899  0.028687966            1 
 1317000    1.0411387   -7.4208888    451.35438  0.028559503  0.028680999            2 
 1318000    1.0349366   -7.3908371     451.8602  0.028569816  0.028674121            1 
 1319000    1.0423701   -7.3450718    451.68397  0.028537021  0.028667397            2 
 1320000    1.0265743    -7.405441    451.31115  0.028491865   0.02866064            1 
 1321000    1.0384805   -7.3887764    451.00518  0.028450995   0.02865362            2 
 1322000    1.0291153   -7.3826859    452.13242  0.028500531  0.028646768            2 
 1323000    1.0354302   -7.3948668    452.40884    0.0284964  0.028639806            2 
 1324000    1.0419881   -7.4161634    452.47668  0.028479147  0.028632636            5 
 1325000    1.0511527   -7.3696409    453.47462  0.028520417  0.028625617            2 
 1326000    1.0526106    -7.403532    451.76111  0.028391221  0.028618588            2 
 1327000    1.0180617   -7.3717437    453.26065  0.028463994  0.028611496            2 
 1328000    1.0514855   -7.4005592    453.73887   0.02847257  0.028604281            2 
 1329000    1.0511426   -7.3879906    453.30248  0.028423782  0.028597128            2 
 1330000    1.0473991   -7.3841456    453.09987  0.028389716  0.028590098            2 
 1331000    1.0307212   -7.4005211    452.74996  0.028346479  0.028582976            1 
 1332000    1.0602548   -7.3434664    453.94514  0.028399971  0.028575768            4 
 1333000    1.0371078   -7.4062966    454.30418  0.028401111  0.028568588            3 
 1334000    1.0371443   -7.3869447     453.8995  0.028354541  0.028561372            4 
 1335000    1.0445485   -7.4148405    454.03884     0.028342  0.028554299            1 
 1336000    1.0401601   -7.3973711     453.1522  0.028265482  0.028547177            1 
 1337000    1.0405364   -7.4137362    454.29684  0.028315684  0.028539915            7 
 1338000    1.0422823    -7.404491    454.97801  0.028336946  0.028532689            1 
 1339000    1.0321887   -7.4567466    454.07383  0.028259512  0.028525468            1 
 1340000    1.0209101   -7.4047403    455.19624  0.028308224  0.028518043            3 
 1341000    1.0293877   -7.4147306    454.06971  0.028217109  0.028510674            1 
 1342000    1.0427526   -7.4128731    455.98579  0.028315064  0.028503304            4 
 1343000    1.0415001   -7.4163423    454.28669  0.028188551  0.028495974            2 
 1344000    1.0234893   -7.4145393    455.38253  0.028235524  0.028488517            1 
 1345000    1.0099737   -7.4111298    455.38167  0.028214478  0.028481048            1 
 1346000    1.0051073   -7.3857021    455.97774   0.02823042  0.028473607            5 
 1347000     1.052635   -7.4240924     455.6839  0.028191283  0.028466144            1 
 1348000    1.0172685   -7.4441821    454.00535  0.028066602  0.028458633            2 
 1349000    1.0336867   -7.3895826    457.21208  0.028243889   0.02845107            2 
 1350000    1.0486844   -7.3719632      457.821  0.028260555  0.028443674            4 
 1351000    1.0225845   -7.3783101    457.17767  0.028199955  0.028436258            2 
 1352000    1.0618099   -7.4074728    456.17628  0.028117374  0.028428692            1 
 1353000    1.0123697   -7.3755134    457.60061   0.02818432  0.028421162            2 
 1354000    1.0399514   -7.3909417    458.69681  0.028230971  0.028413759            1 
 1355000    1.0262621   -7.3848807    458.92253  0.028224018   0.02840659            1 
 1356000    1.0227447   -7.4144843      457.741  0.028130593  0.028399307            1 
 1357000    1.0493109   -7.4442868    457.71132   0.02810804   0.02839183            2 
 1358000    1.0351938   -7.4134621    457.48322  0.028073344   0.02838436            1 
 1359000    1.0610065   -7.3938639    459.08521   0.02815092  0.028376816            2 
 1360000    1.0348711   -7.4371749    458.97228  0.028123302  0.028369203            4 
 1361000    1.0175494   -7.3979851    460.50795  0.028196666  0.028361782            4 
 1362000    1.0330494   -7.4004817    457.87107  0.028014628  0.028354333            1 
 1363000    1.0507355   -7.4095876     458.9085  0.028057502  0.028346917            1 
 1364000    1.0511291   -7.3901298    460.53537  0.028136325  0.028339444            4 
 1365000    1.0520317   -7.3875751    459.91246  0.028077684  0.028332018            1 
 1366000    1.0417849   -7.4380736    460.49264  0.028092523  0.028324314            2 
 1367000    1.0391213   -7.4173852    460.02103  0.028043223  0.028316805            1 
 1368000    1.0091434   -7.4402842    460.43687  0.028048055   0.02830912            2 
 1369000    1.0208514   -7.4155154    460.14145  0.028009584  0.028301367            2 
 1370000    1.0284813    -7.385409    461.45356  0.028068951  0.028293679            1 
 1371000    1.0585559   -7.4065931    461.33454  0.028041244  0.028286071            5 
 1372000    1.0401608   -7.4167518    462.06202  0.028064991  0.028278388            2 
 1373000    1.0273547   -7.4422396     461.2504   0.02799529   0.02827073            1 
 1374000    1.0245392   -7.4250407    461.01961  0.027960918  0.028263113            1 
 1375000    1.0301355   -7.4409573    461.69468  0.027981496  0.028255356            4 
 1376000    1.0353979   -7.4215049     461.5824  0.027954361   0.02824775            2 
 1377000    1.0528239   -7.4145867    460.66538  0.027878563  0.028239946            3 
 1378000    1.0271734   -7.4036652    461.75637  0.027924309  0.028232147            2 
 1379000    1.0337504   -7.4141811    461.98841  0.027918081  0.028224418            1 
 1380000     1.030527   -7.4242413    461.88607  0.027891671  0.028216733            2 
 1381000    1.0417619   -7.3863224    463.19268  0.027950319  0.028209165            1 
 1382000    1.0331416   -7.4076933    463.21589  0.027931494   0.02820157            2 
 1383000    1.0305373   -7.4163965    462.12625  0.027845641  0.028193933            1 
 1384000    1.0289288   -7.4425401    461.80589  0.027806232  0.028186084            2 
 1385000   0.99846191   -7.4134588    462.35142  0.027818978  0.028178149            1 
 1386000    1.0596667   -7.4240564    461.82904  0.027767499  0.028170178            2 
 1387000    1.0071645   -7.4008274    461.95487  0.027755039  0.028162194            3 
 1388000    1.0415278   -7.3729674      464.324  0.027877281  0.028154191            3 
 1389000    1.0327866   -7.4037705    463.48096  0.027806633  0.028146289            2 
 1390000    1.0342686   -7.4094936    463.96787   0.02781582  0.028138401            3 
 1391000     1.038136   -7.4273622    463.03012  0.027739643  0.028130429            1 
 1392000    1.0392068    -7.424882    464.40861   0.02780224  0.028122435            2 
 1393000    1.0438892    -7.374497    465.08797  0.027822922  0.028114493            2 
 1394000    1.0175683   -7.4114332    465.45174   0.02782471  0.028106646            2 
 1395000    1.0367963   -7.4612612    463.41235  0.027682936  0.028098633            3 
 1396000    1.0273324   -7.4299387    463.85295  0.027689407  0.028090727            2 
 1397000   0.99844363     -7.37092    467.28695   0.02787443  0.028082999            3 
 1398000    1.0184447   -7.4026725    466.17462  0.027788187   0.02807531            1 
 1399000    1.0563932   -7.4471662    465.73497  0.027742135   0.02806744            1 
 1400000    1.0329402   -7.4386015    465.37852  0.027701103  0.028059563            2 
 1401000    1.0416092   -7.4165641    466.76728  0.027763935  0.028051632            2 
 1402000    1.0174901   -7.4192382    465.84228  0.027689151  0.028043718            2 
 1403000    1.0380193   -7.4390721    467.05407  0.027741391   0.02803574            1 
 1404000    1.0201834   -7.4260322    468.23614  0.027791793  0.028027877            2 
 1405000    1.0035275   -7.4184954    468.06803  0.027762042   0.02801999            5 
 1406000     1.050271   -7.4648189    467.04077  0.027681411  0.028012167            3 
 1407000    1.0363833    -7.467922    465.05819  0.027544313  0.028004141            2 
 1408000    1.0392159   -7.4688409    467.74783  0.027683939  0.027996243            1 
 1409000    1.0334811   -7.4264885    466.89764  0.027614008  0.027988305            1 
 1410000     1.027592   -7.4486015    468.93305  0.027714719  0.027980248            2 
 1411000    1.0285629   -7.4376278    467.84065   0.02763056  0.027972409            2 
 1412000    1.0535184   -7.4360028    467.95171  0.027617547  0.027964631            1 
 1413000     1.030744   -7.4591423    468.78976  0.027647426  0.027956732            2 
 1414000   0.99979496   -7.4204591    469.71399  0.027682342  0.027948846            3 
 1415000     1.047177   -7.4524963    467.75805  0.027547589  0.027940887            2 
 1416000   0.99580519   -7.4547011    467.78565  0.027529758  0.027932866            2 
 1417000    1.0176508   -7.4121074     468.8513     0.027573  0.027924876            2 
 1418000     1.023018   -7.4568454    468.26141  0.027518889  0.027916793            3 
 1419000    1.0054181    -7.406469    468.42379  0.027509032  0.027908692            2 
 1420000    1.0166344   -7.4495842    469.13123  0.027531175  0.027900563            2 
 1421000      1.03153   -7.4267915    468.96796  0.027502226  0.027892619            1 
 1422000    1.0393653   -7.4115074    470.51566  0.027573585  0.027884647            5 
 1423000    1.0215275   -7.4207596    470.01048  0.027524624  0.027876726            1 
 1424000    1.0186361   -7.4580063    470.98783   0.02756249  0.027868946            2 
 1425000    1.0118468   -7.3857732    472.42272   0.02762706  0.027861215            2 
 1426000    1.0262511   -7.4339808    471.01428  0.027525379  0.027853392            1 
 1427000    1.0322551   -7.4456629    470.81236  0.027494298  0.027845456            2 
 1428000    1.0217952   -7.4187238    470.91199  0.027480859  0.027837695            2 
 1429000    1.0285254    -7.413418    472.32361  0.027543947  0.027829872            3 
 1430000    1.0345778   -7.4467693    472.35812  0.027526697  0.027822154            3 
 1431000     1.010234   -7.4661043    474.00577  0.027603411  0.027814417            1 
 1432000    1.0203349   -7.4439323    471.54042  0.027440667   0.02780669            1 
 1433000    1.0131778    -7.423034    472.08576  0.027453231  0.027798816            3 
 1434000    1.0121683   -7.4632239    472.67599  0.027468386  0.027790966            2 
 1435000    1.0092527   -7.4368325    472.64509   0.02744745  0.027783191            4 
 1436000    1.0328058   -7.4494191    473.46625  0.027475989  0.027775174            1 
 1437000    1.0170501   -7.4135573    472.06937  0.027375862  0.027767378            1 
 1438000    1.0079464   -7.4537188    473.75179  0.027454322  0.027759501            3 
 1439000    1.0193504   -7.4432042      474.187  0.027460447  0.027751546            1 
 1440000    1.0259715   -7.4534277    473.73721  0.027415348  0.027743717            1 
 1441000    1.0161426   -7.4484274    474.52735  0.027442016  0.027735869            2 
 1442000    1.0063024   -7.4421575    474.22291  0.027405392  0.027728068            3 
 1443000    1.0243178   -7.4396775    475.51057  0.027460763  0.027720243            2 
 1444000    1.0268048   -7.4309197    473.51963  0.027326848  0.027712426            2 
 1445000    1.0094803   -7.4295058    473.75299  0.027321395  0.027704484            1 
 1446000    1.0170189   -7.4252467     475.8743  0.027424752  0.027696555            3 
 1447000    1.0102372   -7.4376747    476.55289   0.02744488  0.027688724            2 
 1448000    1.0278328   -7.4505859    475.63353  0.027373016  0.027680881            2 
 1449000    1.0009118   -7.4501907    474.55512  0.027292105  0.027673136            3 
 1450000    1.0166406   -7.4656111    476.29784  0.027373439  0.027665382            2 
 1451000    1.0031395   -7.4519451    475.99349  0.027337094  0.027657567            2 
 1452000     1.025753   -7.4430141    475.45431  0.027287322  0.027649772            2 
 1453000    1.0366829   -7.4483391    478.71141  0.027455346  0.027641997            2 
 1454000    1.0151107   -7.4275134    477.64876  0.027375559  0.027634217            2 
 1455000    1.0320398   -7.4568296     477.6021  0.027354072  0.027626396            3 
 1456000    1.0225126   -7.4419476    477.85567  0.027349798  0.027618635            5 
 1457000    1.0033205   -7.4702387    477.08496  0.027286946    0.0276108            1 
 1458000    1.0191435   -7.4407622    479.33252  0.027396692  0.027603017            2 
 1459000    1.0157096    -7.471658    476.43916  0.027212655  0.027594989            2 
 1460000    1.0202013   -7.4422943    478.40283  0.027306098  0.027587036            2 
 1461000    1.0084891   -7.4680768    476.62275  0.027185874  0.027579051            5 
 1462000    1.0263747   -7.4462487     478.4755  0.027272885  0.027571071            2 
 1463000    1.0082393   -7.4018825    480.25342  0.027355515  0.027563268            2 
 1464000    1.0185303   -7.4367569    479.36687  0.027286366  0.027555549            2 
 1465000    1.0172581   -7.3993274     479.7739  0.027290893  0.027547777            2 
 1466000    1.0072824   -7.4522346    480.07065  0.027289146  0.027540071            2 
 1467000    1.0006582   -7.4382064    481.06002  0.027326745  0.027532324            1 
 1468000     1.002514   -7.4648316    480.54692  0.027279003  0.027524747            2 
 1469000    1.0021574     -7.46716    481.61753  0.027321167  0.027516991            1 
 1470000    1.0004603   -7.4895289    480.76459  0.027254229   0.02750945            1 
 1471000    1.0455675   -7.4840142     481.7492   0.02729148  0.027501823            2 
 1472000    1.0086164   -7.4396436    480.65521  0.027211006  0.027494159            1 
 1473000   0.99424607   -7.4347923    482.56391  0.027300515   0.02748652            3 
 1474000    1.0021392   -7.4710405    481.81074  0.027239413  0.027478932            2 
 1475000    1.0160762   -7.4655249    481.40431  0.027197984  0.027471357            2 
 1476000    1.0004463   -7.4046535    482.34913    0.0272329  0.027463864            1 
 1477000    1.0087546   -7.4745581    481.76348  0.027181419  0.027456391            1 
 1478000    1.0033742   -7.4572645    482.91943  0.027228204  0.027448918            2 
 1479000    1.0222185   -7.4386053    483.26194  0.027229093  0.027441492            5 
 1480000   0.99154994   -7.4561017    483.38259  0.027217488  0.027434074            2 
 1481000    1.0056884   -7.4582728    483.83445  0.027224536  0.027426652            1 
 1482000    1.0205155   -7.4376302    482.60401  0.027136978  0.027419316            1 
 1483000    1.0098108    -7.466778    484.66698  0.027234602  0.027411975            1 
 1484000   0.99388672   -7.4857191     482.6099  0.027100736   0.02740448            3 
 1485000    1.0106244   -7.4226658       484.94  0.027213243  0.027397039            1 
 1486000    1.0054217   -7.4481344    484.90235  0.027192819  0.027389695            2 
 1487000    1.0067833   -7.4588714    484.74724  0.027165839  0.027382358            1 
 1488000    1.0103526   -7.4424514    485.62141   0.02719654  0.027374934            4 
 1489000     1.028062    -7.431122    486.03262  0.027201288  0.027367531            2 
 1490000    1.0104667   -7.4374593    486.32198  0.027199216  0.027360214            1 
 1491000    1.0072405   -7.4365817    487.32759  0.027237178  0.027352764            1 
 1492000     1.014431   -7.4757074    486.28559  0.027160723  0.027345367            1 
 1493000    1.0136065   -7.4176721    485.50227  0.027098809  0.027337931            1 
 1494000   0.99703549    -7.466189     485.6984  0.027091611   0.02733058            2 
 1495000    1.0092072   -7.4623103    486.16838  0.027099687  0.027323131            1 
 1496000    1.0082723   -7.4698472    485.84579  0.027063602   0.02731562            1 
 1497000    1.0169807   -7.4484743    485.84278  0.027045356  0.027308089            2 
 1498000     1.008471   -7.4729465     487.5036  0.027119693  0.027300635            2 
 1499000     1.009991   -7.4617091    487.03688  0.027075655  0.027293092            3 
 1500000    1.0211939    -7.498533    486.15702  0.027008724  0.027285547            5 
 1501000   0.99578662   -7.4726308    486.54297  0.027012157   0.02727791            1 
 1502000    1.0193682   -7.4622345    487.65771  0.027056021  0.027270359            1 
 1503000    1.0263304   -7.4544267    487.15167  0.027009962  0.027262749            3 
 1504000    0.9960504   -7.4718524    488.69973  0.027077778  0.027255249            3 
 1505000    1.0063657   -7.4381753    489.55428  0.027107103  0.027247721            2 
 1506000    1.0063539    -7.449231    486.21721  0.026904449   0.02724012            1 
 1507000   0.98103465   -7.5054144    487.89612  0.026979436  0.027232474            2 
 1508000     1.029324   -7.4840229     487.1075  0.026917966  0.027224839            1 
 1509000   0.99932899   -7.4386959    489.10295  0.027010324  0.027217186            1 
 1510000    1.0196756   -7.4809046    489.92139  0.027037604  0.027209667            2 
 1511000    1.0092474   -7.4703342    490.56563  0.027055241  0.027202264            3 
 1512000    1.0255188    -7.491328     488.7073  0.026934926  0.027194811            2 
 1513000    1.0315992   -7.4940331    489.99701  0.026988159  0.027187369            1 
 1514000    1.0106329   -7.4976957    488.95078  0.026912747   0.02717985            1 
 1515000     1.010919   -7.5057859    490.10742  0.026958604  0.027172262            5 
 1516000    1.0453016   -7.4517366    491.05446  0.026992879  0.027164756            2 
 1517000   0.99033843   -7.4981071    489.76268  0.026904124   0.02715725            2 
 1518000    0.9759418    -7.480454    491.04797  0.026956959  0.027149594            1 
 1519000    1.0103214   -7.4290069    490.46254  0.026907096  0.027142064            3 
 1520000    1.0066083   -7.4542742    491.73593  0.026959207   0.02713476            1 
 1521000   0.99365687   -7.4626107     490.8393  0.026892357  0.027127197            3 
 1522000    1.0083837   -7.4364077    492.21784  0.026950166  0.027119583            2 
 1523000    1.0067789   -7.4642003    490.12619  0.026818023  0.027112031            2 
 1524000    1.0039652   -7.5164806    489.99732  0.026793379  0.027104324            5 
 1525000    1.0103191   -7.4719403     490.2887  0.026791732   0.02709661            2 
 1526000    1.0121744   -7.4934984    491.47596  0.026839011  0.027088932            1 
 1527000   0.99505211   -7.4299171      492.852  0.026896529   0.02708134            3 
 1528000    1.0160021   -7.5129452    491.77992  0.026820458  0.027073731            2 
 1529000   0.99868734   -7.4755288    491.65238  0.026795966  0.027066148            1 
 1530000    1.0013125   -7.4907425    493.82737  0.026896916  0.027058673            2 
 1531000   0.97206284   -7.4987699    492.73316  0.026819789  0.027051132            3 
 1532000    1.0028081   -7.4817033    493.20025   0.02682769  0.027043528            2 
 1533000    1.0129027   -7.4497008    493.81735  0.026843735  0.027035927            5 
 1534000    1.0097769   -7.4803272    492.29221  0.026743384  0.027028443            2 
 1535000   0.99869259   -7.4914595    493.57576  0.026795644   0.02702089            2 
 1536000    1.0162287   -7.4628927    493.27654  0.026761965   0.02701332            1 
 1537000    1.0145584   -7.4718141    493.95462  0.026781317  0.027005759            3 
 1538000     1.028223   -7.4817844     494.2051  0.026777476  0.026998047            2 
 1539000    1.0051569   -7.5047396    494.37297  0.026769167  0.026990388            5 
 1540000   0.99715007   -7.4501213    494.85424  0.026777827  0.026982782            2 
 1541000    1.0050569    -7.477457    494.54603  0.026743782    0.0269753            2 
 1542000    1.0126673   -7.4869336    494.71265  0.026735444  0.026967735            1 
 1543000    0.9973793   -7.4872212     497.1212  0.026848196  0.026960096            1 
 1544000   0.98843032   -7.4698738    494.69605  0.026699916  0.026952501            2 
 1545000    1.0175668   -7.4430318    495.48083  0.026724964  0.026944943            1 
 1546000    1.0112925   -7.4652649    495.09067  0.026686647  0.026937388            5 
 1547000    0.9923258   -7.4907172    496.27991  0.026733458  0.026929839            2 
 1548000    1.0173762   -7.4638647    495.94986  0.026698421  0.026922322            1 
 1549000    1.0010171   -7.4898353    497.07243  0.026741577  0.026914699            1 
 1550000    1.0017241   -7.4589013    497.29377  0.026736224  0.026907152            2 
 1551000   0.99985544   -7.4390505    495.82957  0.026640317  0.026899797            2 
 1552000    1.0003159   -7.4960724    496.75115  0.026672635  0.026892275            3 
 1553000    1.0060003    -7.534725    496.18128  0.026624881  0.026884711            1 
 1554000   0.97458986    -7.523647    497.99882  0.026705213  0.026877073            2 
 1555000    1.0084271   -7.4936552    497.85759  0.026680471   0.02686951            1 
 1556000   0.99584221   -7.4581323    499.36465  0.026744037  0.026862076            1 
 1557000    1.0213112   -7.4403137    499.47897  0.026732979  0.026854701            3 
 1558000   0.99781269   -7.4777266    499.47024  0.026715353  0.026847476            3 
 1559000    1.0114848   -7.4845528    500.31018  0.026743114  0.026840303            2 
 1560000    1.0160806   -7.5174518    499.60852  0.026688489  0.026833115            1 
 1561000   0.99416678   -7.5177366    499.98454  0.026691466  0.026825956            1 
 1562000    1.0021899   -7.4679241    500.76508   0.02671602   0.02681871            1 
 1563000    1.0000548   -7.5008804    499.42477  0.026627467  0.026811365            1 
 1564000     1.010976   -7.5090764    499.28732  0.026603118  0.026804086            1 
 1565000    1.0033707   -7.4852392    501.83342  0.026721694  0.026796785            2 
 1566000   0.99465751   -7.4909613     500.0237  0.026608328   0.02678963            3 
 1567000   0.99447013   -7.4877543    500.80638  0.026632971  0.026782313            3 
 1568000   0.99433837   -7.5013091    501.16016  0.026634788  0.026775027            2 
 1569000   0.99245003   -7.4514243    501.67389  0.026645097  0.026767732            2 
 1570000    1.0175959   -7.4933887    501.07673  0.026596429  0.026760411            1 
 1571000    1.0114136   -7.5303342    501.97842   0.02662733   0.02675313            3 
 1572000   0.97195582   -7.5058761    501.11799  0.026564779  0.026745834            4 
 1573000   0.99750424   -7.4714825    501.43967  0.026564933  0.026738745            2 
 1574000    1.0130465   -7.4678106    503.07065  0.026634405  0.026731625            1 
 1575000    1.0104734   -7.5060417    503.70006  0.026650797  0.026724522            3 
 1576000    1.0220879   -7.4540038    504.58221  0.026680531  0.026717432            1 
 1577000   0.98910068   -7.5219659    503.81243  0.026622935  0.026710352            1 
 1578000   0.99074877   -7.4983063     503.4448   0.02658665  0.026703166            1 
 1579000    1.0071372   -7.4785847    503.42824  0.026568938  0.026695848            1 
 1580000    1.0040793    -7.483503    504.62149  0.026615058  0.026688637            2 
 1581000    1.0147385   -7.4944494    504.02791  0.026566936  0.026681464            1 
 1582000    1.0015165   -7.4783741    505.19993   0.02661188  0.026674319            3 
 1583000    1.0126511   -7.4550184     505.0588   0.02658764  0.026667401            2 
 1584000   0.99945614   -7.4956051    505.66498  0.026602745  0.026660466            3 
 1585000   0.99901532   -7.5228762     505.0036  0.026551188  0.026653458            1 
 1586000    1.0210793   -7.4711844    506.61642   0.02661919  0.026646479            2 
 1587000    1.0057121   -7.5182371    506.42475  0.026592352  0.026639502            2 
 1588000   0.99893026   -7.4583717    506.09688  0.026558401  0.026632593            2 
 1589000    1.0041861   -7.5013019      505.716  0.026521712  0.026625591            1 
 1590000   0.98650992   -7.4707015    507.13261  0.026579277  0.026618572            1 
 1591000     1.014592   -7.4434221     507.1325  0.026562566  0.026611626            3 
 1592000   0.99216303   -7.4902872     507.6556  0.026573262  0.026604648            1 
 1593000    0.9927191   -7.4950472    508.04618  0.026577013  0.026597595            2 
 1594000   0.99953123   -7.4789923     506.7958  0.026494971  0.026590566            1 
 1595000     1.013406   -7.4886893    509.09177  0.026598316  0.026583591            2 
 1596000   0.99238628   -7.4951028    507.09307  0.026477291  0.026576518            3 
 1597000    1.0061379   -7.5266605    507.43378   0.02647849  0.026569433            2 
 1598000     1.022311   -7.4802232    508.22196  0.026503023  0.026562436            4 
 1599000   0.97313647   -7.4875563    508.30299  0.026490671   0.02655553            2 
 1600000   0.99769745   -7.4871741    509.81129  0.026552671   0.02654853            2 
 1601000   0.98619469   -7.5068853    509.15681   0.02650202  0.026541607            1 
 1602000   0.98863426   -7.4639677    508.29628  0.026440714  0.026534634            2 
 1603000   0.98564931   -7.5263413    508.67122  0.026443711  0.026527667            1 
 1604000    1.0134445   -7.5210951    509.46513  0.026468471   0.02652075            1 
 1605000   0.98627037   -7.4735527    510.61697  0.026511785  0.026513819            3 
 1606000    1.0063846   -7.5083082    510.71266  0.026500242  0.026506951            2 
 1607000   0.99235813   -7.4947921    510.10505  0.026452243       0.0265            3 
 1608000    1.0057685   -7.4692707    510.03882   0.02643236  0.026493142            1 
 1609000   0.98989998   -7.4745204    511.04819   0.02646821  0.026486248            1 
 1610000   0.99630774    -7.531889    510.87501  0.026442806    0.0264793            2 
 1611000   0.99485637   -7.5235667    510.91567  0.026428495  0.026472228            1 
 1612000    1.0193907   -7.4798029    511.01829  0.026417406  0.026465419            3 
 1613000     1.009251   -7.5103885    511.47659  0.026424705  0.026458548            2 
 1614000   0.99694934   -7.5066693    511.43623  0.026406249  0.026451644            1 
 1615000   0.98480761   -7.4831319    512.52774   0.02644622  0.026444756            1 
 1616000   0.98557115   -7.5053837    513.38469  0.026474045  0.026438011            5 
 1617000   0.99191398   -7.5143872      513.333  0.026455009  0.026431214            1 
 1618000   0.97800739    -7.523051    512.14389  0.026377415  0.026424468            2 
 1619000    0.9859932   -7.4584552    515.37186  0.026527273  0.026417731            2 
 1620000    1.0098514   -7.5161162    512.61401  0.026369033  0.026410993            2 
 1621000   0.98833856   -7.5198707     513.2317  0.026384521  0.026404198            2 
 1622000    1.0119521   -7.4969825    514.33877  0.026425132  0.026397359            3 
 1623000   0.97555033    -7.506314    514.93374  0.026439399  0.026390584            4 
 1624000   0.98677542   -7.5297529    514.41627  0.026396566   0.02638375            1 
 1625000   0.97654175   -7.4737841    514.60675   0.02639009  0.026376997            2 
 1626000   0.96606748   -7.5120255    514.60849  0.026373949  0.026370306            3 
 1627000     1.017808   -7.5026057    514.50728  0.026352555  0.026363685            2 
 1628000   0.99931574   -7.4928163    515.23268  0.026373499  0.026357133            1 
 1629000   0.99178357   -7.4912612    515.92852  0.026392906  0.026350586            1 
 1630000   0.97760919   -7.5043422    517.06301  0.026434714  0.026344065            1 
 1631000   0.99466014   -7.5064834    517.93587  0.026463104  0.026337465            2 
 1632000   0.98728416   -7.5279749    517.54344   0.02642685  0.026330934            1 
 1633000   0.97577592   -7.5423117    516.02008  0.026332929  0.026324284            1 
 1634000      1.00683   -7.4991803    517.39728   0.02638705  0.026317683            2 
 1635000   0.98143619    -7.524928    516.38839   0.02631949  0.026311086            1 
 1636000   0.99258126   -7.5393202     516.5985  0.026314104  0.026304606            3 
 1637000   0.98244994   -7.5209022    516.71995  0.026304212  0.026297981            6 
 1638000    1.0026004   -7.5097488    518.42437  0.026374866   0.02629136            2 
 1639000    1.0170638   -7.5062038    516.98955  0.026285822  0.026284735            2 
 1640000   0.96249475   -7.5271319    517.52054  0.026296775  0.026278096            1 
 1641000   0.99296443   -7.4949105    517.10194  0.026259493  0.026271475            2 
 1642000   0.98295527   -7.4824488    519.55423  0.026367957  0.026264856            3 
 1643000   0.98781247   -7.5292037    516.91289  0.026217939  0.026258182            2 
 1644000   0.98674463   -7.5553264    516.62507  0.026187402  0.026251456            1 
 1645000   0.97691622   -7.5625559    516.85348  0.026183054  0.026244706            2 
 1646000   0.96199418   -7.5302466    517.86603   0.02621841  0.026237925            2 
 1647000   0.99623453   -7.4901344    520.67748  0.026344742  0.026231215            1 
 1648000   0.97595284   -7.5167769     519.7232  0.026280502  0.026224538            1 
 1649000   0.97776786   -7.4968402    517.94099  0.026174499  0.026217825            2 
 1650000    1.0032158   -7.5225053    519.59286  0.026242064  0.026211124            2 
 1651000   0.99485535   -7.5318421     518.4108  0.026166505  0.026204318            2 
 1652000    0.9921446   -7.5123651    518.39796  0.026150018  0.026197455            1 
 1653000   0.98022175   -7.5559267    518.39657  0.026134128  0.026190605            2 
 1654000   0.99517169    -7.520283    519.52579  0.026175221  0.026183726            3 
 1655000    1.0059536   -7.5541323    518.88842  0.026127312  0.026176905            1 
 1656000   0.97705287    -7.531953    520.48278  0.026191766  0.026170055            2 
 1657000   0.96374185   -7.4956589     520.2671  0.026165113  0.026163222            3 
 1658000   0.99729272   -7.5393467    521.22645   0.02619755   0.02615637            1 
 1659000   0.98912306   -7.5239068    521.22087  0.026181478  0.026149547            2 
 1660000    0.9739587   -7.5480406     519.6036  0.026084518  0.026142686            2 
 1661000    1.0070913   -7.5648457     519.9242  0.026084899  0.026135796            2 
 1662000   0.99999037   -7.5197812    520.36806  0.026091459  0.026128927            1 
 1663000   0.98250067   -7.5080169    520.93092  0.026103975  0.026122022            5 
 1664000   0.98848632   -7.4986381    521.95845  0.026139746  0.026115204            2 
 1665000   0.99919815   -7.5203484    520.63011  0.026057563  0.026108346            5 
 1666000   0.98733329   -7.5324281    521.92077  0.026106481  0.026101458            2 
 1667000   0.99182676   -7.5283816    520.54096  0.026021844  0.026094588            4 
 1668000   0.98551413   -7.5305248    520.96406  0.026027381  0.026087608            1 
 1669000   0.97208068   -7.5360116    520.94155  0.026010663  0.026080627            2 
 1670000    0.9962354   -7.5276277    521.80178  0.026038013  0.026073818            1 
 1671000   0.96960428   -7.5206022    521.54222  0.026009487  0.026066971            1 
 1672000    0.9795894   -7.4998892    523.59299  0.026096142  0.026060272            2 
 1673000   0.98805101   -7.5074979    523.61194  0.026081487  0.026053516            2 
 1674000   0.98103622   -7.5121845    524.11711  0.026091055  0.026046763            3 
 1675000    1.0140605    -7.528901    523.52459  0.026045999  0.026040025            1 
 1676000   0.98082547   -7.5461813    523.69654  0.026039009  0.026033254            3 
 1677000   0.98800812   -7.5189681    521.94602  0.025936495  0.026026495            1 
 1678000    1.0292591   -7.5505135    524.30372  0.026038127  0.026019708            2 
 1679000   0.99371664   -7.5362033    523.58398  0.025986896  0.026012841            2 
 1680000   0.98354032   -7.5863512    521.32209  0.025859231  0.026005799            2 
 1681000   0.98027857   -7.5131574    524.47309  0.026000054   0.02599886            1 
 1682000   0.95745599   -7.5170564    524.63399  0.025992568  0.025992032            1 
 1683000   0.98846653   -7.5357438    524.77332  0.025984023  0.025985131            1 
 1684000   0.97350272   -7.4885251    523.68219  0.025914598  0.025978276            3 
 1685000   0.98115664   -7.5047619     524.6673  0.025947937  0.025971379            4 
 1686000   0.97357527   -7.5379489    523.20138  0.025860092  0.025964401            1 
 1687000   0.96263075   -7.5460044      523.735  0.025871122  0.025957395            2 
 1688000   0.97693732   -7.5323458    524.75744  0.025906272  0.025950371            1 
 1689000   0.97293327   -7.5145669    524.42743  0.025874651  0.025943499            1 
 1690000   0.98812286   -7.5390327    523.97079  0.025836824  0.025936575            1 
 1691000   0.98983629   -7.5431111    524.03134  0.025824529   0.02592951            1 
 1692000   0.98464013   -7.5543251    523.86429  0.025801039  0.025922514            4 
 1693000   0.97275512   -7.5533361     526.0434  0.025893059  0.025915601            2 
 1694000    0.9622166   -7.5656027    525.27325  0.025839888  0.025908685            5 
 1695000   0.98471322   -7.5132519    526.09027  0.025864812  0.025901741            3 
 1696000    1.0013523   -7.5021192    526.60986  0.025875092  0.025894806            1 
 1697000   0.97757134   -7.5116887    526.18983  0.025839218    0.0258879            1 
 1698000   0.97662106   -7.5364434    525.95885  0.025812664  0.025881057            1 
 1699000   0.98451986   -7.5411669    526.93967  0.025845579  0.025874046            3 
 1700000   0.96825632   -7.5602646    525.71652  0.025770417  0.025867088            3 
 1701000     1.013918   -7.5466142    526.74362  0.025805586  0.025859921            2 
 1702000   0.97612261   -7.5438543    526.38259  0.025772747  0.025852973            3 
 1703000    1.0040486   -7.5000548    526.69935  0.025773113  0.025845882            1 
 1704000   0.97258483   -7.4901997    527.89851  0.025816633  0.025838953            1 
 1705000   0.97127358    -7.542436    526.60937  0.025738483   0.02583187            4 
 1706000   0.95997372   -7.5402662    527.60241  0.025771904  0.025824794            2 
 1707000   0.97988371   -7.5494278    527.06346  0.025730495  0.025817698            1 
 1708000   0.97303561   -7.5802222    525.91365  0.025659331  0.025810477            1 
 1709000   0.98880078   -7.5600802    527.05001  0.025699727  0.025803251            5 
 1710000   0.97821679     -7.57222    525.90432  0.025628866  0.025796157            2 
 1711000   0.96806668   -7.5388186     527.5509  0.025694082  0.025789069            2 
 1712000   0.98886314   -7.5227552    529.05853  0.025752459  0.025782068            5 
 1713000   0.96791143   -7.5333545    528.62879   0.02571652  0.025775015            1 
 1714000   0.98016694   -7.5623984     527.5984   0.02565142   0.02576791            2 
 1715000   0.98806992   -7.5269563    528.84722  0.025697144  0.025760845            1 
 1716000   0.97776604   -7.5271107    529.62944  0.025720155  0.025753902            1 
 1717000   0.97954722   -7.5950814    527.85503  0.025619056  0.025746724            2 
 1718000   0.99162848   -7.5118217    528.87753  0.025653741  0.025739693            3 
 1719000   0.98214908   -7.5562775    529.14351  0.025651712  0.025732678            2 
 1720000   0.98769923   -7.5541913    529.69688  0.025663609  0.025725634            2 
 1721000   0.98767132   -7.5405729    530.05946  0.025666253  0.025718688            1 
 1722000   0.97539698   -7.5300372     530.8775  0.025690936  0.025711658            3 
 1723000   0.97143778   -7.5599267    529.79361  0.025623603  0.025704625            2 
 1724000   0.98170316   -7.5387965    530.84807   0.02565971   0.02569754            9 
 1725000   0.97225048   -7.5112308    530.76831  0.025640981  0.025690538            3 
 1726000   0.98451221   -7.5577079    531.30836    0.0256522  0.025683615            2 
 1727000   0.98979332   -7.5442582    531.40963  0.025642233  0.025676646            2 
 1728000   0.96193122   -7.5742506    531.31856  0.025623002  0.025669639            5 
 1729000   0.95247079   -7.5441851    531.20081  0.025602507  0.025662628            1 
 1730000   0.98487198   -7.5699335     530.8501  0.025570814  0.025655651            2 
 1731000   0.97848563   -7.5365969    532.73063  0.025646574  0.025648724            2 
 1732000   0.97180523   -7.5348765    533.27702  0.025658055  0.025641822            4 
 1733000   0.98094298   -7.5663069    531.35662  0.025550905  0.025634939            1 
 1734000   0.97292137   -7.5647032    532.30067  0.025581539  0.025627972            2 
 1735000   0.95654549   -7.5742154    531.84979  0.025545139  0.025620944            1 
 1736000     0.986128   -7.5208515    532.35824  0.025554831  0.025613943            1 
 1737000   0.93713877   -7.5035855    534.26992  0.025631833  0.025607031            1 
 1738000   0.95941508   -7.5802367    533.17869  0.025564763  0.025600133            2 
 1739000   0.98083565   -7.5563123    532.57203  0.025520991  0.025593103            2 
 1740000   0.97539267   -7.5610578    533.36218  0.025544166  0.025586078            2 
 1741000   0.97154391   -7.5374869    532.97395  0.025510911  0.025579181            2 
 1742000   0.98190798   -7.5818653    533.68461  0.025530263  0.025572124            1 
 1743000   0.96307419    -7.572847    533.95632  0.025528606  0.025565014            1 
 1744000   0.98912094   -7.5450757    533.09309   0.02547272  0.025557933            2 
 1745000   0.99437711   -7.5533489    535.69113  0.025582193  0.025550914            2 
 1746000    0.9674079   -7.5613501     534.3102  0.025501632  0.025543986            2 
 1747000   0.95838512   -7.5578233    534.29169  0.025486152  0.025537108            2 
 1748000   0.96737654   -7.5501423    534.38649  0.025476091  0.025530171            3 
 1749000   0.96761874   -7.5455807    535.69985  0.025524102  0.025523176            4 
 1750000   0.98580617   -7.5389178     534.9669  0.025474614  0.025516248            3 
 1751000   0.98655803   -7.6072976    533.09617  0.025371034  0.025509227            1 
 1752000   0.99146181   -7.5924532    535.16386  0.025454902  0.025502151            2 
 1753000    0.9674505   -7.5942117    534.97513  0.025431409  0.025495153            2 
 1754000   0.96445702   -7.6026181    533.13535  0.025329502  0.025488129            1 
 1755000   0.95477378    -7.537287    536.87354  0.025492571   0.02548115            3 
 1756000   0.98334206   -7.5835635    535.95262   0.02543435  0.025474161            4 
 1757000   0.95646718   -7.5710668    534.59253  0.025355366  0.025467098            1 
 1758000   0.96696959   -7.5396171    535.61913  0.025389606  0.025460009            2 
 1759000   0.96590475   -7.5542541    535.45572   0.02536743  0.025452891            4 
 1760000   0.97201445    -7.583304    535.56381  0.025358135  0.025445782            2 
 1761000   0.96457061   -7.5718129    535.51258  0.025341311  0.025438614            2 
 1762000   0.98010899   -7.5548008    535.25917  0.025314944  0.025431467            2 
 1763000   0.94243204   -7.6164216    535.60583   0.02531697  0.025424276            1 
 1764000   0.98059792   -7.6111275    535.74133   0.02530902  0.025417165            1 
 1765000    0.9636949   -7.5648122    536.59249  0.025334867  0.025410095            3 
 1766000   0.96421594   -7.5564873    535.94467  0.025289952  0.025403035            5 
 1767000   0.94848261   -7.5785928    536.32057  0.025293368  0.025395902            2 
 1768000    0.9821911   -7.5739803    537.45897  0.025332719  0.025388734            2 
 1769000   0.96465579    -7.599678    535.72201  0.025236575   0.02538151            3 
 1770000   0.95634538   -7.5730294    535.64134  0.025218519  0.025374298            3 
 1771000   0.95887683   -7.5588178    536.28119  0.025234387  0.025367099            2 
 1772000   0.95909951   -7.5719271    536.04286  0.025208938  0.025359861            2 
 1773000   0.99237996    -7.578512    537.40011  0.025258512  0.025352588            1 
 1774000    0.9528972   -7.5936649    537.08124  0.025229295  0.025345307            2 
 1775000   0.97311017   -7.5551221    537.18151  0.025219789  0.025338012            1 
 1776000   0.95766438     -7.57345    536.41107  0.025169438  0.025330741            3 
 1777000   0.96796451   -7.5651383    535.35173  0.025105596  0.025323451            3 
 1778000   0.97147904   -7.5757848    536.99613  0.025168548  0.025316142            3 
 1779000   0.94961086   -7.5580336    537.88023  0.025195814  0.025308807            1 
 1780000   0.96787483   -7.5532927    536.96277  0.025138707  0.025301571            5 
 1781000    0.9778928   -7.5452685    537.56549  0.025152793  0.025294315            1 
 1782000   0.94589981   -7.5772565     538.2226  0.025169407  0.025287098            1 
 1783000   0.96736336   -7.5536421    537.55222  0.025123959  0.025279794            1 
 1784000   0.99631694   -7.5338474     537.9633  0.025129078  0.025272501            1 
 1785000   0.96118973   -7.5908501    538.63412  0.025146317  0.025265296            1 
 1786000   0.95277195   -7.5975013    537.57583  0.025082859  0.025258045            2 
 1787000    0.9645042   -7.6010966    538.75905     0.025124  0.025250842            2 
 1788000   0.94233809   -7.5949862    540.22516  0.025178279  0.025243693            2 
 1789000   0.97983977   -7.5417314    541.25224  0.025212048  0.025236547            4 
 1790000   0.97469593   -7.5698699    540.19147  0.025148579  0.025229404            3 
 1791000   0.95988712   -7.5681993    539.38664  0.025097089   0.02522226            1 
 1792000   0.94607111    -7.573432    540.52077  0.025135825  0.025215064            1 
 1793000   0.94176675   -7.5724153    539.94374  0.025094987  0.025207873            3 
 1794000   0.96709629   -7.6040013    539.94674  0.025081138  0.025200703            1 
 1795000   0.96496745   -7.5705759    540.13865  0.025076075  0.025193528            1 
 1796000    0.9647815   -7.5742866    541.01859  0.025102941  0.025186399            3 
 1797000   0.96991446   -7.5939602    541.27668  0.025100941  0.025179279            1 
 1798000    0.9788125   -7.6031559    539.96597  0.025026231   0.02517215            1 
 1799000   0.94590418   -7.5583397    540.64394  0.025043725  0.025165003            1 
 1800000   0.94553752   -7.5375376    543.36803  0.025155927   0.02515793            1 
 1801000   0.96419579   -7.5920533     541.6702    0.0250634  0.025150992            3 
 1802000   0.93547679   -7.5447042    543.35435  0.025127374  0.025144051            1 
 1803000   0.97494643   -7.5650024    543.06716  0.025100165  0.025137174            4 
 1804000   0.97342712   -7.5673692    543.76491  0.025118482  0.025130263            2 
 1805000   0.95132798   -7.5691022    542.79183  0.025059641  0.025123371            2 
 1806000   0.96660215   -7.5994388     543.6924   0.02508732  0.025116397            1 
 1807000   0.96676322   -7.5776755    543.88002  0.025082089  0.025109455            2 
 1808000   0.96505049   -7.5867854    544.77168  0.025109314  0.025102534            2 
 1809000   0.95609947   -7.5886537      543.552  0.025039248  0.025095559            2 
 1810000   0.99326081   -7.5934247    544.56673  0.025072133   0.02508864            2 
 1811000   0.95548662   -7.5704567    544.17278  0.025040161   0.02508178            1 
 1812000   0.95785347   -7.5534192    546.55785  0.025136031  0.025074909            2 
 1813000   0.98313697   -7.5654698    544.30903  0.025018801   0.02506804            1 
 1814000   0.97334507   -7.5934318    543.76835  0.024980171  0.025061122            2 
 1815000   0.96387996   -7.5679115    546.08463  0.025072756  0.025054158            2 
 1816000   0.98138056   -7.6038319    544.02884  0.024964613  0.025047214            2 
 1817000     0.961271   -7.6101978    544.41123  0.024968411  0.025040276            2 
 1818000   0.98730328   -7.5567416    546.12491  0.025033229  0.025033259            1 
 1819000   0.96175539   -7.6072269    544.26259  0.024934148  0.025026308            1 
 1820000    0.9806326   -7.5661654    544.06575  0.024911435  0.025019225            2 
 1821000   0.95047408   -7.5971122    544.54805  0.024919827  0.025012099            2 
 1822000   0.97347785   -7.5621798    545.37363  0.024943909  0.025004948            1 
 1823000   0.94228714   -7.5639646    546.45437  0.024979629   0.02499781            1 
 1824000    0.9575558   -7.5619081    546.14327  0.024951721  0.024990755            1 
 1825000   0.96149837   -7.5784735    545.53277  0.024910172  0.024983767            2 
 1826000   0.96623849   -7.5948336    545.82706  0.024909961   0.02497671            2 
 1827000    0.9584009    -7.583602    545.22899  0.024869047  0.024969763            1 
 1828000   0.95722626    -7.563248    547.85501  0.024975156  0.024962763            1 
 1829000   0.96797858   -7.5998292     544.4986  0.024808575  0.024955777            3 
 1830000   0.96747568   -7.5595417    545.68116  0.024848869  0.024948728            2 
 1831000   0.95275646   -7.5868865    547.70416  0.024927369  0.024941788            4 
 1832000   0.96003104   -7.6234882    546.76397  0.024870996   0.02493486            1 
 1833000    0.9328597   -7.5945096    545.89267  0.024817816  0.024927806            6 
 1834000   0.96747785   -7.6074776    547.47758  0.024876299  0.024920753            3 
 1835000   0.94128507   -7.6062462    546.10689  0.024800494  0.024913659            3 
 1836000   0.95432005   -7.5813672    547.17037  0.024835256  0.024906572            3 
 1837000   0.96875961   -7.5930635    547.89127   0.02485444  0.024899558            5 
 1838000   0.97714352   -7.5780836    548.81818  0.024882943  0.024892538            2 
 1839000   0.96366579   -7.5722511    548.97938  0.024876716   0.02488564            4 
 1840000   0.95334895   -7.6307388    546.33825   0.02474358  0.024878643            2 
 1841000   0.95103366    -7.586461    549.96952   0.02489451  0.024871772            2 
 1842000   0.93886345   -7.5697126    549.39553  0.024855028  0.024864863            1 
 1843000   0.93264539   -7.5669996     550.0084  0.024869253  0.024857991            2 
 1844000   0.94417807    -7.585318    549.21503  0.024819913   0.02485105            2 
 1845000   0.95523009   -7.5595906    549.14942  0.024803497  0.024844104            1 
 1846000   0.96309982   -7.6134759    549.85999  0.024822138  0.024837235            4 
 1847000    0.9637534   -7.5815672    550.34982  0.024830799   0.02483027            2 
 1848000    0.9651489   -7.5888241    549.93815  0.024798798  0.024823279            1 
 1849000   0.95281375   -7.6141487    549.08249  0.024746822  0.024816352            3 
 1850000   0.92825805   -7.5939561    550.12549  0.024780427  0.024809501            2 
 1851000   0.95561796   -7.6343731    550.23635  0.024772031  0.024802555            6 
 1852000   0.95748244   -7.5865258    551.84529  0.024831051  0.024795658            1 
 1853000   0.97860336   -7.5471981    552.03312  0.024826098   0.02478871            2 
 1854000   0.95011874   -7.6178269    549.28122  0.024689016  0.024781743            1 
 1855000   0.96223197    -7.592157    550.28474  0.024720788  0.024774748            2 
 1856000   0.95772969   -7.5999416    549.23315  0.024660253  0.024767725            2 
 1857000   0.95009426   -7.5774803    551.59756  0.024753077  0.024760754            1 
 1858000   0.95813057    -7.597528    550.02512  0.024669229  0.024753718            4 
 1859000    0.9384147   -7.6062844     550.9271  0.024696392  0.024746616            1 
 1860000   0.95866974   -7.6035458    551.37594  0.024703223  0.024739592            3 
 1861000   0.95980847   -7.5976468    551.31837  0.024687371  0.024732569            1 
 1862000   0.96643126   -7.6057519    550.11405  0.024620213  0.024725522            4 
 1863000   0.94918765   -7.5907279    551.52462  0.024670094   0.02471846            4 
 1864000   0.93974559   -7.5980488    551.34104  0.024648651  0.024711392            1 
 1865000   0.96380954   -7.6042877    552.28405  0.024677571  0.024704392            1 
 1866000   0.94023863   -7.6145706    552.05397  0.024654071  0.024697357            1 
 1867000   0.94521082   -7.5662903    552.63922  0.024666989  0.024690454            1 
 1868000   0.96436253   -7.6292895    552.50722  0.024647895  0.024683471            1 
 1869000   0.93793585   -7.6006263    552.32059  0.024626386  0.024676501            3 
 1870000   0.93788662   -7.5744895    553.68773  0.024674141  0.024669597            3 
 1871000   0.96372664      -7.6053    551.98081  0.024584928  0.024662667            4 
 1872000   0.95449175   -7.5967556    554.09688  0.024665994  0.024655736            1 
 1873000   0.94428316   -7.5512836    555.48354   0.02471452  0.024648863            2 
 1874000   0.96413942   -7.5748411     553.9103  0.024631372  0.024641914            2 
 1875000   0.96803023   -7.6007622     554.1394  0.024628418  0.024635041            1 
 1876000   0.93790899   -7.6188208    554.17561  0.024616898  0.024628126            2 
 1877000   0.96914907   -7.5785693    552.74576  0.024540302   0.02462115            3 
 1878000   0.93759482   -7.6056352     555.1373  0.024633356  0.024614115            3 
 1879000   0.95174968   -7.6391053    553.91468  0.024566023  0.024607101            1 
 1880000   0.94558293   -7.6060458    555.84767  0.024638638  0.024600078            3 
 1881000   0.96352151   -7.6440714    553.86085  0.024537518  0.024593023            3 
 1882000   0.94437974   -7.6239051    554.68509  0.024560976   0.02458608            4 
 1883000    0.9454334   -7.5863455    555.83737  0.024598928  0.024579131            3 
 1884000   0.93600493    -7.619463    555.54766  0.024573056  0.024572255            1 
 1885000   0.95750178   -7.6156499    554.23564  0.024502018   0.02456537            1 
 1886000   0.96675471   -7.6075621    555.79653  0.024557995  0.024558444            1 
 1887000   0.95500508   -7.5619154    557.50386  0.024620379  0.024551585            3 
 1888000    0.9361497   -7.6178197    555.24227  0.024507516  0.024544656            1 
 1889000   0.96738667   -7.6002819    555.85581  0.024521608  0.024537734            1 
 1890000    0.9663507    -7.590169    555.76181  0.024504489  0.024530823            1 
 1891000   0.94637497   -7.6451501    554.47264  0.024434719   0.02452374            1 
 1892000   0.96129907   -7.6127537    555.98778  0.024488539  0.024516736            3 
 1893000    0.9589923   -7.6317984    555.11617  0.024437232  0.024509786            3 
 1894000   0.96637189   -7.6046123    555.99191  0.024462861  0.024502894            2 
 1895000   0.95529057   -7.5902336    555.86798  0.024444502  0.024496067            1 
 1896000   0.94624347   -7.6312415    557.17956  0.024489256  0.024489246            1 
 1897000   0.93805023   -7.5893002    557.28438  0.024480952  0.024482424            2 
 1898000   0.92442086    -7.614243    557.33354  0.024470212  0.024475644            1 
 1899000   0.95005579   -7.6400754    556.85657  0.024436395  0.024468803            2 
 1900000   0.94715375   -7.6189674    556.74279  0.024418543   0.02446197            1 
 1901000   0.95602573   -7.6191777    558.34964  0.024476137  0.024455107            2 
 1902000   0.93777863   -7.6307586    556.80791   0.02439572  0.024448243            1 
 1903000   0.94907904   -7.6248129    558.45553   0.02445505  0.024441359            1 
 1904000   0.95107707   -7.6190258     558.8097  0.024457707  0.024434477            3 
 1905000   0.94796131   -7.6251973    558.14728  0.024415891  0.024427528            1 
 1906000   0.95367551   -7.6470733    558.89454  0.024435753  0.024420614            3 
 1907000   0.93972225   -7.6101748    559.59728  0.024453648  0.024413709            1 
 1908000   0.96135543   -7.5941634    559.37184  0.024430985  0.024406862            4 
 1909000   0.95313203   -7.6462665    557.59347  0.024340557  0.024400009            2 
 1910000   0.95198461   -7.5995237    559.33662  0.024403867  0.024393141            4 
 1911000   0.92367641   -7.6283922     557.7293  0.024321005  0.024386326            1 
 1912000   0.95218067   -7.6592613    559.44166  0.024382917  0.024379429            1 
 1913000   0.95222014   -7.6235385    559.61901  0.024377897  0.024372494            2 
 1914000   0.96083299   -7.6370855    558.61518  0.024321455  0.024365542            2 
 1915000   0.93925237   -7.5993613    559.20745  0.024334528  0.024358662            2 
 1916000   0.94680693   -7.5824541    560.59408  0.024382136  0.024351844            2 
 1917000   0.95967619   -7.6205402    559.32749  0.024314358  0.024345003            2 
 1918000     0.945113   -7.6717873    559.55665  0.024311638  0.024338092            3 
 1919000   0.92608683   -7.5820968    560.44209  0.024337419  0.024331211            2 
 1920000   0.94844589   -7.6151717     558.3155  0.024232444  0.024324381            2 
 1921000   0.92870491   -7.6539324    560.51612  0.024315292  0.024317475            3 
 1922000   0.92774749   -7.6482883    560.03138  0.024281624  0.024310512            3 
 1923000   0.94454814   -7.6422036     559.9253    0.0242644  0.024303551            1 
 1924000   0.92520158   -7.6544975    559.91055   0.02425115  0.024296624            1 
 1925000   0.97671658   -7.5909537    562.67767  0.024358341  0.024289713            1 
 1926000   0.93179886   -7.6240784    561.59907  0.024299025   0.02428285            2 
 1927000   0.93333379   -7.6289086     560.8344  0.024253347  0.024275988            7 
 1928000   0.92593577   -7.6039731    561.30042   0.02426091  0.024269102            2 
 1929000   0.93237499   -7.6299003    561.45967  0.024255213  0.024262197            2 
 1930000   0.95030436   -7.6572089    560.03256  0.024181026  0.024255247            2 
 1931000   0.96205451    -7.636726    561.12557  0.024215673  0.024248282            1 
 1932000   0.92991534   -7.6743206    561.20881  0.024206729  0.024241341            2 
 1933000   0.95092216   -7.6184518    564.42252  0.024332752  0.024234509            2 
 1934000    0.9388595    -7.653457     560.8268  0.024165236  0.024227639            2 
 1935000   0.95104165   -7.6418912    564.33555  0.024303857   0.02422074            3 
 1936000   0.96106493   -7.6301535    563.00546  0.024234051  0.024213847            1 
 1937000   0.93883977   -7.6507985    560.97221  0.024134065  0.024206854            4 
 1938000   0.92527653   -7.6238139    562.43064  0.024184324   0.02419983            1 
 1939000   0.93430278   -7.6682159    560.32762  0.024081469  0.024192852            2 
 1940000   0.92295056   -7.6631342    563.15697  0.024190591  0.024185871            1 
 1941000   0.94990885   -7.6566705    560.89207  0.024080889   0.02417892            2 
 1942000    0.9505836   -7.5862506    564.76205  0.024234554  0.024171936            3 
 1943000   0.93579005   -7.6494048    563.25592  0.024157485  0.024165006            2 
 1944000   0.95844557   -7.6323528    560.69002  0.024035066  0.024158004            1 
 1945000   0.95515083   -7.6200773    563.48974  0.024142662  0.024150955            2 
 1946000   0.94799258   -7.6702271    561.40248  0.024040873  0.024143913            2 
 1947000   0.94692812   -7.6348238    562.99239  0.024096576  0.024136856            3 
 1948000    0.9334772   -7.6431512    563.55097  0.024108101  0.024129877            1 
 1949000   0.95803164    -7.654876    563.68065  0.024101276  0.024122862            1 
 1950000   0.93228522   -7.6376482    564.19215  0.024110776  0.024115879            1 
 1951000   0.95729747   -7.6296395    563.16111  0.024054378  0.024108893            1 
 1952000   0.93386353    -7.653987    562.54168  0.024015611  0.024101821            2 
 1953000    0.9242591   -7.6378335    562.89669  0.024018463  0.024094766            2 
 1954000   0.93975831   -7.6045166    564.73888  0.024084735  0.024087736            3 
 1955000   0.93038356   -7.6648744     562.4501  0.023974855   0.02408062            2 
 1956000   0.92923363   -7.6304379    564.20558  0.024037388  0.024073567            1 
 1957000   0.92462659   -7.6114831    566.41086  0.024119011  0.024066601            2 
 1958000   0.95498466   -7.6446063    564.66407  0.024032349  0.024059663            2 
 1959000   0.93214136   -7.6717057    562.52914  0.023929264  0.024052603            4 
 1960000   0.94798395   -7.6467261    565.25378  0.024032899  0.024045614            1 
 1961000   0.93983497   -7.6591989    563.48403  0.023945437    0.0240386            2 
 1962000   0.93153798   -7.6221199    565.71569  0.024028019  0.024031572            2 
 1963000   0.92979707   -7.6229245    564.62634  0.023969534  0.024024582            3 
 1964000   0.95532843   -7.6621745    564.28128  0.023942688   0.02401757            1 
 1965000   0.91271954   -7.6454758    565.76739  0.023993528  0.024010589            2 
 1966000   0.95487338   -7.6603492    566.73217  0.024022218  0.024003656            2 
 1967000   0.94440481   -7.6405703    565.38963  0.023953128  0.023996667            5 
 1968000   0.92641251   -7.6526178    566.05431  0.023969102  0.023989648            1 
 1969000   0.90979638   -7.6425207    566.25382  0.023965372  0.023982666            1 
 1970000   0.96385149   -7.6704265    565.24677  0.023910608  0.023975748            1 
 1971000   0.93056077    -7.624263    567.32647  0.023986406  0.023968833            3 
 1972000   0.91747337   -7.6672252    566.40865  0.023935457   0.02396186            2 
 1973000   0.92776569   -7.6854131    565.61388  0.023889757  0.023954825            3 
 1974000   0.95237692   -7.6534374     565.2858  0.023863805  0.023947856            1 
 1975000   0.93423421   -7.6849733    566.51001  0.023903376  0.023940886            4 
 1976000   0.93800892   -7.6515729    564.79988  0.023819158  0.023933936            2 
 1977000   0.92132605   -7.6284742    566.52045  0.023879634  0.023927032            2 
 1978000    0.9243021   -7.6665385    565.89118  0.023841051  0.023920041            1 
 1979000   0.93865812   -7.6434304    568.08924  0.023921561  0.023913052            2 
 1980000    0.9366003   -7.6395088    566.85824   0.02385767  0.023906066            2 
 1981000   0.94164138    -7.659619    568.16978  0.023900798  0.023899059            3 
 1982000    0.9305455   -7.6728974    567.27288  0.023851029  0.023892133            2 
 1983000   0.95085301   -7.6128461     567.7734  0.023860035   0.02388524            1 
 1984000    0.9277453    -7.632375    568.93644   0.02389686  0.023878402            3 
 1985000   0.94481057   -7.6368609    569.46795  0.023907135  0.023871519            1 
 1986000   0.95360756    -7.625699    568.86046  0.023869607  0.023864685            3 
 1987000   0.92064705   -7.6423296    569.09467  0.023867416  0.023857907            2 
 1988000   0.92489554   -7.6183432    568.40044   0.02382631  0.023851087            4 
 1989000   0.91978558   -7.6818219    568.83859  0.023832688  0.023844205            1 
 1990000   0.94169338   -7.6701387    568.52603  0.023807623   0.02383734            4 
 1991000   0.92194393   -7.6662783    568.62276  0.023799714  0.023830429            1 
 1992000   0.96768277   -7.6248196    570.16407  0.023852245   0.02382359            2 
 1993000    0.9314182   -7.6198349    570.66673  0.023861295  0.023816761            2 
 1994000    0.9069291   -7.6325104    570.62702  0.023847669  0.023809928            1 
 1995000   0.92983825   -7.6488573    569.71915  0.023797792  0.023803109            2 
 1996000   0.92714261   -7.6783595    569.31392  0.023768951  0.023796218            2 
 1997000   0.92444313   -7.6283977    572.13925  0.023874948  0.023789435            3 
 1998000   0.92818735   -7.6659229    571.20109  0.023823869  0.023782652            4 
 1999000   0.95978845   -7.6382005    570.78883  0.023794765  0.023775768            1 
 2000000   0.91557899    -7.668496    569.71764  0.023738235  0.023768927            3 
 2001000   0.93134961    -7.661304    570.79124  0.023771083  0.023762079            1 
 2002000   0.91632951   -7.7020081    569.78793  0.023717446  0.023755181            7 
 2003000   0.91908681   -7.6619568    570.24751  0.023724726  0.023748272            1 
 2004000   0.93878718   -7.6809494    570.72572  0.023732773  0.023741409            1 
 2005000   0.92460656   -7.6295553    571.65344  0.023759495  0.023734565            1 
 2006000   0.95633962   -7.6808723    570.08015  0.023682293  0.023727668            2 
 2007000   0.92558624   -7.6295105    572.29751  0.023762561   0.02372079            3 
 2008000   0.94802452    -7.633739    572.37445   0.02375392  0.023713953            3 
 2009000   0.94762692   -7.6580039    571.84823  0.023720268  0.023707097            1 
 2010000   0.91575909     -7.68774    570.35003  0.023646353   0.02370016            1 
 2011000   0.92366995   -7.6786751    570.85223  0.023655405  0.023693195            2 
 2012000   0.93269193   -7.6636292    571.16144  0.023656454  0.023686282            1 
 2013000   0.94497369   -7.6312467    573.79207  0.023753604  0.023679478            2 
 2014000   0.93064894   -7.6640026    572.30041   0.02368009  0.023672648            1 
 2015000   0.93793121   -7.7015782    571.35814  0.023629369  0.023665797            2 
 2016000   0.92279712   -7.6497473    573.12252   0.02369058  0.023658953            3 
 2017000   0.94098135   -7.6589609    572.19487  0.023640508  0.023652165            2 
 2018000   0.92344067   -7.6398397    573.13998  0.023667822  0.023645352            1 
 2019000   0.93068251   -7.6616777    572.78665  0.023641516  0.023638489            2 
 2020000   0.92476046   -7.6766449    573.77828  0.023670721  0.023631694            1 
 2021000   0.92816915   -7.6175313    573.47395   0.02364646  0.023624861            2 
 2022000    0.9184324   -7.6325508    573.55256  0.023638005  0.023618065            4 
 2023000    0.9241935   -7.6842207    572.62711  0.023588199  0.023611174            1 
 2024000   0.92960895   -7.6545125    572.74718  0.023581488   0.02360424            1 
 2025000   0.93471662   -7.6568662    573.12482  0.023585383  0.023597288            1 
 2026000   0.92024417   -7.6705983    572.85958  0.023562832  0.023590319            3 
 2027000   0.91079462    -7.706722    573.92853  0.023595154  0.023583375            2 
 2028000   0.94053055   -7.6391915    574.35172  0.023600909  0.023576501            3 
 2029000   0.95093386   -7.6839711    574.45741  0.023593618   0.02356962            4 
 2030000   0.92261214   -7.6685198     574.4418  0.023581355   0.02356272            7 
 2031000   0.92506021   -7.6586708    573.76388  0.023541928  0.023555832            2 
 2032000   0.92790206   -7.6454625    572.29886  0.023470262  0.023548841            1 
 2033000   0.93040114   -7.6560301    574.28617  0.023540178  0.023541938            2 
 2034000   0.93267284   -7.6353937    575.63445  0.023583843  0.023535058            3 
 2035000   0.94039135   -7.6690202    575.02555   0.02354732  0.023528205            2 
 2036000    0.9175142   -7.6341514    573.94958  0.023491715   0.02352136            3 
 2037000   0.90514895   -7.6680373    574.46164  0.023501131  0.023514461            2 
 2038000   0.93390685   -7.6466691    575.52296  0.023532997  0.023507541            3 
 2039000   0.94752815   -7.7048665    573.79589   0.02345087  0.023500578            2 
 2040000   0.90940996   -7.7060252    573.66827  0.023434161  0.023493566            3 
 2041000   0.91383497   -7.6289597    575.77672  0.023508767  0.023486666            2 
 2042000   0.93971032   -7.6439456    575.19509  0.023473518  0.023479886            1 
 2043000   0.91852467    -7.649801    576.27889  0.023506236   0.02347304            1 
 2044000   0.91306323    -7.650283    576.35981  0.023498035  0.023466185            4 
 2045000   0.91197095   -7.6696528    574.83762  0.023424516  0.023459356            3 
 2046000   0.94250495   -7.7007823    575.95341  0.023458513   0.02345252            2 
 2047000   0.94137352   -7.6609394     577.2419  0.023499507  0.023445716            3 
 2048000   0.94819517   -7.6900892    576.28868  0.023449246  0.023438879            2 
 2049000    0.9244255     -7.68539    576.19585  0.023434027  0.023431937            2 
 2050000   0.91753628   -7.6683727    576.28195  0.023426095  0.023425033            1 
 2051000   0.92088122   -7.6765799     575.8699  0.023397932  0.023418212            4 
 2052000   0.92169226   -7.6495964    577.14291  0.023438227  0.023411361            3 
 2053000   0.93035263   -7.6719592    575.92163  0.023377238  0.023404472            2 
 2054000   0.90733032   -7.7147816     577.2518  0.023419823  0.023397652            3 
 2055000   0.90705322    -7.706559    575.59482  0.023341233  0.023390728            3 
 2056000   0.90231464    -7.683235    576.61387  0.023371185   0.02338388            2 
 2057000    0.9185641   -7.6495189    577.98621  0.023415419  0.023377054            2 
 2058000   0.91439892   -7.6570685    577.56667  0.023387053   0.02337013            2 
 2059000   0.90491755    -7.676819    576.93973  0.023350321  0.023363217            2 
 2060000   0.93598293   -7.6707098    576.40136  0.023317207  0.023356338            2 
 2061000   0.93046089   -7.6776035    577.32728  0.023343332   0.02334943            1 
 2062000    0.9197063   -7.7172758    577.03477   0.02332019  0.023342507            3 
 2063000   0.94118764   -7.6843893    577.50616  0.023327927  0.023335649            2 
 2064000     0.915207   -7.6618615    578.20288  0.023344754   0.02332884            2 
 2065000   0.90934202   -7.6690696    579.18489  0.023373079  0.023322085            1 
 2066000   0.92474621    -7.712431    577.51966  0.023294597  0.023315218            2 
 2067000   0.89575788   -7.6767845    578.21237  0.023311255  0.023308278            3 
 2068000   0.92708357   -7.7002654    578.12289  0.023296377  0.023301381            2 
 2069000   0.92622026   -7.6959675    577.84718  0.023274012  0.023294499            1 
 2070000   0.91640165   -7.6952574    578.03033  0.023270142   0.02328762            1 
 2071000   0.91661878    -7.692155    578.60841  0.023282167  0.023280716            4 
 2072000   0.90669316   -7.6607241    579.64134  0.023312474  0.023273807            2 
 2073000   0.92050072   -7.6795455    581.56517  0.023378564  0.023266979            2 
 2074000   0.91441187   -7.6781095    578.27954  0.023235275  0.023260152            3 
 2075000   0.91413133   -7.6996099    578.81505  0.023245584  0.023253283            2 
 2076000    0.9337643   -7.6365114    580.29077  0.023293624  0.023246349            1 
 2077000   0.92249674   -7.7051619    579.68019  0.023257912   0.02323942            2 
 2078000   0.90823674   -7.6709775    579.13004  0.023224657  0.023232516            2 
 2079000   0.93178004   -7.6507317    579.99499  0.023248156  0.023225627            1 
 2080000   0.92387642   -7.6954064    579.70503  0.023225362  0.023218802            2 
 2081000   0.91682314   -7.6814829    579.17364  0.023192922  0.023211918            2 
 2082000   0.90969166   -7.6809612    579.67552   0.02320187  0.023205061            1 
 2083000   0.91013194    -7.688315    579.42971  0.023180897   0.02319817            2 
 2084000   0.92779439    -7.696176    580.45492  0.023210769  0.023191244            3 
 2085000   0.92908001   -7.7405585     578.3036  0.023113653  0.023184311            2 
 2086000   0.92964063   -7.7039477    579.87399  0.023165308  0.023177378            1 
 2087000    0.9089656    -7.699562    579.26133  0.023129745  0.023170463            2 
 2088000   0.89860464   -7.7094163    578.41427  0.023084861  0.023163447            1 
 2089000   0.90974021   -7.6976821    579.32942  0.023110317  0.023156551            2 
 2090000    0.9296099   -7.6919224    580.89756  0.023161785  0.023149617            1 
 2091000   0.92541519   -7.7032788    579.63994  0.023100587  0.023142757            2 
 2092000   0.91878191   -7.6956509    581.84402  0.023177343  0.023135881            2 
 2093000   0.93232904   -7.6986837    581.38598  0.023148032   0.02312902            3 
 2094000   0.91387458   -7.6712672     581.1942  0.023129346  0.023122132            1 
 2095000   0.89798869   -7.6793013    582.14962  0.023156309  0.023115246            2 
 2096000   0.92975608   -7.6714446    581.38498  0.023114861  0.023108372            1 
 2097000   0.90362721   -7.7034842    581.84613  0.023122164  0.023101414            6 
 2098000    0.9206951    -7.713954    581.46287   0.02309592  0.023094452            3 
 2099000   0.90664926   -7.6998697    581.88025  0.023101487  0.023087473            2 
 2100000   0.92794522   -7.6851777    581.76909  0.023086075  0.023080565            1 
 2101000    0.9071616   -7.6768724    582.35642  0.023098382  0.023073644            2 
 2102000   0.93265417   -7.7165278    580.74254  0.023023412  0.023066662            3 
 2103000   0.92894133   -7.7271534    579.42143  0.022960114  0.023059641            2 
 2104000    0.9176342   -7.6721341    582.41928  0.023067937  0.023052599            3 
 2105000   0.93164472   -7.6971983     581.2174  0.023009398   0.02304561            1 
 2106000   0.91424472   -7.6927144    580.73091  0.022979222  0.023038662            4 
 2107000   0.89679148   -7.7071082    582.39173  0.023034003  0.023031724            2 
 2108000   0.93942035   -7.6968814    581.32331  0.022980839  0.023024817            2 
 2109000   0.90886837   -7.6722643    583.67083  0.023062701  0.023017979            2 
 2110000   0.90346062   -7.6906192    581.16256  0.022952708  0.023011128            2 
 2111000   0.92343441   -7.7035975     582.9621  0.023012873  0.023004226            2 
 2112000   0.93607309   -7.7181289    582.31817  0.022976569  0.022997357            5 
 2113000   0.90796185   -7.7194757    583.43991  0.023009935  0.022990458            1 
 2114000   0.91909889   -7.6990366    582.42799  0.022959161  0.022983618            1 
 2115000   0.93362187   -7.6920973    584.72502  0.023038811  0.022976785            3 
 2116000   0.92295733    -7.683962    583.51346  0.022980209  0.022969957            2 
 2117000    0.8992444   -7.6750421    583.91127  0.022985013  0.022963175            2 
 2118000   0.92684637   -7.6921633    585.53988  0.023038239  0.022956373            1 
 2119000    0.9144283   -7.6676639    584.74891   0.02299626  0.022949579            3 
 2120000    0.9237584   -7.6803989    583.86217  0.022950557  0.022942804            3 
 2121000   0.91319577   -7.6722064    583.92461   0.02294219  0.022936001            1 
 2122000   0.90280687   -7.7048348     584.8095  0.022966129  0.022929158            2 
 2123000    0.9131847   -7.6951966    585.70685  0.022990534  0.022922376            5 
 2124000   0.89538896   -7.7191701    584.14811  0.022918554  0.022915596            1 
 2125000     0.912743   -7.6943008    584.66223  0.022927931  0.022908747            2 
 2126000   0.90384921   -7.7289034    582.81659  0.022844802  0.022901933            2 
 2127000   0.91192206   -7.7078462    584.01754  0.022881114  0.022895115            1 
 2128000   0.93177909   -7.7369857    584.88871  0.022904476  0.022888232            2 
 2129000   0.89909645   -7.7082544    583.61139  0.022843721  0.022881334            2 
 2130000   0.88594238   -7.6759321    584.91563  0.022884023  0.022874411            6 
 2131000    0.9034509   -7.6760747     585.0259  0.022877597  0.022867523            4 
 2132000   0.90180662   -7.7246864    584.42075  0.022843213  0.022860666            1 
 2133000   0.90732618   -7.6893408    584.01946  0.022816825  0.022853811            2 
 2134000   0.92708929   -7.6851205    585.80524  0.022875868  0.022846993            2 
 2135000   0.89727779   -7.7393577     583.7177  0.022783673  0.022840031            4 
 2136000   0.89276353   -7.6819219    585.87943  0.022857344  0.022833069            1 
 2137000   0.90692765   -7.7260756    585.03968  0.022813901  0.022826103            1 
 2138000   0.91357354    -7.697219    585.35221  0.022815412  0.022819157            2 
 2139000   0.90265606   -7.7325364    584.16328  0.022758426  0.022812247            1 
 2140000    0.9259005   -7.7265184    584.14447  0.022747059  0.022805287            1 
 2141000   0.90562162   -7.7111088    584.34239  0.022744138  0.022798293            1 
 2142000   0.90420126   -7.7270731    586.23828  0.022807278  0.022791322            1 
 2143000     0.911846   -7.7008331    586.08455  0.022790657  0.022784401            2 
 2144000   0.91570308   -7.7131649     585.1376  0.022743221  0.022777539            2 
 2145000   0.88355088   -7.7204773    585.80412  0.022758513   0.02277061            3 
 2146000    0.9018598   -7.7198177    586.24297  0.022764949  0.022763694            1 
 2147000   0.89524573   -7.7039387     585.4967   0.02272538  0.022756759            1 
 2148000   0.91460066   -7.6800305    587.55599  0.022794692  0.022749801            3 
 2149000   0.92634379   -7.7125313    587.09592  0.022766245  0.022742879            2 
 2150000   0.91058421   -7.7123117    585.50113  0.022693842  0.022735971            2 
 2151000   0.90512434   -7.7190148     586.4917  0.022721668   0.02272903            1 
 2152000   0.91405356   -7.6708955    586.80623   0.02272329  0.022722137            3 
 2153000   0.88892802    -7.706599    586.49375  0.022700641  0.022715259            1 
 2154000   0.90474172   -7.7420074    586.29891  0.022682564  0.022708364            1 
 2155000   0.91252247   -7.7247837     586.3276  0.022673148  0.022701458            4 
 2156000   0.89802597   -7.7185333    587.37402  0.022703077  0.022694603            2 
 2157000   0.91756977   -7.6692539    586.43428  0.022656246  0.022687738            2 
 2158000   0.90151252    -7.714859    588.80348  0.022737237  0.022680908            2 
 2159000   0.91168248   -7.7130099    587.21148  0.022665257  0.022674089            1 
 2160000   0.92712949   -7.7203518    586.57945   0.02263038   0.02266723            2 
 2161000   0.90748035   -7.7034918     586.8376  0.022629863  0.022660398            1 
 2162000    0.8938454   -7.6913758    587.84864  0.022658366  0.022653514            2 
 2163000   0.90914836   -7.7361861    587.82279  0.022646894  0.022646609            3 
 2164000   0.90308986   -7.7213968    588.23824  0.022652428  0.022639735            2 
 2165000   0.90144744   -7.7390019     586.7829  0.022585947  0.022632878            2 
 2166000   0.92534699   -7.7449063    587.82422  0.022615582   0.02262594            3 
 2167000   0.90280911   -7.7448059    586.17948  0.022541897  0.022618969            4 
 2168000   0.91314351   -7.7119011    587.03364  0.022564331  0.022612028            2 
 2169000   0.91136966   -7.7210958    587.47617   0.02257093  0.022605107            1 
 2170000   0.89309459   -7.7295444    587.43791  0.022559059  0.022598184            1 
 2171000   0.88928456   -7.6939559    588.05094  0.022572199  0.022591287            2 
 2172000   0.89616797   -7.6736846    588.97896  0.022597413  0.022584412            5 
 2173000   0.89128134   -7.6998353    588.61758  0.022573155  0.022577492            4 
 2174000   0.88793061   -7.6698777    590.32768  0.022628323  0.022570584            3 
 2175000   0.91428046   -7.7245354    589.41901  0.022583104  0.022563618            1 
 2176000   0.90310874   -7.7412776    587.99201  0.022518076  0.022556644            3 
 2177000   0.90701256   -7.7333087     588.5688  0.022529811  0.022549687            2 
 2178000   0.92341382     -7.71911    587.88146  0.022493169  0.022542713            2 
 2179000   0.91124836   -7.7381177    589.24908  0.022535149  0.022535806            5 
 2180000   0.90184093   -7.7142353    589.84276  0.022547506  0.022528887            2 
 2181000   0.91188295   -7.7580797    590.21885  0.022551538  0.022521992            1 
 2182000   0.91588086   -7.7450993    589.50957  0.022514114  0.022515086            2 
 2183000   0.90279398   -7.7442628    590.10391  0.022526489  0.022508117            5 
 2184000   0.90655912   -7.7323287    589.29763   0.02248541  0.022501145            4 
 2185000    0.9108439   -7.7356086    588.73644  0.022453716  0.022494294            2 
 2186000   0.89195013   -7.7143189    590.81309  0.022522609  0.022487432            4 
 2187000   0.89417416    -7.708846    590.16705  0.022487694  0.022480619            2 
 2188000    0.8991532   -7.7096826    591.61839  0.022532693  0.022473775            2 
 2189000   0.91490941   -7.7340113    591.40629  0.022514325  0.022466949            2 
 2190000   0.91161077   -7.7132355    591.56329  0.022510018  0.022460128            1 
 2191000    0.8985411   -7.7349473    589.77461  0.022431713  0.022453312            3 
 2192000   0.89232695   -7.7079705    590.79482  0.022460265  0.022446457            4 
 2193000   0.89342755   -7.7089491    591.16216  0.022463983  0.022439641            2 
 2194000   0.89145773   -7.7344204     591.2207  0.022455967  0.022432826            2 
 2195000   0.90722196   -7.7098579    590.78696   0.02242927  0.022425997            3 
 2196000   0.89167185   -7.7216689    591.38137  0.022441612  0.022419096            6 
 2197000   0.90502476   -7.7173336    591.99822  0.022454795  0.022412263            5 
 2198000   0.90831639   -7.7419901    591.37292  0.022420872  0.022405394            2 
 2199000   0.90377236   -7.7132162     592.1065  0.022438476  0.022398565            1 
 2200000   0.92030752   -7.7426371    591.20028   0.02239395  0.022391725            4 
 2201000   0.90403423   -7.7199537    593.44475  0.022468755  0.022384966            3 
 2202000   0.91108401   -7.7646921    592.52908  0.022423898  0.022378235            2 
 2203000   0.90354728   -7.7558475    590.73152  0.022345722  0.022371526            2 
 2204000   0.90687876   -7.7309521    593.62678  0.022445054  0.022364781            2 
 2205000   0.90460629    -7.749525    593.55601    0.0224322  0.022358065            3 
 2206000   0.89424861   -7.7273188    593.27095  0.022411263  0.022351281            1 
 2207000   0.88566435   -7.7476906    593.04588   0.02239261  0.022344555            2 
 2208000   0.89928019   -7.7426368    593.13022  0.022385651  0.022337809            3 
 2209000   0.91633188   -7.7466434    592.94941  0.022368697  0.022331007            2 
 2210000   0.90772223   -7.7326014    594.06939  0.022400807  0.022324262            3 
 2211000   0.90220827   -7.7469834    592.77509  0.022341893  0.022317488            3 
 2212000   0.88605063   -7.7100167    595.10198  0.022419454  0.022310738            2 
 2213000   0.88943948   -7.7228781    594.51291  0.022387141  0.022303981            6 
 2214000    0.8804246   -7.7497451    593.75405  0.022348466  0.022297225            3 
 2215000   0.88965681   -7.7324262    593.33588  0.022322644  0.022290477            2 
 2216000   0.90984499   -7.7523692    594.65096  0.022362025   0.02228373            1 
 2217000   0.90078208   -7.7311117    595.20711  0.022372843  0.022276954            1 
 2218000   0.90724779   -7.7303064    593.60085  0.022302406  0.022270206            1 
 2219000   0.91405026   -7.7502656    595.06939  0.022347506  0.022263401            1 
 2220000   0.90477803   -7.7339945    593.98056  0.022296567  0.022256613            1 
 2221000   0.89131871   -7.7233469    595.47253  0.022342508  0.022249808            2 
 2222000   0.90440752   -7.7497711    594.99857  0.022314678  0.022243052            1 
 2223000   0.89954626   -7.7768775    594.84966  0.022299057   0.02223629            1 
 2224000   0.91814348   -7.7420188    594.51829  0.022276615  0.022229556            2 
 2225000   0.90197943   -7.6950089    596.51521  0.022341394  0.022222869            1 
 2226000   0.89435817   -7.7152485    595.61201  0.022297545  0.022216199            1 
 2227000   0.88994518   -7.7111243    595.23386  0.022273382  0.022209489            3 
 2228000   0.89603179   -7.7526881    595.90766  0.022288587  0.022202698            2 
 2229000   0.90258572   -7.7598282    595.87428   0.02227734  0.022195919            1 
 2230000   0.88914606   -7.7429702    595.66929  0.022259689  0.022189149            1 
 2231000   0.89426328   -7.7348856    594.40524  0.022202496  0.022182374            2 
 2232000   0.88609869   -7.7180791     595.4936  0.022233184  0.022175619            2 
 2233000   0.88715923    -7.771334    594.83307  0.022198577  0.022168804            1 
 2234000   0.89382282    -7.748136    594.26552  0.022167469  0.022162017            1 
 2235000     0.910551   -7.7748532    594.25802  0.022157272  0.022155167            1 
 2236000   0.90945262   -7.7232681    595.27802  0.022185376  0.022148415            5 
 2237000   0.90514336   -7.7590479     597.6551  0.022264011  0.022141669            2 
 2238000   0.89934649   -7.7677203    595.99363  0.022192197  0.022134974            2 
 2239000   0.88231653   -7.7285389    595.98218  0.022181859  0.022128222            2 
 2240000   0.89163749   -7.7454512    595.59332   0.02215749  0.022121487            2 
 2241000   0.89650592   -7.7881176      593.449  0.022067864  0.022114717            1 
 2242000   0.89835709       -7.768    595.27116  0.022125749  0.022107898            2 
 2243000    0.8658055   -7.7613466    596.01391   0.02214348  0.022101114            1 
 2244000   0.89206162   -7.7432745    595.30585  0.022107318  0.022094303            2 
 2245000   0.86105158   -7.7088691    596.88002  0.022155903  0.022087564            2 
 2246000   0.90329141   -7.7581248    597.88299  0.022183251  0.022080834            2 
 2247000   0.89872734   -7.7558257    596.76823  0.022132036  0.022074083            2 
 2248000   0.88629325   -7.7555663      596.666  0.022118402  0.022067317            3 
 2249000   0.89148535   -7.7642017    597.13966  0.022126118  0.022060596            1 
 2250000   0.90762745   -7.7405041    596.36289  0.022087515  0.022053854            2 
 2251000   0.89349177   -7.7789072    595.95178  0.022062483  0.022047073            1 
 2252000   0.86185635   -7.7665694    596.57018  0.022075569  0.022040276            2 
 2253000   0.87784256   -7.7563636    597.35742  0.022094889  0.022033554            2 
 2254000   0.89572676    -7.749887    596.13584  0.022039923   0.02202682            6 
 2255000   0.88762115   -7.7781363    597.05225  0.022064015  0.022020032            1 
 2256000   0.90101381   -7.7716922     598.6744  0.022114155   0.02201323            2 
 2257000   0.88194559   -7.7268405    598.34718  0.022092275  0.022006504            2 
 2258000   0.90614278   -7.7653673    597.57069  0.022053834  0.021999763            5 
 2259000   0.88818024    -7.770213    597.65334   0.02204712   0.02199305            3 
 2260000    0.8844494    -7.738652    597.33916   0.02202578  0.021986344            4 
 2261000   0.87236155   -7.7677499    597.51795  0.022022628  0.021979611            1 
 2262000   0.89285437   -7.7595275     597.3925  0.022008271  0.021972857            1 
 2263000   0.86798906   -7.7651505     596.4863  0.021965175  0.021966141            4 
 2264000   0.88549846    -7.784683    598.57879  0.022032494  0.021959387            2 
 2265000   0.89769015       -7.774    601.05178  0.022113752  0.021952747            1 
 2266000   0.87610953   -7.7415922    599.18306   0.02203527  0.021946082            4 
 2267000   0.87867316   -7.7674653    598.80204  0.022011544  0.021939447            1 
 2268000   0.87205169   -7.7704487    596.26133  0.021908485  0.021932737            2 
 2269000   0.89744458   -7.7779832    599.31857  0.022011112  0.021926054            2 
 2270000   0.90234912   -7.7661243    600.28053   0.02203673  0.021919401            2 
 2271000   0.88929341   -7.7434365      601.284  0.022063849  0.021912716            2 
 2272000   0.89475865   -7.7773043    600.10846   0.02201102  0.021906039            4 
 2273000   0.88903021    -7.780797    598.89514  0.021956854  0.021899375            2 
 2274000   0.88819476   -7.7136284    601.74799  0.022051744  0.021892775            1 
 2275000   0.89237412   -7.7043506    600.95316  0.022012936   0.02188618            2 
 2276000   0.88469771   -7.7347935    600.38523   0.02198247  0.021879534            2 
 2277000   0.89069986   -7.7513663     599.5023  0.021940503  0.021872867            3 
 2278000   0.89715549   -7.7935577    599.66557  0.021936844  0.021866142            1 
 2279000   0.90217505   -7.7870812    599.43257  0.021918699  0.021859417            2 
 2280000   0.87926976   -7.7597028    601.23342  0.021974906  0.021852669            1 
 2281000   0.89547792   -7.7915245    600.88859  0.021952674  0.021845939            2 
 2282000    0.9012383   -7.7502666    601.54058  0.021966863   0.02183925            3 
 2283000    0.8867289   -7.7621934    599.87603  0.021896483  0.021832579            1 
 2284000   0.89426399   -7.7518032    599.41931  0.021870232  0.021825882            2 
 2285000   0.88607625   -7.7840022     600.6482  0.021905478  0.021819131            1 
 2286000     0.897961    -7.771883     599.1315  0.021840606  0.021812404            2 
 2287000   0.87110455   -7.7652244    601.65662  0.021923066   0.02180571            1 
 2288000   0.90925799   -7.7915603    600.81345  0.021882774   0.02179901            2 
 2289000    0.8981396    -7.811764    598.80137  0.021799962  0.021792296            2 
 2290000   0.89089779   -7.7882159    600.09756  0.021837612  0.021785579            1 
 2291000   0.90459561   -7.7805289    601.25003      0.02187  0.021778848            5 
 2292000   0.88257553   -7.7614882    599.88061  0.021810668  0.021772145            2 
 2293000   0.87732009   -7.7812304    601.76232  0.021869542  0.021765407            1 
 2294000   0.88967698   -7.7728931    602.35641   0.02188159  0.021758733            2 
 2295000    0.8850559   -7.7757528    600.26824  0.021796232  0.021752086            1 
 2296000   0.88407595   -7.7744783    600.63213  0.021799947  0.021745363            2 
 2297000   0.88721609   -7.7782357    602.09338  0.021843469  0.021738622            2 
 2298000   0.87851055   -7.7581234    600.77762   0.02178625  0.021731929            2 
 2299000   0.88901312   -7.7543503    602.82291   0.02185091  0.021725286            2 
 2300000   0.88129955   -7.7351765    603.53707  0.021867285  0.021718689            2 
 2301000   0.88793903   -7.7623731    601.13205  0.021770681   0.02171204            4 
 2302000   0.87637254   -7.7742244    601.37651  0.021770074  0.021705404            2 
 2303000    0.8708749   -7.7835186    602.05248   0.02178508  0.021698743            3 
 2304000   0.88178527   -7.7953217    601.73532  0.021764154  0.021692059            2 
 2305000   0.86680375   -7.7918919    603.22517  0.021808575   0.02168542            1 
 2306000   0.89064353   -7.7949081    603.66725  0.021815093  0.021678776            2 
 2307000   0.87281727   -7.7814236    602.63821  0.021768466  0.021672128            2 
 2308000   0.88214188   -7.7789819    604.22685  0.021816394  0.021665498            3 
 2309000   0.88090963   -7.7762924    603.41264   0.02177756  0.021658933            2 
 2310000    0.8750102   -7.7545251    604.50616  0.021807581  0.021652325            1 
 2311000   0.87236168   -7.7768549    605.20854  0.021823473  0.021645796            2 
 2312000   0.89414603   -7.7629564    603.84221  0.021764786  0.021639269            5 
 2313000   0.88841011   -7.7705267    603.10575  0.021728843  0.021632701            1 
 2314000    0.8873714   -7.7658648    605.13727  0.021792613  0.021626166            3 
 2315000   0.88794135   -7.7569275    603.57273   0.02172688  0.021619685            1 
 2316000   0.88945596   -7.7493624    606.01743  0.021805463  0.021613184            1 
 2317000   0.87215794   -7.7786005     603.2302  0.021695806  0.021606625            1 
 2318000   0.86800587   -7.7817665    602.96316  0.021676846  0.021600083            2 
 2319000   0.86433642   -7.8046603    603.04316  0.021670374  0.021593508            2 
 2320000   0.88054353   -7.7702744    604.07215  0.021697994  0.021586951            6 
 2321000   0.86800944   -7.7943332     603.9633  0.021684737  0.021580346            3 
 2322000   0.89535781    -7.783231     604.4405  0.021692524  0.021573767            2 
 2323000    0.8779778   -7.7630506    605.10403  0.021706989   0.02156715            2 
 2324000   0.86962075   -7.7884355    605.05632  0.021695938  0.021560557            5 
 2325000   0.86158308   -7.7647492    604.89478  0.021680817  0.021554007            2 
 2326000   0.86810753   -7.7706765    604.73442   0.02166575  0.021547466            2 
 2327000   0.90529722   -7.7868742    605.56768   0.02168628  0.021540935            1 
 2328000   0.89154715   -7.7756956    605.02137  0.021657409   0.02153439            3 
 2329000   0.88541535    -7.805026    605.66211  0.021671036  0.021527833            3 
 2330000   0.87839859   -7.7899574    605.39696  0.021652252  0.021521279            2 
 2331000   0.87934041   -7.7775993    604.55583  0.021612893  0.021514661            2 
 2332000   0.88580599   -7.7633124    604.48637  0.021601142   0.02150813            1 
 2333000   0.88419508   -7.7812586     605.9329  0.021643553  0.021501603            4 
 2334000   0.86127418    -7.769912    605.33523   0.02161294  0.021495077            1 
 2335000   0.86367832   -7.7841983      607.053  0.021664989  0.021488505            4 
 2336000   0.89650316   -7.8112933    604.54236  0.021566152  0.021481929            2 
 2337000   0.87990322   -7.8044019    606.57212  0.021629301  0.021475284            2 
 2338000   0.87596402   -7.8004065    606.20798  0.021607071   0.02146862            2 
 2339000   0.87519436    -7.821146    604.74615  0.021545752  0.021461989            3 
 2340000   0.86365253   -7.8165632    606.05855  0.021583282  0.021455397            2 
 2341000   0.87275532   -7.8174176    607.20879  0.021615007  0.021448854            4 
 2342000    0.8679839   -7.7968271     606.8929  0.021594538  0.021442278            1 
 2343000   0.86900125   -7.7818015    605.97737  0.021552759  0.021435777            4 
 2344000   0.88638749   -7.7926632    607.22954  0.021588081  0.021429274            1 
 2345000    0.8733477   -7.8047334     606.5647  0.021555249  0.021422759            5 
 2346000   0.87306698   -7.8022906    608.45928  0.021613359   0.02141626            2 
 2347000   0.87625223   -7.7740651    608.37294  0.021601084  0.021409791            2 
 2348000   0.86205484   -7.7764025    608.70866    0.0216038  0.021403267            2 
 2349000   0.87923229   -7.7652332    607.99072  0.021569133  0.021396769            2 
 2350000   0.85975625   -7.7991305    606.17023  0.021495398   0.02139029            1 
 2351000   0.86904433   -7.8067371     607.3882  0.021529427  0.021383846            1 
 2352000   0.86568751   -7.7762342    606.91279  0.021503429    0.0213774            2 
 2353000   0.89272791   -7.7975353    606.59944  0.021483193  0.021370949            2 
 2354000   0.87444231   -7.7816977    608.52146  0.021542108  0.021364483            1 
 2355000     0.863367   -7.8053934    607.55077  0.021498612  0.021358067            2 
 2356000   0.88004758   -7.8102313    607.72284  0.021495573   0.02135166            2 
 2357000   0.89319288   -7.8299845    607.69603  0.021485505  0.021345186            1 
 2358000   0.85850833   -7.7748128    610.14905  0.021563085  0.021338811            2 
 2359000   0.85898365   -7.7910161    608.22771  0.021486072  0.021332398            5 
 2360000    0.8936175   -7.7980111    608.89842  0.021500651  0.021325958            2 
 2361000   0.87506411   -7.7575969    611.17339  0.021571841   0.02131951            2 
 2362000   0.86395583   -7.8006949    608.40069  0.021464885  0.021313118            3 
 2363000   0.89093776   -7.7980721    608.91157  0.021473817  0.021306687            3 
 2364000   0.87400327   -7.8050261    608.32572  0.021444082  0.021300196            2 
 2365000   0.88398193   -7.8186564    610.27818  0.021503812  0.021293746            1 
 2366000   0.88430891   -7.8187547    607.85314   0.02140931  0.021287289            3 
 2367000   0.88644682   -7.8163834    609.97124  0.021474836  0.021280841            1 
 2368000   0.86682073   -7.8347476    608.06582  0.021398713  0.021274384            6 
 2369000   0.85889827   -7.8047938     609.9503  0.021455969  0.021267918            1 
 2370000   0.84866602   -7.7837582    610.12784  0.021453159  0.021261556            2 
 2371000   0.87392978   -7.7675616    610.33766  0.021451485  0.021255216            2 
 2372000   0.86520929   -7.7821167    610.17233  0.021436633  0.021248834            2 
 2373000   0.89580815   -7.7730776    610.53383  0.021440295  0.021242507            2 
 2374000   0.86319439    -7.796237    611.75324  0.021474068  0.021236192            1 
 2375000   0.88024059   -7.7897339    610.88769  0.021434656  0.021229849            2 
 2376000   0.86372749   -7.7768874    610.63927  0.021416922  0.021223457            1 
 2377000   0.88635915   -7.7763335    611.00645  0.021420784  0.021217077            2 
 2378000   0.88071207   -7.8129621    609.87011  0.021371955  0.021210694            2 
 2379000   0.87676391   -7.8233246    610.01666  0.021368105   0.02120429            3 
 2380000    0.8541168   -7.7901405    611.75158  0.021419873  0.021197877            2 
 2381000   0.86337911   -7.8491018    611.23645  0.021392848  0.021191464            4 
 2382000   0.86319936   -7.8100631    611.15947  0.021381174  0.021185105            1 
 2383000   0.87839782   -7.8225556    611.49775  0.021384031  0.021178697            6 
 2384000   0.87340358   -7.8167118    610.46665  0.021339019  0.021172315            3 
 2385000   0.87603079   -7.8035357    611.96764  0.021382517   0.02116593            2 
 2386000   0.87846427   -7.8057953    612.50146    0.0213922  0.021159553            3 
 2387000   0.85564387   -7.8373318    611.87491  0.021361364   0.02115313            1 
 2388000   0.86243912   -7.8375326    611.06279  0.021324078  0.021146741            1 
 2389000   0.86403092   -7.7914147    612.49468    0.0213651  0.021140376            1 
 2390000   0.86507478   -7.7917825    612.27484  0.021348495  0.021133992            1 
 2391000   0.84578187   -7.7927387    612.78678  0.021357409  0.021127665            1 
 2392000   0.86805353    -7.792315     613.3667  0.021368684  0.021121333            1 
 2393000   0.88483947   -7.7887284    611.49785  0.021294674  0.021115013            1 
 2394000   0.85947108   -7.8067456    611.70865  0.021293116  0.021108665            1 
 2395000   0.86393601   -7.8020649    611.77901  0.021286674  0.021102323            2 
 2396000   0.85200221   -7.7737187    612.96503   0.02131904  0.021095989            2 
 2397000    0.8657245   -7.8429628    612.44296  0.021291996  0.021089646            2 
 2398000   0.84455552   -7.8132152    611.43241  0.021247999  0.021083237            2 
 2399000   0.88627604   -7.8166123    612.21869  0.021266454  0.021076864            3 
 2400000   0.89336502    -7.793183    610.25267  0.021189329  0.021070509            3 
 2401000   0.86976836   -7.8259987    612.32371  0.021252385  0.021064121            1 
 2402000   0.84341965   -7.7784744    613.57463  0.021286935  0.021057716            3 
 2403000   0.85243614    -7.824573     612.7758  0.021250374  0.021051319            2 
 2404000   0.85940358   -7.8090476    613.29337  0.021259476  0.021044909            4 
 2405000   0.86775062   -7.8479023    612.48502  0.021222627  0.021038538            3 
 2406000     0.874645   -7.7982969    614.02054   0.02126699  0.021032198            1 
 2407000   0.86382299   -7.8168929    613.45119  0.021238443  0.021025828            2 
 2408000   0.86486241   -7.8036355    614.39378  0.021262243  0.021019464            2 
 2409000   0.85768025    -7.834262    613.41232  0.021219466  0.021013141            7 
 2410000    0.8643873   -7.8263284    614.06766  0.021233321  0.021006773            3 
 2411000   0.85875963   -7.8465044    612.70403  0.021177382  0.021000417            1 
 2412000   0.87620898   -7.8191251    614.85798   0.02124302  0.020994057            2 
 2413000   0.85213974   -7.8635783    613.50343  0.021187437  0.020987669            1 
 2414000   0.86936558   -7.8319789     613.8056  0.021189092  0.020981294            1 
 2415000   0.87402773   -7.8257119    613.49672  0.021169659  0.020974925            4 
 2416000   0.86444094   -7.7988277    614.24311  0.021186642  0.020968546            2 
 2417000   0.87405002   -7.7861087    614.74205  0.021195078   0.02096215            2 
 2418000   0.84008365   -7.8461219    612.70603  0.021116144  0.020955758            2 
 2419000   0.86340515    -7.791695     613.2051  0.021124607  0.020949384            2 
 2420000   0.88326506    -7.804012     614.5415  0.021161897  0.020943065            2 
 2421000    0.8505006   -7.8358823    614.64978  0.021156883  0.020936735            5 
 2422000    0.8497943   -7.8234441    615.39431  0.021173765  0.020930365            5 
 2423000   0.87588988   -7.8479233    613.37445  0.021095558  0.020924034            4 
 2424000   0.87738526   -7.8047016    614.85961  0.021137913  0.020917675            3 
 2425000   0.86122574   -7.8044415    616.02372    0.0211692  0.020911388            2 
 2426000   0.86742491   -7.7956035    614.98289  0.021124721  0.020905136            2 
 2427000   0.86000093   -7.8271595    615.48307  0.021133191  0.020898865            2 
 2428000   0.86848847   -7.7893599    615.95831  0.021140799  0.020892549            1 
 2429000   0.85375915   -7.8316289    614.14043  0.021069728  0.020886258            2 
 2430000   0.87436932   -7.8289431    616.36409  0.021137315  0.020879975            1 
 2431000   0.86167954   -7.8556139    615.82454  0.021110124  0.020873689            2 
 2432000    0.8676596   -7.8480619    615.00318    0.0210733  0.020867342            2 
 2433000   0.87037282    -7.810279    614.44397  0.021045485  0.020861033            3 
 2434000    0.8632123   -7.8146634     615.1023  0.021059378  0.020854726            2 
 2435000   0.88273379   -7.8687928    615.17314  0.021053153  0.020848394            4 
 2436000   0.85777188   -7.8391534    614.06885  0.021006734  0.020842077            1 
 2437000   0.86576913   -7.8411966    614.61827  0.021016901  0.020835694            1 
 2438000   0.88961113   -7.8506413    615.29618  0.021031453  0.020829311            1 
 2439000   0.83712309   -7.8147273    616.70029  0.021070804   0.02082296            2 
 2440000   0.86162576   -7.8070346    616.44804  0.021053553  0.020816611            1 
 2441000   0.87137982   -7.8139134    615.02349  0.020996295  0.020810299            3 
 2442000   0.88695713   -7.8130873    616.38379  0.021034118  0.020804009            2 
 2443000   0.86697843   -7.8620139    614.98395  0.020977758    0.0207977            2 
 2444000   0.86252499   -7.8128475     616.4157  0.021017993  0.020791414            2 
 2445000   0.86162646   -7.7957886    617.51436  0.021046842  0.020785182            2 
 2446000   0.84999301   -7.7839571    616.38591  0.020999792  0.020778949            4 
 2447000   0.86309574   -7.8285453    616.04748  0.020979685  0.020772687            1 
 2448000   0.87018021   -7.8234346    616.84347  0.020998212  0.020766394            1 
 2449000   0.84614489   -7.8540568    616.57022   0.02098034  0.020760082            3 
 2450000   0.86901648   -7.8355012    615.32921  0.020929565  0.020753765            2 
 2451000   0.83258843   -7.8521957    616.84114  0.020972431  0.020747417            2 
 2452000   0.86329468    -7.835608     616.5654  0.020954506  0.020741068            2 
 2453000   0.84712936   -7.8228021    616.63904  0.020948466  0.020734755            1 
 2454000   0.85066094   -7.8001839    618.71032  0.021010266  0.020728501            1 
 2455000   0.85179819   -7.8451435     616.7149  0.020933975   0.02072227            2 
 2456000   0.87458483   -7.8163167    617.81716  0.020962852  0.020716062            2 
 2457000   0.86669661   -7.8238855    618.87519  0.020990204  0.020709854            1 
 2458000   0.85697617   -7.8492887    616.64214  0.020905958  0.020703582            3 
 2459000   0.84773333   -7.8469901     616.4427  0.020890698  0.020697216            3 
 2460000   0.83727619    -7.873935     616.5066   0.02088437  0.020690843            1 
 2461000   0.86536055   -7.8347601    618.67272  0.020949232  0.020684515            3 
 2462000    0.8582024   -7.8589368    616.21049  0.020857382   0.02067822            1 
 2463000   0.86822492   -7.8695796    618.16543  0.020915057  0.020671911            3 
 2464000   0.86116077   -7.8507699    617.09607  0.020870403  0.020665595            3 
 2465000   0.86031196   -7.8223095    617.32001  0.020869507  0.020659326            2 
 2466000   0.85009673   -7.8655753    618.61838  0.020904919  0.020653085            2 
 2467000   0.86307937   -7.8250979    618.58628  0.020895362  0.020646831            2 
 2468000   0.84331511   -7.8449572    618.25511  0.020875713  0.020640597            3 
 2469000   0.87974945   -7.8353412    619.79061  0.020919084  0.020634346            3 
 2470000   0.86686448   -7.8605187    618.34511  0.020861846  0.020628087            2 
 2471000   0.87647552   -7.8530835    619.31799  0.020886213  0.020621857            4 
 2472000   0.84473444   -7.8611765    618.15788  0.020838655  0.020615622            3 
 2473000   0.85981572   -7.8541578    620.83612  0.020920478  0.020609384            2 
 2474000    0.8373075   -7.8263712    618.68946  0.020839715  0.020603166            2 
 2475000   0.86808117   -7.8394766    618.95946  0.020840386  0.020596945            2 
 2476000    0.8535971   -7.8325423    619.13997  0.020838044  0.020590747            1 
 2477000   0.84807798   -7.8103396    619.04811  0.020826541  0.020584534            1 
 2478000   0.87080101   -7.8096244    620.01775  0.020850745  0.020578355            2 
 2479000   0.84372079   -7.8590108    619.24273  0.020816281  0.020572104            3 
 2480000   0.84347414   -7.8477366    618.72139  0.020790369  0.020565881            4 
 2481000   0.86134313   -7.8116845    619.98742  0.020824514   0.02055966            1 
 2482000   0.84262409   -7.8439234    621.18877  0.020856459  0.020553432            1 
 2483000   0.87676691   -7.8242553    619.65584  0.020796612  0.020547211            2 
 2484000   0.84549877   -7.8357141    619.54384  0.020784482  0.020540991            1 
 2485000   0.86708877   -7.8598519    620.26025  0.020800143  0.020534767            1 
 2486000   0.86858642   -7.8408572    619.21986  0.020756901   0.02052854            1 
 2487000   0.84821963   -7.8268478    620.71711  0.020798724  0.020522273            3 
 2488000   0.85697264   -7.8437163    619.81942  0.020760297  0.020516048            3 
 2489000   0.85618666   -7.8200621    620.84191   0.02078619   0.02050985            1 
 2490000    0.8311027   -7.8187113    620.09792  0.020752943  0.020503678            6 
 2491000   0.85467852   -7.8826735    619.72829  0.020732246  0.020497443            2 
 2492000   0.86469712   -7.8795142    619.69571  0.020722837  0.020491202            2 
 2493000   0.85019496   -7.8899787    620.32932  0.020735704  0.020484906            1 
 2494000    0.8510205   -7.8456401    620.75878   0.02074174  0.020478586            2 
 2495000   0.85072894   -7.8545451    620.96106  0.020740182   0.02047232            3 
 2496000   0.85797784   -7.8586477    619.57103  0.020685464  0.020466078            3 
 2497000   0.85719073   -7.8825575    618.78701  0.020651015  0.020459798            4 
 2498000   0.83535099    -7.842877    620.28629  0.020692764  0.020453471            3 
 2499000   0.86126588   -7.8775068    619.26456  0.020650412   0.02044714            1 
 2500000   0.84828581   -7.8860503    619.12999  0.020637666  0.020440779            2 
 2501000   0.85567041   -7.8622882    619.55455  0.020643561  0.020434385            1 
 2502000   0.84655635   -7.8694342    619.69062  0.020639842  0.020428059            2 
 2503000   0.84514571   -7.8588709    620.60626  0.020662081  0.020421769            2 
 2504000   0.84941626   -7.8492625    618.53824  0.020585005  0.020415477            2 
 2505000   0.85452713   -7.8401308    620.77718   0.02065127  0.020409188            2 
 2506000   0.82974345   -7.8649325    620.54829  0.020635418  0.020402914            1 
 2507000   0.84998276   -7.8548396     620.9271  0.020639779  0.020396646            2 
 2508000    0.8375186   -7.8509873    621.24574  0.020642137   0.02039039            1 
 2509000   0.84293775   -7.8630585    619.53455  0.020577074  0.020384131            1 
 2510000   0.84311057   -7.8861627    620.02558  0.020585179  0.020377841            4 
 2511000   0.85025712   -7.8737525    620.11775  0.020580039  0.020371536            1 
 2512000   0.86628544   -7.8240224     620.6159  0.020588372  0.020365279            1 
 2513000   0.84209782   -7.8669834    622.68208  0.020648696  0.020359028            2 
 2514000   0.85242766   -7.8571859    622.20513  0.020624673    0.0203528            4 
 2515000   0.85039315   -7.8538866    623.00528  0.020642985  0.020346574            1 
 2516000   0.86013845   -7.8825076    621.54545  0.020586429  0.020340398            2 
 2517000    0.8394155   -7.8542684    621.36621  0.020572315  0.020334192            1 
 2518000   0.85006408   -7.8168215    621.63771   0.02057313  0.020328013            2 
 2519000   0.86215904   -7.8728638    621.03257  0.020544944  0.020321835            2 
 2520000    0.8264336   -7.8457442    623.12522  0.020605993  0.020315655            2 
 2521000   0.85505675   -7.8519746     622.9639  0.020592486  0.020309497            2 
 2522000   0.85604732   -7.8609282    620.98087  0.020518797  0.020303291            2 
 2523000   0.85261534   -7.8846363    622.79416  0.020570556   0.02029707            2 
 2524000   0.85878901   -7.8857971    622.14578  0.020540999  0.020290852            2 
 2525000   0.84042934   -7.8736957    621.68666  0.020517712  0.020284622            4 
 2526000   0.84387469   -7.8636348    622.18419  0.020526003  0.020278381            3 
 2527000   0.86647425   -7.8557233    623.71698  0.020568427  0.020272147            2 
 2528000   0.83353076   -7.8810592    622.59399  0.020523272  0.020265984            3 
 2529000   0.84785759   -7.8501285    624.59041  0.020580941  0.020259822            1 
 2530000   0.83721616   -7.8577441    621.77131  0.020479951  0.020253695            3 
 2531000    0.8334069   -7.8563423    623.10646  0.020515819  0.020247534            2 
 2532000   0.84124446    -7.859179    623.85717  0.020532424  0.020241353            2 
 2533000   0.84668668   -7.8965046    623.33713  0.020507209    0.0202352            4 
 2534000   0.86054263   -7.8490986    623.89292  0.020517394  0.020229044            1 
 2535000   0.86035674   -7.8658577    623.46015  0.020495074  0.020222865            2 
 2536000   0.83988764   -7.8564052    623.32595  0.020482583  0.020216698            2 
 2537000   0.82268429   -7.8940865    623.34997  0.020475298  0.020210518            2 
 2538000   0.85354855   -7.8482571    623.06927  0.020458014  0.020204314            1 
 2539000   0.84465143    -7.877556    622.94434  0.020445856  0.020198129            2 
 2540000   0.86170673   -7.8905673     621.9064  0.020403753  0.020191948            2 
 2541000   0.83945547   -7.8713165     622.1296  0.020403043   0.02018575            4 
 2542000   0.84611869   -7.8879526     623.3504  0.020435038  0.020179549            5 
 2543000     0.828255   -7.8515831    623.13141  0.020419826   0.02017341            1 
 2544000    0.8389784   -7.8858442    624.16793  0.020445752  0.020167227            1 
 2545000    0.8478829   -7.8712426    624.48148  0.020447986  0.020161083            1 
 2546000   0.84825926   -7.8785852    623.66595  0.020413261  0.020154921            1 
 2547000   0.85137264   -7.8674066    623.47363  0.020398954  0.020148787            4 
 2548000   0.83859082   -7.9119435    622.05752  0.020344634  0.020142634            2 
 2549000   0.84642347   -7.8676059    624.89805  0.020429516  0.020136484            1 
 2550000   0.83216532   -7.8675059    623.61411  0.020379546  0.020130359            2 
 2551000   0.85575191   -7.8561892    624.12965  0.020388398  0.020124238            1 
 2552000   0.85080427   -7.8911888    624.62527  0.020396593  0.020118058            4 
 2553000   0.84974058   -7.8730538    622.62888  0.020323439    0.0201119            3 
 2554000   0.84673373   -7.9232139    624.96971   0.02039186    0.0201057            2 
 2555000   0.84770692   -7.8840088    623.81932  0.020346357  0.020099532            5 
 2556000   0.83081095    -7.833711    626.16299  0.020414808  0.020093386            3 
 2557000   0.84047945   -7.8853899    625.03012  0.020369904  0.020087258            1 
 2558000   0.83730713   -7.8733058    624.58253  0.020347359  0.020081143            2 
 2559000   0.84434521   -7.9139432    623.89746  0.020317098  0.020074995            1 
 2560000   0.83043966   -7.8741121    626.86185  0.020405659  0.020068851            2 
 2561000   0.84968918   -7.8957213    626.08543  0.020372427  0.020062695            2 
 2562000   0.82235904   -7.9108342     624.5527  0.020314621  0.020056553            2 
 2563000   0.82585685   -7.9389029    623.95129   0.02028714  0.020050397            1 
 2564000   0.84634771   -7.9003115    626.03631  0.020346994  0.020044221            2 
 2565000   0.84612913   -7.9162141    625.52804  0.020322549  0.020038034            2 
 2566000   0.85160796   -7.9002459    625.73218  0.020321258  0.020031837            1 
 2567000   0.85509907   -7.8795013    625.78718  0.020315127  0.020025697            2 
 2568000   0.86394543   -7.8693585    625.33294  0.020292476   0.02001952            4 
 2569000    0.8374516   -7.8623598    626.83749  0.020333382  0.020013399            5 
 2570000   0.85727368   -7.8672962    624.74763  0.020257705   0.02000726            2 
 2571000   0.83280487   -7.8768859    624.97322  0.020257138  0.020001158            2 
 2572000   0.83538421   -7.8913906    625.54809  0.020267888  0.019995006            2 
 2573000   0.84085195   -7.8734979    625.82214  0.020268886  0.019988885            1 
 2574000   0.83751152   -7.8831366    626.57181  0.020285283  0.019982784            2 
 2575000   0.85560771   -7.8696328    626.13246  0.020263186  0.019976707            5 
 2576000   0.85090354   -7.8817552    627.07335  0.020285758  0.019970596            5 
 2577000   0.84458859   -7.8639787    626.60616  0.020262779  0.019964459            1 
 2578000   0.81946504   -7.8780245    626.79052  0.020260878  0.019958296            3 
 2579000   0.82630677   -7.8764932    628.62617  0.020312336   0.01995218            2 
 2580000   0.83801622   -7.8931986    626.43357  0.020233643  0.019946108            2 
 2581000   0.82781977   -7.9070252    626.74032  0.020235707   0.01994003            1 
 2582000   0.84347975   -7.8741081    627.50149  0.020252436  0.019933937            2 
 2583000   0.83844381   -7.8812075    627.19643  0.020234754  0.019927855            2 
 2584000   0.84086288   -7.8681256     628.1692  0.020258295  0.019921811            1 
 2585000   0.82985715   -7.8914647    626.97666  0.020212013  0.019915709            4 
 2586000   0.84279152   -7.8779388    627.57627   0.02022352   0.01990961            4 
 2587000   0.82713419    -7.880653    626.87806  0.020193211  0.019903545            1 
 2588000   0.84812436   -7.8762438     626.2656  0.020165688  0.019897447            2 
 2589000   0.84516669   -7.9094618    626.37803  0.020161518  0.019891352            2 
 2590000   0.84973322   -7.9067728    625.98694   0.02014115  0.019885254            3 
 2591000   0.83904876   -7.9205423    626.57321  0.020152232  0.019879167            1 
 2592000    0.8279413   -7.9299488    625.91783  0.020123387  0.019873045            4 
 2593000   0.83830987   -7.8475746    627.38427  0.020162754  0.019866934            3 
 2594000   0.84571032   -7.8685476    627.43099  0.020156483  0.019860876            2 
 2595000   0.82310238   -7.9059545    626.29927  0.020112372  0.019854772            2 
 2596000    0.8459716   -7.9011574     627.4193  0.020140579  0.019848676            4 
 2597000   0.82981904   -7.8807359    628.47524  0.020166707  0.019842599            2 
 2598000   0.83306665   -7.8963013    627.53173   0.02012868  0.019836529            3 
 2599000   0.84074695   -7.9089891    628.61942   0.02015581  0.019830455            3 
 2600000   0.83323419   -7.8926634    627.27779  0.020105058  0.019824337            2 
 2601000   0.84840783   -7.9044138    628.69702  0.020142798  0.019818213            2 
 2602000   0.86092328   -7.8894859     628.4206  0.020126204   0.01981212            2 
 2603000    0.8306464   -7.8998005    627.66112  0.020094158  0.019806027            1 
 2604000    0.8581317   -7.8909111    627.01966  0.020065913  0.019799922            2 
 2605000   0.84277922   -7.8877541    629.52792  0.020138449  0.019793832            2 
 2606000   0.83107845   -7.8922335     627.9274  0.020079541  0.019787714            1 
 2607000   0.81704479    -7.896921    628.14132  0.020078677   0.01978159            2 
 2608000    0.8182913   -7.9158733    627.66888  0.020055882  0.019775449            5 
 2609000   0.86095293   -7.9179822    626.53036   0.02001183  0.019769301            4 
 2610000   0.83831809   -7.8863476    628.16485  0.020056349  0.019763175            4 
 2611000   0.83623774   -7.8982743    628.69053  0.020065445  0.019757078            2 
 2612000   0.83833141   -7.9001137     627.5486  0.020021331   0.01975097            2 
 2613000   0.83666614   -7.9009584    627.17936  0.020001893  0.019744851            1 
 2614000   0.81336666   -7.8882941    628.85108  0.020047535   0.01973877            4 
 2615000    0.8475455   -7.8786623    628.73899  0.020036297  0.019732715            4 
 2616000   0.85731461   -7.8554638    627.92078  0.020002573   0.01972663            1 
 2617000   0.84354508   -7.9015595    629.59868   0.02004836  0.019720544            5 
 2618000   0.83061433   -7.8685262    629.66567  0.020042834  0.019714478            2 
 2619000   0.83378134   -7.8892723    629.25178  0.020022012  0.019708417            4 
 2620000   0.84674235   -7.9125551    628.28254  0.019983541  0.019702349            2 
 2621000   0.85151129   -7.8880784    629.32226  0.020008974  0.019696283            2 
 2622000   0.82353988   -7.9016937    628.87421  0.019987103  0.019690203            2 
 2623000   0.83129159   -7.8613265    629.96183  0.020014037  0.019684188            2 
 2624000   0.80517028   -7.8742665    629.83606  0.020002416   0.01967818            4 
 2625000   0.83771496   -7.8982311    630.94684  0.020030059  0.019672162            5 
 2626000   0.82607354   -7.8801901    629.85026  0.019987632  0.019666156            2 
 2627000   0.83241828    -7.882898    630.67372  0.020006145  0.019660138            1 
 2628000   0.81733621   -7.9112601     630.0802  0.019979712  0.019654098            5 
 2629000   0.84455957   -7.9193948    629.71984   0.01996069  0.019648087            1 
 2630000   0.81844173   -7.9223709    628.36316  0.019910113  0.019642054            4 
 2631000   0.83866335   -7.9145852    628.85584   0.01991815  0.019635981            3 
 2632000   0.83004269   -7.9149717    628.13995  0.019887916  0.019629903            3 
 2633000   0.82292942   -7.9272258    630.61259  0.019958621  0.019623844            2 
 2634000   0.83818253    -7.925739    629.84616  0.019926796  0.019617805            1 
 2635000   0.85486981   -7.9407363    629.73821  0.019915819  0.019611785            3 
 2636000   0.82144101   -7.9131885    630.88802  0.019944614  0.019605703            2 
 2637000    0.8332473   -7.9298237    629.61914  0.019896952  0.019599634            1 
 2638000   0.82434577   -7.9226252    629.11757  0.019873565  0.019593528            3 
 2639000   0.82453598   -7.8887245    630.97794   0.01992478  0.019587442            3 
 2640000    0.8223112   -7.9267867    629.36472  0.019866311  0.019581404            1 
 2641000   0.82208037    -7.902453    630.98573  0.019909937  0.019575334            1 
 2642000   0.83814649   -7.8711855    631.79565  0.019927947   0.01956931            3 
 2643000   0.81946733   -7.9029373    630.31016  0.019873571  0.019563293            4 
 2644000   0.84625293   -7.8782532    629.19252  0.019830828  0.019557283            2 
 2645000   0.82086994   -7.8959676    630.31481   0.01985869  0.019551238            1 
 2646000   0.82486928   -7.9196609    629.62777  0.019829547  0.019545229            1 
 2647000   0.83050034    -7.913326    631.09906  0.019868375    0.0195392            3 
 2648000   0.83630894    -7.913495    631.49797  0.019873425  0.019533156            2 
 2649000   0.82901559   -7.9313162    631.56856  0.019868144  0.019527131            1 
 2650000   0.81260358   -7.9242827    630.28488  0.019820279  0.019521086            2 
 2651000   0.83129595   -7.9368989    630.60687  0.019822924  0.019515055            2 
 2652000   0.84096702   -7.9003971    631.25646  0.019835862  0.019509053            2 
 2653000   0.83542093    -7.927676    631.39918  0.019832868  0.019503054            3 
 2654000   0.83289828   -7.8983526    631.35539   0.01982402  0.019497024            4 
 2655000   0.82915396   -7.9018045    631.41823  0.019818526  0.019490993            3 
 2656000   0.82723248   -7.9023466    631.26722  0.019806326  0.019484993            3 
 2657000   0.80264028   -7.8843416    632.81007  0.019847261  0.019479035            3 
 2658000   0.83254287   -7.9090412    632.57975  0.019832573  0.019473083            2 
 2659000   0.83554974   -7.9066727    632.04411  0.019808327   0.01946711            2 
 2660000   0.84247891   -7.9167696    633.11053   0.01983429  0.019461108            3 
 2661000   0.82045965   -7.9131977    632.07124  0.019794289  0.019455105            2 
 2662000   0.83390059   -7.9455985    630.88999  0.019749875   0.01944909            1 
 2663000   0.80835618   -7.9033342    630.85573  0.019741386  0.019443097            1 
 2664000   0.81858395   -7.9460183    630.70257  0.019729185  0.019437105            2 
 2665000   0.82986739   -7.8967007    634.03038   0.01982584  0.019431124            8 
 2666000   0.81117341   -7.9430544    630.88612  0.019720121  0.019425152            5 
 2667000   0.81909498   -7.9303617    633.43405   0.01979234  0.019419169            1 
 2668000   0.84387281    -7.884054    632.47711  0.019755032  0.019413205            2 
 2669000   0.82270938    -7.912834    632.40549  0.019745394  0.019407259            5 
 2670000     0.831759   -7.9166467    633.03868  0.019757762  0.019401294            1 
 2671000   0.84349388   -7.9429936    632.44416  0.019731816  0.019395324            3 
 2672000   0.81628802   -7.8896451    632.19648  0.019716706  0.019389332            1 
 2673000   0.83391636   -7.9273941    631.86564  0.019699016  0.019383353            3 
 2674000   0.82997109   -7.9194753    632.30337  0.019705291  0.019377349            2 
 2675000   0.85190429   -7.9290439    631.24887  0.019665074  0.019371362            2 
 2676000   0.80835648   -7.9312542    631.88694  0.019677595  0.019365397            2 
 2677000   0.83378579   -7.9150289    632.81159  0.019699029  0.019359429            2 
 2678000   0.82639127   -7.9684661    632.23032  0.019673585  0.019353463            2 
 2679000   0.80711665   -7.9216488     634.0998  0.019724393  0.019347508            1 
 2680000   0.82058533    -7.909834    634.78538  0.019738351  0.019341583            3 
 2681000   0.82021615   -7.9337427     632.7567  0.019667932  0.019335637            3 
 2682000   0.83255952   -7.9731622    632.33608  0.019647529  0.019329658            2 
 2683000   0.81637755   -7.9398097    632.37349  0.019641368  0.019323687            1 
 2684000    0.8245052   -7.9069151    634.18507  0.019690296  0.019317743            3 
 2685000     0.815212   -7.9218981    633.43627  0.019659723  0.019311834            2 
 2686000   0.81579326   -7.9337905    634.17973  0.019675469  0.019305928            2 
 2687000   0.83421656   -7.9381799    633.43968  0.019645195  0.019299976            3 
 2688000   0.82912046   -7.9210463    633.84925  0.019650585  0.019293985            2 
 2689000    0.8238208   -7.9102438    633.43464  0.019630428  0.019288034            2 
 2690000   0.82834307    -7.892783    634.69037  0.019662031  0.019282103            3 
 2691000   0.80757108   -7.9109523    634.24742  0.019641008  0.019276194            3 
 2692000   0.82410973   -7.9093246    634.38194  0.019637876  0.019270241            2 
 2693000   0.82526536   -7.9011151    635.60765  0.019668512  0.019264321            2 
 2694000   0.82506851   -7.9145445    633.93163  0.019609367  0.019258391            3 
 2695000   0.82138981    -7.929228    634.71789  0.019626404  0.019252479            1 
 2696000   0.81596121   -7.9415768      634.215  0.019603579  0.019246521            1 
 2697000   0.82000209   -7.9417704    634.44426  0.019603395  0.019240587            2 
 2698000   0.82411867   -7.9415028    633.72655  0.019573961  0.019234671            1 
 2699000   0.82640107   -7.8956348    635.05312  0.019607667   0.01922873            1 
 2700000   0.80987395   -7.9293797    634.75794  0.019591294   0.01922279            2 
 2701000   0.80558088   -7.9210824      635.058  0.019593299  0.019216868            1 
 2702000   0.80532516   -7.9472846    634.05582  0.019555139  0.019210945            3 
 2703000   0.82313246   -7.9256228    634.64841  0.019566174  0.019205002            4 
 2704000   0.81973234   -7.9503128    634.20364  0.019545231  0.019199046            3 
 2705000   0.81181528   -7.9574852    632.35842  0.019481159  0.019193092            2 
 2706000   0.81810314   -7.9316092    634.52412  0.019540654  0.019187115            2 
 2707000   0.81220034   -7.9626112    633.47368  0.019501098  0.019181138            1 
 2708000   0.82293691   -7.9460243    635.05742  0.019542634   0.01917518            4 
 2709000   0.82202388    -7.961548    634.32222  0.019512804  0.019169203            2 
 2710000   0.81406832   -7.9673004    632.08361  0.019436765  0.019163227            2 
 2711000   0.82778556   -7.9510863    634.34139  0.019498998  0.019157257            3 
 2712000   0.81519798   -7.9470578     634.3167  0.019491049  0.019151281            2 
 2713000   0.78592841   -7.9519377    634.35629  0.019485081  0.019145326            2 
 2714000   0.81352534   -7.9475761    634.71191  0.019488821  0.019139408            1 
 2715000   0.82762583   -7.9575861    635.61928  0.019509493  0.019133483            3 
 2716000   0.81953313   -7.9098788    634.67247  0.019473259  0.019127584            1 
 2717000    0.8146151   -7.9227806    635.00489  0.019476288   0.01912164            4 
 2718000   0.82716124   -7.9154539    635.27242  0.019477324  0.019115731            3 
 2719000   0.81342374   -7.8977024    636.47846  0.019507125  0.019109841            2 
 2720000   0.82453311   -7.9261186     636.8625  0.019511719   0.01910396            3 
 2721000   0.84192679   -7.9253268    636.48954  0.019493126   0.01909807            1 
 2722000   0.80819767   -7.9486968    636.54006  0.019487511  0.019092183            2 
 2723000   0.80920668   -7.9221305    637.43869  0.019507856  0.019086325            2 
 2724000   0.83610086   -7.9732139      636.162  0.019461637  0.019080459            2 
 2725000   0.83846683   -7.9475031    634.94475  0.019417271  0.019074565            1 
 2726000   0.81938006   -7.9462026    635.74568  0.019434632  0.019068689            2 
 2727000   0.80893779   -7.9273155    637.27892  0.019474359  0.019062841            2 
 2728000   0.84166429   -7.9463376     636.1757   0.01943352  0.019056997            2 
 2729000   0.79754265   -7.9488925    636.77396  0.019444667  0.019051165            1 
 2730000   0.83233545   -7.9316892    638.37115  0.019486299  0.019045342            3 
 2731000   0.82282788   -7.9394285    637.44397  0.019450872  0.019039544            2 
 2732000   0.82568748   -7.9488843    635.71457  0.019391001  0.019033719            1 
 2733000   0.80337634   -7.9433125    637.36162  0.019434127  0.019027884            1 
 2734000   0.81138122   -7.9297241    639.22631  0.019483855  0.019022089            2 
 2735000   0.81717075   -7.9095804    638.57967  0.019457028  0.019016275            1 
 2736000   0.81009093   -7.9007303    637.82721  0.019426998  0.019010513            2 
 2737000   0.80195447   -7.9245103    639.72061  0.019477549  0.019004756            3 
 2738000    0.8094005   -7.9287609    638.43521  0.019431313  0.018998982            2 
 2739000   0.79786665   -7.9234283    635.80289  0.019344131  0.018993215            3 
 2740000   0.81543533   -7.9541894    638.63268  0.019423135  0.018987419            3 
 2741000   0.80988538   -7.9623157    638.70735  0.019418319  0.018981641            5 
 2742000   0.80409607   -7.9480996    637.89167  0.019386448  0.018975842            2 
 2743000   0.82235692   -7.9339047    637.78261  0.019376067  0.018970025            5 
 2744000   0.79847062   -7.9927087    636.00683  0.019315076  0.018964219            2 
 2745000   0.80532788   -7.9346766    637.08314  0.019340715  0.018958385            1 
 2746000   0.79498726   -7.9583899    638.52118  0.019377312   0.01895257            1 
 2747000   0.81860299   -7.9348021    639.04216  0.019386062  0.018946747            3 
 2748000   0.81084071   -7.9652637     637.6937  0.019338116  0.018940916            1 
 2749000   0.81077881   -7.9514541    637.96779   0.01933939  0.018935097            1 
 2750000   0.83037678   -7.9486069    638.31171  0.019342779  0.018929267            3 
 2751000   0.82159506   -7.9565952    637.97191  0.019325455  0.018923432            2 
 2752000   0.81891116   -7.9772625    638.63517  0.019338517  0.018917612            3 
 2753000   0.81393097   -7.9277261    639.63877  0.019361871  0.018911823            4 
 2754000   0.81119857   -7.9789954    637.98136  0.019304689  0.018905996            2 
 2755000    0.8063247   -7.9635075    640.44609  0.019372235  0.018900187            1 
 2756000   0.80662566   -7.9757102     638.0652  0.019293215  0.018894376            1 
 2757000   0.82628121   -7.9791378    637.81083  0.019278528  0.018888576            3 
 2758000   0.80895209   -7.9627196    639.14844  0.019311954  0.018882757            2 
 2759000   0.79151059   -7.9552078    638.90957   0.01929774  0.018876943            1 
 2760000   0.80865775    -7.941591    639.51327  0.019308975  0.018871157            1 
 2761000   0.82117913   -7.9513929    638.41227  0.019268751   0.01886536            1 
 2762000   0.80566671   -7.9783161    638.75767  0.019272196  0.018859563            2 
 2763000   0.82192429   -7.9636572    639.48968  0.019287299  0.018853783            2 
 2764000   0.80329726   -7.9456534     639.0216  0.019266208  0.018847994            1 
 2765000   0.80792833    -7.936239     639.1901  0.019264319  0.018842224            2 
 2766000   0.80703275    -7.937403    640.36125  0.019292638  0.018836442            3 
 2767000   0.81777271   -7.9523048    638.96206  0.019243527  0.018830628            5 
 2768000   0.80044934   -7.9393548    637.42867   0.01919041  0.018824862            1 
 2769000   0.80552921   -7.9577601    638.84668  0.019226155  0.018819116            1 
 2770000   0.81906049   -7.9400653      640.849  0.019279453  0.018813363            3 
 2771000   0.82053621   -7.9441237    640.85512  0.019272679  0.018807611            3 
 2772000    0.8098999    -7.949629    640.29952  0.019249024  0.018801867            2 
 2773000   0.78822226   -7.9874026    639.69488  0.019223912  0.018796105            1 
 2774000   0.80473661   -7.9594777    638.48109  0.019180518  0.018790363            3 
 2775000   0.80645342   -7.9394152    641.06473  0.019251193  0.018784665            1 
 2776000    0.8180409   -7.9493352    640.70588  0.019233486  0.018778935            5 
 2777000   0.79606717    -7.975538    640.21616  0.019211864  0.018773191            1 
 2778000   0.80911808    -7.976226    640.49219  0.019213229  0.018767446            4 
 2779000   0.80287497   -7.9592134    640.36979  0.019202644   0.01876168            1 
 2780000   0.80823362      -7.9299     642.6518  0.019264143  0.018755974            2 
 2781000    0.8060789   -7.9894187    639.79402  0.019171582  0.018750238            2 
 2782000   0.81542879   -7.9772619    639.82099  0.019165498  0.018744498            2 
 2783000   0.81933684   -7.9581483    641.61937  0.019212462  0.018738767            1 
 2784000   0.80481272   -7.9662625    642.60004  0.019234915  0.018733048            2 
 2785000   0.80343572   -7.9568511     640.3467  0.019160583  0.018727357            2 
 2786000   0.79936704   -7.9695481    640.05042  0.019144844  0.018721637            1 
 2787000   0.80604127   -7.9947118    640.30226  0.019145505  0.018715889            1 
 2788000   0.80357076   -7.9708426    641.31333  0.019168858  0.018710133            1 
 2789000    0.7892671   -7.9807646     641.1146  0.019156047  0.018704393            3 
 2790000   0.79072392    -7.986129    640.07761  0.019118208   0.01869863            2 
 2791000   0.82295527   -7.9827959    640.04606  0.019110416  0.018692869            3 
 2792000     0.796446   -7.9675359    639.56935  0.019089343  0.018687115            2 
 2793000   0.81425454   -7.9959927    641.01479  0.019125635  0.018681402            2 
 2794000   0.79238578   -7.9866394    640.44603  0.019101826  0.018675644            1 
 2795000   0.81293203   -8.0112222    641.60407  0.019129519    0.0186699            4 
 2796000   0.81060643   -7.9587376    641.02418  0.019105394  0.018664177            1 
 2797000   0.80591083   -7.9450622    641.27419  0.019106012   0.01865845            2 
 2798000   0.82973923   -7.9782494    641.60309  0.019108979  0.018652743            2 
 2799000    0.7940222   -7.9479086    641.36046  0.019094929  0.018647043            4 
 2800000   0.78889091   -7.9644149    640.76833  0.019070486  0.018641311            1 
 2801000   0.81070596   -8.0107629    641.09285  0.019073332  0.018635537            3 
 2802000   0.80524442   -8.0150845     641.0364  0.019064846  0.018629779            1 
 2803000    0.8064646   -7.9674932    641.31895  0.019066445  0.018624018            3 
 2804000   0.80369624    -7.982488    641.37457  0.019061299  0.018618273            4 
 2805000   0.80800955   -7.9691178    641.51924  0.019058801  0.018612554            3 
 2806000   0.81274727   -7.9679025    640.55741  0.019023444  0.018606852            1 
 2807000   0.80405737   -7.9835237    642.45593  0.019073029  0.018601149            2 
 2808000   0.79490025   -7.9751414    641.46378  0.019036793  0.018595457            2 
 2809000   0.80204552   -7.9581033    642.54382  0.019062057  0.018589837            1 
 2810000   0.78976632    -7.966984    643.21424  0.019075155  0.018584202            2 
 2811000   0.79620352     -7.96269    642.75759  0.019054832  0.018578558            3 
 2812000   0.80906283   -7.9362901    642.15073  0.019030071  0.018572905            4 
 2813000   0.78767901   -7.9638007    643.41842  0.019060861  0.018567279            3 
 2814000    0.8027962   -7.9784633    642.59768  0.019029782  0.018561618            2 
 2815000   0.79209794   -7.9800864    642.10365  0.019008397  0.018555934            2 
 2816000   0.80781247   -7.9749658    643.96575  0.019056752  0.018550227            2 
 2817000   0.80228025   -8.0148059       641.68  0.018982369  0.018544516            3 
 2818000   0.79180204   -8.0019266    641.02021  0.018956122   0.01853882            1 
 2819000   0.79405829   -8.0048378    644.56031  0.019054047  0.018533124            2 
 2820000   0.78521129   -7.9787662    642.98409  0.019000712  0.018527418            3 
 2821000   0.79411909   -7.9889081    642.39458  0.018976562   0.01852174            3 
 2822000   0.81542473    -7.967952    644.20757  0.019023375  0.018516098            2 
 2823000   0.80528758   -7.9380888    643.41697  0.018993298  0.018510456            3 
 2824000    0.8223759   -7.9587297      642.954  0.018972911  0.018504818            3 
 2825000   0.78300666   -8.0073563    642.01691  0.018938552  0.018499155            5 
 2826000   0.80806811   -8.0011845    643.50629  0.018975769  0.018493476            3 
 2827000   0.79448596   -8.0133065    642.79159  0.018947989  0.018487824            2 
 2828000   0.79981515   -7.9695754    644.02804  0.018977724  0.018482194            2 
 2829000   0.79632574    -7.999053    644.66937  0.018989907  0.018476584            2 
 2830000   0.80885686   -7.9655859    643.20778  0.018940158  0.018470943            4 
 2831000   0.79898108   -7.9925071     645.3963  0.018997889  0.018465312            1 
 2832000   0.81540169   -7.9781639    643.58271  0.018937815  0.018459648            3 
 2833000    0.7977875   -8.0050158    642.69585  0.018905043  0.018453993            1 
 2834000   0.77916954   -8.0009564    642.63863   0.01889669  0.018448318            3 
 2835000   0.79945818   -7.9773283    643.49609  0.018915229  0.018442645            3 
 2836000    0.8187681   -7.9906034    643.08987  0.018896623  0.018436963            2 
 2837000   0.79022026   -7.9856375    642.76641  0.018880461  0.018431234            2 
 2838000   0.80513523   -8.0137367    643.15094  0.018885099  0.018425536            3 
 2839000   0.79948878   -8.0128649    642.03466  0.018845681  0.018419844            5 
 2840000   0.79552678   -7.9879199    643.93147  0.018894703  0.018414153            2 
 2841000   0.79930625   -8.0241025    643.63373  0.018879319  0.018408469            2 
 2842000    0.7959159   -8.0022113    643.95406  0.018882069  0.018402803            2 
 2843000    0.7927342   -7.9896719    643.66751  0.018867027  0.018397117            2 
 2844000    0.7989068   -8.0013195    643.05234  0.018842368   0.01839143            4 
 2845000   0.77366148   -8.0194856    641.72707  0.018796927   0.01838573            2 
 2846000   0.80667158   -8.0099061    642.42109  0.018810643  0.018380045            2 
 2847000   0.78625727   -8.0390856    641.60692  0.018780205  0.018374338            3 
 2848000   0.80168849   -8.0019256    643.77672    0.0188371   0.01836864            1 
 2849000   0.78190364   -8.0186182    642.35822  0.018788997   0.01836297            4 
 2850000   0.78151379   -8.0139443    643.23963  0.018808176  0.018357292            2 
 2851000   0.78762611   -8.0292652    644.23805  0.018830763  0.018351604            2 
 2852000   0.79785701   -8.0191674    642.55349  0.018774938  0.018345902            1 
 2853000   0.79096858   -7.9887272    643.46108  0.018794867  0.018340186            2 
 2854000   0.80664039   -7.9837289    643.82109  0.018798794  0.018334516            4 
 2855000   0.78679495   -7.9885939     645.5773  0.018843471  0.018328855            2 
 2856000   0.79465677   -8.0251411    643.37098  0.018772496  0.018323203            3 
 2857000   0.79566819   -8.0011228    644.42238  0.018796593  0.018317525            1 
 2858000   0.80422906   -8.0100536    645.14194  0.018810996  0.018311861            2 
 2859000   0.80924126   -8.0163101    644.20572  0.018777128  0.018306217            1 
 2860000   0.79577257   -8.0054516    644.96796  0.018792773  0.018300567       -1e+20 
 2861000   0.79624701   -7.9989256      643.381   0.01873998  0.018294903            3 
 2862000   0.78330925   -8.0386617     642.7874  0.018716148  0.018289219            3 
 2863000   0.77509427   -8.0161318    642.47705  0.018700578  0.018283521            2 
 2864000   0.78558614   -8.0155568     644.0583  0.018740058  0.018277832            2 
 2865000   0.79198198   -8.0044528    643.12924  0.018706493  0.018272162            4 
 2866000   0.79027214    -8.045108    641.24837  0.018645277  0.018266449            2 
 2867000   0.78447969   -7.9956754    643.60843  0.018707372  0.018260793            2 
 2868000   0.79972173   -7.9858743    644.44741  0.018725227  0.018255132            2 
 2869000   0.80276793   -8.0247783    644.10025  0.018708617   0.01824947            1 
 2870000   0.79796403   -8.0253912     643.7298  0.018691341  0.018243811            2 
 2871000   0.79707879   -7.9964639    643.45813  0.018676946  0.018238123            3 
 2872000   0.79883418   -8.0083797    644.21631  0.018692442  0.018232471            2 
 2873000   0.80433127    -7.995535    644.13264  0.018683508  0.018226812            2 
 2874000   0.79304283    -8.024082    642.98776  0.018643811  0.018221145            1 
 2875000   0.78268123   -8.0112536    644.07487  0.018668837  0.018215516            3 
 2876000   0.78960134   -8.0197006    644.28542  0.018668446  0.018209868            3 
 2877000   0.78635932   -7.9626639    645.26483  0.018690326  0.018204226            3 
 2878000   0.78305044   -7.9812111    644.60504  0.018664728  0.018198592            2 
 2879000   0.79428108   -7.9911616     644.4137  0.018652706  0.018192951            2 
 2880000    0.7777457    -7.992162    645.66371  0.018682399   0.01818732            2 
 2881000   0.79582982   -7.9807157    645.14377  0.018660875  0.018181678            1 
 2882000   0.78184713    -8.031505    645.37091  0.018660968  0.018176028            1 
 2883000   0.77182914   -8.0088031    643.88439  0.018611527  0.018170374            2 
 2884000   0.78862216   -8.0242234    644.78934  0.018631222  0.018164698            2 
 2885000   0.78678279   -7.9971391    644.12164  0.018605478  0.018159047            1 
 2886000    0.7752325   -8.0228115    645.92874  0.018651211  0.018153391            1 
 2887000   0.80613207   -8.0021401    645.99353  0.018646621  0.018147752            2 
 2888000   0.80366113    -7.995196    646.46767  0.018653845  0.018142158            3 
 2889000   0.78928638   -8.0230323    644.27401  0.018584112  0.018136544            3 
 2890000   0.78944004   -8.0144936    644.67584  0.018589269  0.018130914            2 
 2891000   0.79356239    -8.023893    645.30116  0.018600864  0.018125271            2 
 2892000   0.80489847   -8.0147179    643.29001   0.01853648  0.018119651            2 
 2893000   0.78995368   -8.0012621     646.7991  0.018631153   0.01811404            2 
 2894000   0.78319379   -8.0136466    644.29671  0.018552658  0.018108445            2 
 2895000   0.79396327   -8.0055284    646.08302  0.018597669  0.018102839            4 
 2896000   0.79344827   -8.0312355    644.86593  0.018556225  0.018097214            2 
 2897000   0.77516087   -8.0176995    645.28934  0.018561999  0.018091578            2 
 2898000   0.78200187   -8.0062244    644.54955  0.018534321  0.018085989            2 
 2899000   0.77824096   -8.0351541     645.6654  0.018560004  0.018080378            2 
 2900000   0.77071118   -8.0255989    646.58814  0.018580119  0.018074753            2 
 2901000   0.78215568   -8.0286843    645.54784  0.018543831  0.018069153            3 
 2902000   0.79476212   -8.0157743    645.81211   0.01854503  0.018063569            1 
 2903000   0.80390317   -8.0004119    646.53635  0.018559431  0.018057997            1 
 2904000   0.81472173   -8.0198738    646.56902  0.018553978  0.018052459            4 
 2905000   0.78589058   -8.0246075    645.71793  0.018523176  0.018046914            1 
 2906000   0.78496006   -8.0305126    646.22646  0.018531385  0.018041358            5 
 2907000   0.78722731   -8.0058317    645.85202  0.018514277  0.018035797            2 
 2908000   0.78171431   -8.0287327    647.21569  0.018546988  0.018030237            1 
 2909000   0.77203253   -8.0187371    646.66729  0.018524902  0.018024677            2 
 2910000   0.77727624   -8.0048687    646.88942  0.018524897  0.018019095            4 
 2911000   0.77657501   -8.0141192    646.50255  0.018507459  0.018013508            2 
 2912000    0.8023502   -8.0305938    647.29168  0.018523686  0.018007937            4 
 2913000   0.79810707   -8.0269816    645.71282   0.01847216  0.018002364            1 
 2914000   0.77972352    -8.040111    645.71397  0.018465854  0.017996741            1 
 2915000   0.77878444   -8.0213345    646.00937  0.018467964  0.017991152            2 
 2916000    0.7725077   -8.0274035    645.10422  0.018435763  0.017985586            3 
 2917000   0.78624547   -8.0541795    645.57922  0.018443013  0.017980029            5 
 2918000   0.79040654   -8.0167678    646.14941  0.018452976  0.017974437            2 
 2919000   0.80184061   -7.9897889    647.76309  0.018492723  0.017968887            3 
 2920000   0.80034081   -7.9994509     646.5606  0.018452072  0.017963331            1 
 2921000    0.7810044   -8.0000416    646.75541  0.018451312  0.017957781            2 
 2922000   0.77225988   -8.0552492    646.39108  0.018434608  0.017952186            2 
 2923000   0.79495595   -8.0305271    647.07304  0.018447743  0.017946596            1 
 2924000   0.78944845   -8.0328926     647.1625  0.018443984  0.017941018            2 
 2925000    0.7972307   -8.0370493    646.49086  0.018418543  0.017935415            1 
 2926000   0.77046745   -8.0262069    645.52296  0.018384682  0.017929812            2 
 2927000   0.78659521   -8.0372884    646.48889  0.018405902  0.017924209            2 
 2928000   0.79823865   -8.0217786    646.05142  0.018387165   0.01791862            1 
 2929000   0.78729143   -8.0489486    646.03154  0.018380322     0.017913            3 
 2930000   0.78027235    -8.066406    644.60869   0.01833358  0.017907392            6 
 2931000    0.7906741   -8.0449092    645.55396  0.018354201  0.017901765            6 
 2932000   0.76988635    -8.028016    646.86992  0.018385343  0.017896167            1 
 2933000   0.78315197   -8.0113762     645.9126  0.018351875  0.017890573            2 
 2934000   0.76981202   -8.0215086    647.73128  0.018397276  0.017884952            2 
 2935000   0.75238056   -8.0073994    647.61916  0.018387824  0.017879347            3 
 2936000   0.78681193   -8.0355873    646.46655  0.018348846   0.01787374            3 
 2937000   0.81016967   -8.0421928    645.95872   0.01832819  0.017868146            1 
 2938000   0.78333774   -8.0773185    645.56345   0.01831074  0.017862506            3 
 2939000   0.78857996   -8.0050471    646.47726   0.01833042  0.017856868            2 
 2940000   0.77726699   -8.0377632    646.01587  0.018311107   0.01785125            3 
 2941000   0.78296408   -8.0363642    646.07846  0.018306655  0.017845629            1 
 2942000   0.77394544   -8.0565147    645.55971  0.018285738  0.017839986            3 
 2943000   0.80412703   -8.0326678    646.16861  0.018296767  0.017834347            2 
 2944000   0.78112558   -8.0540853    646.58225   0.01830226  0.017828722            2 
 2945000    0.7972938   -8.0572073    646.85314  0.018303711  0.017823108            2 
 2946000   0.77615237   -8.0312628    646.84486  0.018297263  0.017817525            3 
 2947000   0.78735463   -8.0134295    647.65874  0.018314069  0.017811936            1 
 2948000    0.7692606   -8.0630923    646.81688  0.018284059  0.017806353            2 
 2949000    0.7842663   -8.0253789    647.43459  0.018295314  0.017800777            1 
 2950000   0.78764166   -8.0392453    647.16193   0.01828141    0.0177952            3 
 2951000   0.77841162    -8.059817    645.27836  0.018222025  0.017789606            2 
 2952000   0.76752069   -8.0400456    646.35071  0.018246124  0.017784043            2 
 2953000   0.77928904   -8.0667938    646.46621  0.018243205  0.017778462            1 
 2954000   0.77145435    -8.070362     644.7216  0.018187813  0.017772844            3 
 2955000   0.75863312   -8.0364425    645.86661  0.018213949  0.017767211            1 
 2956000   0.77287596   -8.0462101    646.93192  0.018237819  0.017761591            1 
 2957000   0.75842352   -8.0636214    647.59686  0.018250391  0.017755975            2 
 2958000   0.77806571   -8.0865737     645.8084  0.018193836  0.017750341            2 
 2959000   0.77269399   -8.0377651    647.36497  0.018231524  0.017744713            1 
 2960000   0.76982955   -8.0583798    647.66759  0.018233885  0.017739098            1 
 2961000   0.77480471   -8.0654426    646.88845  0.018205799  0.017733483            1 
 2962000   0.75052006   -8.0274537    646.99813  0.018202738   0.01772786            5 
 2963000   0.77404921   -8.0613584    646.76038  0.018189908  0.017722234            3 
 2964000   0.77863731   -8.0705827    646.05286  0.018163879  0.017716595            2 
 2965000   0.78493256   -8.0551183    645.79056  0.018150381  0.017710967            3 
 2966000   0.78966793   -8.0358325    646.18307   0.01815529  0.017705355            7 
 2967000   0.79388467   -8.0745489    646.61312  0.018161249  0.017699751            3 
 2968000   0.79147925   -8.0356624    647.37953  0.018176649  0.017694137            1 
 2969000   0.78955367   -8.0582828    648.18991  0.018193272  0.017688554            1 
 2970000   0.77031864   -8.0718305    645.67609  0.018116613  0.017682969            1 
 2971000   0.76850481   -8.0399416    649.00336  0.018203841  0.017677377            2 
 2972000   0.80439627   -8.0394469    648.19331  0.018175003  0.017671801            1 
 2973000   0.77955007   -8.0314649    646.97839  0.018134836  0.017666206            3 
 2974000   0.76466243   -8.0379524    645.62974  0.018090948  0.017660628            1 
 2975000   0.77822449   -8.0113112      648.733  0.018171793  0.017655068            2 
 2976000   0.77060662   -8.0316887    647.84284  0.018140761  0.017649537            1 
 2977000   0.79016623    -8.014543    648.97776  0.018166436  0.017644028            3 
 2978000   0.77524031   -8.0327506    648.95445  0.018159683  0.017638502            3 
 2979000   0.76340401   -8.0545294    648.35074    0.0181367  0.017632969            2 
 2980000   0.76079589   -8.0513408    647.16207  0.018097373  0.017627417            2 
 2981000   0.77520318   -8.0142111    649.32818  0.018151856  0.017621874            2 
 2982000   0.78135097   -8.0727825    648.48444   0.01812219  0.017616306            1 
 2983000   0.78312296   -8.0587539    647.85517  0.018098535  0.017610736            2 
 2984000   0.76332728   -8.0632799    646.81283  0.018063361  0.017605165            7 
 2985000   0.78049224   -8.0629834    647.72814  0.018082863   0.01759962            3 
 2986000   0.79183588   -8.0737846    647.03732  0.018057527  0.017594034            2 
 2987000    0.7563627   -8.0847552    647.65869  0.018068817  0.017588442            1 
 2988000   0.78774877   -8.0901727    647.81459  0.018067118  0.017582864            1 
 2989000   0.76820117   -8.0768884    647.90765  0.018063668  0.017577282            3 
 2990000   0.76391464   -8.0746285    647.56017  0.018047942  0.017571703            1 
 2991000   0.78768856   -8.0466121    647.90532  0.018051525   0.01756614            3 
 2992000   0.76344011   -8.0504782    648.24239  0.018054879  0.017560605            2 
 2993000   0.77532794   -8.0499339     649.0681  0.018071837  0.017555065            2 
 2994000   0.76892332    -8.069337    647.23318  0.018014729  0.017549537            2 
 2995000   0.76680032   -8.0818611    647.10829  0.018005239  0.017543969            3 
 2996000   0.76303449   -8.0779057    647.86101  0.018020166  0.017538403            3 
 2997000   0.76301026   -8.0694722    649.13939  0.018049699  0.017532851            1 
 2998000   0.78017282   -8.0533196    649.55533   0.01805524  0.017527321            2 
 2999000    0.7843591   -8.0825937    649.58741  0.018050111  0.017521795            2 
 3000000   0.77747433   -8.0960723    647.73352  0.017992598  0.017516244            2 
 3001000    0.7675907    -8.069987     649.0832  0.018024081  0.017510703            3 
 3002000   0.76021287   -8.0895581    648.79327  0.018010028  0.017505153            1 
 3003000    0.7676817   -8.0809964    649.46925   0.01802279  0.017499616            4 
 3004000   0.76666079   -8.0725995    647.84385    0.0179717  0.017494081            2 
 3005000   0.76281026   -8.0670336    649.03473  0.017998745  0.017488574            1 
 3006000   0.76785125   -8.0781356    649.84948  0.018015344  0.017483067            2 
 3007000   0.77621016   -8.0715673    649.61674  0.018002903  0.017477569            2 
 3008000   0.75987052   -8.0508282    651.86491  0.018059201  0.017472064            2 
 3009000   0.77790015   -8.0597741    649.26246  0.017981125   0.01746656            2 
 3010000   0.77117817    -8.072784    648.17925  0.017945162  0.017461071            1 
 3011000   0.77294754   -8.0672295    648.55339  0.017949557  0.017455537            5 
 3012000   0.78211789   -8.0641886     648.4431  0.017940546  0.017450002            4 
 3013000   0.75815616   -8.1080966    648.90405  0.017947341  0.017444447            3 
 3014000    0.7570184   -8.0871363    649.17601  0.017948905  0.017438887            2 
 3015000   0.74879618   -8.0861402     649.1746  0.017942913  0.017433336            2 
 3016000   0.77632717   -8.0860746    647.99017  0.017904238  0.017427798            4 
 3017000   0.76469015   -8.0718951     648.7149  0.017918321  0.017422265            1 
 3018000   0.77543194   -8.0798071    647.74391  0.017885573  0.017416716            2 
 3019000   0.75545151   -8.0488225      648.966  0.017913382  0.017411183            3 
 3020000   0.78124338   -8.0991018    648.25028  0.017887701  0.017405622            1 
 3021000   0.76649414   -8.0908177    649.18111  0.017907457  0.017400039            1 
 3022000   0.78302338   -8.1094921    646.96127  0.017840317  0.017394449            1 
 3023000   0.75744628    -8.089869    648.25404  0.017870053  0.017388869            1 
 3024000   0.76586937   -8.0991828     648.2765  0.017864762  0.017383291            2 
 3025000   0.77213145   -8.1008804    648.73102  0.017871378  0.017377715            3 
 3026000   0.75774732   -8.0738737    648.23146  0.017851715  0.017372147            2 
 3027000   0.76355062   -8.1029632    648.90156  0.017864265  0.017366585            2 
 3028000   0.76547759   -8.1167556    649.10577  0.017863985  0.017361029            2 
 3029000   0.78663751   -8.0894679    649.45458  0.017867684  0.017355479            2 
 3030000   0.76346774   -8.0931468     647.4284  0.017806061  0.017349906            2 
 3031000   0.75747973   -8.0838775    649.04155  0.017844538  0.017344351            3 
 3032000   0.77696449   -8.0742884    649.47355  0.017850526  0.017338803            2 
 3033000    0.7489398   -8.0696505    649.91402  0.017856743  0.017333276            2 
 3034000   0.77377448   -8.0657878    648.93163  0.017823875  0.017327725            2 
 3035000   0.76769553   -8.0921224    649.59864  0.017836316  0.017322168            2 
 3036000   0.77235911   -8.0378216    649.41329  0.017825354  0.017316619            3 
 3037000   0.78098675   -8.0936988    647.04956  0.017754625  0.017311066            4 
 3038000   0.77242894   -8.0921013    648.20277  0.017780414  0.017305515            3 
 3039000   0.77923979   -8.0921793    649.68465  0.017815198  0.017299933            1 
 3040000   0.76602885   -8.1013382    647.43055  0.017747548  0.017294358            2 
 3041000   0.77565722   -8.1040925    646.38961  0.017713187  0.017288754            1 
 3042000   0.76850984   -8.1030888    648.17357  0.017756234  0.017283169            5 
 3043000   0.77872332   -8.0946782    647.25164  0.017725152  0.017277562            2 
 3044000    0.7599508   -8.0637422    648.64734  0.017757538  0.017272002            3 
 3045000    0.7581349   -8.0912608    647.96168  0.017732941  0.017266463            4 
 3046000   0.76720399   -8.0793208    649.17632   0.01776035  0.017260895            3 
 3047000   0.78078633   -8.0909883    649.23024  0.017755996   0.01725533            1 
 3048000   0.77064873   -8.0712219    647.97726  0.017715914  0.017249788            3 
 3049000   0.76991189   -8.0828599    649.91394  0.017763036  0.017244253            2 
 3050000   0.75141052    -8.083315    649.62927  0.017749434  0.017238729            2 
 3051000   0.75961391   -8.0695615    649.40663  0.017737535  0.017233201            5 
 3052000   0.76459438   -8.0600957    648.87005  0.017717072  0.017227677            3 
 3053000    0.7316434   -8.0758053    649.40014  0.017725738  0.017222151            7 
 3054000   0.76235827   -8.0928441    649.41413  0.017720316   0.01721663            2 
 3055000   0.77438769   -8.1029512     648.8092  0.017698014  0.017211116            1 
 3056000   0.74713091   -8.0896515    649.89546  0.017721844  0.017205594            3 
 3057000   0.76240166   -8.1086682    649.46733  0.017704376  0.017200079            3 
 3058000   0.75006751   -8.0718033    650.43515   0.01772496  0.017194552            1 
 3059000   0.76899328   -8.0933538    649.91917   0.01770511  0.017189062            2 
 3060000   0.76427812    -8.087217    648.74399   0.01766732  0.017183559            1 
 3061000   0.75682215   -8.1141779    648.38128  0.017651674  0.017178051            2 
 3062000   0.77947381   -8.1144877    648.74712  0.017655865  0.017172549            1 
 3063000   0.78199043    -8.106572    648.29334  0.017637755  0.017167046            2 
 3064000   0.76633687   -8.0899187    648.55883   0.01763922  0.017161554            1 
 3065000   0.75729506   -8.0900841    649.77889  0.017666636  0.017156035            2 
 3066000   0.74601266   -8.1219865    649.33061   0.01764869  0.017150526            1 
 3067000   0.77836372   -8.1309755    649.68406  0.017652539  0.017145019            2 
 3068000   0.74519698   -8.1185766    649.39516  0.017638938  0.017139512            1 
 3069000   0.74717602   -8.0819077    648.46733  0.017607998  0.017133998            4 
 3070000    0.7510749   -8.1058209    649.91502  0.017641559  0.017128491            2 
 3071000   0.76343572   -8.1031238    649.51747  0.017625026  0.017122975            2 
 3072000   0.74156189   -8.1086272    649.11943  0.017608492  0.017117491            3 
 3073000   0.75382117   -8.0853097    650.73182  0.017646486   0.01711199            2 
 3074000   0.74097786   -8.1176403     649.6993  0.017612755  0.017106487            2 
 3075000   0.75927001   -8.1210916    650.09464  0.017617741  0.017100994            4 
 3076000   0.75263672   -8.0819865    650.54467  0.017624205  0.017095516            2 
 3077000   0.74996072   -8.1275089    650.56616   0.01761906  0.017090043            3 
 3078000   0.74600118   -8.0842469    650.55907  0.017613144  0.017084558            2 
 3079000   0.75207624   -8.0776914    650.78215  0.017613461   0.01707907            3 
 3080000   0.77661478   -8.1045017    650.42674  0.017598126  0.017073605            1 
 3081000   0.74702682   -8.1123295    651.66335  0.017625861   0.01706814            2 
 3082000   0.75020978   -8.1147959    651.40255  0.017613091  0.017062671            2 
 3083000   0.74463743   -8.0886147     651.1669  0.017601008  0.017057221            2 
 3084000   0.75997781   -8.1133417     650.9594  0.017589694  0.017051763            3 
 3085000   0.74388804   -8.0955789    651.09933  0.017587772  0.017046321            2 
 3086000   0.74577689   -8.1062803    651.43144  0.017591041  0.017040871            2 
 3087000   0.75758796   -8.0898548    651.72936  0.017593385  0.017035439            3 
 3088000   0.75989725    -8.103524     650.4551  0.017553301  0.017030003            4 
 3089000   0.77854119   -8.0948235     650.5992  0.017551505  0.017024574            2 
 3090000    0.7609582    -8.143445    649.72191  0.017522166  0.017019133            6 
 3091000   0.76533567   -8.1087354     651.2423  0.017557487  0.017013695            2 
 3092000   0.73998019   -8.1111948    652.26987  0.017579503  0.017008269            1 
 3093000   0.77222743   -8.1206892    651.64557  0.017556999  0.017002827            2 
 3094000   0.76322519   -8.1207778    651.19143  0.017539093  0.016997383            1 
 3095000   0.73685619   -8.1025527    649.78476  0.017495551  0.016991935            3 
 3096000   0.75143319    -8.118583    649.98415  0.017495267  0.016986492            3 
 3097000   0.77255795   -8.0868685     651.5567  0.017531931  0.016981056            4 
 3098000   0.76170709   -8.0916116    652.03536  0.017539148  0.016975619            5 
 3099000   0.75579255   -8.1071151    651.00031  0.017505655  0.016970206            4 
 3100000   0.74768883    -8.111674    650.77285  0.017493894    0.0169648            3 
 3101000   0.75382033   -8.1277373    651.38855  0.017504798  0.016959379            3 
 3102000   0.75762327   -8.0845477    651.56671  0.017503941  0.016953951            1 
 3103000   0.76614908   -8.0925616    652.50473  0.017523492  0.016948534            2 
 3104000   0.74735469   -8.0869363    652.43712  0.017516031  0.016943119            3 
 3105000   0.75767939   -8.0826314    652.95106  0.017524183  0.016937709            3 
 3106000   0.75389835   -8.0995014    651.64734  0.017483562  0.016932295            3 
 3107000   0.75258591   -8.0828412    651.86445  0.017483758  0.016926859            2 
 3108000   0.75811348    -8.103471    652.08715  0.017484104  0.016921442            3 
 3109000   0.74512413    -8.098999    650.52239  0.017436539   0.01691601            3 
 3110000    0.7721086   -8.1010808    650.77531  0.017437709  0.016910577            2 
 3111000    0.7449622    -8.111791     651.1016  0.017440844  0.016905136            2 
 3112000   0.74478934   -8.0872439    650.89867  0.017429806  0.016899706            1 
 3113000   0.75117826   -8.1295587    651.40507  0.017437763  0.016894294            2 
 3114000   0.73829176   -8.0950655     651.3512  0.017430722  0.016888877            2 
 3115000   0.76942042    -8.121023    650.22483  0.017394993  0.016883449            1 
 3116000   0.76822576   -8.1035927    649.97151  0.017382636  0.016877969            2 
 3117000   0.75804011   -8.1073989    650.24482  0.017384366  0.016872519            2 
 3118000   0.76375906   -8.0839891    652.06221  0.017427363  0.016867072            3 
 3119000   0.74613487   -8.1089206    651.10562  0.017396217  0.016861651            4 
 3120000   0.75433295   -8.1115853    652.05704  0.017416053   0.01685622            3 
 3121000   0.75712494     -8.12824    651.23072   0.01738841  0.016850768            2 
 3122000   0.73493146   -8.1017866    649.62169  0.017339891  0.016845295            2 
 3123000   0.75163229   -8.1470458    649.78125  0.017338597  0.016839828            4 
 3124000   0.74749543   -8.1471085     648.5593  0.017300451   0.01683435            3 
 3125000   0.74611183   -8.1258736    650.07878  0.017335434   0.01682889            2 
 3126000    0.7409055   -8.1344658    649.15519  0.017305267  0.016823439            1 
 3127000   0.75667886   -8.1378311    648.48639   0.01728191  0.016817978            2 
 3128000   0.77184583   -8.1239057    651.07001  0.017345215  0.016812544            1 
 3129000   0.74391354   -8.1111668    653.20759  0.017396601  0.016807111            3 
 3130000   0.75964211   -8.1305114    651.91987  0.017356759  0.016801674            2 
 3131000   0.75017093   -8.0987017    651.89837  0.017350643  0.016796251            2 
 3132000   0.74350425   -8.1437023    650.28244  0.017302108  0.016790818            3 
 3133000   0.75591454   -8.1127737    650.07516  0.017291073  0.016785381            2 
 3134000   0.73694486   -8.1161526    650.18061  0.017288359  0.016779946            2 
 3135000   0.75501581   -8.1206733    652.07612   0.01733323  0.016774539            1 
 3136000     0.739145   -8.1327012    649.97475  0.017271863  0.016769128            2 
 3137000   0.74929977   -8.1216069    651.03704  0.017294576   0.01676373            2 
 3138000   0.73477511   -8.0962581    653.25151  0.017347873  0.016758319            1 
 3139000   0.75320192     -8.08512    652.67829  0.017327129  0.016752912            4 
 3140000   0.75057123   -8.1137801    650.88072  0.017273905  0.016747521            3 
 3141000   0.72888607   -8.1018325    652.19491  0.017303271  0.016742122            1 
 3142000   0.75163528   -8.1288281     651.7303  0.017285442  0.016736697            2 
 3143000   0.75367369   -8.1301606    650.42265  0.017245271   0.01673125            3 
 3144000    0.7467412    -8.151979     649.1781  0.017206799  0.016725804            4 
 3145000   0.73896453   -8.1453035    651.78507  0.017270405  0.016720361            4 
 3146000    0.7480824   -8.1434874    651.33283  0.017252936  0.016714937            1 
 3147000    0.7461207     -8.13786    651.43984  0.017250287  0.016709507            2 
 3148000   0.74236696   -8.1158851     650.7411   0.01722631  0.016704076            4 
 3149000   0.73977913   -8.1624763    651.27397  0.017234941  0.016698618            3 
 3150000   0.73698922   -8.1399387    650.27798  0.017203121   0.01669315            2 
 3151000   0.73666734   -8.1223734    650.92635  0.017214809  0.016687706            2 
 3152000   0.74601801   -8.1406853    651.91934    0.0172356  0.016682261            2 
 3153000   0.76946571    -8.144225    650.45583  0.017191453  0.016676819            2 
 3154000   0.73128062   -8.1477194    650.08974   0.01717633  0.016671367            2 
 3155000   0.73672565   -8.1531624    650.77989  0.017189115  0.016665911            1 
 3156000   0.74758747   -8.1352652    650.94229  0.017187956   0.01666045            2 
 3157000   0.76071062   -8.1595661    650.85563  0.017180225  0.016654994            3 
 3158000   0.75365755   -8.1638946    648.92117  0.017123738  0.016649535            3 
 3159000   0.74588856   -8.1334466     650.5089  0.017160201  0.016644071            1 
 3160000   0.75284235   -8.1348437    651.73857  0.017187198  0.016638632            3 
 3161000   0.74332465   -8.1492138    648.88572  0.017106552  0.016633203            6 
 3162000    0.7353794   -8.1321833    651.43114  0.017168225  0.016627771            2 
 3163000   0.76651828    -8.155961    652.10257  0.017180487  0.016622339            2 
 3164000   0.75605865   -8.1443812    649.89824     0.017117  0.016616901            1 
 3165000   0.74398615   -8.1507951    651.06247  0.017142245  0.016611466            2 
 3166000   0.74214089   -8.1431386    652.79752  0.017182499  0.016606039            2 
 3167000   0.75151825    -8.115479    651.84119   0.01715191  0.016600618            2 
 3168000   0.73935107   -8.1198595    650.95057  0.017123068  0.016595202            2 
 3169000   0.72635656   -8.1308848    651.11832  0.017122076  0.016589783            2 
 3170000   0.74929961   -8.1406846    651.03772  0.017114556  0.016584357            2 
 3171000   0.72579209   -8.1650251    650.53075  0.017095836  0.016578926            2 
 3172000    0.7345942   -8.1600526    650.52544  0.017090307  0.016573457            1 
 3173000   0.73797611   -8.1616763    650.58977   0.01708661  0.016568002            3 
 3174000   0.75218618   -8.1600761    649.87261  0.017062398  0.016562538            3 
 3175000   0.73201946   -8.1392963    650.73906  0.017079765  0.016557072            5 
 3176000    0.7429854    -8.144761    651.86851  0.017104023  0.016551635            1 
 3177000   0.73145658   -8.1885682    650.59137  0.017065139  0.016546188            4 
 3178000    0.7420688    -8.170636    651.09334  0.017072932  0.016540742            2 
 3179000   0.74994111   -8.1497177    650.95577  0.017063955  0.016535302            1 
 3180000   0.74459407   -8.1320779    650.51715  0.017047095  0.016529885            2 
 3181000   0.73928009   -8.1478254    650.89767  0.017051705  0.016524459            3 
 3182000   0.74040993   -8.1631842    650.43546  0.017034241  0.016519007            4 
 3183000   0.72640968    -8.169301    650.29004  0.017025082  0.016513562            2 
 3184000   0.74243247   -8.1726836    648.81278  0.016981071   0.01650811            3 
 3185000   0.74111515   -8.1455281    649.17746  0.016985282  0.016502668            4 
 3186000   0.73890077   -8.1741161    650.10481  0.017004206  0.016497241            5 
 3187000    0.7641165   -8.1437752    651.06538  0.017023987  0.016491806            2 
 3188000   0.74555648   -8.1390802    650.26053  0.016997609  0.016486362            3 
 3189000   0.73425756   -8.1384062    650.51238   0.01699886  0.016480936            3 
 3190000   0.76153123   -8.1546847     651.3953  0.017016596  0.016475498            3 
 3191000   0.74816089   -8.1645087    650.67369  0.016992418  0.016470053            2 
 3192000   0.74921472   -8.1609772    650.91786   0.01699347  0.016464608            3 
 3193000   0.74251467   -8.1653795    651.95331  0.017015172  0.016459181            2 
 3194000   0.75098812   -8.1870842    649.92217  0.016956851  0.016453757            2 
 3195000   0.73528412   -8.1659377    650.34403  0.016962547  0.016448338            2 
 3196000   0.73830972   -8.1760566    651.73993  0.016993636  0.016442936            3 
 3197000   0.73462803   -8.1558822    651.52532  0.016982726  0.016437546            2 
 3198000   0.76019171    -8.167618    650.35457  0.016946909  0.016432142            1 
 3199000   0.72107973   -8.1423663    651.29051  0.016965992   0.01642674            2 
 3200000   0.71696481   -8.1671893     650.4961  0.016940003  0.016421327            4 
 3201000   0.72409354   -8.1588678    651.26886  0.016954828  0.016415908            2 
 3202000   0.75430954   -8.1621111    650.70935  0.016934972  0.016410473            3 
 3203000   0.73629218   -8.1659653    651.47139  0.016949511  0.016405061            1 
 3204000   0.74697628   -8.1553414    651.78541  0.016952388  0.016399659            3 
 3205000   0.72879877   -8.1569889    651.06865  0.016928462  0.016394259            3 
 3206000   0.74861186   -8.1295989    650.25173  0.016901948  0.016388877            1 
 3207000   0.73739813    -8.165723    651.54741  0.016930345  0.016383496            2 
 3208000   0.75488331     -8.15965    652.01385  0.016937184  0.016378115            2 
 3209000   0.73273025   -8.1780801    651.67392  0.016923079   0.01637272            1 
 3210000   0.73072038   -8.1859496    652.10382  0.016928967  0.016367325            1 
 3211000   0.73331733   -8.1670785     651.8928  0.016918219  0.016361919            3 
 3212000   0.72742744   -8.1501535    650.94253  0.016888297  0.016356535            2 
 3213000   0.75007792   -8.1320001    652.01278  0.016910799  0.016351172            1 
 3214000   0.74972212   -8.1741557    651.26806  0.016886228  0.016345815            1 
 3215000   0.75193412    -8.147736    652.78565  0.016920312  0.016340466            2 
 3216000   0.74134731   -8.1529247    652.20807  0.016900085  0.016335105            1 
 3217000   0.71842929   -8.1488639    652.57858  0.016904429  0.016329757            2 
 3218000   0.72713754   -8.1492681     653.0358  0.016911016  0.016324415            2 
 3219000     0.736442   -8.1672868    650.90066  0.016850488  0.016319058            2 
 3220000   0.72879304   -8.1502611    651.34097   0.01685665  0.016313715            1 
 3221000    0.7249953   -8.1703645    651.54345  0.016856655  0.016308356            3 
 3222000   0.74399685   -8.1782566    650.34744   0.01682049  0.016302992            1 
 3223000   0.72187805   -8.1739946    652.35101  0.016867076  0.016297625            2 
 3224000   0.72684772   -8.1642759    651.96752  0.016851931  0.016292251            1 
 3225000   0.75455675   -8.1481058    653.62994  0.016889663  0.016286929            2 
 3226000   0.74259554   -8.1485634    654.07442  0.016895909  0.016281612            2 
 3227000   0.73560682   -8.1431836    652.40966  0.016847682  0.016276274            2 
 3228000   0.73421843    -8.166321    653.78268  0.016877909  0.016270949            2 
 3229000   0.73158326   -8.1434357    652.65499  0.016843579   0.01626563            1 
 3230000   0.73041988   -8.1655679    650.40577  0.016780335  0.016260278            2 
 3231000   0.75099237   -8.1851919    650.30262  0.016772481  0.016254942            3 
 3232000   0.74623341   -8.1448106    653.27318  0.016843884  0.016249616            1 
 3233000   0.73668775   -8.1633989    652.34879  0.016814847  0.016244312            3 
 3234000   0.74513419   -8.1357555    654.44559  0.016863677  0.016239012            2 
 3235000   0.73016347   -8.1347639    653.30939  0.016829196  0.016233723            1 
 3236000   0.71985783   -8.1859879    653.10012  0.016818606  0.016228426            2 
 3237000   0.72753651   -8.1610995    652.87591  0.016807639   0.01622311            2 
 3238000   0.74867752   -8.1704574    653.39392  0.016815779  0.016217805            2 
 3239000   0.74724774   -8.1657869    651.84684  0.016770784  0.016212484            2 
 3240000   0.73923473   -8.1865324    652.25155  0.016776017  0.016207152            2 
 3241000   0.73573698    -8.162303    652.48457  0.016776833  0.016201818            3 
 3242000   0.72491111   -8.2030422    652.17764  0.016763768  0.016196485            3 
 3243000   0.73509425   -8.1929489    653.21567  0.016785273  0.016191148            1 
 3244000    0.7304918   -8.1682455    651.12106  0.016726291  0.016185817            3 
 3245000    0.7416238   -8.1680448    652.06285  0.016745322  0.016180493            1 
 3246000   0.73348258   -8.1763179    652.67568  0.016755896  0.016175151            2 
 3247000   0.74035488   -8.1746833    653.58138  0.016773981  0.016169822            2 
 3248000   0.75105697   -8.1654815    652.75597  0.016747639  0.016164507            4 
 3249000    0.7257568   -8.1718219    652.55089  0.016737224   0.01615919            1 
 3250000   0.72288536   -8.1663149    652.64308  0.016734438  0.016153884            4 
 3251000   0.71921187   -8.1842909    653.06473  0.016740099  0.016148584            2 
 3252000   0.72577218   -8.1747226    652.93953  0.016731743  0.016143273            2 
 3253000   0.71401202   -8.1689685    651.95427  0.016701359  0.016137979            2 
 3254000   0.70506362   -8.1700466    652.07833  0.016699404  0.016132667            3 
 3255000   0.72561082   -8.1825147    652.68344  0.016709765  0.016127347            4 
 3256000   0.74216322   -8.1709769    652.26502  0.016693925  0.016122024            2 
 3257000   0.73957699   -8.1748304    653.07481  0.016709518  0.016116713            2 
 3258000   0.74095387   -8.2004111    651.90341  0.016674427   0.01611141            1 
 3259000   0.73390494   -8.1575213    653.36161  0.016706597  0.016106098            1 
 3260000   0.73579474   -8.1759422    652.76465  0.016686213  0.016100796            1 
 3261000   0.72459978   -8.1700905     652.2732  0.016668537  0.016095481            2 
 3262000   0.72472444   -8.1959345     651.5318  0.016644487  0.016090155            2 
 3263000    0.7275426   -8.1845325    651.38209  0.016635563  0.016084841            2 
 3264000   0.73917137    -8.186086    652.42983  0.016657216  0.016079529            2 
 3265000    0.7311523   -8.1717236    652.50013  0.016653908  0.016074216            1 
 3266000   0.72351159   -8.1578601    652.27887  0.016643164  0.016068916            3 
 3267000   0.71028061   -8.1798666    653.83599  0.016677788  0.016063618            2 
 3268000   0.73200083   -8.1922543    653.10633  0.016654078  0.016058319            1 
 3269000   0.73159751    -8.184084    651.47321  0.016607352  0.016053031            2 
 3270000    0.7292177   -8.1668566    654.67526  0.016683875  0.016047724            2 
 3271000   0.72242232   -8.1725817    653.45011  0.016647562  0.016042422            2 
 3272000   0.71703533   -8.1829175    652.67612  0.016622762  0.016037112            2 
 3273000    0.7217682   -8.2025604    652.04311  0.016601566  0.016031808            4 
 3274000   0.72786064   -8.1521082    651.55938  0.016584183  0.016026499            1 
 3275000   0.72455729   -8.2356773    651.03541  0.016565786  0.016021192            1 
 3276000   0.72559629   -8.1913481    651.85519  0.016581583  0.016015873            1 
 3277000   0.73693185   -8.1965804    651.73747  0.016573529  0.016010548            3 
 3278000   0.72751397   -8.2073699    654.17315  0.016630393  0.016005233            1 
 3279000   0.72073922     -8.20234    653.36841   0.01660487   0.01599992            2 
 3280000    0.7177045   -8.1681041    653.57713   0.01660511  0.015994628            4 
 3281000   0.72188806   -8.1805259    652.76941  0.016579534   0.01598933            1 
 3282000   0.71969232   -8.2036241    651.49459  0.016542113  0.015984016            5 
 3283000   0.72228119   -8.1942139    652.18153  0.016554511  0.015978704            6 
 3284000   0.71981438   -8.1943254    652.25287  0.016551281   0.01597341            2 
 3285000   0.71324535   -8.1867848    652.31341  0.016547778  0.015968116            3 
 3286000   0.74120739   -8.2170443    653.07506  0.016562058  0.015962801            2 
 3287000   0.72930489   -8.2140055    651.95903  0.016528725  0.015957486            4 
 3288000   0.73299762   -8.2350444    651.73368  0.016517987  0.015952172            4 
 3289000   0.72491864   -8.2171087    652.20499  0.016524906  0.015946874            3 
 3290000    0.7263312   -8.1882523    652.69784  0.016532367  0.015941577            1 
 3291000   0.73911399   -8.2082019    654.00026  0.016560323  0.015936286            5 
 3292000   0.73235498   -8.1796837    653.40951  0.016540338  0.015931009            1 
 3293000   0.73069596   -8.1993519    651.31847  0.016482399  0.015925737            3 
 3294000   0.72063382   -8.1960011    652.85335  0.016516225  0.015920451            2 
 3295000   0.70599856   -8.2261812     652.2235  0.016495283   0.01591516            2 
 3296000   0.72794202   -8.1831305    652.72939  0.016503069  0.015909867            4 
 3297000   0.72489826   -8.1958289     652.1159  0.016482557  0.015904592            3 
 3298000   0.74026071   -8.1952931    653.20492  0.016505077  0.015899312            3 
 3299000   0.72271019   -8.2411384    653.23335  0.016500792  0.015894045            2 
 3300000   0.72183477   -8.1867003    653.13157  0.016493222  0.015888784            5 
 3301000   0.70624117   -8.2203519    652.46054  0.016471285  0.015883513            2 
 3302000    0.7094773    -8.176659    653.60975    0.0164953  0.015878248            6 
 3303000   0.71739935   -8.2060812    653.93944  0.016498624  0.015873001            2 
 3304000   0.72598431   -8.2043893    652.96234  0.016468986  0.015867737            3 
 3305000   0.73995259   -8.2022648    651.55654  0.016428556  0.015862452            2 
 3306000   0.72137406   -8.2133875    651.50664  0.016422329  0.015857155            2 
 3307000   0.72986893   -8.1945656    652.58519  0.016444542   0.01585185            1 
 3308000   0.73706844   -8.1905852    652.32684  0.016433062  0.015846558            2 
 3309000   0.72093018   -8.2112769     653.0932  0.016447396  0.015841266            3 
 3310000   0.71788948    -8.202887     651.8593  0.016411362  0.015835986            2 
 3311000    0.7197772    -8.202898    652.08884  0.016412183  0.015830701            2 
 3312000   0.74257644   -8.2232131    652.66316  0.016421678  0.015825429            2 
 3313000    0.7174721   -8.1943299    652.60572  0.016415276  0.015820149            2 
 3314000   0.72906199   -8.1759849    652.88762  0.016417411  0.015814879            4 
 3315000   0.71949886   -8.2013655    652.71663  0.016408161  0.015809616            1 
 3316000   0.71310445   -8.1884092    652.32799  0.016393446  0.015804366            1 
 3317000   0.72562249    -8.197703    653.36262  0.016414497  0.015799104            3 
 3318000   0.72677006   -8.1876345     653.0075   0.01640063  0.015793846            2 
 3319000   0.72841407   -8.1713792    652.95222  0.016394301  0.015788581            3 
 3320000   0.70984445   -8.2055587    652.47837  0.016377469  0.015783314            3 
 3321000    0.7206782   -8.2306718    652.63142  0.016376378  0.015778054            1 
 3322000   0.71287788   -8.2043926    653.52592  0.016393887  0.015772798            3 
 3323000   0.70887992   -8.2027849    652.90728   0.01637344  0.015767544            2 
 3324000   0.70378211   -8.1983556    652.96112  0.016369864  0.015762282            1 
 3325000   0.72742325   -8.1868404    652.04677  0.016342024   0.01575704            1 
 3326000   0.70499093   -8.2070253    652.63743   0.01635191  0.015751781            2 
 3327000   0.71393437   -8.2043399    653.04931  0.016357312  0.015746557            1 
 3328000   0.71791791   -8.2029377    652.86663  0.016347822  0.015741314            1 
 3329000   0.71134037   -8.1869841    653.42881  0.016356984  0.015736085            1 
 3330000   0.72051911   -8.1842766     653.8739  0.016363211  0.015730841            3 
 3331000   0.70529289   -8.2138739    653.34042  0.016344952  0.015725588            2 
 3332000    0.7152493   -8.1691585    653.99306  0.016356369  0.015720342            3 
 3333000   0.71570773     -8.18758    652.75696  0.016320556  0.015715097            2 
 3334000   0.71511757   -8.1632807    653.37906   0.01633121  0.015709855            3 
 3335000   0.72062486   -8.2134297    652.85024  0.016313099  0.015704619            4 
 3336000   0.72424963   -8.2338744    652.04907  0.016288196  0.015699383            1 
 3337000   0.71777886   -8.1949623    653.96262  0.016331101  0.015694154            3 
 3338000   0.72261253    -8.198823    655.61051  0.016367348   0.01568894            2 
 3339000   0.71652369   -8.1893442    653.59501  0.016312144  0.015683722            3 
 3340000   0.71916289   -8.2338961    652.37763  0.016276887  0.015678487            2 
 3341000    0.7165022   -8.1877843    653.75187  0.016306292  0.015673269            2 
 3342000   0.71600483   -8.1761999     654.0916  0.016309884  0.015668054            1 
 3343000   0.70439632   -8.2127592    653.28589  0.016284921   0.01566283            3 
 3344000   0.72849745   -8.2125727    653.97241  0.016297159  0.015657603            7 
 3345000   0.71823572   -8.1954302    651.60829   0.01623339  0.015652388            4 
 3346000   0.71101185   -8.1901429    652.19615   0.01624318  0.015647164            5 
 3347000   0.72143999   -8.2428581    653.81366  0.016278599  0.015641932            2 
 3348000   0.71306445   -8.2513293    652.43222  0.016239352  0.015636697            4 
 3349000   0.71835291   -8.2377609    652.99698  0.016248556  0.015631457            1 
 3350000    0.7110859   -8.2390136    651.91465  0.016216782   0.01562621            6 
 3351000   0.72146712    -8.202044    651.25237  0.016195473  0.015620954            2 
 3352000   0.72459332   -8.2400413    653.24535  0.016240189  0.015615711            4 
 3353000   0.72173224    -8.232306    653.03543  0.016230128  0.015610462            1 
 3354000   0.72573913   -8.1974852    651.53504   0.01618801  0.015605236            2 
 3355000   0.71066449   -8.2254095    653.08074  0.016221578  0.015599998            3 
 3356000   0.71163603   -8.2202163    652.05596  0.016191298  0.015594777            2 
 3357000   0.72295951   -8.2317719    651.92977  0.016183343  0.015589552            1 
 3358000   0.72452946    -8.216646    652.48214  0.016192231  0.015584318            2 
 3359000   0.72161932   -8.2130676    651.93701  0.016173886  0.015579066            2 
 3360000    0.7239623   -8.2129371    650.59866  0.016135879  0.015573814            2 
 3361000   0.71148997   -8.2252081    652.07683  0.016167729  0.015568567            1 
 3362000   0.71464474   -8.2586507    651.67855  0.016153048  0.015563309            2 
 3363000     0.725884   -8.2467235    652.36818  0.016165333  0.015558044            1 
 3364000   0.71324241   -8.2277785    651.07848  0.016128579  0.015552778            2 
 3365000   0.71544485    -8.232011    652.46914  0.016158225  0.015547547            3 
 3366000   0.70545005   -8.2415376    652.03692  0.016142724  0.015542309            1 
 3367000   0.71773756    -8.232095    651.58818  0.016126824  0.015537077            2 
 3368000   0.72642545   -8.2161414    651.88732  0.016129437  0.015531855            3 
 3369000    0.7163237   -8.2002316    653.16916  0.016156356  0.015526626            1 
 3370000    0.7072852   -8.1969278      653.023  0.016147948  0.015521415            1 
 3371000   0.70542633   -8.2394562    650.97266  0.016092472  0.015516194            1 
 3372000   0.72680169   -8.2531664    652.47202  0.016124753  0.015510979            1 
 3373000    0.7033234   -8.2022853    653.08961  0.016135231  0.015505763            2 
 3374000   0.70737246   -8.2577514    653.17329  0.016132516  0.015500536            5 
 3375000   0.71418292   -8.2339945    652.89225  0.016120796  0.015495304            3 
 3376000   0.70427465   -8.2349738    653.79629  0.016138337  0.015490089            2 
 3377000   0.71236714   -8.2434849    653.26861  0.016120536  0.015484887            2 
 3378000    0.7211217   -8.2238179    653.04632   0.01611028  0.015479685            4 
 3379000   0.70651502   -8.2211017    654.17411  0.016133326  0.015474494            1 
 3380000   0.70159383   -8.2365607     651.7249  0.016068168  0.015469291            3 
 3381000   0.72026443   -8.2256918    653.15414  0.016098643  0.015464091            2 
 3382000   0.71045547   -8.1983633    653.79598  0.016109698  0.015458894            3 
 3383000   0.70745077   -8.2130077    651.91702  0.016058652  0.015453695            5 
 3384000   0.70693601   -8.2190152    653.51451  0.016093245  0.015448485            3 
 3385000   0.70601786   -8.2470237     652.3703  0.016060323  0.015443282            2 
 3386000    0.7324702   -8.2153374    651.94561  0.016045127  0.015438087            2 
 3387000   0.71447215   -8.2082399    653.33399   0.01607455  0.015432898            3 
 3388000    0.7069677   -8.2037167    652.85816  0.016058101  0.015427718            2 
 3389000   0.68409749   -8.2160967    652.97381  0.016056207  0.015422525            2 
 3390000   0.71343635   -8.2173441    651.76704  0.016021805  0.015417317            1 
 3391000   0.70227501   -8.2173947    652.53544  0.016035964  0.015412118            2 
 3392000   0.71462475   -8.2394654    651.44347  0.016004409  0.015406929            1 
 3393000   0.70225796   -8.2151322     652.0625  0.016014896  0.015401746            3 
 3394000   0.70085115   -8.2187307    652.27728  0.016015451  0.015396569            2 
 3395000   0.69697176   -8.2119219    652.03225  0.016004719  0.015391391            4 
 3396000   0.72113234   -8.2144148    651.71805  0.015992296  0.015386198            1 
 3397000   0.71680381   -8.2218281    651.51138  0.015982518  0.015381001            1 
 3398000   0.69815301   -8.2197243    651.17227  0.015969498    0.0153758            4 
 3399000   0.71245775   -8.2229338    652.78499  0.016004339  0.015370607            3 
 3400000   0.71369634   -8.2029978    651.36949  0.015964939  0.015365423            3 
 3401000   0.70113738   -8.2120372     652.3506  0.015984284  0.015360217            3 
 3402000   0.70895001   -8.2334661    652.61817   0.01598614  0.015355041            3 
 3403000    0.7136284   -8.2254176    652.03598  0.015967185  0.015349848            4 
 3404000   0.70280169   -8.2128455    652.40808  0.015971604   0.01534466            2 
 3405000   0.70824032   -8.2469427    650.92503  0.015930618   0.01533946            4 
 3406000   0.72555989   -8.2458641    650.76911  0.015922125  0.015334262            1 
 3407000     0.700424   -8.2468756    653.01266  0.015972328  0.015329064            8 
 3408000   0.71273585   -8.2488165    650.86926   0.01591523  0.015323842            4 
 3409000    0.7012119    -8.234294    650.99339  0.015913596  0.015318624            2 
 3410000   0.71623468   -8.2646758     652.4049  0.015943424  0.015313401            2 
 3411000   0.70532151   -8.2334817    652.03366   0.01592968  0.015308181            1 
 3412000   0.70161122   -8.2377182    652.12496  0.015927241  0.015302984            3 
 3413000   0.71318026   -8.2317004    653.29436  0.015951127  0.015297784            4 
 3414000   0.70947549   -8.2318728    652.13183  0.015918078   0.01529259            2 
 3415000     0.712379   -8.2379962    652.12583   0.01591327  0.015287394            3 
 3416000    0.6984078   -8.2504736    651.96293  0.015904638  0.015282205            1 
 3417000   0.68900495    -8.251811     652.3186  0.015908658  0.015277009            1 
 3418000   0.70886976    -8.265778    651.84468  0.015892449  0.015271803            2 
 3419000   0.70209617   -8.2324292    651.82525  0.015887327  0.015266604            2 
 3420000     0.699029   -8.2816826    652.61792  0.015901996  0.015261414            2 
 3421000   0.69676659   -8.2444534    653.69518  0.015923589  0.015256214            2 
 3422000   0.70550532   -8.2724309    652.41072  0.015887656  0.015251025            3 
 3423000   0.70897411   -8.2489768     652.1852  0.015877525   0.01524584            1 
 3424000    0.6982231   -8.2404857    650.94198   0.01584263  0.015240667            2 
 3425000   0.69910211   -8.2407412     653.1119    0.0158908  0.015235486            2 
 3426000   0.71016478   -8.2440823    652.34054    0.0158674  0.015230313            1 
 3427000   0.70057751   -8.2653491     650.9231  0.015828302  0.015225133            1 
 3428000   0.71286053   -8.2662262    650.45393  0.015812279  0.015219949            2 
 3429000   0.68694804   -8.2347077    651.52055   0.01583359  0.015214772            5 
 3430000   0.69879774   -8.2567453    652.08711  0.015842738  0.015209598            2 
 3431000   0.71912325   -8.2518496    651.29333  0.015818841  0.015204431            4 
 3432000   0.69651069   -8.2802232    651.49245  0.015819067  0.015199257            3 
 3433000   0.70495254   -8.2620391    651.45828  0.015813629  0.015194079            2 
 3434000   0.70106196   -8.2237056    653.07722  0.015848311  0.015188926            2 
 3435000   0.70758774   -8.2538244    651.15699  0.015797113  0.015183791            2 
 3436000   0.71040641   -8.2505981    651.00706  0.015788879  0.015178652            1 
 3437000    0.7200637   -8.2409019    653.32578  0.015840505  0.015173513            2 
 3438000   0.69801845   -8.2536929    653.69037  0.015844735  0.015168367            7 
 3439000   0.70516535   -8.2377105    652.38826  0.015808575  0.015163239            1 
 3440000   0.69356567   -8.2410051    653.53121  0.015831667  0.015158107            2 
 3441000   0.70102724   -8.2187772    652.33255  0.015798037  0.015152987            3 
 3442000   0.69582337   -8.2796994    652.37738  0.015794533   0.01514784            4 
 3443000    0.7057574   -8.2539372    651.37386  0.015765656  0.015142701            3 
 3444000   0.69291231   -8.2461773     653.0932  0.015802681  0.015137565            2 
 3445000   0.69890601   -8.2184082    652.29761  0.015778849  0.015132443            3 
 3446000   0.69247385   -8.2654137    652.52973  0.015779883  0.015127295            2 
 3447000   0.69207426   -8.2469964    651.22113  0.015743669  0.015122161            2 
 3448000    0.7091944   -8.2672563    650.48982  0.015721428  0.015116991            1 
 3449000   0.71209097   -8.2538527    651.30119  0.015736474  0.015111826            1 
 3450000   0.70329625   -8.2431462    652.81366  0.015768446  0.015106661            1 
 3451000   0.70197438   -8.2605105    650.89346  0.015717509  0.015101493            2 
 3452000   0.71251351    -8.246394    651.90313  0.015737329  0.015096347            3 
 3453000   0.70516135    -8.278334    651.97732  0.015734562  0.015091194            1 
 3454000   0.69183498   -8.2648672    651.44063  0.015717058  0.015086043            1 
 3455000   0.70013693   -8.2520932    651.41933  0.015711995  0.015080899            1 
 3456000   0.70648253   -8.2666817     651.6421  0.015712821   0.01507575            2 
 3457000   0.68382961   -8.2832243    652.28231  0.015723708  0.015070615            2 
 3458000   0.69241988   -8.2751336    651.84374  0.015708592  0.015065472            3 
 3459000   0.70133254   -8.2815408    651.28633  0.015690622  0.015060332            1 
 3460000    0.6851522    -8.250423     652.0811  0.015705229  0.015055202            2 
 3461000   0.69498492   -8.2403528    652.15405  0.015702448  0.015050073            1 
 3462000   0.70106978   -8.2774699    651.51271  0.015682474  0.015044947            1 
 3463000    0.7060584   -8.2616852    653.40928  0.015723585  0.015039818            1 
 3464000   0.69082682   -8.2494942    654.51639  0.015745679  0.015034701            4 
 3465000   0.69542677   -8.2567822    651.58345  0.015670598  0.015029594            2 
 3466000   0.72075755   -8.2674463    652.10007  0.015678497  0.015024467            4 
 3467000   0.70211587   -8.2563506    652.47816  0.015683063  0.015019344            4 
 3468000   0.69095487   -8.2435566    651.41826  0.015653072  0.015014227            5 
 3469000   0.68821715   -8.2614452    651.03262  0.015639296   0.01500911            2 
 3470000   0.70190706   -8.2691613    652.68172  0.015674393  0.015003983            3 
 3471000   0.69249339   -8.2813117    651.62358  0.015644473  0.014998855            2 
 3472000   0.71303213   -8.2583459    651.75226  0.015643055  0.014993733            2 
 3473000   0.67622614   -8.2398692    652.64287  0.015659921  0.014988619            2 
 3474000   0.70754973   -8.2796528    652.20941  0.015645016  0.014983498            1 
 3475000   0.70297073   -8.2867627    651.58319  0.015625496  0.014978384            3 
 3476000   0.70459617   -8.2614995    652.44495  0.015641661  0.014973266            1 
 3477000   0.69345402   -8.2787898    652.09235  0.015628711  0.014968153            3 
 3478000   0.70436426   -8.2706455    652.37412  0.015630969  0.014963061            3 
 3479000   0.68276767   -8.2783936     652.7393  0.015635223  0.014957949            1 
 3480000   0.69220739   -8.3116847    651.45846  0.015600059  0.014952834            3 
 3481000   0.69973306   -8.2466383    651.95594  0.015607487  0.014947717            4 
 3482000   0.68075593   -8.2638065    652.52138  0.015616537  0.014942601            2 
 3483000   0.68109231   -8.2822719    650.63965  0.015567032   0.01493748            3 
 3484000   0.69649542   -8.2990621    650.96521   0.01557035  0.014932357            1 
 3485000   0.69595567   -8.2894376    651.43707  0.015577166  0.014927248            2 
 3486000   0.70967165   -8.2474299    651.83279  0.015582157  0.014922126            1 
 3487000   0.68228396   -8.2821285    652.24138  0.015587453  0.014917016            2 
 3488000   0.69713379   -8.3019099    653.11469  0.015603849  0.014911897            2 
 3489000   0.69102623   -8.2634518    653.03635  0.015597505  0.014906781            2 
 3490000   0.68541528   -8.2806742    649.39426  0.015506071  0.014901674            2 
 3491000   0.68194211   -8.2817471     652.9789  0.015587198  0.014896562            1 
 3492000   0.70232843   -8.2769837    652.31965  0.015567002  0.014891454            1 
 3493000   0.69111438   -8.2824653     652.2584  0.015561084  0.014886356            2 
 3494000   0.69871533   -8.2733314    652.21886  0.015555687  0.014881244            2 
 3495000   0.69414549   -8.2860065    651.54613  0.015535196   0.01487615            3 
 3496000   0.69058849   -8.2642821    651.64052  0.015533003  0.014871042            1 
 3497000   0.68406094   -8.2847766    653.46466   0.01557203  0.014865954            3 
 3498000   0.70296649   -8.2957417    650.92913  0.015507174  0.014860858            1 
 3499000    0.6818061   -8.2794697     651.4291  0.015514649  0.014855771            2 
 3500000   0.69352842   -8.2600723    652.04886  0.015524973  0.014850696            2 
 3501000   0.69128627   -8.2621657    652.76982  0.015537699  0.014845626            2 
 3502000   0.68027392   -8.2278145    652.50231  0.015526897  0.014840566            1 
 3503000   0.70162691    -8.241784    652.87653  0.015531367  0.014835513            2 
 3504000   0.68684376   -8.2866362    651.66201   0.01549805  0.014830464            2 
 3505000   0.69175265   -8.2579871    653.03355  0.015526238  0.014825417            2 
 3506000   0.68635275   -8.2568358    652.13598  0.015500475  0.014820368            1 
 3507000   0.69760332   -8.2454342    652.53456  0.015505526  0.014815319            4 
 3508000   0.68982461   -8.2559543    652.46878  0.015499543  0.014810259            4 
 3509000   0.67824028   -8.2911414    652.75772  0.015501988  0.014805198            2 
 3510000   0.67794082   -8.2875884    651.91986  0.015477679  0.014800136            4 
 3511000   0.68205557   -8.2854944    651.21316  0.015456498  0.014795061            3 
 3512000   0.67870565   -8.2777212    652.20957   0.01547574  0.014789993            3 
 3513000   0.69212558   -8.2865579     651.7061  0.015459391   0.01478491            2 
 3514000   0.69178731   -8.2824876    652.85358  0.015482204  0.014779836            3 
 3515000    0.6896159   -8.2678331    651.50407  0.015445805  0.014774752            2 
 3516000   0.69490338   -8.2835579    651.21077  0.015434461  0.014769668            2 
 3517000   0.67711143   -8.2918601    650.93664  0.015423577  0.014764597            2 
 3518000   0.68818775    -8.268845    652.78547  0.015462987  0.014759542            1 
 3519000   0.67453133   -8.2433362    653.17484  0.015467814  0.014754489            3 
 3520000   0.68778337   -8.2803321    652.09263  0.015437799   0.01474944            1 
 3521000   0.68170987   -8.2739693    651.75223  0.015425358  0.014744396            2 
 3522000   0.68508512   -8.2544786    652.06749  0.015428438  0.014739357            3 
 3523000   0.70011171   -8.2864949    652.55208  0.015435521  0.014734321            5 
 3524000   0.67449257   -8.2709062    651.79706  0.015413286  0.014729278            2 
 3525000   0.70294013   -8.3132912    651.74624  0.015407713  0.014724236            5 
 3526000   0.68907175   -8.2847833    651.15172  0.015389292  0.014719186            4 
 3527000    0.6876503   -8.2761765     652.0503   0.01540616  0.014714131            2 
 3528000   0.68647051   -8.2994609    651.96964  0.015399888  0.014709082            2 
 3529000   0.69598531   -8.2907427    651.57127  0.015386117  0.014704026            1 
 3530000   0.67210615   -8.2609576    652.85304  0.015412017  0.014698987            2 
 3531000   0.69237305   -8.3121746    650.24614  0.015346128  0.014693925            2 
 3532000   0.68573597   -8.2906928    650.47671  0.015347223  0.014688872            2 
 3533000   0.69632071   -8.3062227    651.43721  0.015365535  0.014683825            4 
 3534000   0.67832386   -8.2815448    650.70526  0.015343927  0.014678777            2 
 3535000   0.68831501   -8.3096007     652.1637  0.015373967  0.014673734            3 
 3536000   0.67420547   -8.2805949    651.65152  0.015357549  0.014668684            2 
 3537000   0.69287795   -8.3085705     651.6682    0.0153536  0.014663635            1 
 3538000   0.67247008   -8.2993274    652.01975  0.015357541  0.014658587            1 
 3539000    0.7018852   -8.2913203    651.18152  0.015333463  0.014653544            1 
 3540000    0.6893288   -8.2842536    652.30632   0.01535561  0.014648497            4 
 3541000   0.68576698   -8.3187197    651.95174  0.015342929  0.014643448            3 
 3542000   0.68674267   -8.3184042    651.23177  0.015321658    0.0146384            2 
 3543000   0.69122649   -8.2999128    650.44455  0.015298818  0.014633357            2 
 3544000   0.68766641   -8.2795537    651.34988  0.015315789  0.014628314            2 
 3545000   0.68055399   -8.2938353    651.42375  0.015313205  0.014623262            2 
 3546000   0.69654038    -8.307672    651.59213  0.015312844  0.014618209            3 
 3547000    0.6937527   -8.3156926    650.01157  0.015271393  0.014613162            4 
 3548000   0.68982445   -8.3318981    650.51538  0.015278922  0.014608112            4 
 3549000   0.68149004   -8.3232136    650.44934  0.015273066  0.014603062            2 
 3550000   0.68643294   -8.3360004    650.64083  0.015273259  0.014598014            3 
 3551000   0.66582462   -8.3251917    651.39351  0.015286621  0.014592963            2 
 3552000   0.68066732   -8.3245266    652.08099  0.015298447  0.014587902            2 
 3553000   0.66744377   -8.3249998    650.35587  0.015253679  0.014582838            2 
 3554000   0.68856355   -8.2965517    650.48576  0.015252433  0.014577779            3 
 3555000   0.67260713   -8.2904255    651.06474  0.015261714  0.014572734            3 
 3556000   0.69322804   -8.3266127    650.37216  0.015241192  0.014567691            4 
 3557000   0.67451243    -8.315289    651.77755  0.015269833  0.014562652            3 
 3558000   0.68481474   -8.3302846    651.32726  0.015254995  0.014557608            2 
 3559000    0.6816427   -8.3242456    649.74225  0.015213596  0.014552569            3 
 3560000   0.68263052   -8.3197212    649.37087  0.015200629  0.014547516            2 
 3561000   0.68619995   -8.3151667    651.81022  0.015253445  0.014542476            3 
 3562000    0.6941081   -8.3385891    650.39707  0.015216102  0.014537432            3 
 3563000    0.6775757   -8.3339885    650.73452  0.015219724  0.014532389            4 
 3564000    0.6736315   -8.3449466    649.68221  0.015190849  0.014527342            2 
 3565000   0.68196045    -8.346078    649.69411  0.015186866  0.014522301            3 
 3566000   0.68639041   -8.3614111    650.21962  0.015194887  0.014517261            2 
 3567000    0.6790473   -8.3170218    650.57722  0.015198982   0.01451222            3 
 3568000   0.67646588   -8.3573554    649.72563  0.015174833  0.014507182            1 
 3569000    0.6834216   -8.3052316    650.68972  0.015193092   0.01450215            1 
 3570000   0.68252817   -8.3228788    650.82809  0.015192066   0.01449713            5 
 3571000   0.67148536   -8.3454709    650.04115  0.015169447  0.014492096            5 
 3572000      0.69222   -8.3434392    649.30944   0.01514813  0.014487067            4 
 3573000   0.68459758   -8.3173364    649.61701  0.015151064  0.014482043            1 
 3574000   0.68706206   -8.3648089    650.05411  0.015157016  0.014477025            2 
 3575000   0.70170168   -8.3499206    649.98969  0.015151275  0.014471995            2 
 3576000   0.67410082   -8.3442641    649.50988  0.015135857  0.014466965            2 
 3577000   0.68508218   -8.3501685    650.02484  0.015143622  0.014461935            1 
 3578000   0.67941195   -8.3352072    650.36317   0.01514727  0.014456907            5 
 3579000   0.68309825   -8.3314306    651.52021  0.015169978  0.014451883            3 
 3580000   0.69015911   -8.3203159    650.55782  0.015143338  0.014446858            2 
 3581000   0.69145171   -8.3228467    651.30122  0.015156409  0.014441835            3 
 3582000   0.67720549    -8.343047    647.89477  0.015072929  0.014436813            6 
 3583000   0.67935033   -8.3077902    650.06305  0.015119152  0.014431788            2 
 3584000    0.6807655   -8.3012206    650.88136   0.01513396  0.014426765            2 
 3585000   0.66655689    -8.340441    650.99217  0.015132314  0.014421745            3 
 3586000   0.68223397   -8.3603433    649.07973  0.015083652  0.014416723            3 
 3587000   0.68565392   -8.3446945    649.54554  0.015090269  0.014411698            5 
 3588000   0.67075634   -8.3269743    649.71809  0.015090071  0.014406668            1 
 3589000   0.67990486   -8.3677521    648.48535  0.015057243  0.014401646            2 
 3590000   0.67394665   -8.3424659    649.94713  0.015086981   0.01439661            1 
 3591000    0.6825161   -8.3216568    650.34739  0.015092068   0.01439159            7 
 3592000   0.68567939   -8.3615507    649.37503  0.015065308  0.014386572            5 
 3593000   0.68503121   -8.3462791    649.65801  0.015067678  0.014381545            2 
 3594000   0.66705916    -8.347304    650.91516  0.015092635  0.014376539            2 
 3595000   0.68902119    -8.367762    650.25297  0.015073087  0.014371519            2 
 3596000   0.66272168   -8.3641828    648.86693  0.015036775  0.014366508            4 
 3597000   0.65507173    -8.341568    649.73258   0.01505265  0.014361506            1 
 3598000   0.67098878    -8.342071    649.17486  0.015035549  0.014356504            2 
 3599000   0.68171071   -8.3442588    650.62673  0.015064989  0.014351508            3 
 3600000   0.66820529   -8.3332838    649.44097  0.015033356  0.014346514            9 
 3601000   0.68121177   -8.3323741    650.14429  0.015045457  0.014341516            5 
 3602000    0.6833068   -8.3168208    650.52112  0.015049998  0.014336531            4 
 3603000   0.67224048    -8.348708    649.08472  0.015012599  0.014331551            6 
 3604000   0.67020134   -8.3551236    650.57809  0.015042964  0.014326564            3 
 3605000   0.67445992   -8.3311464    651.07049  0.015050173  0.014321569            2 
 3606000   0.67873551   -8.3436916    651.39217  0.015053433  0.014316586            2 
 3607000    0.6873942   -8.3490635    651.10669  0.015042665  0.014311612            1 
 3608000   0.68237836   -8.3605419    649.65746  0.015005023  0.014306636            2 
 3609000   0.67967303    -8.343788    650.92239  0.015030073   0.01430165            2 
 3610000   0.67915677   -8.3495507    649.77772  0.014999486  0.014296677            1 
 3611000   0.67156571   -8.3384811    650.70506  0.015016733  0.014291705            1 
 3612000   0.67293076    -8.344896    650.16913  0.015000211  0.014286724            4 
 3613000   0.67598543   -8.3430708    649.80924  0.014987758  0.014281752            1 
 3614000   0.68173561   -8.3348032    649.76179  0.014982517  0.014276801            1 
 3615000    0.6689563   -8.3484614    651.36507  0.015015331  0.014271842            4 
 3616000   0.66417987   -8.3239035    650.91452  0.015000796  0.014266892            2 
 3617000   0.66893317   -8.3596756    650.09083  0.014977671  0.014261939            2 
 3618000   0.67409989   -8.3405955    651.17124  0.014998416  0.014256986            2 
 3619000   0.67431772   -8.3318973    650.45049  0.014977675   0.01425204            1 
 3620000   0.66576908   -8.3594112    649.59262   0.01495379  0.014247092            2 
 3621000   0.68170221   -8.3520819    650.92408  0.014980302  0.014242144            2 
 3622000    0.6727571   -8.3401983      651.595  0.014991602    0.0142372            2 
 3623000   0.66923814   -8.3532359    651.31806  0.014981094  0.014232252            2 
 3624000   0.66313399   -8.3537075    650.13886  0.014949845   0.01422732            3 
 3625000   0.66525262   -8.3497823    650.62793  0.014956964  0.014222377            2 
 3626000   0.67041447   -8.3360425    651.38579  0.014970256  0.014217443            4 
 3627000   0.68384846   -8.3462188    650.16183  0.014938007  0.014212504            3 
 3628000   0.68715579   -8.3427688    649.39724  0.014916328  0.014207568            3 
 3629000   0.66156167   -8.3554256    650.30398  0.014933039  0.014202618            4 
 3630000   0.67885816   -8.3555427    649.97911  0.014921467  0.014197675            4 
 3631000   0.67611885   -8.3567906     650.9315  0.014939216  0.014192726            5 
 3632000   0.68781604   -8.3745223    649.82935  0.014909814  0.014187779            4 
 3633000   0.67724382   -8.3681233     650.0831  0.014911531  0.014182833            2 
 3634000   0.67663028   -8.3509635    649.27701  0.014888943  0.014177891            3 
 3635000   0.67106047   -8.3736704    650.90427  0.014922152  0.014172944            1 
 3636000   0.66104063    -8.356611    649.75613  0.014891734  0.014168002            1 
 3637000   0.66281831   -8.3598558    649.97745   0.01489271   0.01416306            1 
 3638000    0.6637201   -8.3682409    650.63578  0.014903697  0.014158124            2 
 3639000   0.67175814   -8.3679162     649.7544  0.014879417  0.014153183            1 
 3640000   0.66470308   -8.3625267    649.44528  0.014868253  0.014148247            1 
 3641000   0.69765619    -8.353216    649.86988  0.014873887  0.014143319            2 
 3642000   0.65966643   -8.3568103    649.24066  0.014855406  0.014138392            2 
 3643000   0.66948249   -8.3695921    649.61932   0.01485999  0.014133468            3 
 3644000   0.67208774   -8.3468555    648.77167  0.014836527  0.014128545            1 
 3645000   0.65865463   -8.3529519    649.70706  0.014853842   0.01412362            1 
 3646000    0.6598284   -8.3517206    651.29318  0.014886021  0.014118695            1 
 3647000   0.66459386   -8.3734199    649.93987  0.014851016  0.014113769            2 
 3648000   0.67221774   -8.3345708    650.02021   0.01484878  0.014108849            1 
 3649000   0.66402332   -8.3553339    651.04756  0.014868173  0.014103928            3 
 3650000   0.64943425   -8.3486646    650.45999  0.014850685  0.014099014            1 
 3651000   0.65553318    -8.362075    649.79625  0.014831467  0.014094101            5 
 3652000   0.66109429   -8.3523321    649.88561  0.014829445  0.014089194            3 
 3653000   0.65839383   -8.3638042    649.05271  0.014806385  0.014084278            1 
 3654000   0.67945691   -8.3466253    650.35191  0.014831963  0.014079359            1 
 3655000   0.65452575   -8.3688343     650.6659  0.014835064  0.014074452            1 
 3656000   0.65724265   -8.3686789    649.97068   0.01481516  0.014069533            2 
 3657000   0.68162838   -8.3616474     649.4078  0.014798282  0.014064623            3 
 3658000    0.6764753   -8.3451536    648.62292  0.014776356   0.01405971            3 
 3659000   0.67438655   -8.3372645     649.8017  0.014799164  0.014054805            2 
 3660000   0.66970155   -8.3572342    650.32858  0.014807117  0.014049904            2 
 3661000   0.68282897   -8.3533547    649.89058  0.014793103  0.014045004            2 
 3662000   0.66877333   -8.3348089    649.29929  0.014775607  0.014040105            4 
 3663000   0.65513122   -8.3579879    648.56661  0.014754905  0.014035208            1 
 3664000   0.66920463   -8.3661786    650.03206  0.014784208  0.014030312            4 
 3665000    0.6570755   -8.3815626     649.2262  0.014761851   0.01402542            5 
 3666000   0.66690377   -8.3589308    651.04125  0.014799083  0.014020527            3 
 3667000   0.68993593   -8.3359793    650.09678  0.014773584  0.014015642            3 
 3668000   0.67178177   -8.3577671    649.57039  0.014757597  0.014010761            2 
 3669000   0.66749935   -8.3693821     650.3851  0.014772079   0.01400588            3 
 3670000   0.67142948   -8.3624773    650.11558  0.014761934   0.01400101            3 
 3671000   0.67738316   -8.3721764     649.9932  0.014755135  0.013996149            1 
 3672000   0.65664917   -8.3464884     649.9646  0.014750468  0.013991274            2 
 3673000   0.67037241    -8.351442    650.69944  0.014763124  0.013986406            2 
 3674000   0.65940744   -8.3680051    648.86907  0.014717589  0.013981532            2 
 3675000    0.6493429   -8.3738562    650.54442  0.014751574  0.013976671            3 
 3676000   0.64103513   -8.3550635    650.04139  0.014736158  0.013971814            2 
 3677000   0.66155776   -8.3466144    651.10812  0.014756326  0.013966953            2 
 3678000   0.66151011   -8.3372238    650.28548  0.014733675  0.013962101            2 
 3679000   0.67321647   -8.3640264    650.17684  0.014727209  0.013957252            1 
 3680000   0.67499037   -8.3511857    650.99236  0.014741675  0.013952406            3 
 3681000   0.66956426   -8.3558646    649.61696  0.014706533  0.013947567            4 
 3682000   0.67532615   -8.3514153    650.93763  0.014732429  0.013942716            1 
 3683000   0.66247319   -8.3541579    650.42138  0.014716748  0.013937864            2 
 3684000   0.67397391   -8.3577706    651.22067  0.014730833  0.013933022            1 
 3685000   0.67469477   -8.3595199    650.45099   0.01470943  0.013928174            2 
 3686000   0.64902202   -8.3428838    650.42769  0.014704913  0.013923334            1 
 3687000   0.67300571   -8.3420787    650.43427  0.014701073  0.013918507            2 
 3688000   0.64924945   -8.3374633    650.71089  0.014703337  0.013913677            2 
 3689000   0.66398806   -8.3368852    649.94352  0.014682017  0.013908843            1 
 3690000   0.66236882   -8.3453438    649.52518   0.01466859  0.013904009            5 
 3691000   0.68604088   -8.3387062    649.38534  0.014661459  0.013899181            3 
 3692000    0.6728106   -8.3791663    649.88714  0.014668814  0.013894345            2 
 3693000   0.65777429   -8.3656019    649.56522  0.014657578  0.013889516            1 
 3694000   0.65705751   -8.3736458    649.84078  0.014659826  0.013884688            4 
 3695000   0.66175549   -8.3606542    650.45367  0.014669681  0.013879863            3 
 3696000   0.64050416   -8.3850626    649.71409  0.014649037  0.013875028            3 
 3697000   0.68721592   -8.3735339    649.25158  0.014634649   0.01387019            1 
 3698000   0.65419282   -8.3645137    650.24598    0.0146531  0.013865366            2 
 3699000    0.6577774   -8.3700733    651.57089  0.014678987  0.013860551            1 
 3700000   0.64074938   -8.3351855    650.93366  0.014660668  0.013855738            1 
 3701000   0.66043549   -8.3458832    650.04983  0.014636806  0.013850928            1 
 3702000   0.66277663   -8.3490721    649.83318  0.014627975  0.013846114            3 
 3703000   0.65150272    -8.346726    651.41019  0.014659515  0.013841294            1 
 3704000    0.6518399   -8.3659766    651.58891  0.014659578  0.013836484            2 
 3705000   0.66522488   -8.3451239    649.97727  0.014619372  0.013831673            2 
 3706000    0.6460924   -8.3699667    650.28335  0.014622309   0.01382686            2 
 3707000   0.64299207   -8.3416693    649.73461  0.014606029  0.013822054            2 
 3708000   0.66303287    -8.375386    650.52864  0.014619935  0.013817252            1 
 3709000    0.6581073   -8.3665206    650.85913  0.014623419  0.013812438            2 
 3710000    0.6571628   -8.3446197    651.04628  0.014623681  0.013807638            3 
 3711000   0.65023568   -8.3402477    650.42738  0.014605843  0.013802839            1 
 3712000    0.6483522   -8.3314262    651.07563  0.014616461  0.013798058            1 
 3713000   0.67052392   -8.3336118    650.88299  0.014608201  0.013793275            1 
 3714000   0.64861709   -8.3577358    650.85993   0.01460375  0.013788489            2 
 3715000   0.65933179   -8.3527994    649.68618   0.01457349  0.013783695            2 
 3716000   0.66649553   -8.3371569    651.74188  0.014615668  0.013778906            1 
 3717000   0.65416664   -8.3411612    651.49236  0.014606142  0.013774131            1 
 3718000   0.66652332   -8.3631552     650.6709  0.014583802  0.013769346            1 
 3719000   0.65105776   -8.3520868    649.98437  0.014564497  0.013764573            2 
 3720000   0.65107672   -8.3669112    650.64225  0.014575319  0.013759789            2 
 3721000   0.66729387   -8.3464097    651.13812  0.014582507  0.013755005            2 
 3722000   0.65738234   -8.3604627    650.83323  0.014571763  0.013750225            5 
 3723000   0.65660582   -8.3700454    650.69609   0.01456478   0.01374545            3 
 3724000   0.65996194   -8.3700288    649.39168  0.014531679  0.013740675            6 
 3725000   0.65859102   -8.3536288    650.27549   0.01454755  0.013735908            2 
 3726000   0.66693123   -8.3609855     649.7891  0.014532767  0.013731141            1 
 3727000   0.65876153   -8.3580512    650.97867  0.014555466   0.01372638            3 
 3728000   0.65198086    -8.371021    651.44557  0.014561999  0.013721625            1 
 3729000   0.65754956   -8.3788067    651.84048  0.014566919  0.013716864            3 
 3730000   0.66273702   -8.3725304    651.32317  0.014551456  0.013712109            1 
 3731000   0.65381458   -8.3831804    650.80667   0.01453602  0.013707352            3 
 3732000   0.64938921   -8.3832333    650.23321   0.01451932  0.013702593            2 
 3733000   0.64702095   -8.3775733    650.63841  0.014524476  0.013697826            2 
 3734000   0.65770534   -8.3766339    649.97487  0.014505777  0.013693066            2 
 3735000   0.65533791   -8.3374688    650.83388  0.014521059  0.013688312            4 
 3736000   0.65424874   -8.3674042    649.59808  0.014489607  0.013683564            2 
 3737000   0.64901898   -8.3705832    650.34449  0.014502375  0.013678809            2 
 3738000   0.64391826   -8.3599901    650.37668  0.014499213  0.013674053            2 
 3739000   0.65923431    -8.376188    651.43265   0.01451887   0.01366931            3 
 3740000   0.64979627   -8.3835052    650.92924  0.014503771  0.013664564            2 
 3741000   0.65454581   -8.3631512    651.10001  0.014503698   0.01365982            3 
 3742000   0.66043471   -8.3836167    650.67212  0.014490293  0.013655073            3 
 3743000   0.65404849   -8.3635745    650.25405  0.014477114  0.013650323            1 
 3744000   0.65896367   -8.3971579    649.73496  0.014461693  0.013645563            1 
 3745000   0.65828031   -8.3857817    650.14335  0.014466919  0.013640806            2 
 3746000   0.64730467   -8.3753963    649.92359  0.014458168  0.013636063            2 
 3747000   0.65176783    -8.362715    649.59142  0.014446922   0.01363131            1 
 3748000   0.65515428   -8.3951895    650.16763  0.014455879  0.013626561            1 
 3749000    0.6531065   -8.3750835    648.93062  0.014424527  0.013621808            1 
 3750000   0.64832957   -8.3960517    651.13172  0.014469594  0.013617053            3 
 3751000   0.65713817    -8.376711    650.30967  0.014447473  0.013612301            1 
 3752000   0.65778029   -8.3905713    649.77562  0.014431761   0.01360756            1 
 3753000   0.65434905   -8.3832738    650.97582  0.014454566  0.013602817            1 
 3754000   0.64409384   -8.3898808     649.5721  0.014419555  0.013598073            3 
 3755000   0.64117519   -8.3865738    649.68895  0.014418308  0.013593322            4 
 3756000   0.65687872   -8.3847525    650.50919  0.014432667  0.013588585            1 
 3757000   0.63825769    -8.377444    651.53582  0.014451597  0.013583858            2 
 3758000   0.66226872   -8.3656641    651.97573  0.014457507  0.013579138            2 
 3759000   0.64557776   -8.3825629    650.51348  0.014421244  0.013574411            5 
 3760000   0.65708361   -8.3732562    650.10069   0.01440826  0.013569676            2 
 3761000   0.64122168   -8.3883616    650.12922  0.014405061  0.013564948            1 
 3762000   0.65586191   -8.3814966      649.959  0.014397461  0.013560228            1 
 3763000   0.64216626   -8.3689179    649.97216  0.014393927  0.013555506            1 
 3764000   0.64680346   -8.4002489    648.89043  0.014366154  0.013550787            3 
 3765000   0.64734687   -8.3946221    649.10735  0.014367139  0.013546061            4 
 3766000   0.64904398   -8.3990103    649.01969  0.014361385  0.013541329            2 
 3767000   0.65882443   -8.4039185    650.33552  0.014386681  0.013536605            3 
 3768000   0.66543297   -8.3810402    650.30698  0.014382231  0.013531888            1 
 3769000   0.63595588   -8.4069782    650.56345  0.014384086  0.013527166            2 
 3770000   0.65546205   -8.3853714    649.39973  0.014354548  0.013522442            3 
 3771000    0.6309443   -8.3997257    650.39656  0.014372769  0.013517725            2 
 3772000    0.6368812   -8.3864611    650.00363  0.014360278  0.013513014            3 
 3773000   0.65373637   -8.3822233    648.89163  0.014331912  0.013508311            1 
 3774000   0.64193319   -8.3803132    649.98352  0.014352224    0.0135036            1 
 3775000   0.64102901   -8.3601651    649.99928   0.01434877  0.013498896            2 
 3776000   0.64410145   -8.3848951    650.26622  0.014350861  0.013494195            2 
 3777000   0.64929021   -8.3823353    648.91171  0.014317176  0.013489494            2 
 3778000   0.64550574   -8.3868686    648.91353  0.014313427  0.013484801            3 
 3779000   0.63504972   -8.4061009    650.18823  0.014337749  0.013480113            2 
 3780000   0.63749717   -8.3937495    650.68164  0.014344833  0.013475412            2 
 3781000   0.65365889   -8.3712938    650.01507  0.014326348   0.01347072            1 
 3782000   0.64432809    -8.396407    649.78455  0.014317481  0.013466028            2 
 3783000   0.65058318   -8.3928279    650.43176  0.014327953   0.01346134            6 
 3784000   0.64390727   -8.4049491     648.7874  0.014287954   0.01345664            2 
 3785000   0.63892543   -8.4124344    648.60767  0.014280222  0.013451936            2 
 3786000   0.64176482   -8.3836182    648.98512  0.014284758  0.013447234            2 
 3787000   0.64684669   -8.4010402    649.01099  0.014281555  0.013442538            3 
 3788000    0.6550941   -8.4033788    650.51155  0.014310796  0.013437841            1 
 3789000   0.63418448   -8.3961557    648.66029  0.014266304  0.013433152            5 
 3790000    0.6530585   -8.4027243    650.96381  0.014313188  0.013428467            8 
 3791000   0.63819467   -8.4060628    650.41718  0.014297397  0.013423772            4 
 3792000   0.64133106   -8.3978722    649.72795   0.01427848  0.013419088            1 
 3793000   0.63429817   -8.3916196    650.28207   0.01428689  0.013414406            2 
 3794000    0.6492429   -8.3852857    649.27643  0.014261036  0.013409726            3 
 3795000   0.63303606   -8.3830591    649.40854  0.014260179  0.013405048            3 
 3796000   0.62927816   -8.3784786    649.65623   0.01426186  0.013400374            2 
 3797000   0.65212794   -8.3889648    650.30395  0.014272319  0.013395703            1 
 3798000    0.6527677   -8.3983629     649.0706    0.0142415  0.013391044            1 
 3799000   0.65180916   -8.3942002    650.43704  0.014267725  0.013386383            2 
 3800000   0.64547692   -8.3996995    650.88283  0.014273746  0.013381716            1 
 3801000   0.63979046   -8.3977418    650.02531  0.014251191  0.013377049            4 
 3802000   0.63703672   -8.3947603    649.51844  0.014236333  0.013372395            4 
 3803000   0.63175169   -8.3962375    650.52512  0.014254648  0.013367737            2 
 3804000   0.63834729   -8.4165887    650.36417  0.014247375  0.013363075            6 
 3805000   0.63976007   -8.3889916    649.54589  0.014225709  0.013358415            5 
 3806000   0.64187499   -8.4291707    648.05004   0.01418922  0.013353755            2 
 3807000   0.64239429    -8.397904    649.92096  0.014226446  0.013349091            3 
 3808000   0.65342002   -8.3940125    649.21326  0.014207223  0.013344444            2 
 3809000   0.65280596   -8.3893915    649.46072  0.014208907  0.013339787            3 
 3810000   0.62983008   -8.4371112    649.29661  0.014201588  0.013335132            2 
 3811000   0.64048968   -8.4001007    648.71852  0.014185221  0.013330477            3 
 3812000   0.63770911   -8.4133368    649.65771  0.014202031  0.013325826            3 
 3813000   0.62992359   -8.4269466    649.21247  0.014188576  0.013321171            3 
 3814000   0.63661488   -8.3931035    647.49941  0.014147426   0.01331652            2 
 3815000   0.63883389   -8.4374394    649.33143  0.014183736  0.013311868            2 
 3816000   0.63242723    -8.408447    649.74034  0.014188949  0.013307219            3 
 3817000   0.64983285   -8.4269372    648.14777  0.014150462  0.013302571            2 
 3818000   0.64853687   -8.4107999    648.66173  0.014157974  0.013297916            1 
 3819000   0.64652422   -8.4102104    648.94188   0.01416038  0.013293275            1 
 3820000   0.62790856   -8.3851408    649.75666  0.014174447  0.013288637            3 
 3821000    0.6526042   -8.4086797    648.82364  0.014150389  0.013283995            2 
 3822000   0.65293907     -8.42576    648.18529  0.014132768  0.013279347            1 
 3823000   0.65245259   -8.4131187    648.90517  0.014144764  0.013274706            3 
 3824000   0.63442903   -8.4097126    647.23457  0.014104659  0.013270056            3 
 3825000   0.62967578   -8.4208686    647.65373  0.014110103  0.013265415            3 
 3826000   0.64544105     -8.42279    648.51164  0.014125101  0.013260777            2 
 3827000   0.65127153   -8.4189876    647.15179  0.014091799  0.013256136            1 
 3828000   0.65860152   -8.4256998    648.84101  0.014124891  0.013251498            2 
 3829000   0.65230367   -8.4157672    649.07569   0.01412631  0.013246863            2 
 3830000   0.64307222    -8.427934      647.577  0.014090013  0.013242227            1 
 3831000   0.65245199   -8.4227219    649.35614  0.014125036  0.013237597            3 
 3832000   0.62533229   -8.4112771     649.2059  0.014118082  0.013232971            2 
 3833000   0.62068747   -8.4100001       648.24  0.014093399  0.013228345            2 
 3834000   0.62411699   -8.4120024    648.62429  0.014098076  0.013223727            2 
 3835000   0.63662303   -8.3929045    649.38222   0.01411087  0.013219107            3 
 3836000   0.65023911   -8.4086211    648.46593  0.014087286  0.013214491            2 
 3837000   0.64224339   -8.4323781    649.66224  0.014109596  0.013209875            2 
 3838000   0.63309197   -8.4388232    649.67801  0.014106262  0.013205258            2 
 3839000   0.62649155   -8.4204772     648.4512  0.014075957  0.013200647            2 
 3840000   0.63459072     -8.41929    649.80866  0.014101751  0.013196039            2 
 3841000   0.63826299   -8.4071975    649.12646  0.014083278  0.013191431            1 
 3842000   0.65081994   -8.3937053    648.91924  0.014075118  0.013186826            1 
 3843000   0.64568642   -8.4133797    648.96798  0.014072512  0.013182221            1 
 3844000   0.62648575   -8.4017225    648.30821  0.014054548  0.013177613            1 
 3845000   0.63278541   -8.4102895    648.16282  0.014047742  0.013173006            2 
 3846000     0.634473   -8.4241987    649.45135  0.014072009  0.013168398            2 
 3847000   0.64378155    -8.441733    649.55446  0.014070585  0.013163795            2 
 3848000   0.63975198   -8.4182223    648.94333  0.014053693  0.013159194            6 
 3849000   0.63073753   -8.4021111    647.27879  0.014014003  0.013154587            1 
 3850000   0.64711129   -8.4375892    647.74146  0.014020378  0.013149984            2 
 3851000   0.64316686   -8.4408746    649.14337  0.014047074  0.013145384            3 
 3852000    0.6360099   -8.4272159    648.98624  0.014040028  0.013140788            1 
 3853000    0.6255043   -8.4250879    648.56874  0.014027354  0.013136197            2 
 3854000   0.62932648    -8.407837    648.43968  0.014020924  0.013131604            1 
 3855000   0.63692251   -8.4115779     649.4072  0.014038201  0.013127013            2 
 3856000   0.63480852    -8.403572    649.24989  0.014031161  0.013122431            2 
 3857000   0.64207307   -8.4299719    648.89238  0.014019799  0.013117849            2 
 3858000   0.65166115   -8.4294563    648.78379   0.01401382  0.013113267            4 
 3859000   0.62838937   -8.4234473    649.05228  0.014015986  0.013108689            4 
 3860000   0.63433166   -8.4148693     649.0016  0.014011261  0.013104112            6 
 3861000   0.62672539   -8.4045824    649.93067  0.014027684  0.013099544            4 
 3862000   0.62057747     -8.42861    649.28024  0.014010017  0.013094976            3 
 3863000   0.63979113   -8.3924716    650.08631  0.014023779  0.013090415            3 
 3864000   0.62532106   -8.4540529    648.97895  0.013996268  0.013085846            2 
 3865000   0.63342303   -8.4222903    649.61356  0.014006329  0.013081291            3 
 3866000   0.63917012   -8.4348938    648.89175  0.013987148  0.013076729            4 
 3867000   0.63128093   -8.4255145    648.46218  0.013974273  0.013072169            3 
 3868000   0.62131551   -8.4307017    647.61515  0.013952412  0.013067604            3 
 3869000   0.63416964    -8.417366    648.65169  0.013971131  0.013063046            3 
 3870000    0.6396781   -8.4139893    650.07404  0.013998149  0.013058495            2 
 3871000   0.61781801   -8.4263827    648.55931  0.013961924  0.013053942            4 
 3872000   0.62537818   -8.4329573    648.77811  0.013963028  0.013049385            3 
 3873000   0.64801145    -8.416532    648.45477  0.013952465  0.013044829            1 
 3874000   0.63556713   -8.4077423    650.03053   0.01398276  0.013040274            3 
 3875000   0.63846414   -8.4186762    649.67306  0.013971464  0.013035723            4 
 3876000   0.62230771   -8.4483171    649.26877  0.013959167  0.013031176            3 
 3877000   0.62356084   -8.4434958    649.05285  0.013950925  0.013026629            2 
 3878000   0.63270822    -8.411042    649.68299  0.013960869   0.01302209            1 
 3879000   0.64635233   -8.4269029    648.76232  0.013937491  0.013017554            1 
 3880000   0.64881991   -8.4217733    648.40448  0.013926213  0.013013016            2 
 3881000   0.62691622   -8.4194322    650.19504  0.013961072  0.013008486            2 
 3882000   0.63406722   -8.4097869    649.01788  0.013932206  0.013003956            2 
 3883000   0.63391468   -8.4249868    650.61632  0.013962922  0.012999426            2 
 3884000   0.62689991   -8.4161426    648.98441  0.013924314  0.012994901            2 
 3885000   0.64321788   -8.4000705    648.29537   0.01390595  0.012990377            1 
 3886000   0.63566331   -8.4234561    648.85913  0.013914461  0.012985851            1 
 3887000    0.6264566   -8.4461515    649.28712  0.013920057  0.012981335            3 
 3888000   0.62124307   -8.4354596    649.46916  0.013920378  0.012976816            3 
 3889000   0.62486393    -8.423172    648.62577  0.013898727  0.012972299            2 
 3890000   0.64864308   -8.4185423    650.07172  0.013926129   0.01296778            2 
 3891000   0.62876171   -8.4432883    648.27164  0.013883998  0.012963259            2 
 3892000   0.62541536   -8.4389397    649.40733  0.013904747  0.012958738            4 
 3893000   0.64284941   -8.4299165    648.11156  0.013873439  0.012954215            2 
 3894000   0.63075472   -8.4485715    649.52053  0.013900028  0.012949693            1 
 3895000   0.64258037   -8.4179981    648.19166  0.013868029  0.012945172            3 
 3896000   0.61720824   -8.4212964     648.8723  0.013879028  0.012940653            5 
 3897000   0.61406468   -8.4402324    649.25742  0.013883702  0.012936145            2 
 3898000   0.62578124     -8.43693    648.19665  0.013857462  0.012931634            2 
 3899000   0.62127348   -8.4210157    649.85406  0.013889332  0.012927116            2 
 3900000   0.62205284   -8.4255709    647.37279  0.013832752  0.012922598            2 
 3901000   0.63071058   -8.4475206     649.1721  0.013867643  0.012918079            2 
 3902000   0.60755356   -8.4220741    649.47811  0.013870624  0.012913568            2 
 3903000    0.6139945   -8.4564676    648.90347  0.013854801  0.012909059            4 
 3904000   0.63962918   -8.4245835    649.56475  0.013865368   0.01290455            1 
 3905000   0.61077155   -8.4216195    648.37023  0.013836326  0.012900045            3 
 3906000   0.62073112   -8.4171333    647.81576  0.013820954  0.012895536            3 
 3907000   0.61525894   -8.4367173    648.74019  0.013837134  0.012891034            1 
 3908000   0.62821172   -8.4324815    648.82235  0.013835345  0.012886545            3 
 3909000   0.61402209   -8.4392228     647.7756  0.013809491  0.012882046            3 
 3910000   0.64070745   -8.4486317    647.72859  0.013804957  0.012877545            1 
 3911000   0.63992779   -8.4257282    647.93498  0.013805825   0.01287305            2 
 3912000   0.63830278   -8.4550697    648.65445  0.013817622  0.012868556            2 
 3913000    0.6275245   -8.4094501    649.82105  0.013838935  0.012864064            1 
 3914000   0.62629992   -8.4291918    647.99104  0.013796437  0.012859574            3 
 3915000   0.62824047   -8.4500656    648.52721  0.013804325  0.012855078            2 
 3916000   0.62676572   -8.4335935    648.48942  0.013799996  0.012850591            2 
 3917000   0.64117624   -8.4340495    648.95444  0.013806366  0.012846117            2 
 3918000   0.62298999   -8.4325942    649.14987  0.013806999  0.012841634            1 
 3919000   0.61078965   -8.4489355    648.70655  0.013794049  0.012837154            1 
 3920000   0.62598395    -8.421258    648.45148  0.013785108  0.012832673            3 
 3921000   0.63844082   -8.4668482     647.3878  0.013758986  0.012828189            2 
 3922000   0.62066401   -8.4546914    648.86868  0.013786943    0.0128237            1 
 3923000   0.62508381    -8.438869    648.39708  0.013773411  0.012819224            2 
 3924000   0.63407799   -8.4730352    647.84089  0.013758089  0.012814741            2 
 3925000   0.61452135   -8.4204719    649.46814  0.013789133  0.012810262            2 
 3926000   0.61771052   -8.4336442    648.89812  0.013773521  0.012805781            2 
 3927000   0.62830469   -8.4507953    647.38524  0.013737909  0.012801298            4 
 3928000   0.63191906   -8.4462663    648.09087  0.013749382  0.012796822            2 
 3929000   0.62041147   -8.4648689    649.09634  0.013767208  0.012792348            1 
 3930000   0.61861074   -8.4370231    648.28941  0.013746595  0.012787882            1 
 3931000   0.61978738   -8.4460754    648.27528  0.013742798  0.012783412            2 
 3932000   0.62826306    -8.451289    649.96242   0.01377506  0.012778948            2 
 3933000   0.62628477   -8.4546785    649.43023  0.013760281   0.01277448            3 
 3934000   0.62466249   -8.4646392    647.86743  0.013723679  0.012770005            3 
 3935000   0.63603887   -8.4563473    649.14123  0.013747167  0.012765539            1 
 3936000   0.61592711   -8.4585035    649.02717   0.01374126  0.012761075            2 
 3937000   0.62341108   -8.4697261    648.26307  0.013721596  0.012756614            3 
 3938000   0.62105133   -8.4763296    648.11321   0.01371494  0.012752144            2 
 3939000   0.62955459    -8.449602    648.06384  0.013710414   0.01274768            3 
 3940000   0.62163662   -8.4620358    648.52026  0.013716588  0.012743227            2 
 3941000   0.61857502    -8.462412    647.85125  0.013698961  0.012738767            3 
 3942000   0.61568946   -8.4573512    649.02176   0.01372023  0.012734316            1 
 3943000   0.60052875   -8.4469372     647.9929  0.013695006  0.012729866            2 
 3944000   0.62423684   -8.4600207    648.82243  0.013709061  0.012725417            2 
 3945000   0.62074278   -8.4509562     649.2823    0.0137153   0.01272097            1 
 3946000   0.61598264   -8.4502667    647.36244   0.01367128  0.012716525            1 
 3947000   0.63246356    -8.452533    648.89585  0.013700191  0.012712082            2 
 3948000   0.60913189   -8.4375629    648.63581  0.013691232  0.012707644            2 
 3949000   0.60759847   -8.4442477     647.6988  0.013667992  0.012703202            3 
 3950000    0.6312204   -8.4611647    647.24198  0.013654894  0.012698767            2 
 3951000   0.60628496   -8.4412866    648.19011  0.013671436  0.012694328            4 
 3952000   0.62215114   -8.4393599    647.90943  0.013662058  0.012689887            2 
 3953000   0.62008103   -8.4462531     649.8682  0.013699895  0.012685454            2 
 3954000   0.62250485   -8.4486739    648.91299  0.013676298  0.012681025            2 
 3955000   0.62302222   -8.4420747    648.10406  0.013655796  0.012676603            1 
 3956000   0.61331618   -8.4469911    649.70978  0.013686168  0.012672185            1 
 3957000   0.62565424    -8.444943    648.93539  0.013666401  0.012667771            2 
 3958000   0.61505518   -8.4726664    647.33974  0.013629353  0.012663356            2 
 3959000   0.61168417   -8.4544483    648.41631  0.013648571  0.012658935            2 
 3960000   0.62641551   -8.4389065    648.16602  0.013639857  0.012654515            1 
 3961000   0.61970694   -8.4745251    648.62971  0.013646169    0.0126501            2 
 3962000   0.61921204   -8.4587536    649.61246  0.013663395  0.012645691            2 
 3963000   0.59505035   -8.4530951    648.37663  0.013633961  0.012641274            3 
 3964000   0.61459082   -8.4602999    648.20826  0.013626981  0.012636858            2 
 3965000   0.62583685   -8.4221018    648.92322  0.013638571  0.012632457            5 
 3966000   0.61118362   -8.4410417    648.68318  0.013630089  0.012628058           13 
 3967000    0.6324499   -8.4494151    649.13175  0.013636076  0.012623655            2 
 3968000   0.62095656     -8.44723    648.47659   0.01361888  0.012619245            2 
 3969000   0.60905567   -8.4607005    649.38728  0.013634569  0.012614843            2 
 3970000   0.60865833   -8.4688558    648.88513  0.013620595  0.012610435            1 
 3971000   0.60331898   -8.4589107      648.594  0.013611055   0.01260603            1 
 3972000   0.62686778   -8.4690437    647.41756  0.013582946  0.012601627            4 
 3973000   0.60900132   -8.4777535    647.16605  0.013574252  0.012597225            4 
 3974000   0.61687293   -8.4730836    647.17732  0.013571073  0.012592818            2 
 3975000   0.61025633   -8.4696927    648.05946  0.013586152  0.012588409            2 
 3976000   0.61505047   -8.4616699    648.79148  0.013598078  0.012584006            2 
 3977000   0.62735751    -8.478978     648.0966  0.013580098   0.01257961            2 
 3978000    0.6067416    -8.469595    647.62387  0.013566781  0.012575209            4 
 3979000   0.61543232   -8.4581376    647.77843  0.013566609  0.012570811            2 
 3980000   0.61636007   -8.4757362    647.70278  0.013561616  0.012566416            3 
 3981000   0.61814542   -8.4524664    648.31242  0.013570971   0.01256202            1 
 3982000   0.62817598   -8.4855095    647.39771   0.01354842  0.012557632            5 
 3983000   0.61114462   -8.4648557    648.07565  0.013559203  0.012553245            1 
 3984000   0.61343027   -8.4810197    647.83867  0.013550842  0.012548851            2 
 3985000    0.6118812   -8.4877573    647.48548  0.013540056  0.012544464            1 
 3986000   0.61088559   -8.4953212    647.46657  0.013536264  0.012540076            2 
 3987000   0.60654728   -8.4772941    648.51492  0.013554781  0.012535704            1 
 3988000   0.61733632   -8.4596959    648.76089  0.013556521  0.012531329            2 
 3989000   0.62166558   -8.4840836    647.50044  0.013526791  0.012526954            2 
 3990000   0.61933324   -8.4477127    648.36712  0.013541502  0.012522585            1 
 3991000   0.61634356   -8.4593616    647.94245  0.013529242  0.012518209            2 
 3992000   0.61899568   -8.4711544    647.90492  0.013525069  0.012513841            2 
 3993000   0.61930043   -8.4622931    648.35497  0.013531075  0.012509472            1 
 3994000   0.61231998   -8.4803443    648.36311  0.013527857  0.012505106            1 
 3995000   0.61559489   -8.4583449    647.86157  0.013514009  0.012500749            3 
 3996000   0.61257315   -8.4651355    648.77046  0.013529581  0.012496391            2 
 3997000   0.62173615   -8.4631848    648.37643  0.013517981   0.01249203            1 
 3998000   0.61228375   -8.4661446    648.60423  0.013519348  0.012487668            4 
 3999000   0.61036279   -8.4693038    647.88103  0.013500897  0.012483306            1 
 4000000   0.61018727   -8.4961025    647.92982  0.013498538  0.012478941            2 
 4001000   0.61557366    -8.511027    646.16593  0.013458426  0.012474574            4 
 4002000   0.60760295    -8.488925    646.68194  0.013465808  0.012470215            3 
 4003000   0.61620602   -8.4669048    647.78732  0.013485455  0.012465857            3 
 4004000   0.61499426   -8.4786554     647.9524  0.013485523  0.012461496            2 
 4005000   0.62810416   -8.4848451    647.00424  0.013462427  0.012457136            2 
 4006000   0.59710862    -8.475387    647.38421  0.013466971  0.012452778            3 
 4007000   0.61291856   -8.4969153    647.80114  0.013472281   0.01244842            3 
 4008000   0.61168437   -8.4767329    647.63066  0.013465375  0.012444062            1 
 4009000   0.59671651   -8.4890161    647.50031  0.013459306  0.012439706            2 
 4010000   0.61856018   -8.4825196    647.57019  0.013457402  0.012435354            1 
 4011000   0.59839751    -8.470273    648.10475  0.013465153  0.012430998            5 
 4012000   0.59696257   -8.4723541    647.30811   0.01344525  0.012426649            2 
 4013000   0.59768247   -8.4847812    648.62192  0.013469182  0.012422307            2 
 4014000   0.60277543   -8.4754033    648.57978  0.013464951  0.012417968            3 
 4015000   0.61694517   -8.4702899    647.55395  0.013440306  0.012413625            2 
 4016000   0.60202155   -8.4787703    648.18518  0.013450058   0.01240929            1 
 4017000   0.61586674   -8.4616676    648.20679  0.013447158  0.012404956            3 
 4018000   0.61356911   -8.4855834    647.75668  0.013434476  0.012400625            2 
 4019000   0.60708066   -8.4847107     647.2404  0.013420428    0.0123963            3 
 4020000   0.60404157   -8.4726669    647.58589  0.013424251  0.012391971            3 
 4021000    0.6079004   -8.4860569    646.29025  0.013394061  0.012387645            1 
 4022000   0.61582425   -8.4955351    647.31118  0.013411884  0.012383314            2 
 4023000   0.62629837   -8.4905766    647.44813  0.013411387   0.01237899            3 
 4024000   0.60310099   -8.4678043     647.3485  0.013405991  0.012374662            4 
 4025000   0.60400677   -8.4707774    648.09415  0.013418098  0.012370343            1 
 4026000    0.5994409   -8.4822247    648.56502  0.013424512  0.012366023            2 
 4027000   0.60988143   -8.4752618    647.78888  0.013405117  0.012361703            3 
 4028000    0.5825201   -8.4995409    646.86606  0.013382697  0.012357378            2 
 4029000   0.60314061    -8.497633     648.5882  0.013414995  0.012353054            4 
 4030000   0.61127106   -8.5028706    646.91051  0.013376975  0.012348726            1 
 4031000   0.61253545   -8.4838589    647.79627  0.013391968  0.012344402            1 
 4032000   0.60665087   -8.4616258    647.16253  0.013375548  0.012340082            2 
 4033000   0.61871843   -8.4867253    647.37204  0.013376561  0.012335763            3 
 4034000   0.60345921   -8.4835671    647.76171  0.013381295  0.012331449            2 
 4035000   0.60741119   -8.4916999    647.40731  0.013370659  0.012327135            2 
 4036000   0.60034802   -8.4894435    647.15248  0.013362084  0.012322818            2 
 4037000   0.60640671   -8.4866921    647.39306  0.013363741  0.012318505            3 
 4038000   0.60156516    -8.483459    645.73451  0.013326203  0.012314194            2 
 4039000   0.61207775    -8.497236    648.17961  0.013373352  0.012309888            2 
 4040000   0.61974608   -8.4802205    647.68601   0.01335986  0.012305587            2 
 4041000   0.59717889   -8.4962928    647.22242  0.013346994  0.012301283            2 
 4042000   0.60831152   -8.4867037    647.16689  0.013342547  0.012296984            4 
 4043000   0.60525128    -8.485471    647.98702  0.013356151  0.012292684            2 
 4044000   0.60980401   -8.4743598    647.19382  0.013336503  0.012288386            2 
 4045000   0.59377372   -8.4814469    646.12398  0.013311166  0.012284096            2 
 4046000   0.59963088   -8.4847419    646.12381  0.013307872  0.012279805            2 
 4047000   0.59809428   -8.4986138     647.0084  0.013322799  0.012275514            2 
 4048000   0.59985918   -8.5069729    647.81741  0.013336162  0.012271222            1 
 4049000   0.62033891   -8.4836772    646.49782   0.01330571  0.012266926            5 
 4050000   0.61097217   -8.5054506    647.46825  0.013322392  0.012262635            3 
 4051000   0.60917887   -8.4926456    646.90153  0.013307445  0.012258347            1 
 4052000   0.60632774   -8.5101365    646.65095  0.013299008  0.012254054            2 
 4053000   0.60255493   -8.4942205    645.90141  0.013280315  0.012249765            4 
 4054000    0.6001775   -8.4763184    646.40343  0.013287359  0.012245476            2 
 4055000   0.59690863   -8.5190516    646.14305  0.013278731  0.012241185            3 
 4056000   0.60784935   -8.5003257    646.76726  0.013288282    0.0122369            4 
 4057000   0.59778193   -8.5061174     646.4479  0.013278447  0.012232615            2 
 4058000    0.5990905   -8.4904571    647.48325  0.013296436  0.012228336            3 
 4059000   0.60391888   -8.4941063    647.58152  0.013295178  0.012224056            2 
 4060000   0.60385427   -8.4899073    646.76853  0.013275216  0.012219772            3 
 4061000   0.60290508    -8.507051    645.32372  0.013242299  0.012215493            2 
 4062000   0.60509392   -8.4784414    646.17578  0.013256519  0.012211209            1 
 4063000   0.59890163   -8.5220708    647.95276  0.013289703   0.01220693            2 
 4064000   0.60045467   -8.5081915    646.53306  0.013257322  0.012202649            3 
 4065000   0.60157976     -8.52031     648.0669  0.013285504  0.012198373            2 
 4066000   0.58733165   -8.4951426    646.68722   0.01325396  0.012194101            3 
 4067000    0.6122413   -8.5028019    647.33182  0.013263909  0.012189834            3 
 4068000   0.58419322   -8.4940729    648.81249   0.01329098  0.012185563            2 
 4069000   0.61431855   -8.4959304    645.57992  0.013221511  0.012181292            2 
 4070000    0.6052478    -8.507857    645.97092  0.013226268  0.012177024            1 
 4071000   0.60275932   -8.5221236    647.14035  0.013246957  0.012172755            3 
 4072000    0.6114135   -8.5283217    647.28185    0.0132466  0.012168485            1 
 4073000    0.6099547   -8.5007704    646.73779  0.013232216  0.012164216            3 
 4074000   0.59548196   -8.5129127    645.44541  0.013202532  0.012159952            2 
 4075000   0.60430252   -8.5349279    646.93989  0.013229855  0.012155689            3 
 4076000   0.58726266   -8.5154179    644.88834  0.013184665  0.012151426            2 
 4077000   0.59103344   -8.5111793    646.08867  0.013205966  0.012147163            2 
 4078000   0.60363934   -8.5318268    645.24368   0.01318546  0.012142896            2 
 4079000   0.59677838   -8.5347285    647.12348  0.013220632  0.012138636            3 
 4080000   0.58298782   -8.5142355    645.81662  0.013190699  0.012134378            2 
 4081000   0.59851341   -8.5343742    646.21499  0.013195601  0.012130121            2 
 4082000   0.58400642   -8.5220953     646.7235   0.01320275  0.012125862            2 
 4083000   0.59179302   -8.5339481    646.83541    0.0132018  0.012121608            3 
 4084000   0.60163699   -8.5061617    645.83209  0.013178095  0.012117358            6 
 4085000   0.59580987   -8.5100473    646.21291  0.013182638  0.012113103            3 
 4086000   0.59889436   -8.5133897    645.55769  0.013166048  0.012108858            2 
 4087000   0.59109105   -8.5253822    645.85575  0.013168904  0.012104607            6 
 4088000   0.59685823   -8.5208601    646.68244  0.013182535  0.012100358            1 
 4089000   0.59154096   -8.5270042    646.62444  0.013178129  0.012096111            4 
 4090000   0.60102347   -8.5468945     644.9778  0.013141357  0.012091866            2 
 4091000   0.60339633   -8.5233228    646.36128  0.013166326  0.012087621            1 
 4092000   0.58061609   -8.5130663     646.5992  0.013167954  0.012083385            2 
 4093000   0.59027826   -8.5134011    645.79449  0.013148353  0.012079151            2 
 4094000   0.59503835   -8.5029036    645.44664   0.01313806   0.01207491            2 
 4095000   0.57546015   -8.5135297    647.17522  0.013170029  0.012070673            2 
 4096000   0.59206507   -8.5305082    645.80773  0.013138992  0.012066436            1 
 4097000   0.58909903   -8.5333219    647.32983  0.013166745  0.012062201            1 
 4098000   0.60551982     -8.53105    645.65158  0.013129404  0.012057969            1 
 4099000   0.59592498   -8.5264474    645.64564   0.01312608   0.01205373            2 
 4100000    0.5947635   -8.5224003    645.05985  0.013110973  0.012049498            1 
 4101000   0.59423774   -8.5187999    646.06619  0.013128225  0.012045271            4 
 4102000   0.58496367   -8.4986872    645.88864  0.013121417  0.012041039            3 
 4103000   0.59841056   -8.5329751    646.43137  0.013129242  0.012036817            3 
 4104000   0.59570232   -8.5295266    646.23941  0.013122145  0.012032592            3 
 4105000     0.604892   -8.5230426    646.01215  0.013114335  0.012028372            2 
 4106000    0.5975306   -8.5248959    646.38347  0.013118677  0.012024151            2 
 4107000   0.60146068   -8.5291947    646.32276  0.013114251  0.012019938            3 
 4108000   0.59076812   -8.5384734    645.80448  0.013100545  0.012015728            1 
 4109000   0.59015518   -8.5206097    644.92204  0.013079461  0.012011516            4 
 4110000   0.59771958    -8.530725    645.57908    0.0130896  0.012007303            3 
 4111000   0.59506465   -8.5298773    646.18295  0.013098657  0.012003093            2 
 4112000   0.58856846   -8.5394315    646.09702   0.01309373  0.011998882            1 
 4113000   0.59599004    -8.526845    646.20544  0.013092743  0.011994666            1 
 4114000   0.58565581   -8.5227312    646.09283   0.01308728   0.01199046            2 
 4115000   0.59283891   -8.5194907    646.03275  0.013082883  0.011986254            1 
 4116000    0.6002629   -8.5362009    645.15551  0.013061943  0.011982052            3 
 4117000   0.58453066   -8.5285313    645.56645  0.013067089  0.011977849            2 
 4118000   0.60615226   -8.5442898    646.60242   0.01308488  0.011973655            2 
 4119000   0.59319042   -8.5163955    647.31204   0.01309606  0.011969463            2 
 4120000    0.6074852   -8.5338666    645.04631  0.013047053  0.011965269            3 
 4121000    0.6050432   -8.5369948    646.05429   0.01306427  0.011961079            2 
 4122000   0.59985794   -8.5294121    645.84734  0.013056917  0.011956887            2 
 4123000   0.58901503   -8.5248222    645.62845  0.013049326  0.011952694            2 
 4124000   0.59103598   -8.5311785    645.35469   0.01304063  0.011948508            1 
 4125000   0.60113158   -8.5214719    646.46048  0.013059808  0.011944328            1 
 4126000    0.5925159   -8.5240425    646.68818  0.013061241  0.011940146            2 
 4127000   0.59436667   -8.5411423    647.45952  0.013073652  0.011935964            1 
 4128000   0.58138594   -8.5203692    645.67172  0.013034394  0.011931785            2 
 4129000   0.60193507   -8.5212351    645.61057  0.013030003  0.011927608            3 
 4130000   0.58789471   -8.5163401    646.76461  0.013050133  0.011923436            2 
 4131000    0.5917692   -8.5352601    647.15085  0.013054766   0.01191926            2 
 4132000   0.59631704   -8.5299485    644.94694  0.013007158  0.011915095            3 
 4133000     0.604206   -8.5217006    646.18317  0.013028937  0.011910926            3 
 4134000    0.5824728   -8.5175443    645.10196  0.013003991  0.011906757            3 
 4135000   0.58634316   -8.5375018    645.33392   0.01300552  0.011902591            2 
 4136000   0.58156384   -8.5149303    646.37476  0.013023347  0.011898423            2 
 4137000   0.59083288   -8.5354438    645.71976  0.013007005  0.011894264            2 
 4138000   0.59378182   -8.5383139    645.93058  0.013008107    0.0118901            2 
 4139000   0.59376037    -8.530086    645.56908  0.012997686  0.011885945            2 
 4140000   0.59339574   -8.5445895    646.17893  0.013006822  0.011881787            5 
 4141000   0.59459906   -8.5329433    645.49767  0.012989972  0.011877631            2 
 4142000   0.58577067   -8.5352924    645.59196  0.012988732  0.011873476            1 
 4143000   0.58334327   -8.5330035    645.19953  0.012977704  0.011869328            3 
 4144000   0.59648509   -8.5475478    645.88844  0.012988426  0.011865182            3 
 4145000   0.57498719   -8.5408367    644.65982  0.012960592  0.011861033            2 
 4146000   0.58245131   -8.5292352    645.30838  0.012970501   0.01185689            5 
 4147000   0.59083142   -8.5251466    645.29486  0.012967102   0.01185274            1 
 4148000   0.59762406   -8.5345983    646.82738  0.012994764  0.011848593            2 
 4149000   0.58928738   -8.5447331    645.50353  0.012965042  0.011844449            3 
 4150000   0.58052117   -8.5448203    646.36626  0.012979242  0.011840304            2 
 4151000   0.59728072   -8.5385687    646.21625  0.012973104  0.011836165            3 
 4152000   0.59036732   -8.5286548    646.32173  0.012972096  0.011832027            3 
 4153000   0.56979452   -8.5473354    645.35529   0.01294958  0.011827887            3 
 4154000   0.58116962   -8.5446977    645.32835  0.012945923  0.011823751            2 
 4155000   0.58422137   -8.5378243    645.91506  0.012954574  0.011819612            2 
 4156000   0.58305525   -8.5449849    644.71962  0.012927487  0.011815473            6 
 4157000   0.58894965   -8.5471021    644.93118  0.012928618  0.011811341            5 
 4158000   0.59244994   -8.5608589    645.65869  0.012940089  0.011807214            2 
 4159000   0.58207892   -8.5485746    645.83446    0.0129405  0.011803084            4 
 4160000   0.58288234   -8.5451751     644.4255  0.012909165  0.011798958            1 
 4161000   0.59153169   -8.5654681    645.87739   0.01293514  0.011794835            4 
 4162000   0.57331894   -8.5505277    645.85897  0.012931663  0.011790711            6 
 4163000   0.58139762   -8.5311965    645.78667  0.012927109  0.011786591            4 
 4164000   0.59150954   -8.5524925    646.17413  0.012931759  0.011782475            5 
 4165000    0.5902176   -8.5348045    646.90031  0.012943183  0.011778365            4 
 4166000   0.57767526   -8.5416722    646.79717  0.012938013   0.01177425            2 
 4167000   0.57811714   -8.5421292    645.37109  0.012906389  0.011770134            3 
 4168000   0.57678283    -8.547339    644.65208  0.012888917  0.011766027            4 
 4169000   0.59259891   -8.5537285    645.32726  0.012899322  0.011761914            3 
 4170000   0.57730577   -8.5614061     645.3418  0.012896519  0.011757803            3 
 4171000   0.59641669   -8.5454752    645.46762  0.012895941  0.011753692            3 
 4172000   0.58428207   -8.5389851    646.43697  0.012912212  0.011749584            2 
 4173000   0.57416709   -8.5256034    644.71751   0.01287478  0.011745477            3 
 4174000   0.58536452    -8.565051    646.02252   0.01289775  0.011741379            3 
 4175000   0.59368462   -8.5374666    646.18245  0.012897853  0.011737284            2 
 4176000   0.58289975   -8.5315473    646.15498  0.012894216  0.011733193            2 
 4177000   0.57885001   -8.5591594    645.62253  0.012880507  0.011729102            3 
 4178000   0.58163818   -8.5421358    645.06475  0.012866299  0.011725006            2 
 4179000   0.59377487   -8.5461692    645.69442  0.012875776  0.011720925            1 
 4180000    0.5848287   -8.5537086    646.46335  0.012888025  0.011716838            3 
 4181000   0.57726211   -8.5441557     646.0438  0.012876581  0.011712749            1 
 4182000   0.58354393   -8.5280615    646.00583  0.012872745  0.011708661            2 
 4183000    0.5880393   -8.5639116    645.43376  0.012858271  0.011704577            1 
 4184000   0.58150508    -8.556281    645.42158  0.012854955  0.011700493            2 
 4185000   0.58662391   -8.5468966    644.91797  0.012841855  0.011696409            4 
 4186000    0.5751794   -8.5584845    646.09116  0.012862143  0.011692332            3 
 4187000   0.57092911   -8.5740604    645.17188  0.012840775  0.011688255            4 
 4188000    0.5844119   -8.5435118    646.49376  0.012864012  0.011684178            2 
 4189000   0.58546506   -8.5415525    645.54439  0.012842054  0.011680102            1 
 4190000   0.58125422   -8.5584038    645.03375  0.012828834  0.011676023            1 
 4191000   0.58876047     -8.55991     646.0787   0.01284655  0.011671951            4 
 4192000   0.58376058   -8.5441009    645.29314  0.012827869  0.011667876            3 
 4193000   0.58438881   -8.5407119     645.4445  0.012827818    0.0116638            2 
 4194000   0.58807935   -8.5737497    645.82568  0.012832334  0.011659731            3 
 4195000   0.57933992   -8.5598734    645.54066  0.012823613  0.011655665            4 
 4196000    0.5682041   -8.5638015    645.40912  0.012817944  0.011651599            1 
 4197000   0.57159036   -8.5615263    645.73975  0.012821455  0.011647525            3 
 4198000   0.57953641   -8.5350365    646.08812  0.012825316   0.01164346            4 
 4199000   0.57888451   -8.5477102    644.55842  0.012791903  0.011639399            1 
 4200000   0.57520638   -8.5469687    645.49671  0.012807474  0.011635336            3 
 4201000   0.58274827   -8.5583448    646.22874  0.012818947  0.011631274            3 
 4202000   0.58356493   -8.5378744     644.9846  0.012791222  0.011627215            1 
 4203000   0.58337594   -8.5687148    645.57003  0.012799786  0.011623159            3 
 4204000   0.57343939   -8.5668018    644.49529  0.012775438  0.011619102            2 
 4205000   0.59165464   -8.5296567    644.92044  0.012780825   0.01161505            3 
 4206000   0.57303342   -8.5462377    645.46438  0.012788564  0.011610997            1 
 4207000   0.57761151   -8.5576916    645.02278  0.012776776  0.011606947            3 
 4208000   0.57120711    -8.546053    645.41208   0.01278145  0.011602907            2 
 4209000   0.58234285   -8.5385624    645.03713  0.012770989  0.011598868            2 
 4210000   0.58486715   -8.5420275    644.81846  0.012763628  0.011594825            2 
 4211000   0.58665179   -8.5533395    645.36101  0.012771333  0.011590785            3 
 4212000   0.58940875   -8.5565348    645.45149  0.012770091  0.011586748            6 
 4213000   0.57172165   -8.5665205    644.05293  0.012739397  0.011582706            2 
 4214000   0.57291045   -8.5515355    645.09348  0.012756951  0.011578673            5 
 4215000   0.56909136   -8.5442378    645.65811  0.012765087  0.011574638            2 
 4216000   0.58158653   -8.5481787    644.85052  0.012746097  0.011570607            2 
 4217000   0.58077111   -8.5665563    644.95728  0.012745184  0.011566577            3 
 4218000   0.57720043   -8.5422947    644.44005  0.012731943  0.011562544            2 
 4219000    0.5577126   -8.5477897    645.16754  0.012743295   0.01155851            1 
 4220000   0.56576507   -8.5500597    645.28911  0.012742676   0.01155448            1 
 4221000    0.5702823   -8.5490979    645.61525  0.012746096  0.011550454            1 
 4222000   0.57319206   -8.5431928    646.38017  0.012758175  0.011546433            1 
 4223000   0.57326097   -8.5794065    645.19855  0.012731836   0.01154241            2 
 4224000   0.56474788   -8.5631311     644.1403  0.012707945  0.011538386            1 
 4225000   0.58286139   -8.5560532    644.57288  0.012713469  0.011534364            2 
 4226000   0.57881651   -8.5634444    645.32587  0.012725309  0.011530345            1 
 4227000    0.5712994   -8.5668986    645.21013  0.012720017   0.01152633            2 
 4228000   0.57029987   -8.5570884    646.62406  0.012744877  0.011522314            3 
 4229000   0.58347284   -8.5732408    644.74946  0.012704923  0.011518303            4 
 4230000   0.58658128   -8.5625263    645.59495  0.012718577   0.01151429            1 
 4231000   0.57264256   -8.5765072    643.94089  0.012682992  0.011510277            1 
 4232000   0.56994082   -8.5698228    644.11615  0.012683447  0.011506266            1 
 4233000   0.57965924   -8.5646114    644.29544   0.01268398  0.011502258            1 
 4234000   0.57710348   -8.5664937    645.04434  0.012695724   0.01149825            2 
 4235000   0.58048522   -8.5621644     646.1025  0.012713548  0.011494245            1 
 4236000   0.56755773   -8.5745387    644.26654  0.012674428  0.011490242            4 
 4237000   0.58363139   -8.5761508    646.06723  0.012706853  0.011486232            1 
 4238000   0.57240672   -8.5668615    645.16219  0.012686058  0.011482227            3 
 4239000   0.55599857    -8.587168    645.32314   0.01268623  0.011478224            3 
 4240000   0.58228514   -8.5775618    644.36013  0.012664311  0.011474219            1 
 4241000    0.5751049   -8.5830748    645.17125  0.012677263  0.011470214            1 
 4242000   0.57026913   -8.5607073    644.85685  0.012668098  0.011466214            2 
 4243000   0.57029479   -8.5783895     645.6519  0.012680727  0.011462216            1 
 4244000   0.57152927   -8.5728362    645.04953  0.012665911  0.011458224            1 
 4245000   0.56509165   -8.5881415    643.58797  0.012634236   0.01145423            2 
 4246000   0.56845522   -8.5731577    645.66122   0.01267195  0.011450237            1 
 4247000   0.57908785   -8.5723616     645.1933  0.012659785  0.011446252            2 
 4248000   0.57001813   -8.5686081    645.28075  0.012658521   0.01144227            2 
 4249000   0.56983511   -8.5840732    644.96689  0.012649386  0.011438285            2 
 4250000   0.56442161   -8.5623513    645.91255  0.012664952  0.011434301            1 
 4251000   0.57470382   -8.5769851    646.03298  0.012664334  0.011430319            4 
 4252000   0.56487199   -8.5706266    643.93681  0.012620273  0.011426337            2 
 4253000    0.5754372   -8.5698084    644.83688  0.012634942  0.011422357            2 
 4254000   0.56923051   -8.5753473    645.86185   0.01265205  0.011418375            3 
 4255000   0.57617712   -8.5801075    644.75237  0.012627348  0.011414393            2 
 4256000    0.5645337    -8.586111    645.16935  0.012632545  0.011410416            1 
 4257000   0.57613504   -8.5989394    643.49218  0.012596746  0.011406437            3 
 4258000   0.56235635   -8.5620755    643.83956  0.012600586  0.011402464            5 
 4259000   0.56533451   -8.5846552    644.62603  0.012613016  0.011398492            1 
 4260000   0.57930667    -8.592636     644.5681  0.012608922  0.011394524            1 
 4261000   0.57348264   -8.5757181    644.73551  0.012609237  0.011390556            2 
 4262000    0.5576548    -8.581018    644.81483   0.01260783  0.011386584            2 
 4263000   0.57772094   -8.5712278    646.06723  0.012629354  0.011382619            3 
 4264000   0.55321109   -8.5757183    646.07582   0.01262656  0.011378659            1 
 4265000     0.567378   -8.5850688    644.76228  0.012597934  0.011374699            2 
 4266000   0.56253156   -8.5864798    644.89666  0.012597606  0.011370742            1 
 4267000   0.56880913   -8.5949614    645.02448   0.01259715  0.011366788            1 
 4268000   0.56748966   -8.5777553    644.82279  0.012590261  0.011362831            2 
 4269000   0.55939882   -8.5890386    645.35638  0.012597727  0.011358878            3 
 4270000   0.57446898   -8.5926069     644.5759  0.012579545  0.011354925            2 
 4271000    0.5777194   -8.5785417    644.34149  0.012572026  0.011350976            2 
 4272000   0.57073646    -8.569645     645.9672  0.012600796  0.011347032            2 
 4273000   0.57479861   -8.5859608      645.386  0.012586512  0.011343085            1 
 4274000   0.56989999   -8.5944826    645.11151  0.012578215  0.011339137            2 
 4275000   0.56983101   -8.5641196    644.31141  0.012559677   0.01133519            2 
 4276000   0.57009195   -8.5662055    645.79889  0.012585728  0.011331246            1 
 4277000   0.55753134   -8.5996835    643.92669  0.012546308  0.011327306            2 
 4278000   0.55736428   -8.5799531    644.73044  0.012559031  0.011323361            1 
 4279000    0.5600639   -8.5975806     644.6141  0.012553831  0.011319423            2 
 4280000   0.56085625   -8.5857069    644.64625  0.012551524  0.011315486            1 
 4281000   0.56479847    -8.574897    644.44154  0.012544607  0.011311549            2 
 4282000   0.57369082   -8.5996513    645.06453  0.012553801  0.011307618            2 
 4283000   0.56677213   -8.5875559    644.84783  0.012546654  0.011303689            1 
 4284000   0.57550787   -8.5876992    644.68138  0.012540488  0.011299757            2 
 4285000   0.58019702   -8.5854922     644.0609  0.012525494  0.011295826            1 
 4286000    0.5599481   -8.5981052      646.122  0.012562646  0.011291905            2 
 4287000   0.55774234   -8.5837614    644.84692   0.01253493  0.011287978            2 
 4288000   0.55857564   -8.5873632    645.29167   0.01254065  0.011284053            1 
 4289000    0.5708435   -8.5726883    644.82318  0.012528623  0.011280136            2 
 4290000   0.56447865   -8.5577611    646.14992  0.012551475  0.011276224            2 
 4291000   0.57499988   -8.5735377    644.02937  0.012507368  0.011272309            2 
 4292000    0.5725147   -8.5795687    645.43103  0.012531668  0.011268395            2 
 4293000   0.56820535   -8.5703484    646.71578  0.012553688  0.011264485            1 
 4294000   0.55559486   -8.5882711    645.03518  0.012518149  0.011260577            1 
 4295000   0.55224832   -8.5829935    645.53047  0.012524844  0.011256672            2 
 4296000   0.56645839   -8.5924929    643.41739  0.012480939  0.011252766            1 
 4297000   0.56923026    -8.567134    645.18794  0.012512372  0.011248863            1 
 4298000   0.56538465   -8.5917472    644.56274  0.012497339  0.011244966            3 
 4299000   0.56445976   -8.6132638     644.6764  0.012496635  0.011241061            1 
 4300000   0.57493637   -8.5879728    644.71259   0.01249443  0.011237161            1 
 4301000   0.58024985   -8.5733614    645.07369  0.012498521  0.011233264            1 
 4302000   0.54811305   -8.5768239    643.85141   0.01247194   0.01122937            1 
 4303000   0.56335239   -8.5910341     645.0345  0.012491953  0.011225473            2 
 4304000   0.58186593   -8.6011623    644.30825  0.012474989  0.011221583            1 
 4305000   0.55668092   -8.5835759    643.51765  0.012456788  0.011217688            2 
 4306000    0.5644477   -8.5939672    645.10948  0.012484701  0.011213799            1 
 4307000   0.55960918   -8.6045415    644.74073  0.012474668  0.011209912            2 
 4308000   0.55745659   -8.5841889     645.1558  0.012479801  0.011206025            2 
 4309000   0.56303478   -8.5759052    644.66574  0.012467428  0.011202141            2 
 4310000   0.56425936   -8.5903261    644.70062  0.012465209  0.011198255            1 
 4311000   0.55382313   -8.5781261    644.83958  0.012465004  0.011194373            2 
 4312000   0.55391619   -8.5859308    644.19551  0.012449666  0.011190494            2 
 4313000   0.55564164   -8.5940744    644.99313   0.01246219  0.011186618            3 
 4314000   0.55642762   -8.5941486    644.10403  0.012442127  0.011182738            2 
 4315000   0.57013302   -8.5967815    644.96593  0.012455889  0.011178862            2 
 4316000   0.56103502   -8.5904771     644.1169   0.01243661  0.011174985            2 
 4317000   0.56687668    -8.585659    643.78577  0.012427337  0.011171111            2 
 4318000   0.55967528   -8.5726515    644.75423  0.012443149  0.011167237            3 
 4319000   0.55213925   -8.5765207    644.28004  0.012431119  0.011163369            2 
 4320000   0.55259437   -8.5772892    644.25412  0.012427741  0.011159499            4 
 4321000   0.54202362   -8.5877769    645.08888  0.012440964  0.011155631            2 
 4322000   0.55383065   -8.5854795     643.7984  0.012413204  0.011151766            1 
 4323000   0.56353959   -8.5775739    644.63474  0.012426454    0.0111479            2 
 4324000   0.55898407   -8.5869396    644.24374  0.012416045  0.011144033            2 
 4325000   0.57336437   -8.6002649    643.43899  0.012397668  0.011140174            1 
 4326000   0.56028766   -8.5927817    645.37282  0.012432055  0.011136315            2 
 4327000   0.55600525    -8.573799    644.99156  0.012421839  0.011132459            2 
 4328000   0.57149306   -8.5764373    644.74067  0.012414138  0.011128605            1 
 4329000   0.55257169   -8.5912257    644.35606  0.012403866   0.01112475            3 
 4330000   0.56708144   -8.6096188    645.31437  0.012419445  0.011120899            1 
 4331000    0.5614234   -8.5848657    645.24316  0.012415207  0.011117053            1 
 4332000   0.57387586   -8.5915577    644.01188  0.012388656  0.011113204            2 
 4333000   0.54797466   -8.5677453    644.53562  0.012395869  0.011109357            2 
 4334000    0.5430531   -8.5781377    645.07854  0.012403448  0.011105513            1 
 4335000   0.55834643    -8.566152    644.75943  0.012394453  0.011101671            1 
 4336000   0.55539704   -8.5815973    644.73746  0.012391172   0.01109783            2 
 4337000   0.55422412   -8.5890488    643.63401  0.012367113  0.011093996            1 
 4338000   0.55432283   -8.5756202    644.76723  0.012386031  0.011090162            2 
 4339000   0.56680095   -8.5876526    645.43609  0.012396022   0.01108633            1 
 4340000   0.56110687   -8.5919796    646.08603  0.012405646  0.011082496            4 
 4341000   0.56407038   -8.5877132     644.9205  0.012380413  0.011078665            3 
 4342000   0.56836872   -8.5707526    644.66276  0.012372616  0.011074831            1 
 4343000   0.54782417   -8.5714405    644.05967  0.012358195  0.011071007            3 
 4344000   0.55716072   -8.5924758    644.78483  0.012369261  0.011067176            1 
 4345000   0.55092127   -8.5930961    644.62438  0.012363337   0.01106335            3 
 4346000   0.56633391   -8.5982264     644.3059  0.012354385  0.011059526            4 
 4347000    0.5522223   -8.5780984    646.00272  0.012384072  0.011055704            3 
 4348000   0.55752816   -8.5881674    644.04585  0.012343718  0.011051883            2 
 4349000   0.56553813   -8.5947249    643.92155  0.012338498  0.011048063            1 
 4350000   0.56901861   -8.6010522    644.59357  0.012348536  0.011044244            2 
 4351000   0.56360851   -8.5921357    644.22482  0.012338635  0.011040429            4 
 4352000   0.55279925    -8.588075    644.17502  0.012334846  0.011036612            2 
 4353000   0.55152455   -8.5982402    645.60251   0.01235934  0.011032802            2 
 4354000   0.55605127   -8.6031778    644.68709  0.012338981  0.011028993            4 
 4355000   0.55557365   -8.5944763    643.63542  0.012316024  0.011025186            2 
 4356000   0.55681963   -8.5920397    643.74279  0.012315251  0.011021378            3 
 4357000   0.55623412   -8.5522246    644.05218  0.012318342  0.011017574            2 
 4358000   0.55562421   -8.5954554    645.05067  0.012334608  0.011013769            2 
 4359000   0.55235164   -8.5847635    645.08517  0.012332438  0.011009965            2 
 4360000   0.54753175   -8.5917237    643.80922  0.012305222  0.011006159            1 
 4361000   0.55361994   -8.6145311    643.59794  0.012298363  0.011002356            2 
 4362000    0.5437975   -8.6002156    644.64307   0.01231551  0.010998556            2 
 4363000   0.55086663   -8.5932269    644.38746  0.012307805  0.010994757            2 
 4364000   0.54484142    -8.605144    644.57933  0.012308649  0.010990957            4 
 4365000     0.550253   -8.5838234    645.14735  0.012316673  0.010987161            3 
 4366000   0.54376092   -8.6069713    644.25857  0.012296888  0.010983366            2 
 4367000   0.55069345   -8.5843488    643.65274  0.012282512  0.010979577            2 
 4368000   0.55109973   -8.5990309     643.9772   0.01228589  0.010975789            2 
 4369000    0.5561699   -8.5976096    644.09021  0.012285233  0.010972001            2 
 4370000   0.55072564   -8.5842588    644.55197  0.012291227  0.010968213            2 
 4371000   0.55372511    -8.592431    644.58547  0.012289054  0.010964428            3 
 4372000   0.55597247    -8.605677    644.55143  0.012285595  0.010960642            3 
 4373000   0.54655498   -8.6191806    644.87728  0.012288995  0.010956858            2 
 4374000   0.54198768   -8.5995831    644.61211  0.012281133  0.010953075            2 
 4375000   0.55847846   -8.5865879    644.46214  0.012275469  0.010949291            2 
 4376000   0.53915815   -8.6047577    643.92902  0.012262512  0.010945508            4 
 4377000   0.55870245   -8.5799056    643.79236  0.012257108  0.010941728            2 
 4378000   0.55274111     -8.60729    643.24242  0.012243841  0.010937951            2 
 4379000   0.54353541   -8.5896395    643.64301  0.012248668  0.010934172            2 
 4380000   0.55989442    -8.603149    644.34478  0.012259223  0.010930395            2 
 4381000   0.55780801   -8.6072088    644.32449  0.012256039  0.010926621            1 
 4382000    0.5465067   -8.6030236    644.00702  0.012247205  0.010922848            3 
 4383000    0.5564387   -8.5922381     643.7751  0.012240001  0.010919076            1 
 4384000   0.55835223   -8.6060076    643.65779  0.012234979  0.010915308            1 
 4385000    0.5500683   -8.6022865    644.33549  0.012245068  0.010911538            2 
 4386000   0.54816892    -8.602269    643.68876  0.012229989  0.010907769            2 
 4387000   0.55739437   -8.5958507    644.42717  0.012241227  0.010904009            2 
 4388000    0.5622343   -8.5944935    643.99198  0.012230173  0.010900245            3 
 4389000   0.54616305   -8.5892668    643.35715  0.012215333  0.010896482            2 
 4390000   0.55316712   -8.5991171    643.55685  0.012216341  0.010892722            1 
 4391000     0.548514   -8.6190572    643.29169  0.012208527  0.010888962            4 
 4392000   0.54416418   -8.5891577    643.98973  0.012218991  0.010885209            2 
 4393000   0.56207442   -8.6108433    643.91646   0.01221482  0.010881455            2 
 4394000   0.55246797   -8.5951052    643.16521  0.012197793  0.010877701            2 
 4395000   0.55084829   -8.6072715     644.3909  0.012218258   0.01087395            1 
 4396000   0.54274246   -8.6181254     644.4054  0.012215753  0.010870203            4 
 4397000    0.5478946   -8.6054208    644.76264  0.012219745  0.010866457            3 
 4398000   0.54616379   -8.5857133    643.29907  0.012189235  0.010862711            1 
 4399000   0.55007951   -8.6176096    643.21944  0.012184956  0.010858967            2 
 4400000   0.55343626    -8.597305    644.26476  0.012201984  0.010855226            3 
 4401000   0.54420654   -8.6054009    643.24835  0.012179966  0.010851484            1 
 4402000   0.55192053    -8.599457    645.76232   0.01222479  0.010847745            2 
 4403000   0.55241266   -8.6107234     644.6082   0.01220017  0.010844011            3 
 4404000   0.53728872   -8.6009848    644.43871  0.012194193  0.010840275            1 
 4405000   0.54627697   -8.6114924    643.14964  0.012167038  0.010836541            2 
 4406000   0.53463018   -8.6067445    645.15605  0.012202225  0.010832806            2 
 4407000   0.54221929   -8.6240514    643.86822  0.012175104  0.010829072            2 
 4408000   0.55052748   -8.6159695    643.88812  0.012172718   0.01082534            1 
 4409000    0.5433676   -8.6170938    642.69559  0.012147418  0.010821611            1 
 4410000   0.54421233   -8.6052981    643.07298  0.012151795  0.010817885            1 
 4411000   0.54493175   -8.6139282    643.30361  0.012153397  0.010814159            2 
 4412000   0.55280789   -8.6080894    644.75809  0.012178114  0.010810431            1 
 4413000   0.54315766   -8.5945808    643.93569  0.012159825  0.010806705            1 
 4414000   0.55023676   -8.6166444    643.43954  0.012147703   0.01080298            2 
 4415000   0.54939672   -8.6005175    643.15756  0.012139629  0.010799257            2 
 4416000   0.54089974   -8.5977493    644.16521  0.012155895  0.010795537            2 
 4417000   0.54306822   -8.6260322    643.86885  0.012147552  0.010791818            1 
 4418000   0.53892594    -8.604898    643.82575  0.012143989  0.010788099            2 
 4419000   0.54149969   -8.6070436    643.18541  0.012129166  0.010784381            3 
 4420000   0.55393287   -8.6280635    643.59967  0.012134232  0.010780666            1 
 4421000   0.54360028   -8.6021669    643.11311  0.012122316  0.010776954            3 
 4422000    0.5436414   -8.5984362    642.95787  0.012116649  0.010773241            2 
 4423000   0.54000156   -8.5927885     643.2936  0.012120235  0.010769528            2 
 4424000   0.54042898   -8.6075574     643.4427  0.012120304  0.010765818            3 
 4425000   0.53900742   -8.6178767    644.03384  0.012128698  0.010762117            3 
 4426000   0.54691186   -8.6007565    644.31996  0.012131344  0.010758406            5 
 4427000   0.53533319   -8.6050122    643.96765  0.012121972  0.010754701            4 
 4428000   0.54539209   -8.6251937    644.36897  0.012126787  0.010750999            1 
 4429000   0.53589901   -8.6163907    643.30509  0.012104032  0.010747299            1 
 4430000   0.53832694   -8.6125798    643.58944  0.012106649  0.010743602            1 
 4431000   0.53069153   -8.6158926     643.6836  0.012105687  0.010739904            3 
 4432000   0.54228685   -8.6379004    643.52391  0.012099953  0.010736207            2 
 4433000   0.53552344    -8.584808    644.24291   0.01211074  0.010732517            1 
 4434000   0.54324585   -8.5988265    644.27708  0.012108651  0.010728827            5 
 4435000   0.54490356     -8.62168    643.61954  0.012093565  0.010725133            1 
 4436000    0.5376549   -8.5980577    644.47551  0.012106919  0.010721442            2 
 4437000   0.54264988   -8.6102858    644.00804  0.012095411  0.010717755            2 
 4438000   0.55195866   -8.6055125    643.31916   0.01207975  0.010714067            3 
 4439000   0.53931484   -8.6176084    642.80925  0.012067456  0.010710385            1 
 4440000   0.54056961     -8.61709    643.20043   0.01207208  0.010706699            3 
 4441000   0.53134533   -8.6217905    642.80745  0.012061988  0.010703019            3 
 4442000   0.53003792   -8.6053595    643.47388  0.012071775  0.010699337            2 
 4443000   0.54191565   -8.6035367    643.87192  0.012076523  0.010695658            1 
 4444000   0.54098975   -8.6193789    644.09477  0.012077985  0.010691978            3 
 4445000    0.5487919   -8.6344838    643.13547  0.012057283  0.010688301            3 
 4446000   0.54589744   -8.6195685    643.38756  0.012059296  0.010684625            1 
 4447000   0.54320655    -8.604373    644.10623  0.012070052  0.010680949            3 
 4448000   0.52681105   -8.6182271    644.10153   0.01206725  0.010677279            2 
 4449000   0.53951791   -8.6181425    643.10163  0.012045809   0.01067361            2 
 4450000   0.55168055   -8.6271503    643.72079  0.012054697   0.01066994            2 
 4451000   0.54293304   -8.6256899    643.82614  0.012053961  0.010666273            2 
 4452000   0.53613993   -8.6427519    642.58705   0.01202806  0.010662606            2 
 4453000   0.53484654   -8.6145848    642.92345  0.012031654  0.010658938            2 
 4454000   0.53847042   -8.6099288    643.95605  0.012048272  0.010655276            2 
 4455000   0.54627369   -8.6152968    643.73438  0.012041421  0.010651612            1 
 4456000   0.53650084   -8.6289427    643.28324  0.012030282  0.010647954            2 
 4457000   0.54554943   -8.6140771    642.40193  0.012011105  0.010644296            2 
 4458000   0.55137648   -8.6303372    643.59915   0.01203079  0.010640635            2 
 4459000   0.54070553    -8.620636    643.59229  0.012027964  0.010636979            2 
 4460000   0.53123459   -8.6293951    643.59007  0.012025225  0.010633322            2 
 4461000   0.54887452    -8.620584    642.71615  0.012006205  0.010629667            1 
 4462000   0.52688074   -8.6338176    642.98684  0.012008569  0.010626014            3 
 4463000   0.54438494   -8.6392274     644.6996  0.012037859  0.010622361            1 
 4464000   0.53808806   -8.5943865    643.79584  0.012018291  0.010618714            1 
 4465000   0.53223766   -8.6240269    642.98816  0.012000526  0.010615067            2 
 4466000   0.54295998   -8.6318453    644.40479  0.012024272   0.01061142            1 
 4467000   0.54203867   -8.6336734    642.56608  0.011987279  0.010607775            2 
 4468000   0.53112589   -8.6359944     642.4738  0.011982875  0.010604132            1 
 4469000   0.54862706   -8.6255802    643.93303  0.012007403  0.010600488            2 
 4470000   0.53675275   -8.6217526    643.22633  0.011991542   0.01059685            2 
 4471000   0.53388053   -8.6401398    644.27312  0.012008371  0.010593212            2 
 4472000   0.52224538   -8.6432846    642.96514  0.011981312  0.010589574            1 
 4473000   0.53632334   -8.6234173    643.22841  0.011983539  0.010585939            2 
 4474000   0.53238392   -8.6073223    641.95308  0.011957105  0.010582307            3 
 4475000   0.53493908   -8.6284687    643.16112   0.01197693  0.010578675            1 
 4476000   0.54339589    -8.633548    643.16375  0.011974303  0.010575047            1 
 4477000    0.5281147    -8.624669    643.70792  0.011981757  0.010571418            2 
 4478000   0.53258626   -8.6323736    643.29547  0.011971406  0.010567794            1 
 4479000   0.53611692   -8.6277757    643.33792  0.011969523  0.010564171            1 
 4480000   0.54188333   -8.6078255    644.22397  0.011983333  0.010560549            1 
 4481000   0.54039037   -8.6482796     642.6129  0.011950697  0.010556927            2 
 4482000    0.5394576   -8.6289047    644.08288  0.011975362  0.010553307            2 
 4483000   0.52728048   -8.6245499    643.75059  0.011966514  0.010549689            2 
 4484000   0.52151756   -8.6310219    643.00326  0.011949957  0.010546073            2 
 4485000   0.53468204   -8.6161577     644.3891  0.011973042  0.010542461            2 
 4486000   0.53703628   -8.6443017    643.44463  0.011952828  0.010538846            1 
 4487000   0.53367722   -8.6265988    642.63538  0.011935134  0.010535238            1 
 4488000    0.5240077   -8.6283678    642.96111  0.011938523  0.010531627            2 
 4489000   0.53248558   -8.6031533    644.01646  0.011955455  0.010528021            2 
 4490000    0.5354973   -8.6505727    642.82614    0.0119307  0.010524413            2 
 4491000   0.54482347   -8.6342122    642.77905   0.01192717  0.010520808            2 
 4492000   0.53118216   -8.6376585    643.61793  0.011940077  0.010517201            1 
 4493000    0.5143935   -8.6329345    643.23636  0.011930343  0.010513597            3 
 4494000    0.5400943   -8.6292575    643.81114  0.011938346  0.010509994            2 
 4495000   0.53122922   -8.6341995    643.76557  0.011934846  0.010506392            1 
 4496000   0.52711577   -8.6533246    643.25903  0.011922802  0.010502791            1 
 4497000   0.53649127   -8.6304596    643.83823  0.011930884  0.010499194            2 
 4498000   0.53208486   -8.6478006    641.97585  0.011893728  0.010495597            2 
 4499000   0.51717073   -8.6402781    642.06096  0.011892661  0.010492003            2 
 4500000   0.54550114   -8.6288667    642.97677  0.011906977  0.010488414            1 
 4501000   0.52480362   -8.6193446    643.00551  0.011904864  0.010484825            2 
 4502000   0.53763113   -8.6456837    643.22217   0.01190623  0.010481235            4 
 4503000   0.53369742   -8.6540452     644.2071  0.011921813   0.01047765            5 
 4504000   0.53880146   -8.6432521    643.17739  0.011900114  0.010474065            2 
 4505000   0.53380972   -8.6227353    642.74148   0.01188941  0.010470479            2 
 4506000   0.53209892   -8.6195629    642.56241  0.011883459  0.010466895            2 
 4507000    0.5279668   -8.6193254    643.30487   0.01189455  0.010463314            2 
 4508000   0.52435123   -8.6419055     643.9466  0.011903775  0.010459731            1 
 4509000   0.51998695   -8.6447654    642.56566  0.011875613  0.010456149            2 
 4510000   0.54838881   -8.6159905    644.10141  0.011901356   0.01045257            2 
 4511000   0.52708745   -8.6347748     643.0334  0.011878988  0.010448996            1 
 4512000   0.54045918   -8.6464762    641.82528  0.011854043  0.010445421            2 
 4513000   0.53174149   -8.6459619    643.57671  0.011883756  0.010441848            1 
 4514000   0.52580727   -8.6501483    642.56645  0.011862473  0.010438275            1 
 4515000   0.52425696   -8.6591305    643.61804  0.011879255  0.010434706            1 
 4516000   0.52366603   -8.6342911    642.94653  0.011864233  0.010431138            2 
 4517000   0.53500309   -8.6367556    643.44606  0.011870822  0.010427571            4 
 4518000   0.53787624   -8.6473204      642.097  0.011843312  0.010424003            1 
 4519000   0.52937453   -8.6479116    643.05414  0.011858341  0.010420437            1 
 4520000   0.53128008   -8.6323786    642.06862  0.011837548  0.010416873            1 
 4521000    0.5339003   -8.6313157    642.93115  0.011850829  0.010413313            1 
 4522000   0.53581043   -8.6500604    643.05204  0.011850436   0.01040975            2 
 4523000    0.5347888   -8.6347181    641.70796  0.011823052  0.010406191            1 
 4524000   0.52231035   -8.6430985    642.92672  0.011842888  0.010402635            2 
 4525000   0.52816369   -8.6465884    642.69671  0.011836035  0.010399082            2 
 4526000   0.53279482   -8.6335121    642.91195  0.011837383   0.01039553            2 
 4527000   0.51804731   -8.6378845    643.01025  0.011836578  0.010391974            1 
 4528000   0.52384366   -8.6538555    642.12737  0.011817715  0.010388423            1 
 4529000   0.51214546   -8.6427447    642.57697  0.011823378  0.010384873            2 
 4530000   0.52374485   -8.6489057    642.47376   0.01181887  0.010381322            2 
 4531000   0.52043242   -8.6163504    643.29453  0.011831357  0.010377778            3 
 4532000   0.52577785   -8.6498276    642.84682  0.011820514  0.010374234            2 
 4533000   0.52392031   -8.6600947    642.58467  0.011813087  0.010370691            1 
 4534000   0.51325131   -8.6593867    643.54272   0.01182809  0.010367146            1 
 4535000   0.53569754   -8.6426791    642.87929  0.011813291  0.010363603            1 
 4536000   0.51276711   -8.6427323     643.1145  0.011815008  0.010360062            1 
 4537000    0.5254247   -8.6443271    643.34308  0.011816602   0.01035652            2 
 4538000   0.53127376   -8.6426142    642.56746  0.011799755  0.010352981            2 
 4539000   0.52197857   -8.6605869    641.92029  0.011785274  0.010349444            2 
 4540000   0.53856711   -8.6422722    642.28124  0.011789303  0.010345909            2 
 4541000   0.51334927   -8.6446112    641.99456  0.011781446  0.010342378            1 
 4542000   0.52074338   -8.6519007     643.7654  0.011811342  0.010338845            3 
 4543000   0.52286586   -8.6349884    642.22924  0.011780564  0.010335317            1 
 4544000   0.52176715   -8.6450793    642.78998  0.011788255  0.010331788            3 
 4545000   0.51932182   -8.6447552    642.11094  0.011773211  0.010328257            2 
 4546000   0.53127125   -8.6572586    642.57528  0.011779133  0.010324731            2 
 4547000   0.51651303   -8.6427476    642.30232   0.01177154  0.010321209            2 
 4548000   0.51510654   -8.6386799    642.75013  0.011777157  0.010317686            4 
 4549000   0.51797108   -8.6575762    643.15154  0.011781922  0.010314165            2 
 4550000   0.53086249   -8.6360331    643.25398  0.011781208  0.010310645            2 
 4551000   0.51988678   -8.6478697    642.54885  0.011765708  0.010307126            3 
 4552000   0.52973821   -8.6458483    643.02546  0.011771849  0.010303606            2 
 4553000   0.51538386     -8.64652    642.38083  0.011757464  0.010300089            3 
 4554000   0.52852059   -8.6509028    641.53914  0.011739481   0.01029657            2 
 4555000   0.51934187   -8.6607377     642.3549  0.011751828  0.010293056            2 
 4556000   0.52861956   -8.6302283     641.7222  0.011737676  0.010289544            2 
 4557000     0.518602   -8.6667362    643.71639  0.011771567  0.010286032            2 
 4558000   0.51206496    -8.655365    642.59497  0.011748482   0.01028252            1 
 4559000   0.52076334   -8.6312775    643.52628  0.011762928  0.010279012            3 
 4560000   0.52450987   -8.6482268    643.77944  0.011764975  0.010275506            2 
 4561000   0.51961454   -8.6522645    642.53519  0.011739662  0.010272003            5 
 4562000   0.51410811   -8.6471854    643.12242  0.011747816  0.010268503            1 
 4563000    0.5182232   -8.6426294    643.35044  0.011749405  0.010265003            3 
 4564000   0.52329914   -8.6536393    643.12133  0.011742648  0.010261503            2 
 4565000   0.52417253   -8.6400242    643.07331  0.011739199  0.010258004            3 
 4566000   0.51201987   -8.6709245    642.50105  0.011726183  0.010254509            2 
 4567000   0.51199629   -8.6552523    643.34146  0.011738951  0.010251012            2 
 4568000   0.52094233   -8.6551571    642.98395  0.011729859  0.010247519            2 
 4569000   0.52814666    -8.658415    642.15885  0.011712243  0.010244028            2 
 4570000   0.51445734   -8.6440322     642.0634   0.01170794  0.010240536            1 
 4571000    0.5206073   -8.6522643     642.0872  0.011705812  0.010237049            2 
 4572000   0.52111996   -8.6700036    642.12759  0.011703988  0.010233558            1 
 4573000   0.52213123   -8.6562293    643.00936  0.011717497   0.01023007            2 
 4574000   0.51898418   -8.6723158    642.39411  0.011703726  0.010226583            2 
 4575000   0.51560787   -8.6569843    641.73167  0.011689101  0.010223097            2 
 4576000   0.51318404   -8.6516652    642.06528  0.011692622  0.010219612            2 
 4577000   0.52457068   -8.6507829    642.99172  0.011706935   0.01021613            2 
 4578000   0.51200795    -8.654306    643.03334  0.011705136  0.010212648            2 
 4579000   0.52039091   -8.6625723    642.51111  0.011693075   0.01020917            2 
 4580000   0.51705426    -8.672751    642.91608  0.011697891  0.010205695            2 
 4581000   0.51961431   -8.6511958    642.74869  0.011692292  0.010202216            1 
 4582000   0.51516852   -8.6652118    642.93013   0.01169304  0.010198742            3 
 4583000    0.5232928   -8.6398735    643.13689  0.011694248  0.010195275            1 
 4584000    0.5101492   -8.6531605    641.54495  0.011662757  0.010191806            3 
 4585000   0.52304053   -8.6563991    642.45755    0.0116768  0.010188337            6 
 4586000   0.52189736   -8.6604342    642.57502  0.011676389  0.010184869            4 
 4587000   0.51831091   -8.6624111    643.39177  0.011688681  0.010181402            2 
 4588000   0.51424272   -8.6804066    641.76714  0.011656625   0.01017794            1 
 4589000   0.51925034   -8.6450883    642.85099  0.011673767  0.010174478            1 
 4590000   0.52143435   -8.6711809    641.21373  0.011641498  0.010171016            2 
 4591000   0.50627924   -8.6730684    642.33164  0.011659254  0.010167554            2 
 4592000    0.5092093   -8.6705004     642.4644  0.011659125  0.010164093            2 
 4593000   0.51933196   -8.6714735    641.23606    0.0116343  0.010160632            2 
 4594000   0.51861423   -8.6614277    642.26524  0.011650436  0.010157174            4 
 4595000   0.50467931   -8.6427491     642.0253  0.011643549  0.010153716            2 
 4596000   0.52229538   -8.6335856    643.19316  0.011662191  0.010150264            2 
 4597000   0.51277542   -8.6646265    642.35898  0.011644532  0.010146814            1 
 4598000   0.52444079   -8.6692346    642.06454  0.011636663  0.010143365            2 
 4599000   0.51545595   -8.6543478    641.34717  0.011621135  0.010139914            1 
 4600000   0.52288422    -8.665876    642.74874  0.011643999  0.010136467            2 
 4601000   0.51815637   -8.6629331    642.07475  0.011629261  0.010133019            1 
 4602000   0.52306464   -8.6413586    642.03391  0.011625994  0.010129575            2 
 4603000   0.51457299   -8.6750758    643.45477  0.011649192  0.010126133            2 
 4604000   0.51980532   -8.6579487    642.17661  0.011623527  0.010122689            1 
 4605000   0.52220383   -8.6895556    642.74402  0.011631271  0.010119248            2 
 4606000   0.52201218   -8.6531523    642.66266  0.011627273  0.010115809            2 
 4607000   0.52046781   -8.6622184    642.31143  0.011618396  0.010112375            2 
 4608000   0.51680997   -8.6749956    642.03727  0.011610917  0.010108935            3 
 4609000    0.5114973   -8.6529906    643.53362  0.011635453    0.0101055            2 
 4610000   0.51510599   -8.6734625    641.59362   0.01159786  0.010102066            2 
 4611000   0.51589399   -8.6547924    643.90022  0.011637031  0.010098634            2 
 4612000    0.5030662    -8.644505    642.16238  0.011603107  0.010095201            1 
 4613000   0.50773357   -8.6585798    642.27979  0.011602713  0.010091771            3 
 4614000   0.51734467   -8.6675537    641.92463  0.011593784  0.010088342            3 
 4615000   0.50929557   -8.6577551    641.82701  0.011589509  0.010084916            1 
 4616000   0.51169201   -8.6640109     642.5838  0.011600661  0.010081489            1 
 4617000   0.52013786    -8.665857    642.37313  0.011594346  0.010078065            2 
 4618000   0.50888064   -8.6627843    642.17248  0.011588214  0.010074643            2 
 4619000   0.51637748   -8.6682287    641.24185  0.011568916  0.010071226            2 
 4620000   0.51352237     -8.66883    642.02729  0.011580579  0.010067809            2 
 4621000   0.50926511   -8.6809333     643.0054  0.011595712  0.010064392            3 
 4622000   0.52336518   -8.6631353    641.81198  0.011571686  0.010060978            2 
 4623000   0.50621693   -8.6625163    641.27333  0.011559473  0.010057563            5 
 4624000   0.51399653   -8.6784044    642.38551  0.011577017  0.010054148            2 
 4625000   0.50648985   -8.6455025    642.21213   0.01157139  0.010050735            1 
 4626000   0.50279784   -8.6755903    642.57598  0.011575443  0.010047323            1 
 4627000   0.51129963   -8.6627449    642.36361  0.011569116  0.010043912            2 
 4628000   0.51810955   -8.6816986    641.69105  0.011554506  0.010040504            3 
 4629000   0.50128071   -8.6801925      642.008  0.011557716  0.010037098            1 
 4630000   0.51449407    -8.679588    642.16595  0.011558062  0.010033689            3 
 4631000    0.5108426   -8.6584912    642.17937  0.011555808  0.010030284            2 
 4632000   0.50435899   -8.6835546    642.66249  0.011562005  0.010026885            2 
 4633000    0.5129853   -8.6701967    642.81959  0.011562335  0.010023483            4 
 4634000   0.51067262   -8.6663604    641.90617  0.011543414  0.010020081            2 
 4635000   0.51223195   -8.6574626    642.01286  0.011542842  0.010016683            5 
 4636000    0.5154829   -8.6680048    641.44028   0.01153006  0.010013283            1 
 4637000   0.50534155   -8.6726855    641.73891   0.01153294  0.010009888            1 
 4638000   0.50853325   -8.6704471    642.75078  0.011548634   0.01000649            1 
 4639000   0.50288633   -8.6681846     641.9199  0.011531219  0.010003099            2 
 4640000   0.50987814   -8.6806758    642.08241  0.011531653 0.0099997054            3 
 4641000   0.50578408   -8.6521762    642.32274  0.011533483 0.0099963114            2 
 4642000    0.5172843   -8.6625477    643.15859  0.011546004 0.0099929251            2 
 4643000   0.50179912   -8.6697067    641.65981  0.011516617  0.009989537            3 
 4644000   0.49902507   -8.6782978     641.3265  0.011508156 0.0099861498            2 
 4645000   0.50545187    -8.695931    642.14579  0.011520377 0.0099827634            2 
 4646000   0.50203523   -8.6811758    640.70715  0.011492093   0.00997938            2 
 4647000   0.51752473    -8.668508     642.1182  0.011514924 0.0099759959            2 
 4648000   0.51811376   -8.6726957    642.87007  0.011525926 0.0099726191            2 
 4649000   0.51698929   -8.6755786    642.24637  0.011512267 0.0099692386            2 
 4650000   0.50478974   -8.6779052    641.41076  0.011494816 0.0099658636            2 
 4651000   0.51588412   -8.6675843    641.15549  0.011487771  0.009962488            2 
 4652000   0.50868934   -8.6756746    641.89578  0.011498563 0.0099591157            1 
 4653000   0.51213579   -8.6690218    642.26446  0.011502695 0.0099557423            1 
 4654000   0.51442961   -8.6774104    641.66096  0.011489417 0.0099523689            1 
 4655000   0.51356222   -8.6754771    640.93041  0.011473871 0.0099489993            2 
 4656000   0.50870471   -8.6725298    641.83203  0.011487543  0.009945629            2 
 4657000   0.50630349   -8.6914123    641.53687  0.011479795 0.0099422615            1 
 4658000   0.50061002   -8.6752758    642.03258  0.011486199 0.0099388954            2 
 4659000    0.5101974   -8.6902393    642.31484  0.011488782 0.0099355304            1 
 4660000   0.51246733   -8.6735977    642.01021  0.011480869 0.0099321645            2 
 4661000   0.50601914   -8.6939087    641.10808  0.011462277 0.0099288041            1 
 4662000   0.50861557   -8.6746771    641.54954  0.011467709  0.009925442            3 
 4663000   0.50339749   -8.6811872    642.26605  0.011478055 0.0099220817            1 
 4664000   0.50480529   -8.6753926    642.17353  0.011473941 0.0099187195            4 
 4665000   0.49387177   -8.6582768    641.40282  0.011457714 0.0099153606            2 
 4666000   0.50881877   -8.6963981    641.02972  0.011448595  0.009912004            2 
 4667000   0.50434334   -8.6685209    641.74647   0.01145894 0.0099086505            2 
 4668000   0.50890647   -8.6555073    641.73022  0.011456195 0.0099052986            5 
 4669000    0.5051693   -8.6882133    641.69667  0.011453143 0.0099019442            2 
 4670000   0.49267519   -8.6901138    641.60629  0.011449077 0.0098985922            1 
 4671000   0.50600773   -8.6842474    641.69103  0.011448138 0.0098952438            4 
 4672000   0.50229486   -8.6843244    641.47462  0.011441828 0.0098918933            2 
 4673000   0.49819063   -8.6814817     641.8003  0.011445187 0.0098885451            2 
 4674000   0.51405416   -8.6913747    641.18796  0.011431821 0.0098851987            2 
 4675000   0.51089052   -8.6780908    642.38178  0.011450656 0.0098818532            2 
 4676000   0.49211636   -8.6936666    641.94836  0.011440483 0.0098785101            1 
 4677000   0.50447929   -8.6854317    641.90554  0.011437274 0.0098751682            1 
 4678000   0.51373848   -8.7015434    641.02609  0.011419162 0.0098718308            4 
 4679000   0.50217876    -8.673676    641.10933  0.011418204 0.0098684908            1 
 4680000   0.50427955   -8.6820136    641.82322  0.011428476 0.0098651559            1 
 4681000   0.50795189   -8.6750167    641.72578    0.0114243 0.0098618203            1 
 4682000   0.50068614   -8.6768363    641.01766  0.011409256 0.0098584885            2 
 4683000   0.49984725   -8.6814295    641.58907  0.011416988 0.0098551599            1 
 4684000   0.50455102   -8.6902141    641.16783  0.011407056 0.0098518312            2 
 4685000   0.50855776   -8.6830305    640.79548  0.011397999 0.0098485029            2 
 4686000   0.51179918   -8.6889146    642.63073  0.011428203 0.0098451758            1 
 4687000   0.49628028   -8.6711517    641.15727  0.011399567 0.0098418495            3 
 4688000   0.50898837   -8.6859425    640.67652   0.01138859 0.0098385229            3 
 4689000    0.4993667   -8.6856137    641.71718  0.011404656 0.0098352009            3 
 4690000   0.50921606   -8.6834544    641.40387  0.011396657 0.0098318799            4 
 4691000   0.50014195   -8.6892215    641.56715  0.011397128  0.009828561            2 
 4692000   0.49324098   -8.6853265    641.38816   0.01139152 0.0098252384            1 
 4693000   0.50088475   -8.6839804    643.46163  0.011425911 0.0098219207            2 
 4694000    0.5142101   -8.6780388    641.56862   0.01138987 0.0098186047            4 
 4695000   0.50572396   -8.6850727    641.04964  0.011378233 0.0098152908            2 
 4696000   0.49779609   -8.6814733     641.7177  0.011387665 0.0098119791            6 
 4697000   0.50420136   -8.6779475    642.06177  0.011391345 0.0098086705            4 
 4698000   0.49055062   -8.6852731    641.17044   0.01137311 0.0098053602            6 
 4699000   0.49828787    -8.685435    639.96595  0.011349329 0.0098020488            7 
 4700000   0.49137593   -8.6714454    642.25137  0.011387436 0.0097987416            1 
 4701000    0.4908745   -8.6810723     641.8731  0.011378308 0.0097954357            4 
 4702000   0.50488275   -8.6988956    641.95986  0.011377425 0.0097921312            2 
 4703000   0.50090904   -8.6940837     641.9517  0.011374862 0.0097888264            1 
 4704000   0.49756223   -8.6731624    641.17992  0.011358771 0.0097855221            1 
 4705000   0.49375633   -8.6811353     641.2292   0.01135723 0.0097822188            2 
 4706000   0.50744868   -8.6861252    641.10114  0.011352549  0.009778921            2 
 4707000   0.49963794   -8.6859606    641.47638   0.01135678 0.0097756214            2 
 4708000   0.49882925   -8.6769132    641.49739   0.01135474 0.0097723239            3 
 4709000   0.50180362   -8.6701579    641.28668    0.0113486 0.0097690271            1 
 4710000   0.48268149   -8.6994372    642.14366  0.011361353 0.0097657324            1 
 4711000   0.50262081   -8.6830695    641.49054  0.011347388  0.009762438            1 
 4712000   0.49815943   -8.6909085    641.01188  0.011336515 0.0097591438            2 
 4713000   0.50426069   -8.7017575    642.17448  0.011354666 0.0097558524            1 
 4714000   0.50200261   -8.6946541    641.02077  0.011331862 0.0097525615            1 
 4715000   0.50247224   -8.6810027    641.22546  0.011333076 0.0097492757            2 
 4716000   0.49231473    -8.683367     641.2812  0.011331658 0.0097459884            3 
 4717000   0.51060995   -8.7024238    641.67305  0.011336179 0.0097427063            4 
 4718000   0.48688043   -8.6840679    640.77489  0.011317912  0.009739423            2 
 4719000   0.50354755    -8.688619    641.25525  0.011323996 0.0097361392            3 
 4720000   0.50914692   -8.6967406    641.38678  0.011323919 0.0097328541            2 
 4721000   0.49626577   -8.6868192    639.98999  0.011296865 0.0097295708            1 
 4722000   0.49275215   -8.6789567     641.1829  0.011315525 0.0097262884            2 
 4723000   0.49902632    -8.706464     641.8457  0.011324824 0.0097230071            3 
 4724000   0.49842779   -8.6914957     640.6885  0.011302013 0.0097197273            2 
 4725000   0.50080122    -8.693833    640.64877   0.01129892 0.0097164502            1 
 4726000   0.49485974   -8.7087795    641.15586  0.011305471 0.0097131741            2 
 4727000   0.49066888   -8.6977012    640.41986  0.011290104 0.0097099019            1 
 4728000   0.49195418   -8.7035154    641.10551  0.011299801 0.0097066276            1 
 4729000   0.50031705   -8.6930474    640.43366  0.011285572 0.0097033554            4 
 4730000    0.4952997   -8.6988505    640.32667  0.011281301 0.0097000845            3 
 4731000    0.4904221   -8.6909781    640.29519  0.011278362 0.0096968169            1 
 4732000   0.48535271   -8.6869529    641.92386  0.011304661 0.0096935504            2 
 4733000   0.48169665   -8.7110317    641.20124  0.011289549  0.009690284            1 
 4734000   0.49238311   -8.7039444    640.77837  0.011279721 0.0096870143            2 
 4735000   0.49231112   -8.7047296    641.17705  0.011284355 0.0096837488            2 
 4736000   0.50638918    -8.698372    640.65449  0.011272778 0.0096804839            3 
 4737000   0.49618523   -8.7019158    641.29317  0.011281633 0.0096772223            1 
 4738000   0.49245401   -8.7009208    641.93107  0.011290472 0.0096739617            3 
 4739000   0.50012808   -8.6811514    641.38276  0.011278448 0.0096707036            1 
 4740000   0.49308879   -8.6978602    641.49671  0.011278072  0.009667448            3 
 4741000   0.48612058   -8.7087008    640.37544  0.011255984 0.0096641938            3 
 4742000   0.48881493   -8.6923589    641.02418  0.011265011 0.0096609397            1 
 4743000   0.48986955   -8.6902474    641.07983  0.011263613 0.0096576868            2 
 4744000   0.48550602   -8.7092126    641.79188  0.011273747 0.0096544348            1 
 4745000   0.49508167   -8.6962726    641.08052  0.011258878 0.0096511858            2 
 4746000   0.49204908   -8.6853661    641.69174  0.011267238 0.0096479351            2 
 4747000   0.49350605   -8.7019335    641.15616  0.011255462 0.0096446858            1 
 4748000   0.49347536    -8.710658    641.19822   0.01125383 0.0096414376            2 
 4749000   0.48702365   -8.7028839    640.91699  0.011246525 0.0096381899            2 
 4750000   0.49420102   -8.7090664    639.79089  0.011224402  0.009634943            2 
 4751000   0.48566459   -8.6917191    641.59243  0.011253638 0.0096316972            2 
 4752000   0.48395728   -8.7131325    641.08192  0.011242318 0.0096284517            1 
 4753000   0.48943622   -8.6895224    640.74303  0.011234011 0.0096252097            2 
 4754000   0.49205915   -8.7039167     640.9563  0.011235386 0.0096219673            2 
 4755000   0.47849243   -8.6869056    640.77976  0.011229929 0.0096187282            2 
 4756000   0.48609469   -8.7122782    640.73256  0.011226741 0.0096154917            2 
 4757000   0.49736366   -8.7110923    640.43656  0.011219195 0.0096122559            2 
 4758000    0.4872199   -8.7049978    641.66179  0.011238297 0.0096090198            1 
 4759000   0.49332018   -8.7114273    640.61271  0.011217565 0.0096057859            2 
 4760000   0.50330453    -8.692922    641.21813  0.011225808 0.0096025522            2 
 4761000   0.48858274   -8.6952408    640.62654  0.011213095 0.0095993226            2 
 4762000    0.4797447   -8.7059968    641.00725  0.011217403 0.0095960944            2 
 4763000   0.49493767   -8.7077773    640.65793  0.011208936 0.0095928683            2 
 4764000   0.49056302   -8.6981437    640.36161    0.0112014 0.0095896465            1 
 4765000   0.49215915    -8.702133    641.49712  0.011218907 0.0095864212            3 
 4766000   0.49453899   -8.7092853    640.09204  0.011191986 0.0095831974            1 
 4767000    0.4879635    -8.706879    640.11519  0.011190042 0.0095799733            2 
 4768000   0.49654772   -8.7056007    640.55933  0.011195458 0.0095767515            2 
 4769000   0.49775348   -8.7145253    640.61308   0.01119405 0.0095735315            1 
 4770000    0.4791347   -8.7039538    640.74657  0.011194035 0.0095703147            3 
 4771000   0.48759864   -8.6865068    640.47167  0.011186887 0.0095670988            3 
 4772000   0.49280419   -8.7051419    640.22175  0.011180179 0.0095638836            2 
 4773000   0.48918409    -8.694806    640.65534  0.011185407  0.009560668            4 
 4774000   0.49085511   -8.6855241    641.05252  0.011189996 0.0095574578            1 
 4775000   0.48770459   -8.7009005    640.42879  0.011176768 0.0095542463            1 
 4776000   0.48632916   -8.7152524    640.11116  0.011168885 0.0095510346            1 
 4777000    0.4834305   -8.7047262    640.79277  0.011178438 0.0095478268            1 
 4778000   0.49252178   -8.6994486    640.88672  0.011177737 0.0095446202            2 
 4779000   0.47856291   -8.7206556    640.22157    0.0111638 0.0095414132            1 
 4780000   0.48129426   -8.7105947    641.46915  0.011183214 0.0095382066            2 
 4781000   0.48844147    -8.714662    640.06577  0.011156414 0.0095350032            2 
 4782000   0.49129847   -8.7069755    640.34354  0.011158921 0.0095318012            2 
 4783000   0.48305155   -8.7015313    640.45927  0.011158605 0.0095286015            1 
 4784000   0.47903616   -8.7101176     640.4258  0.011155689 0.0095254042            2 
 4785000   0.49026072   -8.7086277     641.1755  0.011166414 0.0095222076            1 
 4786000   0.49608906   -8.6981095    639.67373  0.011137932 0.0095190119            1 
 4787000   0.48871046   -8.7079512    641.05773  0.011159699 0.0095158172            2 
 4788000   0.47562506    -8.700402    641.00516  0.011156453 0.0095126195            5 
 4789000   0.48487621   -8.7052164    641.22449   0.01115794 0.0095094264            1 
 4790000    0.4892162   -8.7109705    641.24471  0.011155962 0.0095062363            1 
 4791000   0.47307073   -8.7102512    640.05858  0.011133002 0.0095030454            2 
 4792000   0.49210336   -8.7052065    640.14751  0.011132226 0.0094998586            2 
 4793000   0.48976277   -8.7132294    640.44743  0.011135118 0.0094966729            2 
 4794000   0.49965564   -8.7136598    642.13457  0.011162122 0.0094934892            1 
 4795000   0.47551892   -8.7202409    641.31793  0.011145602 0.0094903092            2 
 4796000   0.47911557   -8.7069758     640.0059  0.011120481 0.0094871276            2 
 4797000   0.47948857    -8.709197    639.86362  0.011115691 0.0094839456            1 
 4798000   0.48243156   -8.7027399    640.01909  0.011116074 0.0094807696            1 
 4799000   0.48054507   -8.7152723    640.47887  0.011121742 0.0094775924            2 
 4800000    0.4868649   -8.7096748     640.8897  0.011126557 0.0094744168            1 
 4801000   0.48642366   -8.7128994    640.03893  0.011109472 0.0094712414            2 
 4802000   0.47567456   -8.7201515    640.33244  0.011112253 0.0094680684            1 
 4803000   0.48201595   -8.7229497    640.52676   0.01111331 0.0094648956            1 
 4804000   0.48532965   -8.7312061    640.86483  0.011116861 0.0094617265            2 
 4805000   0.48789102   -8.7191972    640.77152   0.01111293 0.0094585578            2 
 4806000   0.48857654   -8.7165974    640.76755  0.011110548 0.0094553898            2 
 4807000   0.48203559   -8.7039028    640.16935  0.011097867  0.009452223            1 
 4808000   0.47694502   -8.7073701    639.52999  0.011084477 0.0094490589            1 
 4809000   0.47237445    -8.710873    640.85505  0.011105134 0.0094458964            2 
 4810000   0.47653706   -8.7109639     640.9856  0.011105087 0.0094427344            1 
 4811000   0.48603568   -8.7189102    639.91462  0.011084227 0.0094395735            2 
 4812000   0.47583115   -8.7255766    640.82384   0.01109767 0.0094364134            1 
 4813000   0.48642426   -8.7193458    640.43872  0.011088696 0.0094332572            2 
 4814000   0.47863199   -8.7092106     640.7506  0.011091791 0.0094301032            1 
 4815000   0.47732226   -8.7024116      640.653  0.011087799 0.0094269485            1 
 4816000   0.48134776   -8.7167933     639.8942  0.011072366 0.0094237963            2 
 4817000   0.47197416    -8.713327    640.92868  0.011087964 0.0094206413            3 
 4818000   0.48027994   -8.7119767    640.92065  0.011085524 0.0094174893            3 
 4819000   0.48914291    -8.728676    641.21236  0.011088268  0.009414337            1 
 4820000   0.48909007   -8.7156169    640.04129  0.011065721 0.0094111875            3 
 4821000   0.47316309   -8.7226016    639.83835  0.011059918 0.0094080377            2 
 4822000   0.48115947   -8.7214592    640.04826  0.011061252 0.0094048911            2 
 4823000   0.47744213   -8.7118398    640.48272  0.011066465 0.0094017448            3 
 4824000   0.48252449   -8.7218265    640.02908  0.011056334 0.0093986016            2 
 4825000   0.48434581   -8.7054006    641.33329  0.011076568 0.0093954601            2 
 4826000   0.47967092   -8.7059044    640.59693  0.011061558 0.0093923185            1 
 4827000   0.49199529   -8.7192142    640.23018  0.011052934 0.0093891788            1 
 4828000   0.47955653   -8.7131516    640.72017  0.011059103 0.0093860399            2 
 4829000   0.48054842   -8.6999054    639.67822  0.011038832 0.0093829026            2 
 4830000   0.48108819    -8.724471    640.65213  0.011053349 0.0093797669            2 
 4831000   0.48029572   -8.7379408    640.15597  0.011042503 0.0093766329            1 
 4832000   0.46653863   -8.7281977    640.12745  0.011039726 0.0093734988            1 
 4833000   0.47348822   -8.7326913    640.18817  0.011038488 0.0093703677            1 
 4834000   0.48023097   -8.7062402    639.76495  0.011028909 0.0093672364            2 
 4835000   0.47303684   -8.7310667    640.72305  0.011043141 0.0093641077            2 
 4836000   0.48706179   -8.7161906    639.50056  0.011019792 0.0093609786            2 
 4837000   0.47999189    -8.729985    640.29543  0.011031208  0.009357848            1 
 4838000    0.4734551    -8.702195    639.88768  0.011021904 0.0093547208            2 
 4839000   0.47556617   -8.7165415    638.74525  0.010999953 0.0093515922            2 
 4840000   0.47106997   -8.7224364    640.40504  0.011026258  0.009348471            3 
 4841000   0.47423723   -8.7345839    640.35069  0.011023044 0.0093453466            5 
 4842000   0.48352096   -8.7372998    641.38552  0.011038578  0.009342228            1 
 4843000    0.4771211   -8.7308242    640.00147  0.011012483 0.0093391081            2 
 4844000   0.47297228    -8.725914    641.42505    0.0110347 0.0093359941            3 
 4845000   0.47544345   -8.7311104    640.30529  0.011013163 0.0093328808            2 
 4846000   0.47836425   -8.7111432    639.00845  0.010988589 0.0093297654            1 
 4847000   0.48253583   -8.7245041     640.7431  0.011016146  0.009326654            2 
 4848000   0.47750492   -8.7252541    641.33017  0.011023965 0.0093235449            1 
 4849000   0.46557354   -8.7416865    641.00059  0.011016027 0.0093204347            3 
 4850000   0.48274116    -8.723172    640.69355   0.01100848 0.0093173267            3 
 4851000   0.48035153   -8.7267722    639.35736  0.010983257 0.0093142164            2 
 4852000    0.4785705   -8.7239453      640.581  0.011002009 0.0093111127            2 
 4853000   0.48693704   -8.7243666    640.21779  0.010993505 0.0093080083            1 
 4854000   0.47364773   -8.7288781    639.76523  0.010983471 0.0093049047            3 
 4855000   0.48295311   -8.7351255    640.38795  0.010991898 0.0093018057            1 
 4856000   0.48201725   -8.7170402    639.99372  0.010982869 0.0092987037            1 
 4857000   0.48648793   -8.7290187    640.34829  0.010986691 0.0092956018            2 
 4858000   0.47129864   -8.7205751    639.77786  0.010974644 0.0092925026            2 
 4859000    0.4738978   -8.7488906    639.80168  0.010972794 0.0092894027            2 
 4860000   0.46626888   -8.7368356    639.65428  0.010968009 0.0092863063            2 
 4861000   0.46776849   -8.7085995    641.41515   0.01099594 0.0092832129            2 
 4862000   0.46233934   -8.7243035    639.77288   0.01096553 0.0092801204            2 
 4863000   0.47599163   -8.7209082    640.31507  0.010972566 0.0092770281            2 
 4864000   0.46897854   -8.7330373    640.71082   0.01097709 0.0092739357            2 
 4865000   0.47813934   -8.7154689    639.96296  0.010962024 0.0092708455            1 
 4866000    0.4793666   -8.7296195    639.15379  0.010945914  0.009267754            2 
 4867000   0.47564211   -8.7250609    640.98154   0.01097496 0.0092646668            2 
 4868000   0.46626953   -8.7215073    640.25065  0.010960193  0.009261579            2 
 4869000   0.48066533   -8.7206259    639.90586  0.010952041 0.0092584935            3 
 4870000   0.46905121   -8.7320138    640.78881  0.010964901 0.0092554098            1 
 4871000   0.47067768   -8.7308781    639.62092   0.01094267 0.0092523274            2 
 4872000   0.48061187   -8.7303735    640.04085  0.010947606 0.0092492455            2 
 4873000   0.47504776   -8.7319457    640.02652  0.010945115 0.0092461658            2 
 4874000    0.4764213   -8.7151389    639.92941  0.010941209 0.0092430862            1 
 4875000   0.47172393   -8.7455871    640.63709  0.010951061 0.0092400112            3 
 4876000   0.47813615   -8.7367852    639.91904  0.010936544 0.0092369349            3 
 4877000   0.47031747   -8.7339716    639.36788  0.010924883 0.0092338601            1 
 4878000   0.47658786   -8.7263361    640.03888  0.010934107 0.0092307864            1 
 4879000   0.47960046   -8.7520356    639.41224  0.010921163 0.0092277136            2 
 4880000   0.46858402   -8.7427436    639.47437  0.010919986 0.0092246416            2 
 4881000   0.47093582   -8.7318407    639.76944  0.010922786 0.0092215701            1 
 4882000   0.48400638   -8.7469957    639.87882  0.010922416 0.0092184995            1 
 4883000   0.48768559   -8.7311588    640.14865  0.010924784 0.0092154327            1 
 4884000   0.46680447    -8.735368    639.60686  0.010913303  0.009212365            3 
 4885000   0.47628368   -8.7151826    639.86888  0.010915539    0.0092093            2 
 4886000   0.46685545   -8.7416054    639.72904   0.01091092 0.0092062335            6 
 4887000   0.46927704   -8.7432521    640.02879  0.010913798 0.0092031691            2 
 4888000   0.47127656   -8.7334827    639.01467  0.010894276 0.0092001072            2 
 4889000   0.46517823   -8.7400699    639.92835  0.010907622 0.0091970467            2 
 4890000   0.47018026   -8.7478353     639.1345  0.010891863 0.0091939852            2 
 4891000   0.47466504    -8.728814    639.84256    0.0109017 0.0091909258            3 
 4892000   0.46808824   -8.7323446    639.34219  0.010890948 0.0091878673            3 
 4893000   0.47729307   -8.7523819    639.53946  0.010892081 0.0091848108            2 
 4894000   0.46986586   -8.7296303    639.98303  0.010897409 0.0091817557            1 
 4895000   0.46645385   -8.7538312     640.6039  0.010905753 0.0091787037            1 
 4896000   0.46600079   -8.7544187    640.48847   0.01090156 0.0091756508            1 
 4897000   0.47376099    -8.741857    638.81612  0.010870875 0.0091725982            1 
 4898000   0.47770405   -8.7466506    640.55593  0.010898257 0.0091695478            2 
 4899000   0.46156911   -8.7527461    640.31444  0.010891924 0.0091664986            2 
 4900000   0.47143377   -8.7439493    640.06252  0.010885417 0.0091634526            3 
 4901000   0.46143658   -8.7303279    640.72476  0.010894456 0.0091604065            1 
 4902000   0.46739441    -8.749948    639.96379  0.010879297 0.0091573632            3 
 4903000   0.46246221   -8.7285977    640.47252  0.010885725  0.009154322            2 
 4904000    0.4674824   -8.7409334    639.14304  0.010860914 0.0091512818            2 
 4905000   0.47949456   -8.7290423    640.34716  0.010879157 0.0091482434            5 
 4906000   0.46499705   -8.7563108    639.90516  0.010869431 0.0091452069            1 
 4907000   0.46428702   -8.7547378    639.80698  0.010865549 0.0091421676            2 
 4908000   0.46945983   -8.7344956     640.2322  0.010870555 0.0091391319            4 
 4909000   0.45757901   -8.7405953    639.64995  0.010858456 0.0091360965            2 
 4910000   0.46022311   -8.7418833    639.11088  0.010847096 0.0091330612            2 
 4911000   0.46538715   -8.7257895    640.08353  0.010861392 0.0091300274            3 
 4912000   0.46701849   -8.7390999    639.76491  0.010853775 0.0091269963            2 
 4913000   0.45879486   -8.7505702     640.3161  0.010860915 0.0091239656            1 
 4914000   0.45436882    -8.752836    638.94245   0.01083541 0.0091209354            4 
 4915000   0.46481991   -8.7437898    639.68487  0.010845793 0.0091179051            2 
 4916000   0.47001211   -8.7278313    639.55924  0.010841457 0.0091148775            3 
 4917000   0.46816496   -8.7565758    639.82477  0.010843752 0.0091118524            3 
 4918000   0.47240172   -8.7437844    639.92085  0.010843176 0.0091088268            3 
 4919000   0.46904492   -8.7336496    638.79749   0.01082194 0.0091058017            3 
 4920000   0.46960644   -8.7543581      639.576  0.010832927 0.0091027809            3 
 4921000    0.4548423   -8.7389959    639.07258    0.0108222 0.0090997622            3 
 4922000   0.47434113   -8.7428999    639.30822  0.010823991 0.0090967395            2 
 4923000   0.45865764   -8.7543007    639.53767  0.010825677 0.0090937194            2 
 4924000   0.45348254   -8.7491388    639.30882  0.010819605 0.0090907016            2 
 4925000    0.4665236   -8.7510624    639.63405  0.010822911 0.0090876839            1 
 4926000   0.46539454   -8.7534539    639.86705  0.010824656 0.0090846681            2 
 4927000   0.47296082   -8.7418201    640.38382  0.010831199 0.0090816533            3 
 4928000   0.46010796   -8.7468069    639.56469   0.01081515 0.0090786426            2 
 4929000   0.47423236   -8.7292128    639.07556  0.010804686 0.0090756309            1 
 4930000   0.46412922   -8.7548596    639.03928  0.010801881 0.0090726221            4 
 4931000   0.46167605   -8.7463492      638.962  0.010798384   0.00906961            1 
 4932000   0.46079847    -8.739624    639.29558  0.010801831 0.0090666005            1 
 4933000    0.4621699   -8.7367127    638.85371  0.010792177 0.0090635932            2 
 4934000   0.45126521   -8.7334318    639.55892    0.0108019 0.0090605878            3 
 4935000   0.46021977   -8.7472836    639.00511   0.01079036 0.0090575824            1 
 4936000   0.46083746   -8.7363926    639.24693  0.010792256 0.0090545788            1 
 4937000   0.46663493   -8.7596733    640.02155  0.010803146 0.0090515757            2 
 4938000   0.45970754   -8.7569555    638.54819  0.010776093 0.0090485746            2 
 4939000   0.45913163   -8.7510175    639.10032  0.010783227 0.0090455739            1 
 4940000   0.47134915   -8.7470324    639.50866  0.010787933 0.0090425759            2 
 4941000    0.4670113   -8.7466205    639.46373  0.010784992 0.0090395795            1 
 4942000   0.46401913   -8.7473055    639.11942  0.010777004 0.0090365838            3 
 4943000   0.45755377   -8.7438901    638.80669  0.010769551 0.0090335871            3 
 4944000   0.45759675   -8.7362386      639.754   0.01078334  0.009030593            1 
 4945000   0.46011991   -8.7580881    638.66468  0.010762802 0.0090276014            2 
 4946000   0.46258265   -8.7471691    638.76723  0.010762354 0.0090246134            2 
 4947000   0.46244076   -8.7497487    638.76094  0.010760072 0.0090216246            1 
 4948000   0.45655527   -8.7504578    638.85334  0.010759454 0.0090186373            3 
 4949000   0.45568972   -8.7622971    639.54114  0.010768861 0.0090156508            1 
 4950000   0.46113102   -8.7546956    639.97885  0.010774055 0.0090126663            2 
 4951000    0.4671846   -8.7607707    639.33954  0.010761118 0.0090096831            2 
 4952000   0.45694616   -8.7219778    639.04794  0.010754038 0.0090067036            2 
 4953000   0.44972462    -8.751639    639.32684  0.010756559 0.0090037214            3 
 4954000   0.45776526   -8.7327685    639.18795  0.010752051 0.0090007415            3 
 4955000   0.45491938   -8.7532098    638.98357  0.010746444 0.0089977646            1 
 4956000   0.46369685   -8.7500617    639.53024  0.010753468 0.0089947855            1 
 4957000   0.46560688   -8.7584372    638.48605  0.010733744  0.008991809            1 
 4958000   0.46338652   -8.7552605    639.52155  0.010748984 0.0089888318            3 
 4959000   0.45344642   -8.7498415    638.87313   0.01073592 0.0089858544            2 
 4960000   0.46514102   -8.7412617    639.02709  0.010736342 0.0089828802            1 
 4961000   0.47158592   -8.7480945    639.24466  0.010737833 0.0089799097            1 
 4962000   0.45517022   -8.7727432    639.37268  0.010737819 0.0089769378            3 
 4963000    0.4615534   -8.7671939    638.99888  0.010729379 0.0089739671            2 
 4964000   0.46580334   -8.7536276    639.22444  0.010731004 0.0089709962            1 
 4965000   0.45736334   -8.7339362    639.48328  0.010733187  0.008968028            1 
 4966000   0.45838218   -8.7526105    639.66034  0.010733997 0.0089650624            2 
 4967000   0.46286254   -8.7507713    638.86731  0.010718531 0.0089620971            3 
 4968000   0.45288178    -8.754008    638.08877  0.010703314 0.0089591334            4 
 4969000   0.45041091   -8.7537959    639.35753  0.010722438 0.0089561729            1 
 4970000   0.46650208     -8.76482     639.6286  0.010724826 0.0089532122            2 
 4971000   0.45244515   -8.7700108      638.882  0.010710152 0.0089502532            1 
 4972000   0.45773024   -8.7454318    638.43152  0.010700448  0.008947295            1 
 4973000   0.45297855    -8.754354     639.3684  0.010713996  0.008944338            2 
 4974000   0.43890778   -8.7460577    639.33347  0.010711256 0.0089413835            1 
 4975000   0.45828995   -8.7628363    638.50396  0.010695209 0.0089384304            1 
 4976000   0.44908624    -8.756422    637.95304  0.010683833 0.0089354794            2 
 4977000   0.44449724   -8.7651915    638.73258  0.010694739 0.0089325275            4 
 4978000   0.45578084    -8.749348     638.8839  0.010695124 0.0089295759            2 
 4979000   0.45488616   -8.7476723    639.68457  0.010706376 0.0089266277            1 
 4980000    0.4548237   -8.7509933    638.88415  0.010690832 0.0089236777            4 
 4981000   0.45563609   -8.7549238    639.48741  0.010698779 0.0089207304            1 
 4982000   0.45238599   -8.7460315    639.00558  0.010688572 0.0089177857            1 
 4983000    0.4539715   -8.7772528    638.42737  0.010676757 0.0089148412            2 
 4984000   0.44733781   -8.7656598    639.22066  0.010687879 0.0089118956            1 
 4985000   0.45730578   -8.7732799    639.30188  0.010687093 0.0089089527            3 
 4986000   0.45411346    -8.766343    639.10712  0.010681694 0.0089060104            2 
 4987000   0.46495482   -8.7668086    639.13728  0.010680056 0.0089030687            3 
 4988000   0.46013005   -8.7478063    639.16185  0.010678325 0.0089001301            2 
 4989000   0.45308173   -8.7683644    639.05508  0.010674402 0.0088971938            4 
 4990000   0.45045047   -8.7581702    639.60656  0.010681472 0.0088942602            2 
 4991000   0.45229989   -8.7546563    639.65265  0.010680102 0.0088913265            2 
 4992000   0.45854054   -8.7760835    638.44615  0.010657822 0.0088883926            1 
 4993000   0.45131352   -8.7693792    638.88812  0.010663064 0.0088854594            1 
 4994000   0.45536679   -8.7680832    638.67994  0.010657455  0.008882527            3 
 4995000   0.45923572   -8.7664957    638.64519  0.010654741 0.0088795979            1 
 4996000   0.45953139      -8.7622    638.92953  0.010657351 0.0088766693            2 
 4997000   0.44782553   -8.7667531    639.19232  0.010659601 0.0088737426            1 
 4998000   0.45118846   -8.7610511    638.58254  0.010647301 0.0088708191            1 
 4999000   0.45968842   -8.7625255    639.04616    0.0106529 0.0088678967            2 
 5000000   0.46386658    -8.773651    638.61295  0.010643549 0.0088649743            3 
 5001000   0.44987507   -8.7886153    639.34486  0.010653617 0.0088620536            4 
 5002000    0.4464501   -8.7660145    639.36265  0.010651783 0.0088591346            4 
 5003000   0.44791219   -8.7603811    639.26904  0.010648095 0.0088562164            2 
 5004000   0.44828549   -8.7655589    638.90108   0.01063984  0.008853296            2 
 5005000   0.44399253   -8.7584679    639.42745  0.010646478 0.0088503801            1 
 5006000    0.4531046   -8.7754007    638.18868  0.010623729 0.0088474647            1 
 5007000   0.45032378   -8.7824374    638.98558  0.010634871 0.0088445504            2 
 5008000   0.44911261   -8.7579829    639.14534  0.010635406 0.0088416381            2 
 5009000   0.45301745   -8.7652191    638.34028  0.010619889 0.0088387263            2 
 5010000   0.45785925    -8.766752    638.22041  0.010615775 0.0088358173            2 
 5011000   0.44852025   -8.7780133    638.66547  0.010621058 0.0088329104            1 
 5012000   0.45283399   -8.7564316    639.00342  0.010624558 0.0088300047            3 
Loop time of 12280 on 48 procs for 5000000 steps with 4000 atoms

Performance: 70358.286 tau/day, 407.166 timesteps/s
99.4% CPU use with 48 MPI tasks x no OpenMP threads

MPI task timing breakdown:
Section |  min time  |  avg time  |  max time  |%varavg| %total
---------------------------------------------------------------
Pair    | 777.45     | 828.57     | 872.33     |  85.2 |  6.75
Neigh   | 79.41      | 82.409     | 85.072     |  16.7 |  0.67
Comm    | 771.59     | 821.22     | 881.93     |  93.5 |  6.69
Output  | 13.797     | 13.802     | 13.88      |   0.3 |  0.11
Modify  | 10401      | 10424      | 10442      |   9.1 | 84.89
Other   |            | 109.9      |            |       |  0.89

Nlocal:        83.3333 ave          94 max          76 min
Histogram: 4 3 9 10 8 7 2 1 2 2
Nghost:        2088.23 ave        2109 max        2066 min
Histogram: 3 1 4 7 10 6 8 2 3 4
Neighs:        13660.3 ave       15185 max       12099 min
Histogram: 2 3 6 6 6 8 7 5 1 4
FullNghs:      27320.8 ave       30805 max       24741 min
Histogram: 4 2 8 10 10 6 2 2 0 4

Total # of neighbors = 1311400
Ave neighs/atom = 327.85000
Neighbor list builds = 267598
Dangerous builds = 1

#clear
#
#next RN
#
#jump SELF
Total wall time: 3:24:43
