
units lj                  # Use reduced LJ style units
atom_style atomic         # Uncharged point particles
atom_modify map hash      # Needed for indexing of clusters etc
                          # Used to be able to find where atoms are in relation to each other.

lattice fcc 1.0 spacing 1 1 1
Lattice spacing in x,y,z = 1.5874011 1.5874011 1.5874011
region box block 0 10 0 10 0 10 units lattice
create_box 2 box
Created orthogonal box = (0.0000000 0.0000000 0.0000000) to (15.874011 15.874011 15.874011)
  3 by 4 by 4 MPI processor grid
create_atoms 1 box
Created 4000 atoms
  using lattice units in orthogonal box = (0.0000000 0.0000000 0.0000000) to (15.874011 15.874011 15.874011)
  create_atoms CPU = 0.019 seconds
set type 1 type/fraction 2 0.26 78393
Setting atom values ...
  1066 settings made for type/fraction
mass 1 1.0
mass 2 1.0
pair_style lj/cut  3.5
pair_modify tail  yes
pair_coeff 1  1  1.0  1.0   # Intearaction between 1 and 1 set with epsilon = 1 and sigma = 1
pair_coeff 1  2  1.5  0.8
pair_coeff 2  2  0.5  0.88

write_data data.0
System init for write_data ...
Neighbor list info ...
  update every 1 steps, delay 10 steps, check yes
  max neighbors/atom: 2000, page size: 100000
  master list distance cutoff = 3.8
  ghost atom cutoff = 3.8
  binsize = 1.9, bins = 9 9 9
  1 neighbor lists, perpetual/occasional/extra = 1 0 0
  (1) pair lj/cut, perpetual
      attributes: half, newton on
      pair build: half/bin/atomonly/newton
      stencil: half/bin/3d
      bin: standard
WARNING: Not all mixed pair coeffs generated from mixing. Use write_data with 'pair ij' option to store all pair coeffs. (../write_data.cpp:312)


#############################
#   M E L T   S Y S T E M   #
#############################

velocity all create 2.4 8172548 mom yes dist gaussian # Assign velocities
                                                    # Temperature 2.4, random number seed, zero linear momentum
                                                                                # Gaussian distribution

timestep 0.002   # simulation timestep
thermo 1000       # output thermodynamic data every 1000 steps bf 100

# Define a fix  in this case with index 1 applied to all
# particles in the simulation. This fix is for simulations
# in the anisotropic NPT ensemble. Note that we use the MTK
# correction.
fix 1 all npt temp 2.4 2.4 0.1 iso 5.68 5.68 0.5 mtk yes tchain 5 pchain 5 # Use NPT ensemble
                                                                         # Set temperature and pressure and damping
                                                                         # Numbers of thermostats in chain and in barostat
run 10000          # run for 10000 steps
Per MPI rank memory allocation (min/avg/max) = 3.642 | 3.644 | 3.648 Mbytes
Step Temp E_pair E_mol TotEng Press Volume 
       0          2.4   -6.6801447            0   -3.0810447   -3.8517282         4000 
    1000    2.3980302   -4.8851406            0   -1.2889945    6.2228419    4255.5951 
    2000    2.4182427   -4.9601604            0   -1.3337032    5.5456061    4276.3312 
    3000    2.4174619   -4.9515011            0   -1.3262148    5.7884047     4256.494 
    4000    2.3796784   -4.9205957            0   -1.3519704    5.8984838    4264.7198 
    5000    2.3901047   -4.9352689            0   -1.3510081    5.5835764    4292.8145 
    6000    2.3924945   -4.9783981            0   -1.3905535    5.6897356    4259.6442 
    7000    2.3554968   -4.8918204            0   -1.3594586    6.0122994    4265.1399 
    8000    2.4002065   -4.9380821            0   -1.3386724     5.785977    4263.2456 
    9000    2.3558065   -4.9148425            0   -1.3820161    5.5694624    4301.5538 
   10000    2.3408068   -4.9922854            0    -1.481953    5.3074413    4285.8371 
Loop time of 2.41044 on 48 procs for 10000 steps with 4000 atoms

Performance: 716882.525 tau/day, 4148.626 timesteps/s
99.6% CPU use with 48 MPI tasks x no OpenMP threads

MPI task timing breakdown:
Section |  min time  |  avg time  |  max time  |%varavg| %total
---------------------------------------------------------------
Pair    | 1.0101     | 1.0897     | 1.2778     |   4.8 | 45.21
Neigh   | 0.19922    | 0.211      | 0.23947    |   1.8 |  8.75
Comm    | 0.64796    | 0.85021    | 0.93864    |   6.3 | 35.27
Output  | 0.00024316 | 0.00024816 | 0.0003226  |   0.0 |  0.01
Modify  | 0.21926    | 0.2444     | 0.27969    |   3.7 | 10.14
Other   |            | 0.01486    |            |       |  0.62

Nlocal:        83.3333 ave          93 max          73 min
Histogram: 3 1 3 7 7 8 5 5 5 4
Nghost:        1570.06 ave        1609 max        1542 min
Histogram: 4 2 9 7 10 7 5 2 1 1
Neighs:        8908.31 ave       10488 max        7558 min
Histogram: 3 3 5 8 8 6 7 5 2 1

Total # of neighbors = 427599
Ave neighs/atom = 106.89975
Neighbor list builds = 911
Dangerous builds = 220

# Equilibrate just above the melting temperature to avoid step fn in T

fix 1 all npt temp 1.25 1.25 0.1 iso 5.68 5.68 0.5 mtk yes tchain 5 pchain 5
run 2000
Per MPI rank memory allocation (min/avg/max) = 3.643 | 3.645 | 3.649 Mbytes
Step Temp E_pair E_mol TotEng Press Volume 
   10000    2.3408068   -4.9922854            0    -1.481953    5.3074413    4285.8371 
   11000    1.2388909   -6.7302301            0   -4.8723583    5.6956131    3463.1101 
   12000    1.2663313   -6.7207157            0   -4.8216937    5.6014019    3476.1539 
Loop time of 0.553675 on 48 procs for 2000 steps with 4000 atoms

Performance: 624192.601 tau/day, 3612.226 timesteps/s
99.7% CPU use with 48 MPI tasks x no OpenMP threads

MPI task timing breakdown:
Section |  min time  |  avg time  |  max time  |%varavg| %total
---------------------------------------------------------------
Pair    | 0.24443    | 0.26379    | 0.30883    |   2.2 | 47.64
Neigh   | 0.03624    | 0.039254   | 0.045392   |   0.8 |  7.09
Comm    | 0.15184    | 0.20016    | 0.2221     |   2.8 | 36.15
Output  | 5.2825e-05 | 5.3904e-05 | 7.2955e-05 |   0.0 |  0.01
Modify  | 0.038796   | 0.045728   | 0.052939   |   1.9 |  8.26
Other   |            | 0.004693   |            |       |  0.85

Nlocal:        83.3333 ave          91 max          73 min
Histogram: 1 2 3 2 3 12 13 9 0 3
Nghost:        1803.42 ave        1832 max        1779 min
Histogram: 3 4 7 4 7 7 12 1 1 2
Neighs:        10994.1 ave       12184 max        9573 min
Histogram: 3 2 2 6 7 6 9 4 6 3

Total # of neighbors = 527719
Ave neighs/atom = 131.92975
Neighbor list builds = 144
Dangerous builds = 18

#############################
# L I N E A R  Q U E N C H  #
#############################

# Define solid atoms. This closely follows ten Wolde  Ruiz-Montero and Frenkel  Faraday Discuss  1996  104  93-110
# Compute components of the per-atom q6 vector
compute q6 all orientorder/atom degrees 1 6 components 6 nnn NULL cutoff 1.3 # compute the Q6 parameter.
                                                                             # Use all neighbours within 1.3 unit cell.

# get number of connections
compute coord_number all coord/atom orientorder q6 0.5

# An atom is solid if it has 8 or more connections (of a possible 14)
variable is_solid atom c_coord_number>=8
group solid dynamic all var is_solid    # Must be dynamic to update
dynamic group solid defined

# do clustering
compute cluster solid cluster/atom 1.3 # Create a cluster where all atoms within are solid and max 1.3 units from another member

# define chunks one chunk per cluster
compute clus_chunks solid chunk/atom c_cluster nchunk every compress yes  # Says which atoms are in which chunk

# count the size of each chunk
compute size_chunks solid property/chunk clus_chunks count


# Find the maximum entry in the vector of chunk sizes
variable max_n equal max(c_size_chunks)


# Thermo style which includes this variable
# thermo_style custom step temp pe vol v_max_n

thermo ${N}  # Print the thermo information every 100 steps
thermo 1000  

# Reset the npt fix at a lower temperature (below freezing)
fix 1  all npt temp  ${temp} ${temp}  0.1  iso  5.68  5.68  0.5  mtk yes tchain  5  pchain  5
fix 1  all npt temp  0.45 ${temp}  0.1  iso  5.68  5.68  0.5  mtk yes tchain  5  pchain  5
fix 1  all npt temp  0.45 0.45  0.1  iso  5.68  5.68  0.5  mtk yes tchain  5  pchain  5

dump dmp2 all dcd ${N} traj.dcd
dump dmp2 all dcd 1000 traj.dcd


compute msd all msd com yes
variable twopoint equal c_msd[4]/6/(step*dt+1.0e-6)
fix 9 all vector 10 c_msd[4]
variable fit equal slope(f_9)/6/(10*dt)
thermo_style custom step temp pe c_msd[4] v_twopoint v_fit v_max_n

fix 1 all npt temp 1.25 ${temp} 0.1 iso 5.68 5.68 0.5 mtk yes tchain 5 pchain 5
fix 1 all npt temp 1.25 0.45 0.1 iso 5.68 5.68 0.5 mtk yes tchain 5 pchain 5
run 500000 # 5000000  # Run for this many steps
Neighbor list info ...
  update every 1 steps, delay 10 steps, check yes
  max neighbors/atom: 2000, page size: 100000
  master list distance cutoff = 3.8
  ghost atom cutoff = 3.8
  binsize = 1.9, bins = 8 8 8
  4 neighbor lists, perpetual/occasional/extra = 1 3 0
  (1) pair lj/cut, perpetual
      attributes: half, newton on
      pair build: half/bin/atomonly/newton
      stencil: half/bin/3d
      bin: standard
  (2) compute orientorder/atom, occasional
      attributes: full, newton on
      pair build: full/bin/atomonly
      stencil: full/bin/3d
      bin: standard
  (3) compute coord/atom, occasional
      attributes: full, newton on
      pair build: full/bin/atomonly
      stencil: full/bin/3d
      bin: standard
  (4) compute cluster/atom, occasional
      attributes: full, newton on
      pair build: full/bin/atomonly
      stencil: full/bin/3d
      bin: standard
Per MPI rank memory allocation (min/avg/max) = 9.800 | 9.808 | 9.815 Mbytes
Step Temp PotEng c_msd[4] v_twopoint v_fit v_max_n 
   12000    1.2663313   -6.7207157 7.4290976e-31 5.1590953e-33 8.3333333e+20            1 
   13000    1.2640493   -6.7490367   0.52015846  0.003334349  0.042210603            1 
   14000     1.266204   -6.7719933     1.024703 0.0060994226  0.042240439            1 
   15000    1.2393956   -6.7579064    1.4797354 0.0082207521  0.041334448            1 
   16000     1.256026   -6.7588271    1.9809867  0.010317639  0.040583336            2 
   17000    1.2375361    -6.809278    2.4806336  0.012159968  0.040833788            2 
   18000     1.232943   -6.7637525    2.9697526  0.013748854   0.04075618            1 
   19000    1.2324802   -6.8051567    3.4681193  0.015211049  0.040727137            3 
   20000    1.2570056   -6.8151512    3.9697283  0.016540534  0.040855059            1 
   21000     1.273911   -6.8030071    4.4968283  0.017844556  0.041099206            1 
   22000    1.2148127   -6.7929577    4.8783338  0.018478537   0.04096377            1 
   23000    1.2510113   -6.7777836    5.3510092  0.019387714    0.0407171            1 
   24000    1.2281838   -6.8220813    5.7906564  0.020106445  0.040547177            5 
   25000    1.2130431    -6.816388    6.3080016  0.021026672  0.040346701            2 
   26000    1.2275836   -6.8250615    6.7079718  0.021499909   0.04013804            2 
   27000    1.2352751   -6.8241232    7.1966685  0.022211939  0.039900531            2 
   28000    1.2275769   -6.8331529    7.5992281   0.02261675  0.039712788            2 
   29000    1.2050199   -6.7739161    8.0779059  0.023212373  0.039585678            4 
   30000    1.2040528   -6.8253472    8.5071919  0.023631088  0.039471972            1 
   31000      1.22364    -6.737432    9.0352483  0.024288301  0.039305786            2 
   32000     1.209137   -6.8097746    9.4798507  0.024687111  0.039199574            3 
   33000    1.1918532   -6.8515638    9.9244133  0.025061649  0.039142555            2 
   34000    1.2153036   -6.8320039    10.380393  0.025442139  0.039090116            1 
   35000    1.2374765   -6.8045791    10.839502  0.025808337  0.039027552            1 
   36000    1.1982433   -6.8150936    11.363257  0.026303835  0.038990894            1 
   37000    1.2316007   -6.8156805    11.763485  0.026494335  0.038940897            4 
   38000    1.2460428   -6.8747399    12.155543  0.026656892  0.038857951            1 
   39000    1.1797803    -6.810892    12.570172  0.026859342   0.03873146            1 
   40000    1.2015941   -6.8556371    12.956047  0.026991765  0.038647095            2 
   41000    1.2030411   -6.8149548    13.469754  0.027377549  0.038546273            1 
   42000    1.2288284   -6.8488228    13.909647  0.027598505   0.03847967            1 
   43000    1.2033971   -6.8707458    14.473409  0.028049241  0.038431547            2 
   44000    1.1897239   -6.8494492    14.827597  0.028082569  0.038375067            1 
   45000    1.2206258   -6.8608153    15.286433   0.02830821   0.03832768            2 
   46000    1.1956515   -6.8267175    15.674074  0.028395061  0.038259638            1 
   47000    1.1770977   -6.8515761    16.186633  0.028699703  0.038204068            2 
   48000    1.1968288   -6.8578481    16.622157  0.028857911  0.038163983            4 
   49000    1.1912539   -6.8471474    17.072949  0.029035627    0.0381199            3 
   50000    1.1660748   -6.8642249    17.461796  0.029102993  0.038075383            1 
   51000    1.1962946   -6.8705279    18.000206  0.029412102  0.038035869            2 
   52000    1.1568171   -6.9070646    18.362591  0.029427228  0.038010653            1 
   53000    1.1708883   -6.8750737    18.915011  0.029740583  0.037987426            3 
   54000    1.1717177   -6.8638317    19.363868  0.029882513  0.037993203            2 
   55000    1.1723678   -6.8987627    19.705943   0.02985749  0.037970694            1 
   56000    1.1822085   -6.8966816    20.096047  0.029904832  0.037934436            2 
   57000    1.1857043   -6.9205083    20.433191  0.029873086  0.037870109            1 
   58000    1.1734394   -6.8835793    20.856382  0.029966066  0.037799963            6 
   59000    1.1625077   -6.8678939    21.269179  0.030041213  0.037731561            2 
   60000     1.171726   -6.9163612    21.608554   0.03001188  0.037657871            3 
   61000     1.183612   -6.9225303    22.134499  0.030238386  0.037590394            2 
   62000    1.1902483   -6.9095015    22.487099  0.030224595  0.037523881            1 
   63000     1.153549     -6.91977    22.823111    0.0301893  0.037435547            2 
   64000    1.1735778   -6.9463341    23.209836   0.03022114  0.037352484            2 
   65000    1.1736162   -6.8912584     23.62929  0.030293961  0.037267395            2 
   66000    1.1610319   -6.8840167     24.25046  0.030619267  0.037192719            2 
   67000    1.1488541   -6.9167142    24.515193  0.030491534  0.037115701            1 
   68000     1.166994   -6.9195828    24.873883  0.030482699  0.037035915            2 
   69000    1.1548236   -6.9313254    25.097463  0.030310945  0.036947738            2 
   70000    1.1747931   -6.9172623    25.533394  0.030396897    0.0368548            3 
   71000    1.1455581   -6.9366047    25.857153  0.030348771  0.036765837            1 
   72000    1.1511286   -6.9637583     26.15339  0.030270127  0.036666006            3 
   73000    1.1576246   -6.9570945    26.704801  0.030484932  0.036569697            2 
   74000    1.1800562   -6.9394661    27.130883  0.030552796  0.036476782            1 
   75000      1.14684   -6.9499027    27.259226  0.030288028   0.03637992            1 
   76000     1.124257   -6.9540404    27.669409  0.030339264  0.036284697            5 
   77000    1.1619194   -6.9413205    28.038594  0.030344798  0.036185686            1 
   78000    1.1541373   -6.9470677    28.507117  0.030456322  0.036083934            1 
   79000    1.1247358   -6.9883378     28.60016  0.030168945  0.035982513            3 
   80000    1.1461401   -7.0196614    29.031521  0.030241167  0.035874897            1 
   81000    1.1215107   -7.0248528    29.287003  0.030130662  0.035766347            2 
   82000    1.1245983   -6.9609452    29.671894  0.030154364  0.035648902            1 
   83000    1.1459317   -6.9925127    29.931386  0.030051592  0.035536574            2 
   84000     1.118853   -6.9895352    30.371989  0.030130941  0.035426838            2 
   85000    1.1589148    -7.025758    30.728608  0.030126086  0.035319984            3 
   86000    1.1533457   -6.9791729    30.927903  0.029968899   0.03521247            2 
   87000    1.1408367   -7.0157568    31.448922  0.030123488   0.03510555            2 
   88000    1.1288752   -7.0202191    31.932196  0.030238822  0.035009551            2 
   89000    1.0993004    -6.962339    32.341439  0.030282246   0.03492906            3 
   90000    1.1214819   -6.9956373    32.652833  0.030234105  0.034844283            2 
   91000    1.1122432   -6.9991057    33.008297  0.030227378  0.034763115            2 
   92000    1.1039001   -7.0188939    33.304866  0.030167451  0.034678139            5 
   93000    1.1241788   -7.0118806    33.722179  0.030217006  0.034596778            2 
   94000    1.1142407   -6.9978911    34.353854  0.030455544  0.034525617            2 
   95000    1.1162304   -7.0433282    34.603589  0.030354025  0.034460589            2 
   96000     1.124952   -7.0404032    34.961234  0.030348293  0.034397531            1 
   97000    1.1363812   -7.0451879    35.353499  0.030372421  0.034329033            1 
   98000    1.1101207   -7.0875743     35.42106  0.030119949  0.034259467            2 
   99000    1.1209796   -7.0093912    36.057298  0.030351261  0.034195805            2 
  100000    1.1048746   -7.0432424    36.191786  0.030159821  0.034133657            1 
  101000    1.1099807   -7.0642735    36.496074  0.030112272   0.03406296            3 
  102000    1.1238108   -7.0294112    36.855896  0.030111026  0.033992787            1 
  103000     1.076496   -7.0354951    37.494109  0.030335039  0.033928963            1 
  104000    1.1050531    -7.040058    37.546714  0.030085508  0.033866104            1 
  105000    1.0946268   -7.0318901    38.041277   0.03019149  0.033798806            1 
  106000    1.1044581   -7.0627946    38.355773  0.030153909  0.033737015            1 
  107000    1.0907947   -7.0796637    38.464931  0.029957111  0.033669943            2 
  108000    1.1109587   -7.1117153    38.911996  0.030024688  0.033599213            2 
  109000    1.0857023   -7.0352852    39.450597  0.030161007  0.033531949            1 
  110000    1.0899163   -7.0708884     39.53082  0.029947591  0.033464875            2 
  111000    1.0968612   -7.0464673    39.914481  0.029965827  0.033390658            2 
  112000    1.0613247   -7.0935338    40.091444  0.029829943  0.033323396            3 
  113000    1.0862235   -7.1098425    40.486407  0.029857232  0.033250358            1 
  114000    1.0910795   -7.0820269    41.018799  0.029984502  0.033183251            2 
  115000    1.0998647   -7.1137488    41.292846  0.029922352  0.033119952            2 
  116000    1.0795387   -7.0459111    41.669088   0.02993469  0.033061892            3 
  117000    1.0833404   -7.0533773    42.103982  0.029988591  0.033006479            2 
  118000    1.0670548   -7.1113905    42.310183  0.029880072  0.032951718            4 
  119000    1.0707652   -7.0541891    42.687974  0.029893539  0.032892085            2 
  120000    1.0886474    -7.101623    42.975519   0.02984411  0.032834291            7 
  121000    1.0832203   -7.1284468    43.160431  0.029724815  0.032773174            3 
  122000    1.0556837   -7.1376627    43.386293  0.029635446    0.0327085            2 
  123000    1.0698588   -7.1233421    43.834013  0.029697841   0.03264193            3 
  124000    1.0847238   -7.1453114    43.925437  0.029519783  0.032574716            1 
  125000    1.0775535   -7.1407813      44.2406  0.029493733  0.032506573            3 
  126000    1.0698908   -7.1278145    44.793654  0.029625432  0.032442776            1 
  127000    1.0461425   -7.1340231    45.035779  0.029551036  0.032383243            2 
  128000    1.0432712   -7.1230633    45.186943  0.029418583  0.032319991            1 
  129000    1.0759144   -7.1310918    45.761479  0.029561679  0.032259661            1 
  130000     1.072258   -7.1613409      46.0042  0.029489872  0.032202499            1 
  131000    1.0699541   -7.1293239    46.295871    0.0294503  0.032143173            2 
  132000    1.0482753   -7.1274361    46.695266  0.029479334  0.032083805            2 
  133000    1.0580135   -7.1586398     46.94689  0.029415345  0.032024027            1 
  134000    1.0743977   -7.1972083    47.245641  0.029381617  0.031963187            2 
  135000    1.0572896   -7.1921376    47.455177  0.029293319  0.031903943            3 
  136000    1.0596894   -7.1604971    47.780495  0.029277264  0.031841676            2 
  137000    1.0384756   -7.1410847    48.093653  0.029254047  0.031778886            1 
  138000    1.0500645   -7.1501186    48.162547  0.029083664  0.031717075            2 
  139000    1.0411212   -7.1906794    48.522254  0.029090081  0.031652742            1 
  140000    1.0435747   -7.1635864    49.063074  0.029204211  0.031591777            3 
  141000    1.0165547   -7.2032949    49.139825   0.02904245  0.031531692            2 
  142000    1.0323358   -7.1902086    49.468688   0.02903092  0.031471333            3 
  143000    1.0402513   -7.2272035    49.635085  0.028924874  0.031407738            3 
  144000    1.0442535   -7.2021647    49.927637  0.028893309  0.031344767            1 
  145000    1.0172677   -7.1643138    50.359118  0.028942022  0.031281991            2 
  146000    1.0402371   -7.1986268    50.489652  0.028818295  0.031221631            2 
  147000    1.0085921   -7.1865761    50.746412  0.028767807  0.031158724            1 
  148000    1.0433289   -7.2239129    50.953119  0.028689819   0.03109635            2 
  149000     1.034174   -7.1950012    51.427391  0.028762523  0.031032577            1 
  150000    1.0401619   -7.1969324    51.719014  0.028732786  0.030970439            1 
  151000    1.0353508   -7.2480315    51.825458  0.028601246  0.030906374            2 
  152000    1.0251022   -7.2284068    52.076173  0.028550533  0.030841571            3 
  153000    1.0248209   -7.2189051    52.303518  0.028487755  0.030776764            2 
  154000    1.0457434   -7.2268348    52.483823  0.028400337  0.030709845            3 
  155000    1.0261089   -7.2187864    52.678042  0.028321528  0.030640361            3 
  156000    1.0338041   -7.1988918    52.840538  0.028226783  0.030571004            2 
  157000    1.0194518   -7.2698876    53.057101  0.028161943  0.030500709            3 
  158000    1.0141253   -7.2457196    53.150562  0.028032997  0.030428797            1 
  159000    1.0264822   -7.2689653    53.401009   0.02798795   0.03035631            2 
  160000    1.0010687    -7.267384    53.681012   0.02795886  0.030283198            1 
  161000    1.0060729   -7.2331927    54.000206  0.027950417  0.030213462            1 
  162000     1.007226   -7.2463456    54.278196  0.027920882  0.030144919            2 
  163000    1.0086092   -7.2565985    54.639063  0.027934081  0.030077241            2 
  164000    1.0122339   -7.2338308    55.048557  0.027971828  0.030010018            5 
  165000   0.99737531   -7.2822723     55.04871  0.027802379  0.029942886            1 
  166000    1.0195482   -7.2714561    55.389691   0.02780607  0.029874749            2 
  167000   0.99503573   -7.2710103    55.531199  0.027710179  0.029806778            3 
  168000   0.98930573    -7.288701    55.833145  0.027695012  0.029737811            1 
  169000    0.9956732   -7.2878026    55.837137  0.027533105  0.029668909            3 
  170000   0.98454244    -7.285199    56.201694   0.02754985  0.029600281            2 
  171000    1.0095055   -7.2818075    56.354949  0.027463426   0.02953272            3 
  172000   0.99384395    -7.273668     56.84989  0.027543551  0.029465733            1 
  173000   0.99299319   -7.3193954    56.832125  0.027375783  0.029396686            3 
  174000    1.0104847   -7.3289956    57.086773  0.027340409  0.029326846            3 
  175000    1.0008486    -7.278696    57.111746   0.02719607  0.029255445            3 
  176000   0.99532736   -7.2929606    57.472703  0.027212454  0.029184335            1 
  177000   0.99765856    -7.321252    57.527248  0.027084391  0.029114552            4 
  178000   0.98373856   -7.3330778    57.716496  0.027020831  0.029043466            2 
  179000   0.98514423    -7.312097    57.790629   0.02690439   0.02897084            1 
  180000   0.98212656   -7.3331839    58.135538  0.026914601  0.028897407            5 
  181000   0.98039256   -7.3485829    58.375615  0.026876434  0.028823683            3 
  182000   0.98233408   -7.3266147    58.487751  0.026780106  0.028750013            2 
  183000   0.96143083   -7.3349938    58.502091  0.026640297  0.028675321            3 
  184000   0.95626322   -7.3407765      58.6307  0.026553759   0.02859961            4 
  185000   0.97937945   -7.3207278    59.060128  0.026603661  0.028523999            2 
  186000    0.9562361   -7.3855074    59.051372  0.026456708   0.02844953            2 
  187000   0.97079056   -7.3525658    59.602799  0.026560962  0.028374834            2 
  188000   0.96256491   -7.3713587    59.461905  0.026357227  0.028300734            4 
  189000   0.95909133   -7.3731463    59.751836  0.026345607  0.028226435            3 
  190000   0.95254373   -7.3578223    59.923329  0.026282162  0.028152077            3 
  191000   0.98924374   -7.3594495    60.109582  0.026225821  0.028078482            3 
  192000   0.93850563   -7.3397818    60.305874  0.026174424  0.028005555            3 
  193000   0.95372676   -7.3870319    60.435205  0.026094648  0.027931217            2 
  194000   0.97299683   -7.3381618    60.515431  0.025994601  0.027855796            2 
  195000   0.96819488   -7.3518217     60.79535  0.025980919   0.02778172            2 
  196000   0.96658066   -7.3450103    61.176753  0.026010524  0.027708652            5 
  197000   0.96002464   -7.3584623    61.258848  0.025913218  0.027636041            2 
  198000   0.92932526   -7.3759293    61.530063  0.025896491  0.027566729            4 
  199000   0.93003249   -7.3785258    61.913513  0.025926932  0.027497756            1 
  200000   0.94049543   -7.3840598    62.070596  0.025862748  0.027429066            2 
  201000   0.94657739   -7.3906596    62.238632  0.025803745  0.027360734            2 
  202000    0.9554381   -7.3652503    62.473516  0.025772902  0.027290771            4 
  203000   0.94160559   -7.4250881    62.537116  0.025672051  0.027222714            2 
  204000   0.91433571   -7.4023014    62.630157  0.025584214  0.027154886            3 
  205000   0.95438131   -7.3787499    62.829934  0.025540623  0.027087035            2 
  206000   0.94377611   -7.3915883    63.309503   0.02561064  0.027020075            4 
  207000   0.91066541    -7.418855    63.402537  0.025524371  0.026953117            2 
  208000   0.93086299   -7.4327351    63.449491  0.025420469  0.026885962            3 
  209000   0.93439193   -7.4087769    63.491442  0.025315567  0.026817243            3 
  210000   0.92208233   -7.4084763    63.751156  0.025298078  0.026748974            1 
  211000   0.95102915   -7.4221853    63.721846  0.025166606  0.026679787            3 
  212000   0.94515015   -7.4249368    63.801386  0.025079161  0.026609765            1 
  213000   0.92930602   -7.4540366    63.819837  0.024968637  0.026537365            2 
  214000   0.94956451   -7.4497878    63.801711  0.024844903  0.026463015            3 
  215000   0.93075225   -7.4470465    64.202128  0.024884546  0.026389753            3 
  216000   0.94076612   -7.4580735    64.240437  0.024784119  0.026317453            2 
  217000   0.91931676   -7.4869196    64.501077  0.024769999  0.026244742            1 
  218000   0.93703965   -7.4502452    64.482256  0.024649181  0.026173535            2 
  219000   0.90448696   -7.5087712     64.65725  0.024603215  0.026101241            1 
  220000   0.90736759   -7.4626018    65.094029  0.024656829  0.026029591            1 
  221000   0.93244479   -7.4900983    64.888653  0.024467818   0.02595755            4 
  222000   0.90676635   -7.4695632    65.194129   0.02447227  0.025885652            3 
  223000   0.89759306    -7.494209    65.333055  0.024414445  0.025814452            2 
  224000   0.90520126   -7.5152961    65.386278  0.024325252  0.025742101            4 
  225000   0.91729015   -7.4672751    65.452865  0.024241802  0.025669473            1 
  226000   0.90388602   -7.4914711    65.586969  0.024183985  0.025596901            5 
  227000   0.92008913   -7.5136974    65.650707  0.024100847  0.025524198            2 
  228000   0.90936797   -7.4903794    66.032713  0.024134763  0.025451635            3 
  229000   0.90598776   -7.4748472    66.163883  0.024077104  0.025379477            2 
  230000   0.88492302   -7.5356484    66.071038  0.023938782  0.025306229            8 
  231000   0.88299166   -7.5143715     65.98474  0.023804019  0.025232512            2 
  232000   0.88270053   -7.5285278      66.0687  0.023731573  0.025159376            2 
  233000   0.89652692    -7.480383    66.338961  0.023726381  0.025086256            2 
  234000    0.8986257   -7.5148839    66.504757   0.02368403  0.025014175            2 
  235000   0.89791875   -7.5216772     66.60056   0.02361722  0.024941406            1 
  236000   0.88445737   -7.5239656    66.724912  0.023561056  0.024868788            2 
  237000   0.89835392   -7.5179656    66.833082  0.023499677  0.024797062            3 
  238000   0.89287147   -7.5445583    67.210428  0.023533063  0.024726244            3 
  239000   0.88671624   -7.5497308    67.183472  0.023425199   0.02465571            3 
  240000   0.87502964   -7.5619517    67.388994  0.023398956  0.024585317            3 
  241000   0.88542396   -7.5364546    67.288926  0.023267264  0.024514396            3 
  242000   0.87339596   -7.5585117    67.574819  0.023269566   0.02444299            2 
  243000   0.88986338    -7.543953    67.703608  0.023217973  0.024372288            5 
  244000   0.89937642   -7.5576681    67.552442  0.023071189  0.024300901            2 
  245000   0.87431436   -7.5540043     67.85734  0.023080728  0.024230058            2 
  246000   0.86944599   -7.5600238     67.92484  0.023009769  0.024159493            2 
  247000   0.86606951   -7.5970435    67.945314   0.02292352  0.024088659            1 
  248000   0.86758723   -7.5379222    67.944526  0.022830822  0.024016929            2 
  249000   0.87870506   -7.5692532     68.08452  0.022785984  0.023945794            2 
  250000   0.85794061    -7.544544    68.283073  0.022761024   0.02387489            5 
  251000   0.86881575    -7.579373    68.391545  0.022706356   0.02380356            2 
  252000   0.85998694   -7.5774607    68.386631  0.022614627  0.023733277            2 
  253000   0.84329828   -7.5950283    68.526067  0.022571168  0.023662931            6 
  254000   0.84834092    -7.571218    68.500578  0.022473943  0.023592859            2 
  255000   0.86548049   -7.6125126    68.733111  0.022461801  0.023522188            5 
  256000   0.88344108   -7.6155019    68.878886  0.022421512   0.02345278            2 
  257000   0.85028565   -7.5910932    69.093586  0.022403887  0.023384069            3 
  258000   0.85994534   -7.6375874    69.122555  0.022326407  0.023315122            2 
  259000   0.86305187   -7.5882108    69.253868  0.022282454  0.023246188            2 
  260000   0.84194687   -7.5905345    69.212003  0.022183334  0.023177348            2 
  261000   0.84258261   -7.6026247    69.134657  0.022073645  0.023108135            3 
  262000   0.85371571   -7.6360089    69.274311  0.022033814  0.023038713            2 
  263000   0.85153001   -7.6292404    69.207472  0.021928857  0.022968767            2 
  264000    0.8495436   -7.6258486    69.406396  0.021908584  0.022899177            2 
  265000   0.85191831   -7.6428693     69.43523  0.021834978  0.022829142            3 
  266000   0.86669582   -7.6389236    69.524469  0.021780849  0.022759656            3 
  267000   0.85902422   -7.6519643    69.600656  0.021723051  0.022690322            2 
  268000   0.84153923   -7.6251117    69.689371  0.021669581   0.02262115            3 
  269000   0.84149641   -7.6692363    69.657707  0.021579215  0.022551901            3 
  270000   0.82829168    -7.657783    69.900712  0.021574294  0.022482338            3 
  271000   0.84301302   -7.6530226    69.866544  0.021484177  0.022413154            5 
  272000    0.8293598   -7.6488404    70.268775  0.021528424  0.022344257            2 
  273000   0.81314508   -7.6393632    70.186056  0.021424315   0.02227618            2 
  274000   0.83219717   -7.6369248    70.148889   0.02133482  0.022208343            1 
  275000   0.82820583   -7.6550733    70.368339  0.021323739  0.022140937            3 
  276000   0.82090671    -7.671961    70.605062  0.021317953  0.022073914            3 
  277000   0.82291291   -7.6548529     70.78785  0.021295984   0.02200813            2 
  278000   0.83527836    -7.669233    70.824006  0.021230217  0.021942862            2 
  279000   0.81188434   -7.6964257    70.757411  0.021134233  0.021877987            3 
  280000   0.83704332   -7.7045375    70.755892  0.021058301  0.021812763            4 
  281000   0.82698272   -7.6839081    71.017195  0.021060853  0.021748035            1 
  282000   0.81116084   -7.7203385    71.035035  0.020991441   0.02168372            3 
  283000   0.81417387   -7.7158115    71.145265  0.020949725  0.021618859            2 
  284000   0.80869066   -7.7251132    71.180845  0.020886398   0.02155409            1 
  285000   0.81370318   -7.7018916    71.286725  0.020844072  0.021488948            2 
  286000   0.79878022   -7.7054895    71.234117  0.020755862  0.021423945            1 
  287000   0.80718386   -7.7432892    71.106293  0.020646426  0.021358454            2 
  288000   0.80999664   -7.7248699    71.276548  0.020624001   0.02129373            3 
  289000   0.79381014   -7.7210578    71.608114  0.020648245  0.021229248            1 
  290000    0.8131129   -7.7442062     71.49538   0.02054465  0.021165202            6 
  291000   0.81728036   -7.7533204    71.633648  0.020513645  0.021101287            1 
  292000   0.81198683   -7.7312172    71.639331  0.020445015  0.021037815            5 
  293000   0.80721545   -7.7397585    71.630579  0.020372747  0.020973965            3 
  294000   0.80975391   -7.7291737    71.868176  0.020370798  0.020910286            2 
  295000    0.8070723   -7.7636189    71.678723  0.020248227  0.020847014            2 
  296000   0.79511935   -7.8020503    71.769467  0.020205368  0.020783155            6 
  297000   0.81290965   -7.7691969    71.710864  0.020120893  0.020719229            1 
  298000   0.78726899   -7.7839154    71.829069  0.020086429  0.020654988            6 
  299000   0.78991734   -7.8125284    71.648564  0.019968942  0.020590594            4 
  300000   0.78965605   -7.7607453     71.80285  0.019945236  0.020525879            2 
  301000   0.79363089   -7.7812764    71.796989   0.01987735  0.020461361            4 
  302000   0.77490038   -7.7334431    72.039866   0.01987855  0.020397367            4 
  303000   0.76590595   -7.7456187    72.228539  0.019864835  0.020334184            3 
  304000   0.80150426   -7.7537134     72.25773  0.019807492  0.020271276            2 
  305000   0.77043926   -7.7899615    72.215186  0.019730925  0.020208267            2 
  306000   0.78771547   -7.7842215    72.112023   0.01963835  0.020145459            1 
  307000   0.79998441   -7.7838953    72.226529  0.019605464  0.020082163            2 
  308000   0.76623153   -7.7975532    72.239566  0.019545337  0.020019062            1 
  309000   0.77575459   -7.8129578    72.071443  0.019436743  0.019955842            2 
  310000   0.76300395   -7.8007193    72.176957  0.019402408   0.01989221            3 
  311000   0.77534523   -7.8317004    72.378981  0.019394154  0.019829312            2 
  312000   0.75891183   -7.8464059    72.320572  0.019316392  0.019766566            3 
  313000   0.78046169   -7.8536259    72.243404  0.019234133  0.019703341            2 
  314000    0.7586058   -7.8272338    72.360096  0.019203847  0.019640529            1 
  315000   0.78203444   -7.8240682    72.473476  0.019172877  0.019577667            2 
  316000   0.76746845   -7.8198248    72.379268   0.01908736  0.019515748            5 
  317000   0.74650571   -7.8055683    72.689463  0.019108692  0.019453917            3 
  318000   0.76013803   -7.8274611    72.675895  0.019045046  0.019393064            6 
  319000   0.75598254   -7.8074063    72.839594  0.019028107  0.019332335            2 
  320000   0.75070153   -7.8361613    72.799921  0.018958313   0.01927208            4 
  321000   0.74944655   -7.8331221     72.92766  0.018932414  0.019211721            4 
  322000   0.76135025   -7.8621638    72.726262  0.018821496  0.019151008            4 
  323000   0.77179396   -7.8602389    72.745651  0.018768228  0.019090125            2 
  324000   0.76833332    -7.862974      73.0716  0.018794136   0.01902952            3 
  325000   0.74762892   -7.8889821    72.848138   0.01867901  0.018969225            3 
  326000   0.75985957   -7.8876757    72.854425  0.018623319  0.018908851            2 
  327000   0.73605234   -7.8639984    72.824226  0.018558671  0.018848328            2 
  328000   0.73563641   -7.8648409    72.913678  0.018524816  0.018788284            2 
  329000   0.73403286   -7.8531727    72.971085  0.018483051  0.018728491            2 
  330000   0.74869116   -7.8590187    73.072432  0.018452634  0.018668839            2 
  331000   0.73624068    -7.874267    73.051726  0.018391673  0.018609308            2 
  332000   0.74067394   -7.8396993    73.160445  0.018363565  0.018550342            4 
  333000   0.73180123   -7.8612566    73.273849  0.018336799  0.018491378            3 
  334000   0.73659283   -7.9016974    73.203546  0.018264358  0.018432127            3 
  335000   0.72813945   -7.9089866     73.12612  0.018190577  0.018373389            4 
  336000   0.72864709   -7.9151757    72.970701  0.018097892  0.018314327            4 
  337000   0.74505723   -7.8727495    73.197538  0.018100281  0.018255577            6 
  338000   0.72535214     -7.90715    73.291941  0.018070005  0.018197245            5 
  339000   0.72207225   -7.9004891    73.160643  0.017984426  0.018138904            2 
  340000   0.73958999   -7.8985868    73.281029  0.017961036  0.018080767            3 
  341000   0.74084801   -7.9204153    73.356122  0.017926716  0.018022965            7 
  342000   0.72528289   -7.9191063    73.531343  0.017916994  0.017965621            3 
  343000   0.73379078   -7.9321274    73.364096  0.017824124  0.017908247            5 
  344000   0.71200631   -7.9372815    73.542723  0.017815582  0.017851071            2 
  345000   0.71785145   -7.9162992    73.288748  0.017702596  0.017794278            3 
  346000   0.70938406   -7.9296769    73.435039  0.017686666  0.017737422            3 
  347000   0.71624107   -7.9783424    73.374208  0.017621087  0.017680944            2 
  348000   0.70347536   -7.9567542    73.637294  0.017633452  0.017624797            6 
  349000   0.71748981   -7.9608301    73.569313  0.017566694  0.017568525            3 
  350000   0.69960302   -7.9632752    73.694084  0.017546211  0.017512403            3 
  351000   0.68795279    -7.965891    73.517617  0.017454325  0.017456376            3 
  352000   0.70831445   -7.9529615    73.753885  0.017460673  0.017400702            1 
  353000   0.71336589   -7.9773963    73.576403  0.017369311  0.017345229            3 
  354000   0.72857817   -7.9750351    73.745996  0.017360168  0.017290138            3 
  355000   0.69740163   -7.9923451    73.674174  0.017294407   0.01723535            5 
  356000   0.69314705   -7.9918751     73.85143   0.01728732  0.017180298            3 
  357000   0.69242208   -7.9845822    73.736791  0.017212136  0.017125422            2 
  358000   0.70108589    -8.018709    73.630447  0.017139303  0.017070625            2 
  359000    0.7034728     -7.98869    73.732402  0.017115228  0.017016015            2 
  360000   0.68959307   -7.9970167    73.660032  0.017050933  0.016961366            3 
  361000   0.68610852    -7.978029    73.631138  0.016997031  0.016906554            4 
  362000   0.70101323   -8.0098134    73.823491  0.016994358  0.016852083            3 
  363000   0.69590778    -7.999372    73.822207  0.016947247  0.016797557            4 
  364000   0.68262653   -8.0218414    73.731646  0.016879956  0.016743442            3 
  365000   0.68443314   -8.0207619    73.724353  0.016832044   0.01668977            3 
  366000   0.67619254   -8.0158319    73.786518  0.016800209  0.016636055            2 
  367000   0.67854928   -8.0306752    73.825568  0.016763299  0.016582507            3 
  368000   0.67633169    -8.019257    73.768227  0.016704761  0.016529028            6 
  369000   0.68208174    -8.022323    73.606794  0.016623034  0.016475716            2 
  370000   0.68711348   -8.0298211    73.866148   0.01663652  0.016422523            3 
  371000   0.65365486   -8.0406514    73.625273  0.016537573  0.016369473            6 
  372000   0.67160428   -8.0432055    73.782552  0.016528349  0.016316642            5 
  373000   0.67180186   -8.0631935    73.849789  0.016499059  0.016263951            2 
  374000   0.66007029   -8.0646236     73.70455  0.016422582  0.016211431            4 
  375000   0.66114238   -8.0502031    73.912793  0.016425065  0.016158789            2 
  376000   0.66928424   -8.0720756    73.850619  0.016367602  0.016106468            3 
  377000   0.65651226   -8.0481817    73.734153  0.016298442  0.016054095            4 
  378000   0.66955774   -8.0791057    73.733415  0.016255162  0.016001953            2 
  379000   0.67102084   -8.0661174    73.993441  0.016269446   0.01595004            3 
  380000   0.65462827   -8.0880703    73.883668  0.016202559  0.015898559            3 
  381000   0.65955869   -8.0446227    74.007431  0.016187102  0.015847061            5 
  382000   0.65385946   -8.0680064    74.052225  0.016154499  0.015795877            4 
  383000    0.6513788   -8.0669867    74.023625  0.016106098  0.015745029            2 
  384000   0.65576088   -8.0798722    73.845733   0.01602555  0.015694095            6 
  385000   0.65066466   -8.0654836    73.877331  0.015990764  0.015643261            3 
  386000   0.66566142   -8.0756977    73.863649  0.015946384  0.015592581            2 
  387000   0.65456429   -8.0954892    73.819014  0.015895567  0.015541887            5 
  388000     0.636533   -8.0995622    73.881367  0.015867991  0.015491499            3 
  389000   0.64608761   -8.0845495    73.940288  0.015839822  0.015441278            3 
  390000   0.64902197   -8.0918674    73.874661  0.015785184  0.015391306            4 
  391000   0.63720635   -8.0982273    73.848887   0.01573932   0.01534146            4 
  392000   0.64508515    -8.098478     73.94089  0.015718727  0.015291751            7 
  393000   0.64075813   -8.1285142    73.979382  0.015686892  0.015242099            5 
  394000   0.65131884   -8.1017266    73.753222  0.015599243  0.015192711            4 
  395000   0.64592494   -8.1282871    73.801747  0.015569989  0.015143346            7 
  396000    0.6329015   -8.1249983    73.896548   0.01555062  0.015094094            5 
  397000   0.64171797   -8.1340516    73.864336  0.015504689  0.015045198            5 
  398000   0.63576839   -8.1255772    73.951205  0.015483921  0.014996536            3 
  399000   0.62621729   -8.1308309    73.917588  0.015438093  0.014947874            3 
  400000   0.61894582   -8.1471575    73.995779  0.015415787  0.014899279            3 
  401000    0.6269546   -8.1308008    73.808492  0.015338423  0.014850732            3 
  402000    0.6289099   -8.1364853    73.768897   0.01529206  0.014802311            2 
  403000   0.63079346   -8.1717982    73.625247   0.01522441  0.014753918            7 
  404000   0.62686828   -8.1705604    73.844758  0.015232005  0.014705697            4 
  405000   0.63176588   -8.1654271    73.866694  0.015198908  0.014657754            3 
  406000   0.62053769    -8.163076    73.822146  0.015152329  0.014609932            9 
  407000   0.60687468   -8.1490307    73.809017  0.015112411  0.014562143            4 
  408000   0.61591726   -8.1516496    73.817095  0.015077021  0.014514484            4 
  409000   0.61000254   -8.1889803    73.700238  0.015016348  0.014467061            4 
  410000   0.62789318   -8.1748119    73.663652  0.014972287  0.014419642            3 
  411000    0.6221813   -8.1547446      73.6892  0.014941038  0.014372393            4 
  412000   0.60552232   -8.1869733    73.909202  0.014949272  0.014325431            2 
  413000   0.60936575   -8.1812442    73.716222  0.014874137  0.014278643            2 
  414000   0.59412887   -8.1736977    73.834565   0.01486203   0.01423203            4 
  415000   0.59751772   -8.1754628    73.835957  0.014826497  0.014185644            4 
  416000    0.6049271   -8.1917017     73.75499  0.014774637  0.014139302            5 
  417000   0.61837189   -8.2058597    73.736036  0.014735419  0.014093186            3 
  418000   0.60416716   -8.1941853    73.707543  0.014694486  0.014046997            7 
  419000   0.59446836   -8.1930005    73.727433  0.014663372  0.014001047            3 
  420000   0.60334954   -8.2071653    73.670912  0.014617244   0.01395513            3 
  421000   0.58534396   -8.2150191    73.647091  0.014577809  0.013909284            2 
  422000   0.59844815   -8.2323056    73.541839   0.01452248  0.013863599            4 
  423000   0.60363384   -8.2238402    73.556323  0.014491001  0.013818054            5 
  424000   0.58232798   -8.2206681    73.664188  0.014478024  0.013772614            3 
  425000   0.59358296   -8.2244997    73.709394  0.014452822  0.013727385            2 
  426000   0.58218979   -8.2209749    73.541967  0.014386144  0.013682382            2 
  427000   0.58690433    -8.232651    73.674643  0.014378346  0.013637407            3 
  428000    0.5886645   -8.2342567    73.795788  0.014368339  0.013592611            4 
  429000   0.57633857   -8.2300651    73.502435  0.014277862  0.013548091            3 
  430000   0.58632849   -8.2396359    73.555264  0.014254896  0.013503552            2 
  431000   0.59239138   -8.2297907    73.579937  0.014226593   0.01345932            1 
  432000   0.57358017    -8.258034    73.613285  0.014200094  0.013415069            4 
  433000   0.58306951   -8.2439998    73.563788  0.014157773  0.013371033            3 
  434000   0.57857806   -8.2314141    73.590497   0.01413028  0.013327165            3 
  435000   0.57481668   -8.2573801    73.479081  0.014076452   0.01328341            2 
  436000   0.56516108   -8.2748109     73.47193    0.0140428    0.0132398            3 
  437000   0.57852456   -8.2815173    73.455371  0.014007508  0.013196287            2 
  438000    0.5643538   -8.2727516    73.450028  0.013974511  0.013153001            2 
  439000   0.55669071   -8.2687497    73.424141  0.013937764  0.013109795            3 
  440000   0.56816813   -8.2886194    73.508421  0.013922049  0.013066778            4 
  441000   0.55413197   -8.2748612     73.41763  0.013873324  0.013023947            2 
  442000   0.55473448   -8.2947397    73.436869  0.013845563  0.012981298            2 
  443000   0.56414706   -8.2830518    73.377158  0.013803077  0.012938764            3 
  444000   0.56115778   -8.3041522    73.397484  0.013775804  0.012896377            2 
  445000    0.5508851   -8.3011214    73.452426  0.013755136  0.012854192            2 
  446000   0.55593333   -8.3105689    73.619886  0.013755584  0.012812209            2 
  447000   0.54783873   -8.2964172    73.429919  0.013689396  0.012770209            3 
  448000   0.56115127   -8.3007139    73.332301  0.013640681   0.01272841            4 
  449000   0.55417345   -8.3222395    73.453752  0.013632842  0.012686768            3 
  450000   0.54931152     -8.30182    73.469794  0.013605517  0.012645243            3 
  451000   0.55364923   -8.3022117    73.329757  0.013549475  0.012603906            7 
  452000   0.54609254   -8.3149958     73.22074  0.013499399  0.012562737            3 
  453000   0.55030948   -8.3045523    73.368836  0.013496843  0.012521712            3 
  454000   0.53136825   -8.3235603    73.401536  0.013473116  0.012480743            3 
  455000   0.54430788   -8.3215573    73.325952  0.013429662   0.01243997            5 
  456000   0.53013923   -8.3186065    73.405489  0.013414746  0.012399258            6 
  457000   0.52974832   -8.3215316    73.357703  0.013376678  0.012358693            4 
  458000   0.54220524   -8.3365592    73.351254  0.013346298  0.012318456            4 
  459000   0.53722608   -8.3441845    73.273558  0.013303115  0.012278312            3 
  460000   0.53753658   -8.3438237    73.307599  0.013280362  0.012238294            4 
  461000   0.52194609   -8.3342204    73.309328  0.013251867  0.012198461            3 
  462000   0.51720938   -8.3494299    73.151293  0.013194678  0.012158714            3 
  463000   0.54497181   -8.3554121    73.284546  0.013190163  0.012119083            4 
  464000   0.53157005   -8.3455475    73.303861  0.013165205  0.012079603            2 
  465000   0.51294125   -8.3572351    73.265293  0.013129981  0.012040297            5 
  466000   0.51772904    -8.355044    73.190796  0.013088483  0.012001101            3 
  467000   0.52066192   -8.3585302    73.255111  0.013071933  0.011962069            5 
  468000   0.52468999   -8.3686484    73.359688  0.013062622  0.011923195            2 
  469000    0.5136116   -8.3523422    73.203295  0.013006982  0.011884442            4 
  470000   0.51749476   -8.3504625    73.263086  0.012989909  0.011845876            4 
  471000   0.51160418    -8.374791    73.044498  0.012923655   0.01180739            4 
  472000   0.50768423   -8.3627885    73.219199  0.012927119  0.011769095            3 
  473000    0.5072658   -8.3758287    73.222361  0.012900346  0.011730958            5 
  474000    0.5028983   -8.3837621    73.152746  0.012860891  0.011692991            5 
  475000   0.50359241   -8.3676097    73.202558  0.012842554  0.011655145            2 
  476000   0.51067827   -8.3565727    73.171889  0.012810205  0.011617412            2 
  477000   0.50665975   -8.3798764    73.132725  0.012776507  0.011579851            3 
  478000   0.50604581   -8.3601707    73.195683  0.012760754  0.011542397            2 
  479000   0.51067923   -8.3884423    73.174743   0.01273047  0.011505103            3 
  480000   0.50403138   -8.3691934    73.107703   0.01269231  0.011467953            2 
  481000    0.4907948   -8.3967907    73.126531  0.012669184  0.011430952            4 
  482000   0.50722118   -8.3900034    73.061533  0.012631662  0.011394103            2 
  483000   0.50211613   -8.3924343    73.113755   0.01261452  0.011357415            4 
  484000   0.49490002   -8.3902529    73.022079  0.012572672  0.011320854            4 
  485000   0.49071299   -8.4003757    73.041303  0.012550052  0.011284547            5 
  486000   0.47998229   -8.4168475    73.125844  0.012538725  0.011248195            2 
  487000    0.4893831   -8.3955489    73.105152  0.012509437  0.011212012            3 
  488000   0.49709536   -8.4068369    73.083285  0.012480069  0.011175907            6 
  489000   0.48369941   -8.4173248    72.983872  0.012437606  0.011139987            3 
  490000   0.49555925   -8.4078832    72.911089  0.012399845  0.011104204            6 
  491000   0.48951629   -8.4348364    72.836798  0.012361982  0.011068547            6 
  492000   0.48530139    -8.420095    73.040171  0.012371303   0.01103297            3 
  493000   0.47180681    -8.426741     72.87998  0.012319131  0.010997572            6 
  494000   0.47995735   -8.4139864    72.988221  0.012312453  0.010962316            3 
  495000   0.48413724   -8.4219975    72.944625   0.01228024  0.010927183            4 
  496000   0.46876923    -8.422511    73.021462  0.012268391  0.010892196            3 
  497000   0.47664203   -8.4159906    72.954074  0.012232407  0.010857351            5 
  498000   0.46225188   -8.4253393    72.911129  0.012200658  0.010822658            3 
  499000    0.4630736   -8.4204424    72.949084  0.012182546  0.010788055            2 
  500000   0.47614464   -8.4277631    72.916595  0.012152766  0.010753629            3 
  501000   0.46237015   -8.4434336    72.937908  0.012132054   0.01071932            2 
  502000   0.46083869   -8.4470161    72.971715  0.012113498  0.010685202            3 
  503000   0.46817839   -8.4476509    72.989753  0.012092404  0.010651173            3 
  504000   0.47078689   -8.4361771    72.881394  0.012050495  0.010617285            4 
  505000   0.45735187   -8.4313224    72.868823  0.012024558  0.010583575            4 
  506000   0.46017177   -8.4462126    72.979302  0.012018989  0.010550046            4 
  507000   0.46136477   -8.4583513     72.90088  0.011982393  0.010516609            2 
  508000   0.45758237   -8.4470164    72.849646  0.011950401  0.010483218            7 
  509000   0.45053526   -8.4527467    72.832192  0.011924065   0.01044997            2 
  510000   0.45982931   -8.4591972    72.832276  0.011900699  0.010416851            2 
  511000   0.45266998   -8.4677134      72.9583  0.011897962  0.010383909            6 
  512000   0.45685688   -8.4680793    72.873821  0.011860974  0.010351047            4 
Loop time of 1171.4 on 48 procs for 500000 steps with 4000 atoms

Performance: 73757.958 tau/day, 426.840 timesteps/s
99.4% CPU use with 48 MPI tasks x no OpenMP threads

MPI task timing breakdown:
Section |  min time  |  avg time  |  max time  |%varavg| %total
---------------------------------------------------------------
Pair    | 72.473     | 77.91      | 83.683     |  30.6 |  6.65
Neigh   | 7.7533     | 8.0603     | 8.6396     |   6.5 |  0.69
Comm    | 71.199     | 78         | 83.919     |  33.1 |  6.66
Output  | 0.87836    | 0.87877    | 0.88772    |   0.1 |  0.08
Modify  | 993.48     | 996.57     | 999.73     |   4.4 | 85.08
Other   |            | 9.98       |            |       |  0.85

Nlocal:        83.3333 ave          91 max          76 min
Histogram: 2 2 4 3 14 8 9 2 2 2
Nghost:        2007.71 ave        2025 max        1987 min
Histogram: 2 4 4 5 4 9 4 7 6 3
Neighs:        12855.9 ave       14631 max       11330 min
Histogram: 2 3 6 8 7 11 6 3 1 1
FullNghs:      25713.0 ave       28513 max       23472 min
Histogram: 4 2 2 12 11 8 4 2 1 2

Total # of neighbors = 1234225
Ave neighs/atom = 308.55625
Neighbor list builds = 26822
Dangerous builds = 0

#clear
#
#next RN
#
#jump SELF
Total wall time: 0:19:34
