
units lj                  # Use reduced LJ style units
atom_style atomic         # Uncharged point particles
atom_modify map hash      # Needed for indexing of clusters etc
                          # Used to be able to find where atoms are in relation to each other.

lattice fcc 1.0 spacing 1 1 1
Lattice spacing in x,y,z = 1.5874011 1.5874011 1.5874011
region box block 0 10 0 10 0 10 units lattice
create_box 2 box
Created orthogonal box = (0.0000000 0.0000000 0.0000000) to (15.874011 15.874011 15.874011)
  3 by 4 by 4 MPI processor grid
create_atoms 1 box
Created 4000 atoms
  using lattice units in orthogonal box = (0.0000000 0.0000000 0.0000000) to (15.874011 15.874011 15.874011)
  create_atoms CPU = 0.016 seconds
set type 1 type/fraction 2 0.9 78393
Setting atom values ...
  3586 settings made for type/fraction
mass 1 1.0
mass 2 1.0
pair_style lj/cut  3.5
pair_modify tail  yes
pair_coeff 1  1  1.0  1.0   # Intearaction between 1 and 1 set with epsilon = 1 and sigma = 1
pair_coeff 1  2  1.5  0.8
pair_coeff 2  2  0.5  0.88

write_data data.0
System init for write_data ...
Neighbor list info ...
  update every 1 steps, delay 10 steps, check yes
  max neighbors/atom: 2000, page size: 100000
  master list distance cutoff = 3.8
  ghost atom cutoff = 3.8
  binsize = 1.9, bins = 9 9 9
  1 neighbor lists, perpetual/occasional/extra = 1 0 0
  (1) pair lj/cut, perpetual
      attributes: half, newton on
      pair build: half/bin/atomonly/newton
      stencil: half/bin/3d
      bin: standard
WARNING: Not all mixed pair coeffs generated from mixing. Use write_data with 'pair ij' option to store all pair coeffs. (../write_data.cpp:312)


#############################
#   M E L T   S Y S T E M   #
#############################

velocity all create 2.4 1741580 mom yes dist gaussian # Assign velocities
                                                    # Temperature 2.4, random number seed, zero linear momentum
                                                                                # Gaussian distribution

timestep 0.002   # simulation timestep
thermo 1000       # output thermodynamic data every 1000 steps bf 100

# Define a fix  in this case with index 1 applied to all
# particles in the simulation. This fix is for simulations
# in the anisotropic NPT ensemble. Note that we use the MTK
# correction.
fix 1 all npt temp 2.4 2.4 0.1 iso 5.68 5.68 0.5 mtk yes tchain 5 pchain 5 # Use NPT ensemble
                                                                         # Set temperature and pressure and damping
                                                                         # Numbers of thermostats in chain and in barostat
run 10000          # run for 10000 steps
Per MPI rank memory allocation (min/avg/max) = 3.642 | 3.644 | 3.648 Mbytes
Step Temp E_pair E_mol TotEng Press Volume 
       0          2.4   -3.1995671            0   0.39953293    -2.596694         4000 
    1000    2.4173623   -2.2675793            0    1.3575577    5.4618825    4028.5567 
    2000    2.4155975   -2.2420069            0    1.3804834    5.8278161    3986.1688 
    3000     2.403184   -2.2543252            0    1.3495496    5.9418698    3963.1734 
    4000    2.3702499   -2.2197175            0    1.3347686    5.6308869    4025.1227 
    5000    2.4154536   -2.2247271            0    1.3975475    5.4578876    4057.1489 
    6000    2.4188174   -2.2323972            0    1.3949218    5.9130107    3971.4564 
    7000     2.382196   -2.2869206            0    1.2854802    5.4924465    3992.9634 
    8000    2.3910086   -2.2562115            0    1.3294047    5.7057647    3994.0935 
    9000    2.3867921   -2.2730702            0    1.3062229    5.8272673    3959.6315 
   10000    2.3870636   -2.2215716            0    1.3581287    5.5239012    4050.4678 
Loop time of 2.4741 on 48 procs for 10000 steps with 4000 atoms

Performance: 698435.553 tau/day, 4041.872 timesteps/s
99.6% CPU use with 48 MPI tasks x no OpenMP threads

MPI task timing breakdown:
Section |  min time  |  avg time  |  max time  |%varavg| %total
---------------------------------------------------------------
Pair    | 1.0682     | 1.1529     | 1.2438     |   3.0 | 46.60
Neigh   | 0.20468    | 0.21429    | 0.226      |   0.9 |  8.66
Comm    | 0.76009    | 0.84123    | 0.90782    |   3.6 | 34.00
Output  | 0.00023914 | 0.00024398 | 0.00030744 |   0.0 |  0.01
Modify  | 0.22886    | 0.25029    | 0.27621    |   2.4 | 10.12
Other   |            | 0.01515    |            |       |  0.61

Nlocal:        83.3333 ave          96 max          73 min
Histogram: 2 4 3 12 8 9 8 0 0 2
Nghost:        1629.92 ave        1671 max        1601 min
Histogram: 5 6 3 9 5 7 6 6 0 1
Neighs:        9418.75 ave       11188 max        7966 min
Histogram: 3 3 6 7 8 14 2 3 0 2

Total # of neighbors = 452100
Ave neighs/atom = 113.02500
Neighbor list builds = 907
Dangerous builds = 198

# Equilibrate just above the melting temperature to avoid step fn in T

fix 1 all npt temp 1.25 1.25 0.1 iso 5.68 5.68 0.5 mtk yes tchain 5 pchain 5
run 2000
Per MPI rank memory allocation (min/avg/max) = 3.643 | 3.645 | 3.649 Mbytes
Step Temp E_pair E_mol TotEng Press Volume 
   10000    2.3870636   -2.2215716            0    1.3581287    5.5239012    4050.4678 
   11000    1.2553422   -3.3827204            0   -1.5001779    5.5169372    3099.2694 
   12000    1.2283473   -3.3452126            0   -1.5031522    5.5904985    3110.6025 
Loop time of 0.613445 on 48 procs for 2000 steps with 4000 atoms

Performance: 563375.866 tau/day, 3260.277 timesteps/s
99.6% CPU use with 48 MPI tasks x no OpenMP threads

MPI task timing breakdown:
Section |  min time  |  avg time  |  max time  |%varavg| %total
---------------------------------------------------------------
Pair    | 0.26637    | 0.29189    | 0.33793    |   2.8 | 47.58
Neigh   | 0.03894    | 0.04162    | 0.046907   |   0.7 |  6.78
Comm    | 0.18458    | 0.2299     | 0.25706    |   3.4 | 37.48
Output  | 5.2213e-05 | 5.38e-05   | 6.9013e-05 |   0.0 |  0.01
Modify  | 0.039287   | 0.045239   | 0.049387   |   1.3 |  7.37
Other   |            | 0.004745   |            |       |  0.77

Nlocal:        83.3333 ave          90 max          72 min
Histogram: 1 0 3 3 2 9 9 11 7 3
Nghost:        1953.15 ave        1982 max        1925 min
Histogram: 3 2 2 7 8 16 2 4 3 1
Neighs:        12298.1 ave       13970 max        9903 min
Histogram: 1 0 1 5 5 16 8 5 6 1

Total # of neighbors = 590309
Ave neighs/atom = 147.57725
Neighbor list builds = 144
Dangerous builds = 12

#############################
# L I N E A R  Q U E N C H  #
#############################

# Define solid atoms. This closely follows ten Wolde  Ruiz-Montero and Frenkel  Faraday Discuss  1996  104  93-110
# Compute components of the per-atom q6 vector
compute q6 all orientorder/atom degrees 1 6 components 6 nnn NULL cutoff 1.3 # compute the Q6 parameter.
                                                                             # Use all neighbours within 1.3 unit cell.

# get number of connections
compute coord_number all coord/atom orientorder q6 0.5

# An atom is solid if it has 8 or more connections (of a possible 14)
variable is_solid atom c_coord_number>=8
group solid dynamic all var is_solid    # Must be dynamic to update
dynamic group solid defined

# do clustering
compute cluster solid cluster/atom 1.3 # Create a cluster where all atoms within are solid and max 1.3 units from another member

# define chunks one chunk per cluster
compute clus_chunks solid chunk/atom c_cluster nchunk every compress yes  # Says which atoms are in which chunk

# count the size of each chunk
compute size_chunks solid property/chunk clus_chunks count


# Find the maximum entry in the vector of chunk sizes
variable max_n equal max(c_size_chunks)


# Thermo style which includes this variable
# thermo_style custom step temp pe vol v_max_n

thermo ${N}  # Print the thermo information every 100 steps
thermo 1000  

# Reset the npt fix at a lower temperature (below freezing)
fix 1  all npt temp  ${temp} ${temp}  0.1  iso  5.68  5.68  0.5  mtk yes tchain  5  pchain  5
fix 1  all npt temp  0.45 ${temp}  0.1  iso  5.68  5.68  0.5  mtk yes tchain  5  pchain  5
fix 1  all npt temp  0.45 0.45  0.1  iso  5.68  5.68  0.5  mtk yes tchain  5  pchain  5

dump dmp2 all dcd ${N} traj.dcd
dump dmp2 all dcd 1000 traj.dcd


compute msd all msd com yes
variable twopoint equal c_msd[4]/6/(step*dt+1.0e-6)
fix 9 all vector 10 c_msd[4]
variable fit equal slope(f_9)/6/(10*dt)
thermo_style custom step temp pe c_msd[4] v_twopoint v_fit v_max_n

fix 1 all npt temp 1.25 ${temp} 0.1 iso 5.68 5.68 0.5 mtk yes tchain 5 pchain 5
fix 1 all npt temp 1.25 0.45 0.1 iso 5.68 5.68 0.5 mtk yes tchain 5 pchain 5
run 500000 # 5000000  # Run for this many steps
Neighbor list info ...
  update every 1 steps, delay 10 steps, check yes
  max neighbors/atom: 2000, page size: 100000
  master list distance cutoff = 3.8
  ghost atom cutoff = 3.8
  binsize = 1.9, bins = 8 8 8
  4 neighbor lists, perpetual/occasional/extra = 1 3 0
  (1) pair lj/cut, perpetual
      attributes: half, newton on
      pair build: half/bin/atomonly/newton
      stencil: half/bin/3d
      bin: standard
  (2) compute orientorder/atom, occasional
      attributes: full, newton on
      pair build: full/bin/atomonly
      stencil: full/bin/3d
      bin: standard
  (3) compute coord/atom, occasional
      attributes: full, newton on
      pair build: full/bin/atomonly
      stencil: full/bin/3d
      bin: standard
  (4) compute cluster/atom, occasional
      attributes: full, newton on
      pair build: full/bin/atomonly
      stencil: full/bin/3d
      bin: standard
Per MPI rank memory allocation (min/avg/max) = 9.823 | 9.829 | 9.835 Mbytes
Step Temp PotEng c_msd[4] v_twopoint v_fit v_max_n 
   12000    1.2283473   -3.3452126 2.1088224e-30 1.4644599e-32 8.3333333e+20            1 
   13000    1.2503969   -3.3215329   0.99500725 0.0063782514  0.083499537            2 
   14000    1.2481973   -3.3532596    2.1040494  0.012524103  0.088500943            3 
   15000    1.2652911   -3.3544939    3.3005031  0.018336128  0.092290916            5 
   16000    1.2313511   -3.3859006    4.3934275  0.022882434  0.093673843            3 
   17000    1.2317018   -3.3564713    5.4353543  0.026643893   0.09287698            1 
   18000    1.2467105   -3.3569513    6.5545731  0.030345245  0.092650611            1 
   19000    1.2380283   -3.3388454    7.6312339  0.033470323  0.092376858            1 
   20000    1.2315308   -3.3892225    8.6927269  0.036219694  0.091806361            1 
   21000     1.233216   -3.3378012    9.7197454  0.038570417  0.091276218            1 
   22000    1.2387461   -3.3762555    10.820749  0.040987684  0.090844656            4 
   23000    1.2394054   -3.3985963    11.875055   0.04302556  0.090767464            2 
   24000    1.2189656   -3.3960446    12.918488  0.044855862  0.090455807            1 
   25000    1.2429613   -3.3606561    13.883169  0.046277228   0.09003298            1 
   26000    1.2407817   -3.3923538    14.953348  0.047927395  0.089692445            1 
   27000    1.2412215    -3.403763    15.874366  0.048994955  0.089332221            1 
   28000    1.2051677   -3.3686618    16.924207  0.050369663  0.088820868            1 
   29000    1.2400936   -3.3658399    17.884439  0.051392066  0.088476865            1 
   30000    1.2335683   -3.3862239    19.065448  0.052959578  0.088217264            3 
   31000    1.2201145   -3.3641735    20.222421  0.054361347  0.088131483            1 
   32000     1.203546    -3.394597    21.246444   0.05532928  0.088115148            2 
   33000    1.2103756   -3.4099496    22.334444  0.056400111    0.0880992            2 
   34000    1.2330835   -3.4339751    23.630406  0.057917662  0.088213684            4 
   35000    1.2047255   -3.4212883    24.765355  0.058965129  0.088436857            1 
   36000    1.2176101     -3.42044    25.835445  0.059804269  0.088614358            2 
   37000    1.2138744   -3.4015973    26.746498  0.060239861  0.088752898            1 
   38000    1.2013329   -3.4085868    27.896038   0.06117552  0.088802703            2 
   39000    1.2058373   -3.4235222    28.671475  0.061263835  0.088760929            2 
   40000    1.1990147   -3.4147962    29.435107  0.061323138  0.088515575            2 
   41000    1.2406441   -3.3984644    30.591307  0.062177453  0.088285045            3 
   42000    1.2293256   -3.4385767    31.472997  0.062446421  0.088074444            2 
   43000    1.2208225   -3.4265218    32.180995  0.062366268  0.087788779            1 
   44000    1.2133721   -3.4093022    33.166687  0.062815694  0.087484388            1 
   45000    1.1990901   -3.4032911    33.981741  0.062929149  0.087128957            2 
   46000    1.1793351   -3.4470907    34.896785  0.063218813  0.086770849            1 
   47000    1.1880104   -3.4281304      35.7197  0.063332801   0.08636873            1 
   48000    1.1757243   -3.4428565    36.821237  0.063925758  0.086069081            1 
   49000    1.2008686   -3.4330029     37.91639  0.064483656  0.085822448            3 
   50000    1.1753894   -3.3937189    39.106306  0.065177176  0.085628458            4 
   51000    1.1899313   -3.4238321    39.878619  0.065161142  0.085446608            4 
   52000    1.1782657   -3.4138814    40.961448  0.065643346  0.085269742            1 
   53000    1.1915711   -3.4118385    41.888315  0.065862131   0.08507555            3 
   54000    1.1760571   -3.4330331     42.98406  0.066333425  0.084934591            1 
   55000    1.1943244   -3.4232417    43.782081  0.066336485  0.084790153            1 
   56000    1.2017431    -3.431326     44.64508  0.066436131  0.084648051            6 
   57000    1.1715759   -3.4750524     45.61381  0.066686856  0.084501188            2 
   58000    1.1852826   -3.4485387    46.777979  0.067209739  0.084367958            2 
   59000    1.1694513   -3.4563515    47.810292   0.06752866  0.084254163            3 
   60000    1.1753057    -3.479165    48.389361  0.067207445  0.084115465            4 
   61000    1.1736381   -3.4505934     49.25754   0.06729172  0.083955118            3 
   62000    1.1513585   -3.4254075     50.31417  0.067626572  0.083799932            2 
   63000    1.1605887   -3.4638682    51.178652  0.067696629  0.083639809            2 
   64000    1.1803767   -3.4422084    52.064984  0.067792948  0.083465225            2 
   65000    1.1434102   -3.4764017    53.209628  0.068217472  0.083311052            2 
   66000    1.1846934    -3.438585    54.279328  0.068534505  0.083177837            1 
   67000    1.1785805   -3.4924085    55.118366  0.068555181  0.083060321            2 
   68000    1.1456687   -3.4691923     55.78885  0.068368689  0.082948176            2 
   69000    1.1519116   -3.4822827    56.855666  0.068666263  0.082813633            2 
   70000    1.1683526   -3.4423462    57.678813  0.068665253  0.082680361            1 
   71000    1.1481451   -3.5064929    58.546104  0.068716084  0.082531381            6 
   72000    1.1366495   -3.4998055    59.410596  0.068762263   0.08239021            4 
   73000    1.1565271   -3.4816218    60.285441  0.068818996  0.082253143            1 
   74000    1.1521074   -3.4918411    61.230717  0.068953509  0.082102069            1 
   75000    1.1660629   -3.4671702    62.087325  0.068985916  0.081972999            2 
   76000    1.1561181   -3.5121403    63.215509   0.06931525  0.081843088            3 
   77000    1.1435808   -3.5222287    63.848848  0.069100484  0.081710051            1 
   78000    1.1160434   -3.5036499    64.300305  0.068696906  0.081570876            2 
   79000    1.1312606   -3.5246289    65.772765  0.069380554  0.081426728            5 
   80000    1.1690246   -3.4895324    66.325028   0.06908857  0.081286189            1 
   81000     1.143431   -3.4922757    67.556737  0.069502815  0.081136664            2 
   82000    1.0989684   -3.5389711     67.92484  0.069029308  0.081010723            4 
   83000     1.156527   -3.4889896    69.374444  0.069653055  0.080868964            4 
   84000    1.1406356   -3.5109476    70.366708  0.069808242  0.080768437            1 
   85000    1.1525919   -3.5362612    70.840635  0.069451602  0.080658472            2 
   86000    1.1468713   -3.4885926    72.175504  0.069937503  0.080550589            1 
   87000    1.1417733   -3.5628768    72.821073  0.069751985   0.08044176            2 
   88000    1.1116348   -3.5199977    73.764269  0.069852527  0.080339466            3 
   89000    1.1286599    -3.515142    74.547588  0.069801112  0.080249814            2 
   90000    1.1344103   -3.5327143    75.688979  0.070082387  0.080150094            2 
   91000    1.1134789   -3.4958388     76.65454  0.070196465  0.080044627            2 
   92000    1.1105635   -3.4885473    77.458312  0.070161514  0.079938126            2 
   93000    1.1244885   -3.5200925    77.851271  0.069759203  0.079818119            2 
   94000    1.1308869   -3.5476194    78.939934  0.069982211  0.079714868            1 
   95000    1.1066677   -3.5372153    79.732876  0.069941119  0.079624925            4 
   96000    1.0907508   -3.4935321    80.890881  0.070217778  0.079530765            2 
   97000    1.1072917   -3.5367714    81.479908   0.06999992  0.079421842            2 
   98000    1.1332002   -3.5468782    82.387679  0.070057549  0.079309874            2 
   99000    1.0923588   -3.5395094    83.687028  0.070443626  0.079218217            2 
  100000    1.0976985   -3.5423017    84.566316   0.07047193  0.079142704            2 
  101000    1.1068675   -3.5318411    85.717781  0.070724241  0.079071558            1 
  102000    1.1077623   -3.5418907    86.813928  0.070926411  0.079022827            1 
  103000    1.1231232   -3.5301325    87.540689    0.0708258  0.078979084            2 
  104000    1.1018804   -3.5350352    87.930177  0.070456872  0.078912741            4 
  105000    1.0970216   -3.5064711    89.064229  0.070685896  0.078844104            3 
  106000    1.1203402   -3.5584771    89.292582  0.070198571  0.078765707            2 
  107000    1.0839186   -3.5797093    90.078234  0.070154388  0.078676566            6 
  108000    1.1000755   -3.5708368    90.789455  0.070053592  0.078571632            2 
  109000    1.0870743   -3.5849996    91.460433  0.069923878  0.078448004            1 
  110000    1.0731963    -3.541996    92.638704  0.070180836  0.078328583            1 
  111000    1.1009002   -3.5743514    92.445524  0.069403546  0.078201624            3 
  112000    1.0988272   -3.6039099    93.344481  0.069452739  0.078064579            1 
  113000    1.1123013   -3.6035553    93.850601  0.069211357  0.077925766            3 
  114000    1.0811881   -3.5640999    95.371462  0.069715981   0.07779868            5 
  115000    1.0784173   -3.5918963    96.217924  0.069723133  0.077663642            3 
  116000    1.0824509   -3.5837044     96.36009  0.069224203  0.077540901            3 
  117000    1.1265072   -3.5952834     97.53916  0.069472336  0.077423193            3 
  118000     1.051052   -3.6006432    98.428631  0.069511745  0.077311048            3 
  119000    1.0439089    -3.560549    99.954238  0.069995964  0.077210154            2 
  120000    1.0818254   -3.6161927    100.59859  0.069860135  0.077113401            3 
  121000    1.0931718    -3.578012    101.35883  0.069806353  0.077014942            3 
  122000    1.0670367   -3.6148934     102.1661  0.069785587  0.076917261            1 
  123000    1.0820669   -3.5611263    102.98686  0.069774295  0.076818092            2 
  124000    1.0563347   -3.5951001    103.03276  0.069242446  0.076699777            3 
  125000     1.063118   -3.6077482    103.71607  0.069144049  0.076574388            2 
  126000     1.067822   -3.6006211    104.99899  0.069443775  0.076456008            3 
  127000    1.0808673   -3.6052605    105.82728  0.069440475    0.0763448            1 
  128000    1.0612083   -3.6224706    106.14656  0.069105836  0.076236049            4 
  129000    1.0768019   -3.5807349    107.28574  0.069306032  0.076117222            2 
  130000    1.0572477   -3.6313771    108.02127  0.069244404   0.07600623            1 
  131000    1.0710662   -3.6081906     108.2484  0.068860306  0.075892919            2 
  132000    1.0687763   -3.6152953    109.64965  0.069223263  0.075775771            1 
  133000    1.0503461   -3.6397783    109.81355  0.068805482   0.07566948            1 
  134000    1.0412718   -3.6161613    110.53301  0.068739433  0.075550995            2 
  135000    1.0558238   -3.6220937    110.93526  0.068478558  0.075412951            3 
  136000    1.0617701   -3.6284032    111.33235  0.068218354  0.075275662            2 
  137000    1.0675356   -3.6392326    112.01166   0.06813361  0.075133952            5 
  138000    1.0385757   -3.6235736    112.94818  0.068205422   0.07498855            4 
  139000    1.0421614   -3.6282834    113.35415  0.067958123  0.074851578            5 
  140000    1.0398622   -3.6458419    114.16805  0.067957172   0.07471198            2 
  141000    1.0549432   -3.6473145    115.64605  0.068348729  0.074577177            3 
  142000    1.0349105   -3.6533918    115.85774  0.067991633  0.074450552            3 
  143000    1.0301952   -3.6731104    116.56039  0.067925637  0.074320187            3 
  144000    1.0373326   -3.6456738    117.53971  0.068020666  0.074188782            1 
  145000    1.0340952   -3.6531627    118.37348  0.068030736  0.074059948            3 
  146000    1.0459779   -3.6775026    118.74051  0.067774264  0.073936958            4 
  147000     1.063151   -3.6529151    119.20094  0.067574228  0.073805048            7 
  148000    1.0188648   -3.6527809    119.69978  0.067398523  0.073668465            3 
  149000    1.0186116   -3.6694793    119.75177  0.066975262  0.073527588            2 
  150000     1.032928   -3.6557223    121.09479  0.067274881  0.073386197            3 
  151000    1.0143396   -3.6435832    121.54623  0.067078495  0.073246782            3 
  152000    1.0481741   -3.6763148    122.09553  0.066938341  0.073108954            3 
  153000    1.0204599   -3.6847767    123.70727  0.067378688  0.072984179            2 
  154000    1.0118405   -3.6749521     124.2413  0.067230139  0.072859115            2 
  155000   0.99558712   -3.6724253    124.25234  0.066802332  0.072737123            1 
  156000    1.0086314   -3.6890472     125.0232  0.066785896  0.072613185            1 
  157000    1.0293936   -3.6737354    125.78328  0.066763947    0.0724935            2 
  158000   0.98721336   -3.6773651    127.25235  0.067116217  0.072377726            2 
  159000    1.0077287   -3.7056356     127.5171  0.066832861  0.072262731            4 
  160000     1.021151   -3.6920285    127.96953  0.066650796  0.072141891            3 
  161000    1.0313356   -3.6845824    128.53148  0.066527683  0.072015219            3 
  162000    1.0173317   -3.6818607    129.00487  0.066360529  0.071886385            3 
  163000    1.0140318   -3.6650471    129.85479   0.06638793  0.071752668            2 
  164000    1.0354106   -3.6729661    130.11517  0.066115434  0.071616427            4 
  165000   0.97603196   -3.7031349    130.66176   0.06599079  0.071481883            2 
  166000    1.0007538    -3.699266    131.42438  0.065976094  0.071346175            2 
  167000   0.98028199      -3.6929    132.12292  0.065929602  0.071210492            2 
  168000   0.98654408   -3.6925986    132.69502  0.065820943  0.071072818            3 
  169000   0.98231656   -3.7074888    133.11978  0.065640915  0.070940914            5 
  170000    1.0069033   -3.7013268    133.86231   0.06561878  0.070811319            2 
  171000   0.98615543   -3.7284531    134.93906  0.065759773  0.070682764            2 
  172000   0.99466459   -3.6908844    134.94467  0.065380169  0.070555852            3 
  173000    1.0006609   -3.6851631    135.93922   0.06548132  0.070428886            2 
  174000   0.99610687   -3.6879629    136.68501  0.065462168  0.070300731            5 
  175000    1.0178003   -3.7187173    136.57554  0.065035973  0.070168629            2 
  176000   0.97722679   -3.7322859    137.04705  0.064889701  0.070031334            5 
  177000   0.98814506   -3.6945524    138.31538  0.065120237  0.069904503            5 
  178000   0.97391874   -3.7280004    138.85525  0.065007139  0.069772576            3 
  179000   0.96515107   -3.7018761    139.36625  0.064881865  0.069641159            2 
  180000   0.98643157    -3.715888    140.16101  0.064889358   0.06951217            2 
  181000   0.99839302   -3.7175978    140.23944  0.064566959  0.069379634            3 
  182000   0.96529231   -3.7153361    141.10961  0.064610626  0.069241288            3 
  183000   0.98208626    -3.730012    141.34224  0.064363498  0.069110391            9 
  184000   0.97293055     -3.73741     142.6729   0.06461635  0.068981172            2 
  185000    0.9720739   -3.7192631    142.45591  0.064169329  0.068848411            2 
  186000   0.96079268   -3.7647804    143.42377  0.064257959  0.068722888            2 
  187000   0.98135457   -3.7381043    144.21672    0.0642677  0.068593813            2 
  188000   0.97455506   -3.7584715    143.64512  0.063672481   0.06846388            5 
  189000   0.98083533   -3.7358651    144.36778  0.063654222   0.06833105            2 
  190000    0.9772715   -3.7548059    145.29884  0.063727561  0.068197421            6 
  191000   0.94942861   -3.7403296    145.12352  0.063317417  0.068059396            7 
  192000   0.94937235   -3.7591178    146.71017   0.06367629  0.067921955            2 
  193000   0.96302242   -3.7832108    146.83373  0.063399711   0.06778496            3 
  194000   0.95234567   -3.7548496    147.40137  0.063316739   0.06765153            7 
  195000   0.97255715   -3.7724382    147.65031  0.063098423  0.067514151            3 
  196000   0.96763359   -3.7767532    148.67237  0.063211042  0.067378698            3 
  197000   0.95849599   -3.7748187    149.29486  0.063153495  0.067243031            5 
  198000   0.93635763   -3.7840763    149.64178  0.062980548  0.067112953            4 
  199000   0.93675211   -3.7809269    149.63739  0.062662221  0.066983912            4 
  200000   0.94609492   -3.7881634    150.17377  0.062572404  0.066851379            4 
  201000   0.94191175   -3.7682247    151.41032  0.062773763  0.066719092            2 
  202000   0.95700286   -3.7875109    151.35681   0.06244093  0.066586895            2 
  203000   0.92310199   -3.8141211    152.01303  0.062402722  0.066453462            6 
  204000   0.97123308   -3.7779678     153.0761  0.062531087  0.066324038            3 
  205000   0.92359868   -3.8004001    152.50582  0.061994238  0.066193105            4 
  206000   0.94016044   -3.7721397    153.73264  0.062189581  0.066060541            4 
  207000   0.91823199   -3.8150763    153.84871  0.061935874  0.065926674            5 
  208000   0.93409671    -3.780146    154.13856   0.06175423  0.065791243            5 
  209000   0.94808408   -3.8500327    155.01894  0.061809784  0.065656779            1 
  210000   0.92725026    -3.835667    155.38203  0.061659536   0.06552184            3 
  211000   0.92510025   -3.8100707    155.54605   0.06143209   0.06538718            3 
  212000   0.93383253   -3.7940207    156.74005  0.061611657  0.065253531            5 
  213000   0.92962323   -3.8209596    157.63913  0.061674151  0.065124156            4 
  214000   0.92876263   -3.8165598    157.25877  0.061237839  0.064993252            6 
  215000    0.9245771   -3.8313508    158.32154  0.061364937  0.064863807            3 
  216000   0.92467647   -3.8244937    158.50385  0.061151176  0.064733044            4 
  217000   0.89806095   -3.8333635       159.85  0.061386329  0.064607062            4 
  218000    0.9411034   -3.8181837    159.03219  0.060792121  0.064480799            3 
  219000   0.93326835   -3.8211911    159.43014  0.060665958  0.064351803            4 
  220000   0.92735246   -3.8497135    159.69426   0.06049025  0.064218882            4 
  221000   0.92757345   -3.8440019    161.03638  0.060722617  0.064088725            7 
  222000   0.90718531   -3.8568985    161.55928  0.060645373  0.063961556            3 
  223000   0.90721409   -3.8373745      162.347  0.060667787    0.0638378            3 
  224000    0.9076562   -3.8607512    161.80941  0.060196953  0.063710828            5 
  225000   0.91760637   -3.8481583    162.25985  0.060096242  0.063585552           13 
  226000   0.90663885   -3.8220107     163.0683  0.060128429  0.063457872            3 
  227000   0.91185262   -3.8660232    163.88571  0.060163621  0.063333165            2 
  228000   0.91024757   -3.8474213    164.31082  0.060055125  0.063204509            3 
  229000   0.87243548   -3.8683543    164.58952  0.059894292  0.063081713            6 
  230000   0.88784468   -3.8632238    164.44643  0.059582038  0.062956768            4 
  231000   0.92542346   -3.8421789    164.97061  0.059513208  0.062828257            4 
  232000   0.90221687   -3.8686654    165.60695  0.059485254  0.062703388            3 
  233000   0.89678085   -3.8826671    166.23979  0.059456291  0.062576539            3 
  234000   0.90634221   -3.8875561    165.98484  0.059111411  0.062448657            4 
  235000   0.88250636   -3.8662786    166.29963  0.058971499  0.062324858            2 
  236000     0.890969   -3.8692772    167.22139    0.0590471  0.062199786            2 
  237000    0.9002739   -3.8660405    167.08821  0.058751129  0.062073247            7 
  238000   0.87901724   -3.8917378    167.66629  0.058706683  0.061944625            8 
  239000   0.91449041   -3.9006237    168.05846  0.058597788  0.061814264            4 
  240000   0.89211255   -3.8849189    168.63453  0.058553654   0.06168374            2 
  241000   0.88096875   -3.8874697    168.30803  0.058197799  0.061551717            4 
  242000   0.88037271   -3.8990858    168.82668  0.058135909  0.061419931            4 
  243000   0.86632643   -3.9080521    169.32075    0.0580661   0.06128791            3 
  244000   0.86639768   -3.8864403    169.34701  0.057837092   0.06115479            2 
  245000   0.86716474   -3.8804494    170.50001  0.057993201  0.061023187            4 
  246000   0.88060702   -3.9297011    170.19501  0.057654137  0.060887991            3 
  247000   0.86887602   -3.8736655    170.83468  0.057636533  0.060752755            3 
  248000   0.87332145   -3.9218386    170.13357  0.057168538  0.060618069            7 
  249000   0.89600476   -3.9040214    171.73632  0.057475342  0.060483983            5 
  250000    0.8631574   -3.9108423    171.27107  0.057090355  0.060349029            3 
  251000   0.86544932   -3.9337294    171.71569   0.05701052  0.060213386            2 
  252000   0.87348369   -3.8978067    172.34204  0.056991416  0.060078942            5 
  253000    0.8521619   -3.9184575    172.26404  0.056740462  0.059943957            2 
  254000   0.85068238   -3.9131074    172.83847  0.056705534  0.059809093            6 
  255000   0.86241264   -3.9238523    174.03299  0.056873528  0.059675356            4 
  256000   0.86803381   -3.9229105    173.93373  0.056619052  0.059542488            7 
  257000    0.8548588   -3.9325595    173.39828  0.056225123  0.059407042            5 
  258000   0.85572884   -3.9261118    174.63273  0.056405922  0.059273098            5 
  259000   0.85361876   -3.9154538    175.27856  0.056395931  0.059140296            5 
  260000   0.84933642   -3.9349036    175.09468  0.056120089  0.059007369            4 
  261000   0.85892565   -3.9746427     175.8075  0.056132662   0.05887442            4 
  262000    0.8372778   -3.9510208    175.44624   0.05580351  0.058743052            2 
  263000   0.84627296   -3.9577228    176.94607  0.056066563  0.058612514            4 
  264000   0.85976887   -3.9470493    176.66434  0.055765257  0.058481684            3 
  265000    0.8396555   -3.9507705    177.03854  0.055672498  0.058350426            8 
  266000   0.85250056   -3.9487217    176.79904  0.055388172  0.058217487            5 
  267000   0.83590217   -3.9567712    177.84917  0.055508479  0.058086785            2 
  268000   0.85820762   -3.9310109    177.80976  0.055289104  0.057957678            3 
  269000   0.80715165   -3.9589504    178.16889  0.055194823  0.057828236            4 
  270000   0.83236931   -3.9693454    178.18168  0.054994346   0.05769782            3 
  271000   0.84584168   -3.9484561    178.88553   0.05500785  0.057567025            3 
  272000   0.83496861   -3.9533935    179.13022  0.054880582  0.057435531            7 
  273000    0.8202742   -3.9491792    179.53549  0.054803262  0.057304562            3 
  274000   0.80946887   -3.9841416    180.21398  0.054809606  0.057178135            4 
  275000   0.82947411   -3.9940987    180.28238  0.054631023  0.057052505            2 
  276000   0.82058795   -3.9863342    180.44309  0.054481608  0.056928002            4 
  277000   0.82412397   -3.9908498    181.67127  0.054654413  0.056804004            9 
  278000   0.82432147   -3.9782477    181.93437  0.054536681   0.05668043            4 
  279000   0.82061286   -3.9424777    183.14546  0.054702946  0.056561307            5 
  280000   0.82070645   -4.0096458    182.97182  0.054455899   0.05644255            6 
  281000   0.81802846   -4.0080015    183.73672  0.054488945  0.056325417            4 
  282000   0.81096641   -4.0029615     183.5943  0.054253634  0.056208371            3 
  283000   0.81078647   -4.0065704    184.33555  0.054280196  0.056089731            4 
  284000   0.83044064   -4.0020423    184.91002  0.054257634  0.055973746            6 
  285000   0.80138446   -4.0011144    185.44272  0.054223017  0.055859483            4 
  286000   0.81117117   -4.0155309    185.45953  0.054038324  0.055744299            3 
  287000   0.81480874   -4.0353774    185.24347  0.053787301  0.055630886            5 
  288000   0.81701416    -4.011907     186.1646  0.053867072  0.055517274            5 
  289000    0.7969521   -4.0459874    185.66329  0.053536126  0.055403981            4 
  290000   0.81172726   -4.0021206    186.30658  0.053536373  0.055290834            3 
  291000   0.78897137   -4.0272453    187.42585  0.053672923  0.055178691            6 
  292000   0.78832375   -4.0246096    186.77839  0.053304335  0.055066555            4 
  293000   0.78223713     -4.01316     187.8971  0.053440585  0.054952501            6 
  294000   0.81344578   -4.0364364    187.52416  0.053153106  0.054837348            8 
  295000   0.79754641   -4.0342718    187.53264  0.052975321  0.054720048            5 
  296000   0.80108543   -4.0319677    187.60822  0.052817629   0.05460221            2 
  297000   0.78936248   -4.0232933    188.19861  0.052805447  0.054486252            3 
  298000   0.79920921   -4.0668552    188.37026  0.052676246  0.054368661            5 
  299000   0.79418662   -4.0306637    188.30066  0.052480674  0.054252013            6 
  300000    0.7863992   -4.0422644    188.87593  0.052465536  0.054134705            4 
  301000   0.81016157   -4.0412944    188.59987  0.052214804  0.054017505            3 
  302000   0.78238896   -4.0259242    189.89928  0.052400464  0.053899978            4 
  303000   0.80971284   -4.0544285    189.20459  0.052036465    0.0537844            2 
  304000    0.7785326   -4.0499744    189.49695  0.051945435  0.053667243            4 
  305000   0.79161287   -4.0593862    190.47299  0.052041801  0.053551265            7 
  306000    0.7824778    -4.081677    190.71804  0.051938463  0.053435509            6 
  307000   0.78439533   -4.0722422    190.22453  0.051635322  0.053317936            4 
  308000   0.77646373   -4.0687418    190.48249   0.05153747  0.053199453            8 
  309000   0.76719991    -4.062911     191.3061  0.051592799  0.053084036            5 
  310000   0.79131818   -4.0707719    191.32422  0.051431241  0.052968565            3 
  311000   0.76804452   -4.0751036    191.67053  0.051358663  0.052853292            3 
  312000    0.7673933   -4.0887096    191.73035  0.051210029  0.052738194            2 
  313000   0.76079617   -4.0677772    192.17568  0.051164983  0.052623582            6 
  314000   0.77126294   -4.0783245    192.28954  0.051032255  0.052508758            4 
  315000   0.76605249   -4.1031205    192.00266  0.050794354  0.052392841            7 
  316000   0.77313594   -4.0855949    192.81572  0.050848028  0.052276113            7 
  317000   0.76662901   -4.0796691    192.73779  0.050667136  0.052161282            4 
  318000   0.76653137   -4.1166038    192.71804  0.050502632   0.05204663            4 
  319000   0.75396327   -4.0819959    193.38859  0.050519486  0.051932118            4 
  320000   0.76014233   -4.1021264    193.62532   0.05042326  0.051818553            9 
  321000   0.76805405   -4.0948338    194.11053  0.050392142  0.051706153           14 
  322000   0.75541105   -4.0807868    194.53897  0.050346525  0.051593667            4 
  323000   0.75881864   -4.1031214    194.14932  0.050090123  0.051480191           12 
  324000   0.74246834   -4.0988206     194.9441  0.050139944  0.051366736            5 
  325000   0.74514317   -4.1112802    194.43956  0.049856297  0.051253501            2 
  326000   0.74793649   -4.1297984    194.88493  0.049817211  0.051138613            9 
  327000   0.74605975   -4.1174238    194.97406  0.049687578  0.051024681            4 
  328000   0.74553968   -4.1218838    195.41805  0.049648896  0.050910363            4 
  329000   0.76069272   -4.1335736    195.42837  0.049500601  0.050797432            6 
  330000   0.75367762   -4.1217907    196.07894  0.049514883  0.050684429            6 
  331000   0.73365701   -4.1229146     196.5661   0.04948794  0.050571943            8 
  332000   0.74313992    -4.143652     196.2381  0.049256552  0.050459194            2 
  333000   0.72965728   -4.1271918    196.58649  0.049195818  0.050346667            4 
  334000   0.73330153   -4.1308142    196.79893  0.049101529  0.050233311            5 
  335000   0.75482393   -4.1636679    196.69463  0.048929012  0.050120738            7 
  336000   0.73113427   -4.1372153    197.21162  0.048911612  0.050009577            6 
  337000   0.72451358   -4.1237365    197.65467   0.04887603   0.04989855            4 
  338000   0.70643256   -4.1568702    197.67369  0.048736117   0.04978761            8 
  339000   0.71353284    -4.152763    198.11287  0.048700312  0.049677049            8 
  340000   0.72864196   -4.1622111    197.73763  0.048465106  0.049566624            6 
  341000   0.72012274    -4.156279    197.44061  0.048250393  0.049454124           10 
  342000   0.71312236   -4.1641573    197.80281  0.048197566  0.049341233            5 
  343000   0.71425309   -4.1721216    197.37679  0.047953544  0.049228081            4 
  344000   0.71935205   -4.1716968    198.33844  0.048047103  0.049115105            9 
  345000   0.72209962   -4.1690607    198.31049  0.047901085  0.049001853            5 
  346000   0.71298871   -4.1461126    198.79643  0.047879681  0.048889722            9 
  347000     0.716773   -4.1621076    199.30656  0.047864208  0.048778071            5 
  348000   0.70124937   -4.1465281    199.18767  0.047698196  0.048667139            6 
  349000   0.69906704   -4.1932092    199.63808  0.047669073   0.04855661            4 
  350000   0.71399049   -4.1815014    198.92568  0.047363256  0.048446469            3 
  351000   0.71467381    -4.208297    199.65035  0.047400368  0.048337206           16 
  352000   0.72908202   -4.1641616    200.01284  0.047351524  0.048226703            6 
  353000   0.69542283   -4.2047615    199.68401  0.047139757  0.048117281            6 
  354000   0.71768497   -4.2120233    199.97129  0.047074221  0.048007586           10 
  355000   0.70051894   -4.1970174    200.44068  0.047051803  0.047896575            9 
  356000   0.69421829   -4.2102983    200.19508  0.046862145  0.047787176            5 
  357000   0.69322943   -4.1921904    200.40004  0.046778722   0.04767812            5 
  358000   0.70360022   -4.2001797     201.7173  0.046954678  0.047569071           13 
  359000   0.70223428   -4.2211195    201.10528   0.04668182  0.047460901            4 
  360000   0.68912933    -4.189875    201.30832  0.046599149  0.047351911            4 
  361000   0.69258816   -4.2200898    201.55198   0.04652631  0.047244233            7 
  362000   0.68151912   -4.2255557    202.09337  0.046522414   0.04713659            5 
  363000   0.68767618   -4.2362837    201.44763  0.046246012  0.047028963            8 
  364000   0.69341368   -4.2185316    201.99908  0.046245212  0.046921282            5 
  365000   0.70403884   -4.2432049    201.89786  0.046095401  0.046814829           12 
  366000   0.69784647   -4.2324173    202.70194  0.046152537  0.046709494           10 
  367000   0.68550137   -4.2555983      202.536  0.045989101  0.046603825            5 
  368000    0.6831725   -4.2361289    203.62678  0.046111137  0.046499067           13 
  369000   0.67825696   -4.2357385    202.85093  0.045810959  0.046395411            7 
  370000   0.67367507   -4.2448051    203.68317  0.045874588  0.046292535            9 
  371000   0.67711479   -4.2685372    203.88215  0.045795632  0.046189331           10 
  372000   0.66637086   -4.2566253    203.85383  0.045666181  0.046085764            5 
  373000   0.65646219   -4.2845489    204.09229  0.045597027  0.045983064           13 
  374000   0.65650622   -4.2477944    203.97231  0.045448375  0.045879681            3 
  375000   0.67150637   -4.2710802    204.90586  0.045534634  0.045775888            5 
  376000   0.64968607   -4.2733133     204.1881  0.045254454  0.045672536           17 
  377000   0.65860969   -4.2835947    203.88217  0.045066792  0.045568396            5 
  378000   0.68058963   -4.2767018    204.14899  0.045006391  0.045463641           10 
  379000   0.65260144   -4.2882245    204.03555  0.044862699  0.045358726            6 
  380000   0.65712244   -4.2762052    204.15559  0.044770963  0.045254151           10 
  381000    0.6708568   -4.2924936    203.97155  0.044613199  0.045149533            5 
  382000   0.67534178   -4.2798532    204.42322  0.044594943  0.045045108            8 
  383000   0.64462349   -4.2766584    204.48358  0.044491641  0.044940989            4 
  384000   0.66402938   -4.2663606    204.62266  0.044405959  0.044836206            9 
  385000   0.64176287   -4.2794106     204.0661  0.044170152   0.04473134            6 
  386000   0.64173737   -4.2835144     203.9048  0.044020899  0.044626379            9 
  387000   0.65051453   -4.3075066    204.25569  0.043982706  0.044521268            7 
  388000   0.64803517   -4.3097634    204.95327  0.044019173  0.044416959            6 
  389000   0.65638615   -4.2969039     205.2093  0.043960862  0.044313041            6 
  390000   0.65631488    -4.299274    205.38659  0.043886024  0.044209832            6 
  391000   0.63570071   -4.3219632    204.95367  0.043681515  0.044106127           18 
  392000   0.63182641   -4.3202086    205.93091  0.043777829  0.044002356            9 
  393000   0.63319333   -4.3127265    205.76409  0.043631063  0.043899075            6 
  394000   0.63631466   -4.3461051    205.05299  0.043369922  0.043796427            9 
  395000   0.64071146   -4.3169638    205.46278  0.043346578  0.043693124           24 
  396000   0.64419196   -4.3236042    205.21957  0.043185937  0.043589317           13 
  397000   0.63746364   -4.3522385      205.288   0.04309152  0.043485369            7 
  398000   0.64090174   -4.3268836    205.61089  0.043050856  0.043381886            7 
  399000   0.61959267   -4.3446268    205.60017   0.04294072  0.043277744            7 
  400000   0.63095392   -4.3361754    205.43613  0.042799193  0.043174147           11 
  401000     0.612463   -4.3654104    205.50993  0.042707798  0.043070179            7 
  402000   0.60404092    -4.324212    206.13736  0.042731626  0.042966627           11 
  403000   0.62432677   -4.3129237    206.29937  0.042659093  0.042863689            8 
  404000   0.63574255   -4.3619859    205.85917  0.042462699   0.04276104           14 
  405000   0.62525932   -4.3750328    206.48253  0.042486118  0.042658428            3 
  406000   0.61020121   -4.3219529    206.21367  0.042326287  0.042556055            8 
  407000   0.61663556   -4.3537674    206.28381  0.042236652  0.042453647            9 
  408000   0.62128346   -4.3469665    206.08654  0.042092839  0.042351168            8 
  409000   0.63059687   -4.3662762    205.73158  0.041917599  0.042248527            8 
  410000   0.60415133   -4.3963167     206.1379  0.041897948  0.042145612           10 
  411000   0.62699102   -4.3848359    206.22331  0.041813323  0.042043095           11 
  412000   0.61444898   -4.3746449    206.90102  0.041848912   0.04194167            9 
  413000    0.6055263   -4.3969453     206.2088  0.041607909  0.041839792           16 
  414000    0.6117754   -4.3981273     206.8604  0.041638566  0.041738164           14 
  415000   0.60668486   -4.3964977    206.97219   0.04156068  0.041637027            5 
  416000   0.60151366   -4.3893331    206.32698  0.041331526  0.041535959           10 
  417000   0.61138335   -4.3737996    206.66606  0.041300172  0.041434314            9 
  418000   0.58230136   -4.3787414    206.79791  0.041227653  0.041332997            7 
  419000   0.59626384   -4.3894448    207.01874  0.041173177  0.041231991            8 
  420000   0.59985503   -4.4154898    206.19288  0.040911285  0.041131317           14 
  421000   0.59689462   -4.4048802    206.59594  0.040893891  0.041030018            7 
  422000   0.60172948    -4.416171    206.36928  0.040752226  0.040928182           15 
  423000   0.59891081   -4.4041877    206.38318  0.040658625  0.040826922            7 
  424000   0.59333454   -4.4088514    206.57232  0.040599906  0.040725936            8 
  425000   0.58949527   -4.4288128    206.94703  0.040577849  0.040625265           11 
  426000   0.58271969   -4.4202601    207.34757  0.040560948  0.040525142           10 
  427000    0.5851324   -4.4369323    207.08175  0.040414081  0.040425183            5 
  428000   0.58282862   -4.4178059    206.40063  0.040187039  0.040324942           13 
  429000   0.58297213   -4.4117494    207.22645  0.040253777  0.040225173           12 
  430000   0.58297068   -4.4079366    207.09418  0.040134531  0.040125185           15 
  431000   0.57962331   -4.4277898    207.33285  0.040087557  0.040025436           13 
  432000   0.57603938   -4.4430997    207.03261  0.039936846  0.039925096           14 
  433000   0.57727482   -4.4391564    206.90101  0.039819286  0.039824615            7 
  434000   0.58068611   -4.4466182    207.52521  0.039847391  0.039724219           22 
  435000   0.55778712   -4.4402457    207.21511  0.039696381  0.039624249            6 
  436000   0.58754699   -4.4438951    207.37529   0.03963595  0.039524449           13 
  437000   0.56836403   -4.4438233    206.92664  0.039459696  0.039425064           16 
  438000   0.57154751   -4.4574335    207.20111  0.039421825  0.039325727            8 
  439000   0.56059271   -4.4888708    206.97757  0.039289591  0.039226223           10 
  440000   0.56416473   -4.4519032    207.60675   0.03931946  0.039127332           24 
  441000   0.57394602   -4.4379142    206.95614  0.039107358  0.039028159           18 
  442000   0.55103649   -4.4673985    206.45038  0.038923525  0.038929242            9 
  443000   0.58158286   -4.4740247     206.6267   0.03886883  0.038829863           13 
  444000   0.56796618   -4.4726888    206.49681  0.038756909  0.038730619            9 
  445000   0.56563766   -4.4782582    206.65633  0.038699687  0.038631261           16 
  446000   0.55524967   -4.4711771    207.29859  0.038732921  0.038532381            6 
  447000   0.56188874   -4.4971894    206.56857  0.038510173  0.038433356           17 
  448000    0.5496461   -4.4940342    206.67666  0.038444319  0.038334373           15 
  449000   0.54507351   -4.5010085    206.30092   0.03828896  0.038235285            8 
  450000   0.56542133    -4.525003    207.02056  0.038337141  0.038136227           25 
  451000    0.5640778   -4.4897919    206.36432   0.03813088  0.038037607            8 
  452000   0.54214577   -4.5191718    206.89236  0.038143871  0.037938985           14 
  453000   0.54008702    -4.501261    207.07812  0.038093841  0.037840365           23 
  454000    0.5355428   -4.5196685    206.54309  0.037911727  0.037741979           30 
  455000   0.52084658   -4.5254913    206.54508   0.03782877  0.037644029           27 
  456000   0.53494182   -4.5135266    206.80933  0.037794103  0.037546286           59 
  457000   0.53889464   -4.5361307    206.74734  0.037700098   0.03744885           46 
  458000   0.53371004   -4.5343361    206.86694  0.037639546  0.037351822           13 
  459000   0.52781207   -4.5317223    206.93708  0.037570276   0.03725499            6 
  460000   0.53143675   -4.5380478     206.5768  0.037423334  0.037158129            7 
  461000   0.53772248   -4.5487378    206.31787  0.037295348  0.037061231           10 
  462000    0.5199252   -4.5500729    207.33164  0.037397482  0.036964434            9 
  463000   0.52380812   -4.5479283    206.56882  0.037179413  0.036867855           11 
  464000   0.53687445   -4.5526185    206.34427  0.037058957  0.036771055           41 
  465000   0.52219408   -4.5370988    206.12768  0.036940445  0.036674678           33 
  466000   0.53955378   -4.5435059    206.34699  0.036900391  0.036578613           34 
  467000   0.52131509   -4.5435052    206.71325  0.036886733  0.036482623           18 
  468000   0.51882082   -4.5439482    206.35202  0.036743594  0.036386956            8 
  469000    0.5206027   -4.5711878    206.67051   0.03672184   0.03629148           14 
  470000   0.51776133   -4.5761851    206.22648  0.036564978   0.03619621           23 
  471000   0.51088998   -4.5648309    206.59157  0.036551941  0.036100938           23 
  472000   0.50674922   -4.5635614    206.66504  0.036487471  0.036006144           22 
  473000   0.51387915   -4.5780451    206.44556  0.036371663  0.035912192           10 
  474000   0.50732487   -4.5720904    207.37875  0.036458993  0.035818262           11 
  475000   0.50902189   -4.5696279    207.05758  0.036325891  0.035724551           13 
  476000   0.50631478   -4.5913264    206.47559  0.036147687  0.035630686           12 
  477000   0.49112365   -4.5945725    206.18929  0.036021888  0.035536955           19 
  478000   0.50366439   -4.5938377    206.61467  0.036020688   0.03544313           19 
  479000   0.50529073   -4.5942147    206.26352  0.035884397  0.035349714           10 
  480000    0.5084241   -4.5968955     206.2377  0.035805156  0.035256422           20 
  481000   0.51058938    -4.600438    206.77218  0.035823316   0.03516312           24 
  482000   0.48898988    -4.597753    206.57301   0.03571456  0.035070367           30 
  483000   0.48624345   -4.5973058    206.80805  0.035681168  0.034978015           15 
  484000   0.49285267   -4.5972177     206.7003  0.035588895  0.034885992           14 
  485000   0.49123905   -4.6192566    206.69001  0.035513748  0.034793834           11 
  486000    0.4919988   -4.6280174    206.62344   0.03542926  0.034702123           18 
  487000   0.48726052   -4.6250618    206.44251  0.035325549  0.034610553           15 
  488000   0.49628742   -4.6300192     205.8752  0.035156284  0.034518632           11 
  489000   0.49069448   -4.6289156    206.27816   0.03515306   0.03442705           28 
  490000   0.48718016   -4.6231051    206.19448  0.035067088  0.034335888           33 
  491000   0.48936494   -4.6366753    206.11061  0.034981435  0.034244633           25 
  492000   0.48874752   -4.6362444    206.13777  0.034914934  0.034153744           12 
  493000   0.48147576   -4.6393253    206.73638  0.034945297  0.034063062           13 
  494000   0.47026714   -4.6504933    206.55001  0.034843119  0.033972741           25 
  495000   0.46428673   -4.6418266    206.88337  0.034828849  0.033882684           36 
  496000   0.47895596   -4.6548335    206.53415  0.034699958  0.033793116           39 
  497000    0.4663637   -4.6576777    206.71943  0.034661206  0.033703314           33 
  498000   0.46720959    -4.661726    205.85393  0.034446775  0.033613718           16 
  499000   0.47542721   -4.6580302    206.26605  0.034446568   0.03352422           17 
  500000   0.47387724   -4.6550597    206.29246  0.034382077  0.033435291           24 
  501000   0.47765618   -4.6661765     206.0903  0.034279824  0.033346316           41 
  502000   0.44787696   -4.6788063    206.43803  0.034269262  0.033257389           53 
  503000   0.46231462   -4.6750989    206.17613  0.034157742  0.033168582           50 
  504000   0.45742954   -4.6723743    205.62806  0.033999348  0.033080214           64 
  505000    0.4683155   -4.6813228    205.86287   0.03397077  0.032991981           71 
  506000   0.45790254   -4.6971742    206.15428  0.033951627  0.032903852           54 
  507000   0.45741335   -4.6796015    205.97446  0.033855105  0.032816135           52 
  508000   0.46553203   -4.6805548    205.85527   0.03376891  0.032728682           24 
  509000   0.45495434   -4.6921525    206.11502  0.033745091  0.032641355           27 
  510000   0.45708266   -4.6917775    205.80112  0.033627634  0.032553993           13 
  511000   0.45806323   -4.7015486    206.04811  0.033602105  0.032466978           12 
  512000   0.45168591    -4.691263    206.05251  0.033537192  0.032380134           79 
Loop time of 1239.96 on 48 procs for 500000 steps with 4000 atoms

Performance: 69679.404 tau/day, 403.237 timesteps/s
99.4% CPU use with 48 MPI tasks x no OpenMP threads

MPI task timing breakdown:
Section |  min time  |  avg time  |  max time  |%varavg| %total
---------------------------------------------------------------
Pair    | 81.309     | 87.549     | 93.916     |  30.6 |  7.06
Neigh   | 8.2949     | 8.6884     | 9.0237     |   5.8 |  0.70
Comm    | 78.321     | 85.347     | 93.087     |  33.4 |  6.88
Output  | 0.88102    | 0.88221    | 0.9225     |   0.6 |  0.07
Modify  | 1043.5     | 1046       | 1049.4     |   3.9 | 84.36
Other   |            | 11.47      |            |       |  0.92

Nlocal:        83.3333 ave          93 max          77 min
Histogram: 4 5 6 10 7 8 5 1 1 1
Nghost:        2261.25 ave        2288 max        2233 min
Histogram: 4 3 3 3 11 6 6 3 4 5
Neighs:        15176.1 ave       17991 max       13715 min
Histogram: 4 6 12 12 5 4 3 1 0 1
FullNghs:      30351.7 ave       34178 max       28138 min
Histogram: 5 6 8 8 9 6 3 2 0 1

Total # of neighbors = 1456882
Ave neighs/atom = 364.22050
Neighbor list builds = 27040
Dangerous builds = 0

#clear
#
#next RN
#
#jump SELF
Total wall time: 0:20:43
