
units lj                  # Use reduced LJ style units
atom_style atomic         # Uncharged point particles
atom_modify map hash      # Needed for indexing of clusters etc
                          # Used to be able to find where atoms are in relation to each other.

lattice fcc 1.0 spacing 1 1 1
Lattice spacing in x,y,z = 1.5874011 1.5874011 1.5874011
region box block 0 10 0 10 0 10 units lattice
create_box 2 box
Created orthogonal box = (0.0000000 0.0000000 0.0000000) to (15.874011 15.874011 15.874011)
  3 by 4 by 4 MPI processor grid
create_atoms 1 box
Created 4000 atoms
  using lattice units in orthogonal box = (0.0000000 0.0000000 0.0000000) to (15.874011 15.874011 15.874011)
  create_atoms CPU = 0.005 seconds
set type 1 type/fraction 2 0.06 78393
Setting atom values ...
  252 settings made for type/fraction
mass 1 1.0
mass 2 1.0
pair_style lj/cut  3.5
pair_modify tail  yes
pair_coeff 1  1  1.0  1.0   # Intearaction between 1 and 1 set with epsilon = 1 and sigma = 1
pair_coeff 1  2  1.5  0.8
pair_coeff 2  2  0.5  0.88

write_data data.0
System init for write_data ...
Neighbor list info ...
  update every 1 steps, delay 10 steps, check yes
  max neighbors/atom: 2000, page size: 100000
  master list distance cutoff = 3.8
  ghost atom cutoff = 3.8
  binsize = 1.9, bins = 9 9 9
  1 neighbor lists, perpetual/occasional/extra = 1 0 0
  (1) pair lj/cut, perpetual
      attributes: half, newton on
      pair build: half/bin/atomonly/newton
      stencil: half/bin/3d
      bin: standard
WARNING: Not all mixed pair coeffs generated from mixing. Use write_data with 'pair ij' option to store all pair coeffs. (../write_data.cpp:312)


#############################
#   M E L T   S Y S T E M   #
#############################

velocity all create 2.4 5300450 mom yes dist gaussian # Assign velocities
                                                    # Temperature 2.4, random number seed, zero linear momentum
                                                                                # Gaussian distribution

timestep 0.002   # simulation timestep
thermo 1000       # output thermodynamic data every 1000 steps bf 100

# Define a fix  in this case with index 1 applied to all
# particles in the simulation. This fix is for simulations
# in the anisotropic NPT ensemble. Note that we use the MTK
# correction.
fix 1 all npt temp 2.4 2.4 0.1 iso 5.68 5.68 0.5 mtk yes tchain 5 pchain 5 # Use NPT ensemble
                                                                         # Set temperature and pressure and damping
                                                                         # Numbers of thermostats in chain and in barostat
run 10000          # run for 10000 steps
Per MPI rank memory allocation (min/avg/max) = 3.642 | 3.644 | 3.648 Mbytes
Step Temp E_pair E_mol TotEng Press Volume 
       0          2.4   -7.9704536            0   -4.3713536   -2.7323792         4000 
    1000    2.3849385   -4.5185942            0  -0.94208081    5.7151524    4983.5403 
    2000    2.4167781   -4.6287415            0   -1.0044807    5.6024298     4932.023 
    3000    2.4271829   -4.5697657            0  -0.92990162    5.5731585    4981.3567 
    4000    2.4059641   -4.5350321            0  -0.92698816    5.4959324    5011.1915 
    5000    2.3636894   -4.4822175            0  -0.93756983    5.6979057    5005.1868 
    6000    2.3800014   -4.5105589            0  -0.94144928    6.1199425    4928.0834 
    7000    2.3586326   -4.5116213            0  -0.97455691    5.7756018    4973.8993 
    8000    2.3920479   -4.5373101            0  -0.95013534    5.3260945     5023.322 
    9000    2.3884312   -4.5666771            0  -0.98492596    5.5743321    4978.1819 
   10000    2.4074296   -4.4894404            0  -0.87919876    5.7166786    5001.4396 
Loop time of 2.29484 on 48 procs for 10000 steps with 4000 atoms

Performance: 752994.039 tau/day, 4357.604 timesteps/s
99.4% CPU use with 48 MPI tasks x no OpenMP threads

MPI task timing breakdown:
Section |  min time  |  avg time  |  max time  |%varavg| %total
---------------------------------------------------------------
Pair    | 0.88106    | 0.9353     | 0.98724    |   2.7 | 40.76
Neigh   | 0.17713    | 0.18436    | 0.19687    |   0.8 |  8.03
Comm    | 0.67721    | 0.76094    | 0.84611    |   4.7 | 33.16
Output  | 0.00026384 | 0.00027391 | 0.00052245 |   0.0 |  0.01
Modify  | 0.30203    | 0.39929    | 0.45693    |   5.8 | 17.40
Other   |            | 0.01466    |            |       |  0.64

Nlocal:        83.3333 ave          93 max          73 min
Histogram: 1 1 3 6 7 11 9 7 2 1
Nghost:        1423.29 ave        1446 max        1395 min
Histogram: 3 1 2 6 8 5 7 9 4 3
Neighs:        7619.96 ave        8606 max        6597 min
Histogram: 1 5 4 6 10 4 5 6 5 2

Total # of neighbors = 365758
Ave neighs/atom = 91.439500
Neighbor list builds = 895
Dangerous builds = 156

# Equilibrate just above the melting temperature to avoid step fn in T

fix 1 all npt temp 1.25 1.25 0.1 iso 5.68 5.68 0.5 mtk yes tchain 5 pchain 5
run 2000
Per MPI rank memory allocation (min/avg/max) = 3.643 | 3.646 | 3.650 Mbytes
Step Temp E_pair E_mol TotEng Press Volume 
   10000    2.4074296   -4.4894404            0  -0.87919876    5.7166786    5001.4396 
   11000    1.2321942   -6.0543493            0   -4.2065201     5.546981    4139.4605 
   12000    1.2057087   -6.0943317            0   -4.2862208    5.3227892    4135.5621 
Loop time of 0.479346 on 48 procs for 2000 steps with 4000 atoms

Performance: 720981.882 tau/day, 4172.349 timesteps/s
99.7% CPU use with 48 MPI tasks x no OpenMP threads

MPI task timing breakdown:
Section |  min time  |  avg time  |  max time  |%varavg| %total
---------------------------------------------------------------
Pair    | 0.20098    | 0.21665    | 0.27051    |   2.3 | 45.20
Neigh   | 0.030491   | 0.032301   | 0.039165   |   0.7 |  6.74
Comm    | 0.12872    | 0.16891    | 0.19312    |   4.0 | 35.24
Output  | 4.9572e-05 | 5.1131e-05 | 6.4848e-05 |   0.0 |  0.01
Modify  | 0.036533   | 0.057047   | 0.077166   |   6.3 | 11.90
Other   |            | 0.004386   |            |       |  0.91

Nlocal:        83.3333 ave          91 max          76 min
Histogram: 4 0 6 3 12 5 10 2 4 2
Nghost:        1607.35 ave        1636 max        1573 min
Histogram: 4 1 1 5 10 7 9 4 4 3
Neighs:        9228.42 ave       10147 max        8096 min
Histogram: 3 2 3 4 5 7 12 4 7 1

Total # of neighbors = 442964
Ave neighs/atom = 110.74100
Neighbor list builds = 142
Dangerous builds = 10

#############################
# L I N E A R  Q U E N C H  #
#############################

# Define solid atoms. This closely follows ten Wolde  Ruiz-Montero and Frenkel  Faraday Discuss  1996  104  93-110
# Compute components of the per-atom q6 vector
compute q6 all orientorder/atom degrees 1 6 components 6 nnn NULL cutoff 1.3 # compute the Q6 parameter.
                                                                             # Use all neighbours within 1.3 unit cell.

# get number of connections
compute coord_number all coord/atom orientorder q6 0.5

# An atom is solid if it has 8 or more connections (of a possible 14)
variable is_solid atom c_coord_number>=8
group solid dynamic all var is_solid    # Must be dynamic to update
dynamic group solid defined

# do clustering
compute cluster solid cluster/atom 1.3 # Create a cluster where all atoms within are solid and max 1.3 units from another member

# define chunks one chunk per cluster
compute clus_chunks solid chunk/atom c_cluster nchunk every compress yes  # Says which atoms are in which chunk

# count the size of each chunk
compute size_chunks solid property/chunk clus_chunks count


# Find the maximum entry in the vector of chunk sizes
variable max_n equal max(c_size_chunks)


# Thermo style which includes this variable
# thermo_style custom step temp pe vol v_max_n

thermo ${N}  # Print the thermo information every 100 steps
thermo 1000  

# Reset the npt fix at a lower temperature (below freezing)
fix 1  all npt temp  ${temp} ${temp}  0.1  iso  5.68  5.68  0.5  mtk yes tchain  5  pchain  5
fix 1  all npt temp  0.45 ${temp}  0.1  iso  5.68  5.68  0.5  mtk yes tchain  5  pchain  5
fix 1  all npt temp  0.45 0.45  0.1  iso  5.68  5.68  0.5  mtk yes tchain  5  pchain  5

dump dmp2 all dcd ${N} traj.dcd
dump dmp2 all dcd 1000 traj.dcd


compute msd all msd com yes
variable twopoint equal c_msd[4]/6/(step*dt+1.0e-6)
fix 9 all vector 10 c_msd[4]
variable fit equal slope(f_9)/6/(10*dt)
thermo_style custom step temp pe c_msd[4] v_twopoint v_fit v_max_n

fix 1 all npt temp 1.25 ${temp} 0.1 iso 5.68 5.68 0.5 mtk yes tchain 5 pchain 5
fix 1 all npt temp 1.25 0.45 0.1 iso 5.68 5.68 0.5 mtk yes tchain 5 pchain 5
run 5000000 # 5000000  # Run for this many steps
Neighbor list info ...
  update every 1 steps, delay 10 steps, check yes
  max neighbors/atom: 2000, page size: 100000
  master list distance cutoff = 3.8
  ghost atom cutoff = 3.8
  binsize = 1.9, bins = 9 9 9
  4 neighbor lists, perpetual/occasional/extra = 1 3 0
  (1) pair lj/cut, perpetual
      attributes: half, newton on
      pair build: half/bin/atomonly/newton
      stencil: half/bin/3d
      bin: standard
  (2) compute orientorder/atom, occasional
      attributes: full, newton on
      pair build: full/bin/atomonly
      stencil: full/bin/3d
      bin: standard
  (3) compute coord/atom, occasional
      attributes: full, newton on
      pair build: full/bin/atomonly
      stencil: full/bin/3d
      bin: standard
  (4) compute cluster/atom, occasional
      attributes: full, newton on
      pair build: full/bin/atomonly
      stencil: full/bin/3d
      bin: standard
Per MPI rank memory allocation (min/avg/max) = 9.740 | 9.746 | 9.752 Mbytes
Step Temp PotEng c_msd[4] v_twopoint v_fit v_max_n 
   12000    1.2057087   -6.0943317 2.9316043e-30 2.0358363e-32 8.3333333e+20            2 
   13000     1.270961   -6.0472297   0.52330865 0.0033545425  0.043496617            3 
   14000    1.2819213   -6.0248337    1.0959971 0.0065237923  0.044067238            2 
   15000    1.2275564   -6.0713208    1.6776605  0.009320336  0.046543335            2 
   16000    1.2637599   -6.0297863    2.2251794  0.011589476  0.047303122            3 
   17000    1.2434925   -6.0510904    2.7849964  0.013651943    0.0467815            4 
   18000     1.245267   -6.0585782    3.3587713  0.015549867  0.046703338            4 
   19000    1.2326712   -6.0920569    3.8875894   0.01705083  0.046727559            4 
   20000     1.258974   -6.0470707    4.4028084  0.018345035  0.046346804            6 
   21000    1.2568836   -6.0782461    4.9077268  0.019475106  0.046053287            2 
   22000    1.2740367   -6.0789347    5.3971214  0.020443641  0.045590201            2 
   23000    1.2886356   -6.0532882    5.9882628  0.021696604  0.045322705            2 
   24000    1.2487438   -6.0393287    6.5223192  0.022646941  0.045125218            4 
   25000     1.243145   -6.0391935    7.1816288  0.023938762  0.045205209            3 
   26000    1.2603409   -6.0748969    7.7446345  0.024822546  0.045423721            6 
   27000    1.2298524   -6.0259204    8.2332056  0.025411128  0.045616812            2 
   28000    1.2492026    -6.068451    8.8119431  0.026226021   0.04565909            2 
   29000    1.2365902   -6.0312312    9.3085221  0.026748626  0.045652316            2 
   30000    1.2713783   -6.0919504    9.7080442  0.026966789  0.045517092            3 
   31000    1.2282704    -6.092184    10.255587  0.027568781  0.045357895            3 
   32000     1.243068   -6.0655493    10.844903  0.028241935  0.045251501            6 
   33000    1.2543974   -6.0419605    11.351544  0.028665514  0.045194709            4 
   34000    1.2472666   -6.0839825    11.807446  0.028939818  0.045082104            2 
   35000     1.261015    -6.077518    12.365451  0.029441551  0.044958608            3 
   36000    1.2042418   -6.0547827    13.140975  0.030418923  0.044942194            4 
   37000    1.2300156   -6.0599992    13.607766  0.030648121  0.044980235            1 
   38000    1.2488282     -6.04608    14.132772  0.030992921  0.045015634            3 
   39000    1.2519615   -6.0718449    14.731877   0.03147837  0.045056529            5 
   40000    1.2488192   -6.0664152    15.393987  0.032070806  0.045117293            2 
   41000    1.2393579   -6.0521193    16.108107  0.032740055  0.045268334            3 
   42000      1.24565   -6.0323568    16.823709  0.033380374  0.045477647            5 
   43000    1.2477776   -6.0620806    17.324292  0.033574209  0.045680321            3 
   44000    1.2745931   -6.0892534    17.971362   0.03403667  0.045844299            3 
   45000    1.2307103   -6.1195966    18.569121  0.034387261  0.046030477            1 
   46000    1.2265369   -6.0666376    19.146952  0.034686507  0.046190552            2 
   47000    1.2597692    -6.080648    19.747679  0.035013614   0.04635766            1 
   48000    1.2369384   -6.0729878    20.038773  0.034789536  0.046455407            3 
   49000    1.2247042   -6.0617981     20.54903  0.034947329  0.046476287            2 
   50000    1.2364634    -6.062402    21.130313  0.035217188  0.046488863            1 
   51000    1.2415624   -6.0767749    21.478583  0.035095723  0.046471022            2 
   52000    1.2428586   -6.1012614    22.179269    0.0355437  0.046441082            2 
   53000    1.2967115   -6.0841871    22.792046  0.035836549  0.046456801            2 
   54000    1.2630725   -6.0551555    23.318584  0.035985469  0.046461463            2 
   55000    1.2219786   -6.0476988    23.787735  0.036042022  0.046474631            3 
   56000    1.2455924   -6.0707406    24.311703   0.03617813  0.046468005            4 
   57000    1.2348333   -6.0887134     24.70499  0.036118406  0.046425793            2 
   58000    1.2414578   -6.0559847    25.287503  0.036332619  0.046363821            2 
   59000    1.2614414   -6.1268802    25.779945  0.036412351  0.046306731            7 
   60000    1.2460378    -6.120381    26.178854   0.03635952  0.046226726            7 
   61000    1.2398918   -6.0694351    26.635249  0.036386952  0.046147219            3 
   62000    1.2144724   -6.0570074    27.101004   0.03642608  0.046050039            2 
   63000    1.2217134   -6.1183787    27.577987  0.036478818  0.045939355            3 
   64000    1.2390997   -6.0549229     28.10954  0.036600963  0.045836453            4 
   65000    1.2487579   -6.0707862    28.675627  0.036763624  0.045756087            2 
   66000    1.2446044   -6.0882591    29.035122  0.036660507  0.045667863            2 
   67000    1.2594071   -6.0551216    29.532548  0.036732025  0.045577579            5 
   68000      1.21241    -6.090321     30.05524  0.036832402  0.045477581            3 
   69000    1.2724031   -6.0361767    30.628145  0.036990513  0.045377056            2 
   70000    1.2618684    -6.059944    31.150704  0.037084171  0.045297509            1 
   71000    1.2522724   -6.0748708    31.626848  0.037120713  0.045215463            2 
   72000    1.2474884   -6.0717922    32.153977  0.037215251  0.045138548            5 
   73000    1.2584772   -6.0602781    32.847021  0.037496599  0.045070765            2 
   74000    1.2617481   -6.0782384     33.43277  0.037649516  0.045027883            3 
   75000    1.2511312   -6.0777815    33.771442  0.037523824  0.044979174            2 
   76000    1.2530518   -6.0532631    34.333796  0.037646705    0.0449314            1 
   77000    1.2409677    -6.086869    34.979717  0.037856837    0.0448984            1 
   78000    1.2453613   -6.1066787    35.487917  0.037914441  0.044874497            3 
   79000    1.2476957   -6.0578623    36.110591  0.038091341  0.044859027            4 
   80000    1.2547087   -6.0990916    36.465706   0.03798511  0.044827497            2 
   81000    1.2320732   -6.0358886    37.057237  0.038124729  0.044789791            4 
   82000    1.2433278   -6.0500774    37.691482  0.038304351  0.044766073            2 
   83000    1.2576373   -6.0606202    38.249929  0.038403543  0.044749149            2 
   84000     1.250172   -6.1123972    38.823285  0.038515163  0.044743356            2 
   85000    1.2463336   -6.0660424    39.319246   0.03854828  0.044740104            1 
   86000    1.2211106   -6.1167936    39.677729  0.038447411  0.044724967            4 
   87000    1.2320406   -6.0502766    40.533264  0.038824965  0.044718257            3 
   88000    1.2272158   -6.0664231    41.168317  0.038985148  0.044723063            2 
   89000    1.2449024   -6.0674159    41.861752  0.039196397  0.044731962            8 
   90000    1.2192427   -6.0698528    42.299862  0.039166538  0.044747009            4 
   91000    1.2533015   -6.0811399    42.859013   0.03924818  0.044759904            3 
   92000    1.2418211   -6.0853129    43.487336  0.039390703  0.044788918            3 
   93000    1.2277806    -6.076571    44.365251  0.039753809  0.044814141            2 
   94000     1.228925   -6.0994115    44.508735  0.039458098  0.044841607            4 
   95000    1.2289523   -6.0275488    45.046581  0.039514545  0.044854968            6 
   96000    1.2413397   -6.0993972    45.799688  0.039756673  0.044870975            4 
   97000    1.2519902   -6.0632085    46.488583  0.039938645  0.044892575            1 
   98000     1.235808   -6.1015248    46.847783   0.03983655  0.044915722            2 
   99000    1.2221499   -6.0934429    47.172868  0.039707801  0.044928493            3 
  100000    1.2459741   -6.1065008    47.796432   0.03983036  0.044931215            2 
  101000    1.2437734   -6.1348209    48.071494  0.039662949  0.044928773            4 
  102000    1.2304347   -6.1202525    48.590249  0.039697916  0.044922989            3 
  103000    1.2389071   -6.0715717    49.313801  0.039897897  0.044919034            3 
  104000    1.2443803   -6.0986323    49.699691   0.03982347  0.044916101            4 
  105000    1.2259677   -6.1093674    49.919146   0.03961837  0.044901694            1 
  106000    1.2046188   -6.0512148    50.298233  0.039542636   0.04487773            4 
  107000     1.242221    -6.066713    50.899248  0.039641158  0.044851939            4 
  108000    1.2376738   -6.0620541    51.322065  0.039600358  0.044827067            3 
  109000    1.2375329   -6.0975144    52.042872  0.039788128  0.044803979            3 
  110000    1.2598201   -6.0676403    52.776103  0.039981896  0.044787016            3 
  111000    1.2321433   -6.0806263    53.320864  0.040030679  0.044769818            3 
  112000    1.2440045   -6.0881492    53.776591  0.040012345   0.04475721            3 
  113000    1.2318452   -6.1151755    54.386381   0.04010795  0.044753014            5 
  114000    1.2512966   -6.1162062    55.095104  0.040274199   0.04475152            2 
  115000    1.2272937   -6.0843509      55.4559  0.040185435   0.04475504            3 
  116000    1.2380202   -6.0742077    55.994082  0.040225634  0.044751248            3 
  117000    1.2538638   -6.1073623      56.4296  0.040192023  0.044753282            3 
  118000     1.242057   -6.1121614    57.097659  0.040323206  0.044753273            3 
  119000    1.2553816   -6.0447433    57.874584   0.04052842  0.044758949            4 
  120000    1.2238308   -6.0849751    58.371075  0.040535468  0.044764813            2 
  121000    1.2235334     -6.09605    58.793681  0.040491516    0.0447705            2 
  122000    1.2288454   -6.1099953    59.606893  0.040715091  0.044771732            3 
  123000    1.2061169   -6.0750013    59.948937  0.040615811  0.044782092            4 
  124000    1.2441418   -6.0546065    60.643973  0.040755358  0.044789246            4 
  125000    1.2077665   -6.0904366    61.129546   0.04075303  0.044795708            6 
  126000    1.2486691   -6.1005449    61.597038  0.040738782  0.044801957            4 
  127000    1.2339969   -6.0993599    62.232336  0.040834866  0.044803677            2 
  128000    1.2235055   -6.0793894    62.426809  0.040642454    0.0448003            2 
  129000    1.2445304   -6.0448765    62.877895  0.040618795  0.044793747            3 
  130000     1.234154   -6.0998521    63.430928  0.040660851  0.044786078            2 
  131000    1.2026573   -6.1145355    64.000415  0.040712732   0.04477481            2 
  132000     1.261523   -6.0736515    64.578012  0.040768947  0.044765868            1 
  133000    1.2370606   -6.0940506    64.785787  0.040592598   0.04475608            4 
  134000     1.244629   -6.0981524     65.51863  0.040745417  0.044743242            3 
  135000    1.2410429   -6.0688702    65.920812  0.040691859  0.044730064            3 
  136000    1.1857302   -6.0870553    66.514941  0.040756704  0.044717144            5 
  137000    1.2231976   -6.0785442    66.959337  0.040729523  0.044701795            4 
  138000     1.214787   -6.0777923    67.136789  0.040541539  0.044685344            4 
  139000    1.2463476   -6.1042285    67.837333  0.040669864  0.044666287            3 
  140000    1.2444428   -6.1056363    68.477996  0.040760712  0.044652204            2 
  141000    1.2292471   -6.0691568    68.952743  0.040752212  0.044638868            1 
  142000    1.2152652   -6.0834328    69.373099  0.040711912  0.044620186            3 
  143000    1.2372943   -6.0917842    69.873525  0.040718837  0.044604628            2 
  144000    1.2441046   -6.0912924    70.556682  0.040831413  0.044589453            4 
  145000    1.2193059     -6.08834    71.236119  0.040940298  0.044577417            4 
  146000     1.208546   -6.1105293    71.749803  0.040953084  0.044574067            2 
  147000    1.2204871    -6.076886     72.28786  0.040979512   0.04456579            3 
  148000     1.213732   -6.0787211    72.926648  0.041062302  0.044558308            2 
  149000    1.2213091   -6.1040577     73.31275  0.041002656  0.044548445            2 
  150000    1.2359963   -6.0928772    73.961763  0.041089868  0.044543407            3 
  151000    1.2349599   -6.0743348    74.347406  0.041030577  0.044537628            4 
  152000    1.2080358    -6.091664    74.802243  0.041010001  0.044531103            2 
  153000    1.2514123   -6.0607347    75.831729  0.041302685  0.044524548            3 
  154000    1.1970429   -6.0455483    76.170061  0.041217565  0.044524527            2 
  155000    1.2390885   -6.0571155    76.471085  0.041113487  0.044521971            2 
  156000    1.2264282   -6.0931396    77.367002  0.041328527  0.044515152            3 
  157000    1.2480448   -6.0830753     77.55049   0.04116268  0.044509207            4 
  158000     1.193505   -6.1026116    78.211399  0.041250738  0.044503971            2 
  159000    1.2321709   -6.1477221    78.700527  0.041247655  0.044502117            2 
  160000    1.2188964   -6.0937689     79.49299  0.041402599  0.044500635            4 
  161000    1.2427438   -6.1095848    80.346792  0.041587367   0.04449944            3 
  162000    1.2203077   -6.0988259    80.704652  0.041514738  0.044501666            3 
  163000    1.2157931   -6.1041979    80.957594  0.041389363  0.044500754            7 
  164000     1.206926   -6.0792954    81.950672  0.041641601  0.044501493            3 
  165000    1.2180538   -6.0852441    82.408056   0.04162023  0.044504761            2 
  166000    1.2160796   -6.1386473    82.275667  0.041303045  0.044505259            2 
  167000    1.2401765   -6.0559162    83.123678  0.041478881  0.044501861            2 
  168000    1.2472693   -6.1006764    83.213609  0.041276592   0.04449754            2 
  169000    1.2431835   -6.0838824    83.726788  0.041285398  0.044487978            2 
  170000    1.2355349   -6.1218268    84.163269  0.041256504  0.044476833            3 
  171000    1.1968413   -6.1113655    84.925647  0.041386768  0.044466152            2 
  172000    1.2384787   -6.1310577    84.940656  0.041153419   0.04445367            4 
  173000    1.2182101   -6.0989669    85.564043   0.04121582  0.044439151            3 
  174000    1.2289069    -6.119988    86.142678  0.041256072  0.044429249            3 
  175000    1.2168439   -6.1301695    86.889327   0.04137587  0.044417659            4 
  176000    1.2280196   -6.0833281    87.337669  0.041353063    0.0444063            3 
  177000    1.2264982   -6.0857737    87.613127  0.041249118  0.044392868            2 
  178000    1.2258746   -6.1548215    88.089752   0.04124052  0.044379896            3 
  179000    1.2818013   -6.1323263    88.441902   0.04117407  0.044364913            4 
  180000    1.2255102   -6.1092053    88.803723  0.041112835  0.044348626            2 
  181000    1.2274511    -6.061919     89.58796  0.041246759  0.044335249            2 
  182000    1.2526404   -6.1160591    89.896777  0.041161528  0.044320748            3 
  183000    1.2167368   -6.0998051    90.229136  0.041087949  0.044301078            2 
  184000    1.2074964   -6.0743371    91.011109  0.041218799  0.044281319            4 
  185000    1.2126966   -6.1080386    91.483926  0.041208975  0.044263879            2 
  186000     1.207587   -6.1175503    91.592267  0.041035962   0.04424534            6 
  187000    1.2513127   -6.0909943    92.373161   0.04116451  0.044224196            4 
  188000    1.2064011   -6.0990678    93.029839  0.041236631  0.044205174            5 
  189000     1.210552    -6.118161    93.165519  0.041078271  0.044186521            3 
  190000    1.2364293   -6.0743836    94.005348  0.041230416  0.044165573            2 
  191000    1.2406711   -6.0971871    94.291352  0.041139333   0.04414823            5 
  192000    1.2158959   -6.0953375    94.851421  0.041168151  0.044130536            3 
  193000    1.2206236   -6.1277301    95.004693  0.041021024  0.044111058            3 
  194000    1.2544604   -6.1234703    95.449033  0.041000443  0.044090022            6 
  195000    1.2457925   -6.1498345    96.018799  0.041033675  0.044068291            4 
  196000    1.2142102   -6.1139449    96.138062  0.040875026  0.044045458            3 
  197000    1.2400746   -6.1151175     96.57493  0.040852339  0.044024414            5 
  198000    1.2178117   -6.1330025    97.683044  0.041112392  0.044000961            3 
  199000    1.2420476    -6.116145    97.826823  0.040966006  0.043979071            5 
  200000    1.2227727   -6.1385629    98.651991  0.041104996  0.043957141            3 
  201000    1.1995213   -6.0625664     99.17492  0.041117297  0.043939919            1 
  202000    1.2271287   -6.1292587    99.606317  0.041091715  0.043920851            2 
  203000    1.2233127   -6.0684849    100.32531  0.041184447  0.043902048            6 
  204000    1.2234901   -6.1068426    100.87178  0.041205792  0.043886711            2 
  205000    1.2285693   -6.1549259    101.69148  0.041338002  0.043871934            3 
  206000     1.224219   -6.1267174     102.2555  0.041365492  0.043860955            6 
  207000    1.2272738   -6.0842177      103.244  0.041563606  0.043852749            3 
  208000     1.235278   -6.1132053    102.90951  0.041229772  0.043842185            1 
  209000    1.2013966   -6.1339464    103.24983  0.041168192  0.043828862            3 
  210000    1.2228101   -6.1108578     104.1676  0.041336349  0.043818353            2 
  211000    1.2092341   -6.1402227    104.66835  0.041338212  0.043808419            3 
  212000    1.2168848   -6.1252097    105.80347  0.041589416  0.043797791            2 
  213000    1.2373005   -6.0768315    105.74828  0.041372565  0.043789276            5 
  214000    1.2103224   -6.1231822    106.05245  0.041297681  0.043777622            9 
  215000    1.2090991   -6.1258252    106.44007  0.041255842  0.043765655            2 
  216000    1.2275848   -6.1195279    107.00701   0.04128357  0.043753648            1 
  217000    1.1810827   -6.0805563    107.77643  0.041388799  0.043741989            1 
  218000    1.2212862   -6.1344742     108.0071  0.041287116  0.043728764            2 
  219000    1.2277049   -6.1061373    108.46414  0.041272504  0.043714976            3 
  220000    1.1999264   -6.1244352    108.47542  0.041089174  0.043698552            3 
  221000      1.22535     -6.12159    108.87445  0.041053712  0.043681139            2 
  222000    1.1995406   -6.1276758    109.76439  0.041202848  0.043664272            3 
  223000    1.2094148   -6.1186428    110.46533  0.041280019  0.043651165            1 
  224000    1.2422371   -6.1088482     111.1402  0.041346801  0.043640492            5 
  225000    1.2050937   -6.1018423    111.34791  0.041239965  0.043628804            3 
  226000    1.2012991   -6.1120279    112.24963  0.041389982  0.043618338            7 
  227000    1.2196658   -6.1163623    112.77786  0.041401565  0.043608558            5 
  228000    1.2072515   -6.1118595     113.3244  0.041419737    0.0435988            2 
  229000    1.2299581   -6.1264733    113.79966  0.041411813  0.043591105            2 
  230000     1.208011   -6.1318485    113.66206  0.041181905  0.043582475            3 
  231000    1.2089744    -6.127339     114.4105   0.04127363  0.043571383            4 
  232000     1.224246   -6.1146933    114.46834  0.041116503  0.043557466            6 
  233000    1.2126124   -6.1120249     115.1342  0.041178183  0.043542153            2 
  234000    1.2256673   -6.1172607    115.67087  0.041193329  0.043527465            3 
  235000    1.2039168   -6.1267471    116.16516  0.041193318  0.043513332            4 
  236000    1.2371425   -6.0943257     116.8016  0.041243502  0.043501255            4 
  237000    1.1821637   -6.0900277    117.77287  0.041410993  0.043489433            2 
  238000    1.2486529   -6.1088794    118.33092  0.041432395  0.043479087            2 
  239000    1.2217474   -6.1099204     118.5231  0.041326048  0.043467618            2 
  240000    1.2255147     -6.12652    119.13401  0.041365976  0.043457901            3 
  241000    1.1974155    -6.103904    119.77218     0.041415  0.043450287            2 
  242000    1.2079486   -6.1389917    120.41123  0.041463922  0.043441277            4 
  243000     1.208719   -6.1178797     121.3972  0.041631411   0.04343422            2 
  244000    1.2101284   -6.1589301    121.61724  0.041535942  0.043428551            3 
  245000      1.19431   -6.1089433     121.8237  0.041436633   0.04342262            3 
  246000    1.2110751   -6.1116701    122.60099  0.041531501  0.043415667            4 
  247000    1.1928469   -6.1240026    122.60555  0.041364896  0.043407104            3 
  248000    1.2055902   -6.1064161    123.15454  0.041382574  0.043397639            2 
  249000     1.261594   -6.1240009    123.39797  0.041297846  0.043387318            2 
  250000     1.209336   -6.1358572    124.44865  0.041482885  0.043379077            8 
  251000    1.1596404   -6.1056537    124.66226  0.041388532  0.043370863            7 
  252000    1.2059592   -6.1001985    125.10469    0.0413706  0.043362476            3 
  253000    1.2314667   -6.1492065    125.71925  0.041409502  0.043355419            8 
  254000    1.2228045   -6.1175522    125.90944  0.041308871  0.043346837            2 
  255000    1.2498771   -6.1526481    126.87122  0.041461183  0.043338914            3 
  256000    1.2324999   -6.1374521    127.56374  0.041524654  0.043329671            1 
  257000    1.1960798   -6.1237999    128.01536  0.041509519  0.043322005            2 
  258000    1.2130598    -6.092529    128.69613  0.041568519  0.043316218            3 
  259000    1.2218271   -6.1183365    129.65576  0.041716782  0.043309972            4 
  260000    1.2183285   -6.1373652    129.33046  0.041452069  0.043302539            3 
  261000      1.19973   -6.0946676    129.65578  0.041397119  0.043294971            3 
  262000    1.2154992   -6.1027285    130.66255  0.041559335    0.0432879            7 
  263000    1.2030362   -6.1256309    130.40052   0.04131829   0.04328213            2 
  264000    1.2122482   -6.1343696    130.84043  0.041300642  0.043273647            5 
  265000    1.2238414   -6.1442182    131.31198  0.041293074  0.043264576            2 
  266000    1.2042241    -6.158957    132.05855  0.041371725  0.043256933            1 
  267000     1.220863   -6.1172734    132.63874  0.041397858  0.043247033            5 
  268000    1.2104761   -6.1351436    132.95915  0.041343019  0.043238632            2 
  269000    1.2108648   -6.0872681    133.57417  0.041379855  0.043229119            2 
  270000    1.1912244   -6.0565546    134.31151  0.041454169  0.043220072            4 
  271000     1.183607   -6.1210854    134.03835  0.041217203  0.043210449            2 
  272000    1.2245016   -6.1477407    134.64913  0.041252796  0.043200522            3 
  273000    1.2072208    -6.127249    135.34989  0.041315594  0.043189492            6 
  274000    1.2038819   -6.1022488    135.80042  0.041301831  0.043178449            2 
  275000    1.1944715   -6.1394591    136.13889   0.04125421  0.043166913            4 
  276000    1.1928725   -6.0981663    136.46171  0.041202206  0.043155785            2 
  277000    1.2190708   -6.1454992    137.00633  0.041217308  0.043144837            5 
  278000    1.2119624   -6.1535409     137.7107  0.041280186  0.043132941            3 
  279000    1.2301937   -6.1399824    138.63539  0.041408419  0.043123915            3 
  280000    1.2242377   -6.1188506    139.17015  0.041419687   0.04311541            3 
  281000    1.2056496   -6.1462555    139.26254  0.041299684  0.043108301            1 
  282000    1.1939738   -6.0964066    140.18646  0.041426259  0.043100463            3 
  283000    1.2096839   -6.1625172    140.41304  0.041346596  0.043093087            3 
  284000    1.2045038   -6.1229003    140.90922  0.041346603  0.043084603            2 
  285000    1.2069719   -6.1536856    141.89834  0.041490742  0.043075685            3 
  286000    1.2216684   -6.1688791    142.34655  0.041476268  0.043068259            1 
  287000    1.2025032   -6.1255006    142.85803  0.041480264  0.043061182            2 
  288000    1.2112308   -6.1376276    143.55124  0.041536818  0.043054251            3 
  289000    1.1869033   -6.1586739    143.22198   0.04129815  0.043046901            3 
  290000    1.2012024    -6.147153    143.90766  0.041352775  0.043039837            3 
  291000    1.2220665   -6.1294805    144.37271  0.041343846   0.04303206            4 
  292000    1.2048906   -6.1436692    144.95017  0.041367058  0.043025607            2 
  293000    1.1996485    -6.138523    146.05061  0.041538853  0.043017724            4 
  294000    1.2441636   -6.1494396    145.50753  0.041243631   0.04301078            4 
  295000    1.2148173   -6.1484336    146.59608  0.041411321  0.043002036            4 
  296000    1.1966397   -6.1056967    147.04041  0.041396511   0.04299215            2 
  297000    1.2049517   -6.1404667    147.60075  0.041414353  0.042983463            4 
  298000    1.2037817    -6.120653    147.72055  0.041308879   0.04297418            4 
  299000    1.1804368   -6.1007579    148.00589  0.041250249  0.042963711            3 
  300000    1.1917082   -6.1591616    148.51606  0.041254461  0.042952988            2 
  301000    1.1986136   -6.1252052    149.40756  0.041364218   0.04294304            2 
  302000    1.2130506   -6.1292272    149.15511  0.041157592  0.042933616            4 
  303000    1.1938764   -6.1745522    149.87908   0.04122087  0.042923169            1 
  304000     1.142894   -6.1534561    150.79182  0.041335478   0.04291435            3 
  305000    1.2308022   -6.1227538    151.30723  0.041340773  0.042905572            4 
  306000    1.2147338   -6.1041414    151.88506  0.041363033   0.04289899            3 
  307000     1.193319   -6.1485246     151.9951  0.041258171  0.042890433            3 
  308000    1.2057055   -6.1455644    152.60943  0.041290429  0.042881132            1 
  309000    1.2048316   -6.1556319    152.31831  0.041078293   0.04286919            4 
  310000    1.1967895    -6.154625    152.98136  0.041124022  0.042856678            2 
  311000    1.2112613   -6.0969688    153.29015   0.04107453  0.042845826            3 
  312000    1.1904462   -6.1723647    153.84053  0.041089885   0.04283595            3 
  313000    1.2153184   -6.1302638    154.51644  0.041138562  0.042825945            2 
  314000    1.2088211   -6.1622297    155.14705  0.041174906  0.042815597            4 
  315000    1.1945334   -6.1682591    155.96194  0.041259773  0.042805309            2 
  316000    1.1917539    -6.161997    155.58556  0.041029947  0.042792906            4 
  317000     1.226396   -6.1266671    156.45373   0.04112874   0.04278099            2 
  318000    1.2144473   -6.1782902    156.59004  0.041035126  0.042769726            2 
  319000     1.202989   -6.1250385    158.47888  0.041399916  0.042759493            2 
  320000    1.2221692   -6.1956457    157.96754   0.04113738  0.042750347            3 
  321000    1.2043339   -6.1514476    158.85919  0.041240705  0.042741936            2 
  322000    1.2114825   -6.1403281    159.43078  0.041260555  0.042733964            2 
  323000    1.1932431   -6.1365966    160.16187  0.041321432  0.042728682            3 
  324000    1.2290864   -6.1562245    160.87876  0.041378281  0.042722328            2 
  325000    1.2033561   -6.1363701    161.11222  0.041310825  0.042714974            3 
  326000    1.1923449   -6.1168652    161.61956  0.041313792  0.042708026            5 
  327000    1.1897468    -6.161675    161.63804  0.041192161  0.042699273            2 
  328000    1.2145168   -6.1665692    161.84338  0.041118744  0.042689283            3 
  329000    1.2173896   -6.1108951     163.2694  0.041354965  0.042680695            1 
  330000    1.1843966   -6.0998008    163.51675  0.041292107  0.042672764            6 
  331000    1.1862011   -6.1403733     164.4098  0.041392194  0.042665712            2 
  332000    1.2092977   -6.1250207    164.64837  0.041327401  0.042659039            4 
  333000    1.1967387    -6.132336    165.11948  0.041321192  0.042653018            6 
  334000     1.223223   -6.1404178    165.93712  0.041401476  0.042646165            4 
  335000     1.205682   -6.1537406    165.58715  0.041190833   0.04263872            1 
  336000    1.2106573   -6.1388614    166.40496  0.041271072  0.042632151            4 
  337000     1.183784   -6.1599822    166.84255  0.041256812  0.042624489            2 
  338000    1.1842695   -6.1097015    167.48667  0.041293558  0.042617502            3 
  339000    1.1909412   -6.1309845    167.39552  0.041149342  0.042610565            3 
  340000    1.1882749   -6.1666443    168.12337  0.041206708   0.04260302            3 
  341000    1.2124252   -6.1546794    169.32406   0.04137929  0.042595926            4 
  342000    1.2136613   -6.1467626    169.43625  0.041285637  0.042588667            2 
  343000     1.186902    -6.140517    170.09294  0.041324815   0.04258034            1 
  344000    1.1953641    -6.195058     169.9294  0.041165068  0.042572649            2 
  345000     1.180629   -6.1357788    170.42689  0.041165915  0.042564829            3 
  346000     1.173261   -6.1880822    171.18834  0.041230332   0.04255798            3 
  347000    1.2117912   -6.1769212    171.31447  0.041141804  0.042550033            2 
  348000    1.1955332   -6.1394139    172.64132  0.041341311  0.042542515            3 
  349000    1.2273874     -6.11523    173.19944  0.041356122  0.042536771            4 
  350000    1.1825439   -6.1698715    173.40889  0.041287832  0.042530949            3 
  351000    1.1882437   -6.1395005    174.37322  0.041399151  0.042524717            5 
  352000    1.2034702   -6.1320711    174.33414  0.041272288  0.042518743            1 
  353000    1.1885367   -6.1267298    175.01362  0.041315774  0.042511918            3 
  354000    1.2296075   -6.1767607    175.48746  0.041310607  0.042505169            2 
  355000    1.2030405   -6.2028561    175.44827  0.041185039  0.042498486            3 
  356000    1.2409366   -6.1148184    176.42267  0.041297441  0.042492181            4 
  357000    1.2023921   -6.1422435    176.32836  0.041159747  0.042484276            2 
  358000    1.2044888   -6.1955384    176.32408  0.041043781  0.042474939            3 
  359000    1.1995324    -6.142095    177.40926  0.041181351  0.042465698            3 
  360000    1.1927715   -6.1656357    177.13922   0.04100445  0.042456045            3 
  361000    1.1879449   -6.1317115    177.63113  0.041004416  0.042446698            2 
  362000    1.1855098     -6.13962     178.1424   0.04100884  0.042436695            4 
  363000    1.2121986   -6.1655693    178.64743  0.041011806  0.042427136            2 
  364000    1.2055839   -6.1629684    178.68947  0.040908762  0.042417138            4 
  365000    1.1772682   -6.1501153    179.59094  0.041002498  0.042404967            2 
  366000    1.1741593    -6.133201    179.34432  0.040834317  0.042392763            2 
  367000    1.1972101   -6.1224801    179.78461  0.040823027  0.042380125            4 
  368000    1.2145583     -6.16033    179.90308  0.040738922  0.042367247            4 
  369000    1.1926649   -6.1769635    180.80044  0.040831174  0.042353667            2 
  370000    1.1850236    -6.148137    181.30929  0.040835427  0.042340416            2 
  371000    1.2319711   -6.1508432    181.76627  0.040828002   0.04232778            2 
  372000    1.2038483   -6.1398901    181.83954  0.040734665  0.042315188            2 
  373000    1.2091506   -6.1695849    182.38637  0.040747626  0.042303359            4 
  374000    1.1814504    -6.148174    183.61357  0.040912116  0.042290602            2 
  375000    1.1812279   -6.1788037    182.98539  0.040663421  0.042277761            2 
  376000     1.195722   -6.1897096     183.9441  0.040767753  0.042265124            6 
  377000    1.1945869   -6.1391954    184.88461  0.040867509  0.042252286            4 
  378000    1.1956253   -6.1336939    185.07753  0.040801924  0.042240289            2 
  379000    1.1869494   -6.1738042    184.70173  0.040611638  0.042227889            3 
  380000     1.187427   -6.1827713    186.28691  0.040852393  0.042214961            5 
  381000    1.2242486   -6.1452083    186.24052  0.040735021  0.042202154            2 
  382000    1.1967632   -6.1290199     186.7543  0.040740468    0.0421896            3 
  383000    1.1995325   -6.1834438    185.98557  0.040466834  0.042175946            2 
  384000    1.1766031   -6.1337551    187.02264  0.040586511  0.042161703            5 
  385000    1.1795198    -6.151171    187.62527  0.040611531  0.042147448            2 
  386000    1.1816116   -6.1476545    187.90198  0.040566059  0.042132377            2 
  387000    1.1678243   -6.1391011    188.82456  0.040659897  0.042117885            4 
  388000     1.190906   -6.1597276    188.91872  0.040575326  0.042103527            3 
  389000    1.1776888   -6.1755248     189.4147  0.040577271  0.042089412            1 
  390000    1.1803037   -6.1709283    190.01258  0.040600979  0.042075958            3 
  391000     1.232029   -6.1589999    190.76748   0.04065803  0.042062896            3 
  392000    1.1773409   -6.1815562    191.24531  0.040655891  0.042050668            4 
  393000    1.1792967    -6.166185    191.73696  0.040656693  0.042039803            6 
  394000    1.1953571   -6.1650536    192.21927  0.040655515  0.042027611            4 
  395000    1.2050398   -6.1631465    192.14171  0.040536225   0.04201403            4 
  396000    1.1897652   -6.1417478    193.13377  0.040642628  0.041999975            4 
  397000    1.1710016   -6.1631976    192.72854  0.040455194  0.041986732            3 
  398000    1.1957893   -6.1505728    193.01977  0.040414525  0.041972278            2 
  399000    1.1723392   -6.1670165    193.59568  0.040433517  0.041957955            3 
  400000    1.2045305   -6.1574664    193.81755  0.040378655  0.041943023            3 
  401000    1.1720973   -6.2065688    193.58247  0.040229108   0.04192845            3 
  402000    1.1746629   -6.2042226     194.6574  0.040351867  0.041914354            3 
  403000    1.1682358   -6.1606777    195.01411  0.040325498  0.041899574            6 
  404000    1.1715138   -6.1397968    195.98288  0.040425512  0.041885437            6 
  405000    1.1839238   -6.1517392    196.34729  0.040400676  0.041871994            3 
  406000    1.2022526   -6.1677528    196.85736  0.040405862  0.041857702            2 
  407000    1.1859518   -6.1671102    197.20077  0.040376899  0.041843886            4 
  408000    1.2048004   -6.1658481    197.88833  0.040418368  0.041831281            2 
  409000    1.1789445    -6.189732    198.08012  0.040358623   0.04181752            2 
  410000    1.1899587   -6.1490538    198.79981  0.040406465  0.041803531            2 
  411000    1.2080341   -6.1416728    199.24762  0.040398949  0.041790213            5 
  412000    1.1917393   -6.1596916    198.88544  0.040227638  0.041775298            3 
  413000    1.1764152   -6.1638757    199.44985  0.040244119  0.041759972            2 
  414000    1.1770464   -6.1524761    199.78415  0.040214201  0.041743376            2 
  415000    1.1697403   -6.1649868    200.36113  0.040233159  0.041727609            1 
  416000    1.2109043   -6.1960394    200.55143  0.040174565  0.041711202            2 
  417000    1.2092105   -6.1894722    201.00468  0.040168801  0.041695291            5 
  418000    1.1776746   -6.1805192    201.76977  0.040225234  0.041678947            6 
  419000    1.1578673   -6.1917314    201.56261  0.040088029  0.041663297            5 
  420000    1.1779909     -6.16222    202.38297  0.040155351  0.041646684            2 
  421000    1.1721249   -6.1205633    202.42097  0.040067492  0.041630746            3 
  422000    1.1980024   -6.1392682    202.47679  0.039983569  0.041614311            3 
  423000    1.1892184   -6.1633518    203.04689  0.040001357  0.041596957            3 
  424000    1.1804359   -6.1635856    203.31027   0.03995878  0.041579705            3 
  425000    1.1569162   -6.1836181    204.21575  0.040042303   0.04156364            2 
  426000    1.1953439   -6.1560678    204.17028  0.039939414  0.041546769            2 
  427000     1.170706    -6.205927    204.61481  0.039932633  0.041530892            3 
  428000    1.1740759   -6.1855775    204.85387  0.039885877  0.041513643            3 
  429000    1.1650343    -6.152307    205.51084  0.039920521  0.041496753            5 
  430000    1.1993777   -6.1754767    205.46645   0.03981908  0.041478798            2 
  431000    1.1708502    -6.174645    207.43133  0.040106599  0.041461862            2 
  432000    1.1832845   -6.1731725    207.84429  0.040093419  0.041445912            2 
  433000    1.1987705   -6.1845443     207.5432  0.039942878  0.041430543            2 
  434000    1.1652783   -6.1689567      208.752  0.040082949  0.041415288            2 
  435000    1.1895823   -6.1597427    208.94803  0.040028358  0.041400371            2 
  436000    1.1811187   -6.1979949    208.54714  0.039859927  0.041385045            4 
  437000    1.1644896   -6.1434025     209.5145  0.039953184  0.041369882            6 
  438000    1.1827278   -6.1790012    209.91143  0.039937486  0.041354184            3 
  439000    1.2118359   -6.1993467    209.91021  0.039846281  0.041338233            3 
  440000    1.1715871   -6.2019502    210.41554  0.039851428  0.041322074            6 
  441000      1.19574   -6.1540697    210.57956  0.039792056  0.041305964            4 
  442000    1.1826982     -6.18671    211.29388  0.039836704  0.041290047            5 
  443000    1.1835108    -6.162932    212.16236  0.039910151  0.041275043            2 
  444000    1.1749391   -6.2245071    212.63133  0.039908283  0.041259912            3 
  445000    1.1979688   -6.1771219    212.32541  0.039761313  0.041244778            1 
  446000    1.1782858   -6.1951851    213.06652  0.039810634  0.041229583            3 
  447000     1.178531   -6.1631668    213.51805  0.039805751  0.041214188            3 
  448000    1.1844135   -6.2039653    214.74679  0.039945459  0.041199851            3 
  449000    1.1672574   -6.1956053    213.96738  0.039711837  0.041185356            2 
  450000     1.146712   -6.1494909    215.00938  0.039816553  0.041170318            3 
  451000    1.1975915   -6.1773264    215.86832  0.039886977  0.041155676            3 
  452000    1.1844277   -6.1805257    215.70587  0.039768782   0.04114082            3 
  453000    1.2026621   -6.1697283    216.44834  0.039817575  0.041126089            2 
  454000    1.1917826   -6.1721105    216.07044  0.039660506  0.041110562            9 
  455000    1.1876787   -6.1519767    216.84274  0.039714788  0.041094564            1 
  456000    1.1867182   -6.2016567    216.07514  0.039487415   0.04107862            2 
  457000    1.1483813   -6.1747049    217.39861  0.039642343    0.0410622            2 
  458000    1.1558503   -6.2028847    217.27657  0.039533583   0.04104651            3 
  459000    1.1712035   -6.1739271     218.3222  0.039637292  0.041029386            1 
  460000    1.1411538   -6.1757278    218.78928  0.039635739  0.041013259            4 
  461000    1.1876573   -6.1685126    219.21997  0.039627616  0.040997091            3 
  462000     1.176355   -6.1585639    219.77251  0.039641505  0.040981162            4 
  463000    1.1735472   -6.2023191    220.29467  0.039649868  0.040965417            2 
  464000    1.1434341   -6.1785665    221.11812  0.039712305   0.04094966            3 
  465000    1.1801162   -6.1782619     220.3047  0.039481129  0.040934452            4 
  466000    1.1829701   -6.2178825     220.5791  0.039445476  0.040918574            4 
  467000    1.1682898   -6.1975977    220.56953  0.039359302   0.04090224            3 
  468000    1.1677646   -6.1935059    222.10693  0.039548955  0.040885749            2 
  469000    1.1821964   -6.1751785    222.71384  0.039572465  0.040870709            4 
  470000    1.1937525   -6.1673912    223.67148  0.039658063  0.040854923            3 
  471000    1.1890177   -6.1207544    223.71095  0.039580848   0.04084044            3 
  472000    1.1981152   -6.1902864    223.49494  0.039458853  0.040825387            2 
  473000    1.1777684   -6.1563348    224.78492  0.039602699  0.040810901            3 
  474000    1.1729466   -6.2040503    224.87283  0.039534605  0.040796823            1 
  475000    1.1448256   -6.1958322    226.17497   0.03967982  0.040783676            2 
  476000    1.1889673   -6.2070239     225.7028  0.039513796  0.040770268            3 
  477000    1.1834525   -6.1971596    227.20321  0.039693083  0.040757188            5 
  478000    1.1705672   -6.1704916    228.00348  0.039749561  0.040743272            7 
  479000    1.1634351   -6.1566818    227.97661  0.039661902  0.040729779            3 
  480000    1.1556118   -6.1787623    227.62523  0.039518269  0.040716162            3 
  481000    1.1587663   -6.1583862    227.92593  0.039488207  0.040702066            3 
  482000    1.1796716   -6.1831694    229.25369  0.039635838  0.040688835            3 
  483000    1.1825289   -6.1718036    228.49215  0.039422386  0.040675907            3 
  484000    1.1743743   -6.1829786    229.84368  0.039573636   0.04066141            3 
  485000    1.1775548   -6.1513868     229.8222   0.03948835  0.040647608            3 
  486000    1.1700991   -6.1911522     229.8993  0.039420319  0.040633437            6 
  487000    1.1655375   -6.2079781    230.55768  0.039452033  0.040618981            2 
  488000    1.1650033   -6.2125641    231.38642  0.039512708  0.040605208            6 
  489000    1.1678777   -6.1968893    232.26293  0.039581277  0.040591347            4 
  490000    1.1699558   -6.2277882    231.49702  0.039370242  0.040577541            4 
  491000    1.1725622   -6.2071792    231.86406  0.039352352  0.040563412            6 
  492000    1.1768947   -6.1737952    232.60968  0.039398659  0.040549898            2 
  493000    1.1684119   -6.2057904    233.29202  0.039434081  0.040535991            7 
  494000     1.169984   -6.1806613     233.4094  0.039374056   0.04052332            2 
  495000    1.1703517   -6.1781612    234.26996  0.039439387  0.040510614            3 
  496000     1.165422   -6.2025601    234.57358  0.039410883  0.040497959            3 
  497000    1.1703649   -6.1622829    235.33875  0.039459884  0.040485822            4 
  498000     1.181007   -6.2003152    235.03607  0.039329998  0.040473687            2 
  499000    1.1467852   -6.2008203    236.29691  0.039461742  0.040460576            4 
  500000     1.226486   -6.1821872    236.00561  0.039334269  0.040447401            4 
  501000    1.1767836   -6.1727931    236.72316   0.03937511  0.040434541            3 
  502000    1.2059758   -6.2038897    235.99137  0.039175194  0.040419846            4 
  503000    1.1764191   -6.1586409    237.64185  0.039370751  0.040405344            3 
  504000    1.1681208   -6.2097285    237.91148  0.039337216  0.040390795            4 
  505000     1.170652   -6.2175137    237.04729  0.039116714  0.040376364            5 
  506000    1.1726872   -6.1871588    238.75718  0.039321011  0.040362059            2 
  507000    1.1859058   -6.2106953    238.87507  0.039262832  0.040348179            3 
  508000     1.166097   -6.2218137    238.13114  0.039063507  0.040334377            4 
  509000     1.131447    -6.186423    239.53631  0.039216815  0.040320291            2 
  510000    1.1748442   -6.1752813    240.38111  0.039277959  0.040306478            4 
  511000    1.2068769   -6.1919182    240.49468  0.039219615  0.040292606            3 
  512000     1.138904   -6.2196117    241.19067  0.039256295  0.040278498            2 
  513000    1.1872497    -6.219655    241.14073  0.039171658  0.040265522            2 
  514000    1.1875117   -6.1557873    241.98276  0.039231965  0.040252936            2 
  515000    1.1584995   -6.1870581    242.99314  0.039319279  0.040240413            5 
  516000    1.1619592   -6.2245914    242.91268  0.039230083  0.040227804            2 
  517000     1.180654   -6.2100077     243.0429  0.039175194  0.040215265            2 
  518000    1.1763936   -6.1610539    243.94469  0.039244642  0.040202832            3 
  519000    1.1645659   -6.2084832    245.03475  0.039344051  0.040191016            4 
  520000    1.1870288   -6.2165343     244.6685  0.039209695  0.040179653            3 
  521000     1.186071   -6.1977809     246.6102   0.03944501  0.040168897            5 
  522000    1.1627702    -6.178936    246.33962  0.039326249  0.040158121            4 
  523000    1.1669018   -6.2084077    246.84654  0.039331826  0.040147059            5 
  524000    1.1540915   -6.1957493    247.98092   0.03943717  0.040136779            2 
  525000    1.1585696   -6.1962705    247.81242  0.039335304  0.040126603            7 
  526000    1.1482731   -6.2231426    248.01324  0.039292338  0.040115718            3 
  527000    1.1574421    -6.212871    247.95255  0.039208182  0.040104516            5 
  528000     1.160987   -6.2098314    249.18282  0.039328097  0.040093168            2 
  529000    1.1678623   -6.1825486     249.2638  0.039266509  0.040081891            2 
  530000      1.17395   -6.2110895    249.04912  0.039158667  0.040069738            3 
  531000    1.1612211   -6.2179888    248.94479  0.039068548  0.040057385            3 
  532000    1.1516408   -6.1575105    249.69215  0.039112179  0.040044573            2 
  533000    1.1870978   -6.1906899    250.16645  0.039112953  0.040032126            5 
  534000    1.1661726   -6.2122114    250.72111  0.039126266  0.040019696            8 
  535000    1.1637854   -6.2000844    250.60954  0.039035754  0.040007696            5 
  536000    1.1661852   -6.1987787    251.00153   0.03902387  0.039995126            4 
  537000    1.1954221   -6.2058055    251.69397  0.039058655  0.039982637            3 
  538000    1.1721432   -6.2142672    252.47619  0.039107216  0.039970517            5 
  539000     1.149533   -6.2326874    252.33448  0.039012752  0.039958099            2 
  540000     1.171873   -6.2346656    252.53558  0.038971539   0.03994646            2 
  541000    1.1674231   -6.2247996    253.34074  0.039023527  0.039934933            4 
  542000    1.1653311   -6.2045526    254.99462  0.039205814  0.039924165            3 
  543000    1.1686979   -6.2282756    255.38677  0.039193795  0.039912743            5 
  544000    1.1693166    -6.230987    255.09751  0.039077436  0.039901251            2 
  545000    1.1728644   -6.1993392    256.21908  0.039177229  0.039890581            3 
  546000    1.1692474   -6.2282557    255.88744  0.039054859  0.039879885            2 
  547000    1.1591542   -6.1971165    256.88995   0.03913619  0.039869499            2 
  548000     1.149751   -6.2352556    257.02093  0.039084691  0.039858799            2 
  549000    1.1803275   -6.2148738     257.0793  0.039022359  0.039847761            4 
  550000    1.1417594   -6.2046434    258.13184  0.039110884  0.039836405            2 
  551000    1.1581894   -6.2094907     258.4402  0.039086539  0.039825238            5 
  552000    1.1669295   -6.2284084    258.68974  0.039053402  0.039813872            4 
  553000    1.1572247   -6.2228676    258.86678  0.039009461  0.039802397            5 
  554000    1.1815728    -6.201454    258.19735  0.038838351  0.039791262            3 
  555000    1.1335231   -6.2431154    259.35408  0.038942054  0.039779699            5 
  556000    1.1843157   -6.2242236    259.60452  0.038909551  0.039768255            4 
  557000    1.1863346   -6.2390764    260.06392  0.038908425  0.039756203            3 
  558000     1.159619     -6.20133    260.33789  0.038879614  0.039744433            3 
  559000    1.1563236   -6.1999582    261.28301  0.038950956  0.039732545            2 
  560000    1.1519929    -6.191616    261.59963  0.038928516  0.039720963            5 
  561000    1.1608314   -6.2200073    261.62332  0.038862644  0.039708991            2 
  562000    1.1591249   -6.1794231    262.16459  0.038873753  0.039696767            2 
  563000    1.1605911   -6.2083247     262.6578  0.038877708  0.039684597            7 
  564000    1.1691022   -6.2001913    263.04752  0.038866359  0.039672633            2 
  565000    1.1786124   -6.2264147    264.16419  0.038962269  0.039661004            2 
  566000    1.1774893   -6.2145589    264.55432  0.038950872  0.039649797            7 
  567000     1.174506    -6.219528     264.8502  0.038925662  0.039639827            2 
  568000    1.1964067   -6.1920367    266.25894  0.039063811   0.03962905            2 
  569000    1.1611996   -6.1862941    265.04474  0.038817331  0.039618447            2 
  570000    1.1530892    -6.228287    265.64379  0.038836811  0.039607218            3 
  571000    1.1612885   -6.2383807    265.04025  0.038680714  0.039595852            4 
  572000    1.1528478    -6.204893    266.91159  0.038885722   0.03958536            2 
  573000    1.1863059   -6.2048343    266.99184  0.038829529  0.039574425            4 
  574000    1.1632394   -6.2232499     267.4777  0.038832419  0.039563618            2 
  575000    1.1324683    -6.191663    268.19001  0.038868118  0.039552919            4 
  576000    1.1824073   -6.2009392    268.39792  0.038830718  0.039542177            9 
  577000    1.1695149   -6.2274561    268.42066  0.038766704  0.039530995            3 
  578000    1.1607052   -6.2089886    268.92833  0.038772827  0.039519807            7 
  579000     1.174209    -6.233304    269.35509  0.038767284   0.03950875            2 
  580000    1.1647177   -6.1872248    268.85806  0.038629032  0.039496999            3 
  581000    1.1743401   -6.1935997    269.34809   0.03863283  0.039485106            6 
  582000    1.2006861   -6.1869083    270.49395  0.038730519  0.039474244            3 
  583000    1.1470585   -6.2542064    271.10931  0.038752045  0.039463553            2 
  584000    1.1615013   -6.2149339    271.54898  0.038748427  0.039452587            5 
  585000    1.1687201   -6.2582918    272.50557  0.038818457  0.039442176            5 
  586000    1.1423733   -6.1673954    272.39251  0.038736136  0.039431601            5 
  587000    1.1621213   -6.2043778    273.39447   0.03881239  0.039420851            1 
  588000    1.1778174   -6.1945964    272.73718  0.038653228  0.039410338            5 
  589000      1.15616   -6.2153571    273.83186  0.038742482  0.039399834            6 
  590000    1.1567692   -6.2005448    273.76864  0.038667887  0.039389301            2 
  591000    1.1596687   -6.2111815    274.34369  0.038683544  0.039378689            5 
  592000     1.163388    -6.244485    274.15903  0.038592206  0.039367909            5 
  593000    1.1921699   -6.1999109    275.38321  0.038699158  0.039356933            7 
  594000    1.1594533   -6.2202531    275.91975  0.038709281  0.039346426            2 
  595000    1.1692061    -6.231335    276.26365  0.038692388  0.039336197            9 
  596000    1.1497324   -6.2652302    276.67287  0.038684686  0.039326051            2 
  597000     1.153263   -6.2420123    277.21182  0.038695117  0.039316172            3 
  598000    1.1496279   -6.2612631     276.5108   0.03853272   0.03930571            5 
  599000    1.1566029   -6.2609441    277.56342  0.038614833   0.03929512            3 
  600000    1.1717562   -6.2422098    278.08273  0.038622601  0.039285555            4 
  601000    1.1853782   -6.2412011    278.06543  0.038555939   0.03927535            1 
  602000    1.1745126   -6.2363476    279.64309  0.038710284  0.039266022            2 
  603000    1.1692651   -6.2112768    279.88773  0.038679896  0.039256684            3 
  604000    1.1687229   -6.1815499    280.06923  0.038640899  0.039247179            2 
  605000    1.1588482   -6.2242976    280.61117  0.038651676  0.039237217            3 
  606000    1.1533813    -6.229538     280.5291  0.038576609  0.039227295            3 
  607000    1.1419772   -6.2341658    281.21802  0.038607636  0.039217197            6 
  608000    1.1359616   -6.1989304    281.39653  0.038568604    0.0392071            3 
  609000    1.1698127   -6.2172116    282.15557  0.038609137  0.039197183            3 
  610000    1.1476721   -6.2544454    283.53636  0.038734476  0.039187513            3 
  611000    1.1295409   -6.2525975    282.90008  0.038584298  0.039177909            3 
  612000    1.1568958   -6.2621646    284.05585  0.038678628  0.039168689            6 
  613000    1.1607631   -6.2938844    284.17126   0.03863122  0.039159679            3 
  614000    1.1671085   -6.2061931    286.31629  0.038859431  0.039151198            7 
  615000    1.1691489   -6.2267412    285.60981  0.038700517  0.039142781            2 
  616000    1.1165068   -6.2058699    285.92363  0.038680145  0.039133745            4 
  617000    1.1737145   -6.2040182    286.39755  0.038681463  0.039124708            5 
  618000    1.1659431   -6.2316558    285.84208   0.03854397  0.039115901            5 
  619000    1.1318315   -6.2539611       287.03  0.038641626  0.039107179            3 
  620000    1.1671132   -6.2403269    287.33672  0.038620526  0.039098514            4 
  621000    1.1325328   -6.2007242    288.50778  0.038715484  0.039090431            5 
  622000     1.161878   -6.1848826    289.18331  0.038743744  0.039082679            4 
  623000    1.1457719   -6.2224805    290.40727  0.038845274  0.039075449            4 
  624000    1.1687679   -6.2234559    290.25042  0.038762075   0.03906771            4 
  625000    1.1600835   -6.2263155    290.30832  0.038707776  0.039060205            6 
  626000    1.1365838   -6.2240297    289.68667  0.038563188   0.03905225            5 
  627000    1.1646616   -6.2613809    290.81069  0.038651075  0.039044238            3 
  628000    1.1271275   -6.2483982    291.26159  0.038649362  0.039035802            4 
  629000    1.1810648   -6.2173433    292.27633  0.038722354  0.039027973            2 
  630000    1.1625965   -6.1902073    291.42095  0.038547745  0.039019656            5 
  631000    1.1580312   -6.2678358    292.62777  0.038646035  0.039011562            4 
  632000    1.1299771   -6.2354698    292.96184  0.038628935  0.039003651            3 
  633000    1.1359568    -6.220477    294.28726  0.038742398  0.038995897            4 
  634000    1.1587398   -6.2279102    294.53413  0.038713739  0.038988365            3 
  635000    1.1465853   -6.2577381    294.38851  0.038633663  0.038981354            3 
  636000    1.1471786   -6.2528061    295.15787  0.038673725  0.038974358            4 
  637000    1.1548966   -6.2140501    296.46305  0.038783758  0.038967299            4 
  638000    1.1613613   -6.1829864     296.5041  0.038728331  0.038960657            2 
  639000    1.1587005   -6.2507897     297.1262  0.038748853  0.038953563            2 
  640000    1.1514958   -6.2193053    296.46184  0.038601802  0.038946543            5 
  641000    1.1406389   -6.2480843    296.64949  0.038565976  0.038939383            4 
  642000    1.1473573   -6.2370589    296.97061  0.038547587  0.038932086            3 
  643000    1.1673622   -6.2369341    298.39864  0.038672711  0.038925179            4 
  644000    1.1561573   -6.2601462    298.45642  0.038620138  0.038918093            3 
  645000    1.1433411   -6.2335354    299.51285   0.03869675   0.03891148            2 
  646000    1.1506645   -6.2275962    299.45694  0.038629636  0.038904678            2 
  647000    1.1740337   -6.2478528    298.91393  0.038499991  0.038897528            5 
  648000    1.1378874   -6.2375686    300.50758  0.038645522  0.038890799            5 
  649000    1.1801893    -6.245744    301.62605  0.038729591  0.038884768            3 
  650000    1.1331371   -6.2430388    302.58241  0.038792617  0.038878366            4 
  651000    1.1692113   -6.2524506    301.41254  0.038583274  0.038872175            3 
  652000    1.1372221   -6.2253041    302.19699   0.03862436   0.03886543            6 
  653000    1.1500621   -6.2452398    302.90772  0.038655911  0.038859278            5 
  654000     1.151751   -6.2450419    303.39673  0.038659114  0.038852499            3 
  655000    1.1239042   -6.2567368    302.79019  0.038522925  0.038845361            2 
  656000    1.1421164   -6.2273509    303.50418  0.038554901  0.038838379            5 
  657000    1.1646514   -6.2435667    304.67688  0.038644962  0.038832159            4 
  658000     1.170591   -6.2491412    305.73778   0.03872059   0.03882572            2 
  659000    1.1200922   -6.2694779    306.14745  0.038713638  0.038819252            3 
  660000     1.145489   -6.2551981    305.90767  0.038624706  0.038812562            3 
  661000    1.1509766   -6.2758904     305.8322  0.038556757  0.038805845            4 
  662000     1.177482   -6.2298417    307.23204  0.038674728    0.0387996            3 
  663000    1.1411643   -6.2550818    307.14721  0.038605733  0.038793458            5 
  664000     1.132724   -6.2368352    307.03596   0.03853363  0.038787399            8 
  665000    1.1402238   -6.2185731    308.37284  0.038643213   0.03878153            2 
  666000    1.1716273   -6.2375923    307.93291  0.038530144  0.038775012            3 
  667000     1.120692   -6.2175354    309.93986  0.038723121  0.038768582            4 
  668000    1.1424371   -6.2721142    309.83027  0.038651481  0.038762383            3 
  669000     1.132287   -6.2492869    309.66357  0.038572941  0.038755685            6 
  670000     1.153601   -6.2376782    309.70591  0.038520636  0.038749196            3 
  671000    1.1395035   -6.2260454    310.14911   0.03851827  0.038742557            2 
  672000    1.1392057    -6.242513    311.15676  0.038585907  0.038736056            4 
  673000    1.1572871   -6.2194895    311.42609  0.038561923  0.038729724            2 
  674000    1.1385567   -6.2257748    312.41785  0.038627331  0.038723408            7 
  675000    1.1247724   -6.2159103    313.01043  0.038643263  0.038716618            4 
  676000     1.140408   -6.2255193    312.35727   0.03850558  0.038709884            3 
  677000    1.1509907   -6.2107366    312.66139  0.038486139  0.038702766            3 
  678000    1.1117202   -6.2591458    312.52979    0.0384132  0.038695645            7 
  679000    1.1310232   -6.2460995    313.35638  0.038458073  0.038688374            5 
  680000    1.1438232   -6.2663323     313.8102  0.038457132  0.038681446            3 
  681000    1.1454805   -6.2937821    313.31529  0.038340099  0.038673994            3 
  682000    1.1454171   -6.2465915    313.47943  0.038303938  0.038666769            6 
  683000    1.1427039   -6.2663602    314.95537  0.038427937  0.038658934            2 
  684000    1.1241568   -6.2459902    314.17034  0.038276113  0.038651236            4 
  685000    1.1512073   -6.2109343    314.85124  0.038303071  0.038643665            3 
  686000    1.1357718   -6.2749043    315.34961  0.038307776  0.038636017            3 
  687000    1.1535611   -6.2749407    314.97721  0.038206843  0.038628161            3 
  688000    1.1624682   -6.2404162    315.73956  0.038243648  0.038620266            3 
  689000    1.1438934   -6.2202484    316.94495  0.038333932  0.038612297            2 
  690000       1.1393    -6.287137    315.87253  0.038148857  0.038604488            3 
  691000     1.152642   -6.2284267    317.17452  0.038250666  0.038596664            7 
  692000    1.1395786   -6.2595678    317.74031  0.038263525  0.038588451            3 
  693000    1.1338572   -6.2350766    318.01439  0.038241268  0.038580394            4 
  694000    1.0993715   -6.2811024    317.41845  0.038114607  0.038571957            4 
  695000    1.1313361   -6.2503884     318.9498  0.038243381  0.038563005            2 
  696000    1.1689328   -6.2469998    318.35285   0.03811696    0.0385545            5 
  697000    1.1706804   -6.2483956    319.09866  0.038151442  0.038546294            6 
  698000    1.1485398   -6.2788136    319.69749  0.038168277   0.03853793            4 
  699000    1.1502707   -6.2590466    320.34749  0.038191165  0.038529408            8 
  700000     1.142314   -6.2328945    319.91547  0.038085175  0.038520679            3 
  701000    1.1404445    -6.242899    320.22721  0.038067904  0.038511777            3 
  702000    1.1178972   -6.2802773    320.40988  0.038035361  0.038502719            6 
  703000     1.170339    -6.256003    320.38729  0.037978579  0.038493782            9 
  704000    1.1353309   -6.2737088     320.1575  0.037897431  0.038484597            2 
  705000    1.1330397   -6.2015354    322.12953  0.038076777  0.038475668            7 
  706000    1.1386582   -6.2359903    322.39319  0.038053965  0.038466693            7 
  707000    1.1315578   -6.2666025    321.40049  0.037883132  0.038457107            2 
  708000     1.127105   -6.2608869    320.67976  0.037744793  0.038447008            3 
  709000    1.1487454   -6.2548223    324.12322  0.038096288   0.03843784            5 
  710000    1.1392715   -6.2524143    323.95192  0.038022526  0.038428762            3 
  711000    1.1507833   -6.2625079    325.35536   0.03813354   0.03841989            5 
  712000     1.154722   -6.2360694    325.07166  0.038046777  0.038411164            3 
  713000    1.1253514   -6.2441642    326.30528  0.038137597  0.038402618            6 
  714000    1.1186542   -6.3142671    325.90744  0.038037749  0.038394549            3 
  715000    1.1524528   -6.2846309    325.67714  0.037957708  0.038386429            2 
  716000    1.1436095   -6.2894652    326.03052  0.037945824  0.038378301            2 
  717000    1.1223549   -6.2726681    325.66164  0.037850028  0.038369706            5 
  718000    1.1150883   -6.2574652    328.31765  0.038105577  0.038361325            3 
  719000    1.1180723   -6.2686824    327.99858  0.038015598   0.03835323            3 
  720000     1.154491   -6.2193934    328.62025  0.038034751  0.038344855            5 
  721000    1.1306212   -6.2662338     327.4378   0.03784533  0.038336611            3 
  722000    1.1089998   -6.2812631    328.66636  0.037934714  0.038327681            3 
  723000    1.1301193   -6.2478175    329.25543  0.037950142  0.038319085            2 
  724000    1.1180685   -6.2653342    329.60849  0.037938362  0.038310148            3 
  725000    1.1163768   -6.2741655    329.76237  0.037903721  0.038301086            4 
  726000    1.1160494   -6.2618349    329.30975  0.037799558  0.038291731            3 
  727000    1.1222611   -6.2355476      330.509   0.03788503  0.038282497            3 
  728000    1.1335606   -6.2433523    330.90007  0.037877756  0.038273222            6 
  729000    1.1429711   -6.2880526     329.6594  0.037683973  0.038263508            2 
  730000    1.1362104   -6.2689765     330.1734  0.037691027  0.038253953            6 
  731000    1.1250686    -6.264086    330.77557  0.037708113   0.03824445            3 
  732000    1.1127277   -6.2553277    331.72074  0.037764201  0.038234649            5 
  733000    1.1507109   -6.2691051    331.54408  0.037692597  0.038224943            5 
  734000    1.1287656   -6.2519532     332.1126   0.03770579  0.038215214            2 
  735000    1.1287056   -6.2363636    333.02184  0.037757578  0.038205678            2 
  736000    1.1422194    -6.237827    333.03036  0.037707242  0.038196008            2 
  737000    1.1354689   -6.2522967    333.52183   0.03771165  0.038186618            6 
  738000    1.1174714   -6.3058272    332.61169  0.037557779  0.038177371            6 
  739000    1.1356341   -6.2556517    334.76297  0.037749546  0.038168046            4 
  740000    1.1295378   -6.2660842    334.20171  0.037635328  0.038158952            3 
  741000    1.1463859   -6.2515954    335.43484  0.037723217  0.038149518            3 
  742000    1.1318142   -6.2802328    333.82365  0.037491425   0.03814025            5 
  743000    1.1399698   -6.2801507    334.99758  0.037572631  0.038131013            5 
  744000    1.1460472   -6.2749213    337.18243  0.037766849  0.038122408            5 
  745000    1.1262289   -6.2764489    337.51503  0.037753359  0.038113778            4 
  746000     1.157227    -6.260336    338.83074  0.037849725    0.0381051            4 
  747000    1.1154859   -6.2730163    337.39199  0.037638553  0.038096494            5 
  748000    1.1163806   -6.2843166    338.64484  0.037727812  0.038087706            3 
  749000    1.1013817   -6.2412051    339.20484  0.037739746  0.038078794            3 
  750000    1.1360403   -6.2827818    338.67942  0.037631047  0.038070222            2 
  751000    1.1219698   -6.2273215    340.32878  0.037763957  0.038061737            2 
  752000     1.126869   -6.2875036      339.698  0.037643839  0.038053408            4 
  753000    1.1165771   -6.2483243    341.32585  0.037773998   0.03804522            4 
  754000    1.1370607   -6.2544812    341.63769  0.037758366  0.038037734            5 
  755000    1.1353098   -6.2620075    342.89638  0.037847282  0.038030252            5 
  756000    1.1306406   -6.2548736    342.31356  0.037732976  0.038022186           10 
  757000    1.1234192   -6.2444447     343.8493  0.037852191   0.03801476            3 
  758000    1.1041707   -6.2898946     343.6198  0.037777022  0.038007561            3 
  759000     1.118852   -6.2410009     344.5415  0.037828447  0.038000554            4 
  760000    1.1295269   -6.2985783    344.15257  0.037736028  0.037993121            2 
  761000    1.1740216   -6.2801963    343.72524  0.037639645  0.037985366            3 
  762000    1.1129915   -6.2811077    344.66178  0.037692671  0.037977746            3 
  763000    1.1232712    -6.256403    344.52726  0.037628578  0.037970179            3 
  764000    1.1200161   -6.2744013    346.10769  0.037751712  0.037962451            4 
  765000    1.1029283   -6.2663575     345.7326  0.037661503  0.037954716            4 
  766000     1.128898   -6.2483492    346.02136  0.037643751  0.037947102            3 
  767000    1.1234301   -6.2606561    347.10531  0.037712442  0.037939631            4 
  768000    1.1472223   -6.2799335    346.89961  0.037641016  0.037932122            6 
  769000    1.1448616   -6.2730276     348.1101  0.037723245   0.03792468            4 
  770000    1.1446997   -6.2385263     347.7981  0.037640487  0.037917233            2 
  771000    1.0995042    -6.259351    348.01649  0.037615271  0.037909745            8 
  772000    1.1260899   -6.2842107    348.12884  0.037578674  0.037902019            3 
  773000     1.134463   -6.2497084    348.77914  0.037600166  0.037894383            3 
  774000    1.1392097   -6.2757376    349.72209  0.037653111  0.037886557            2 
  775000    1.1077946   -6.2545064    349.11461  0.037539205  0.037878484            3 
  776000    1.1249059   -6.2631954    349.93364  0.037578784  0.037870608            4 
  777000    1.1449913   -6.2640879    349.42636  0.037476014  0.037862818            4 
  778000    1.1155648   -6.2308928    351.27562  0.037625924   0.03785482            4 
  779000    1.1341391    -6.265462    349.80242  0.037420028  0.037846412            3 
  780000    1.1311029   -6.2472963    351.80801  0.037586325   0.03783819            1 
  781000    1.1300986   -6.2615701    350.62728  0.037412215  0.037829792            5 
  782000    1.1181019   -6.2905781     351.0768  0.037412276   0.03782133            5 
  783000    1.1399763   -6.2833929    352.07583   0.03747082  0.037813074            3 
  784000    1.1213752   -6.2744971    351.55631  0.037367805  0.037804398            2 
  785000    1.0953831    -6.306409    352.76176   0.03744817  0.037795463            2 
  786000    1.1543961   -6.3126236    351.19534  0.037234451  0.037786541            4 
  787000    1.1484801   -6.2521199    353.51197   0.03743244  0.037777813            5 
  788000     1.119457   -6.2298696    354.22344  0.037460177  0.037769146            3 
  789000    1.1265995   -6.2603574    353.85805  0.037374107  0.037760484            3 
  790000    1.1467765    -6.228595    353.55265  0.037294583  0.037751543            1 
  791000    1.1209012   -6.2424261    353.48487  0.037240294  0.037742593            3 
  792000    1.1323164   -6.2929287    354.24843  0.037273614  0.037733365            3 
  793000    1.1307952   -6.2989952    355.38056  0.037345582  0.037724379            3 
  794000    1.1167442   -6.2854629    355.74044  0.037336318  0.037715642            3 
  795000    1.1236198   -6.2809347    356.04545  0.037321326  0.037707216            4 
  796000    1.1264479   -6.2456284    357.02519  0.037377009  0.037698386            3 
  797000    1.1102328   -6.2663915    356.93178  0.037320345  0.037689527            6 
  798000     1.132838   -6.2935955    356.48015  0.037226415  0.037680707            3 
  799000    1.1287619   -6.2853841    356.66952  0.037199575  0.037671858            5 
  800000    1.1098996   -6.2775724    359.29932  0.037427013  0.037663371            1 
  801000     1.113681   -6.2653554    357.92018  0.037236806  0.037654805            4 
  802000    1.1114287     -6.22579      359.195  0.037322838  0.037646206            4 
  803000    1.1382885    -6.306412    358.30784  0.037184292  0.037637685            3 
  804000    1.1369321   -6.3040955    359.20444  0.037230974  0.037629357            2 
  805000    1.1336881   -6.3144398    360.33095   0.03730134  0.037620646            2 
  806000    1.1200967   -6.2522191    361.07187  0.037331665  0.037611796            3 
  807000    1.1304722    -6.267665    360.78427  0.037255707  0.037602823            2 
  808000    1.1055395   -6.2603811    361.35395  0.037268353  0.037594578            2 
  809000    1.1242909   -6.2983127    361.78199  0.037266377  0.037586156            4 
  810000    1.1235328   -6.3073369    361.49982   0.03719134  0.037577589            2 
  811000    1.1147677   -6.2807202    363.62271  0.037363616  0.037568993            4 
  812000    1.1240612   -6.2699892    363.60954   0.03731625  0.037560688            5 
  813000    1.1210123   -6.2786208    363.20016  0.037228389  0.037552405            2 
  814000    1.1086634   -6.3147292    363.97143  0.037261613   0.03754451            1 
  815000    1.1334195   -6.2686826    364.71557   0.03729198   0.03753649            3 
  816000    1.1264264   -6.2680169    364.85355  0.037260371  0.037528604            4 
  817000    1.1181689   -6.3082538    365.42921  0.037273481  0.037520619            4 
  818000    1.1059347   -6.2961467    365.79243  0.037264918  0.037512975            7 
  819000    1.1337301   -6.2573414    366.20668  0.037261567  0.037505205            3 
  820000    1.1237238   -6.2712674    366.80261  0.037276688  0.037497578            3 
  821000    1.0993839   -6.3017799    367.59668  0.037311884  0.037489935            5 
  822000    1.1032507     -6.29336    366.60323  0.037165778  0.037481996            4 
  823000    1.1498066    -6.293677    368.28172  0.037290576  0.037473957            2 
  824000    1.1076122   -6.2603455    368.02527  0.037219384  0.037466152            3 
  825000    1.1424364   -6.2725765    368.03225  0.037174974   0.03745822            3 
  826000    1.1398375   -6.2513705    369.92294  0.037320716  0.037450346            3 
  827000    1.1418247   -6.3003147    369.49615  0.037232583  0.037442685            6 
  828000     1.119126   -6.3003469    369.13515  0.037151283  0.037434942            8 
  829000     1.139806   -6.2897479    369.65105  0.037158328   0.03742687            8 
  830000    1.1057437   -6.3081701    370.05234  0.037153849  0.037418741            2 
  831000    1.1207888   -6.3007883    369.60816  0.037064597  0.037410738            6 
  832000    1.1111699   -6.3330244    370.03819   0.03706312  0.037402345            3 
  833000    1.1355887   -6.2772841    372.01693  0.037216579  0.037393898            2 
  834000    1.1059494   -6.3151315    369.63241  0.036933694  0.037385423            4 
  835000    1.1143802   -6.2960086    370.17366  0.036943479  0.037376626            4 
  836000    1.0965521   -6.3036525    371.08705  0.036990336  0.037368017            5 
  837000    1.1050458   -6.2638093    371.70589  0.037007755  0.037359471            8 
  838000    1.1255801   -6.3220179    370.13861  0.036807738  0.037350656            3 
  839000     1.107506   -6.2735347    372.39409  0.036987891  0.037341371            4 
  840000    1.1410673    -6.268971    373.50789  0.037054354  0.037332281            4 
  841000    1.1228561   -6.2665314    372.61266  0.036921587  0.037323171            3 
  842000    1.1002286   -6.2873142    373.01553  0.036917609   0.03731381            4 
  843000    1.1402666   -6.2692514    374.80977  0.037051184    0.0373047            3 
  844000    1.1128089   -6.2890436    374.51427  0.036978107  0.037295795            7 
  845000    1.1077817   -6.2485507    375.64929  0.037046281  0.037287194            4 
  846000    1.1155543   -6.2918807    375.23129  0.036961317  0.037278522            3 
  847000    1.1326587   -6.2852122     376.7225  0.037064394  0.037269768            3 
  848000    1.1207988    -6.251056    375.09262  0.036860517  0.037260826            5 
  849000    1.1170757   -6.3042547    376.65816  0.036970765  0.037252134            3 
  850000    1.0776081   -6.2783989    376.41639  0.036903568  0.037243385            2 
  851000     1.107522   -6.2603289    376.98017   0.03691541  0.037234778            4 
  852000     1.133715   -6.2946927    376.97865  0.036871934  0.037226183            7 
  853000    1.1169191   -6.2829434    377.72673   0.03690179  0.037217774            2 
  854000    1.0978611   -6.3095946    378.42027  0.036926256  0.037209299            4 
  855000    1.1208268   -6.2733199    378.66928  0.036907337  0.037200705            3 
  856000    1.1000939   -6.3090306     378.1532  0.036813979  0.037192038            4 
  857000    1.1474899    -6.300236    378.82056  0.036835916   0.03718324            4 
  858000    1.0909662    -6.328581     379.3531  0.036844707  0.037174482            3 
  859000    1.1162939   -6.2869947    380.54232  0.036917183  0.037166152            5 
  860000     1.096585    -6.305563    380.32377  0.036853079  0.037157679            3 
  861000     1.130746   -6.3001944    381.30353  0.036905104  0.037149367            6 
  862000    1.1197541   -6.3037565    381.80407   0.03691068  0.037141631            2 
  863000    1.1104055   -6.2834466    381.20595  0.036810153  0.037133649            3 
  864000    1.1090137    -6.355988    380.92387  0.036740342  0.037125494            3 
  865000    1.1259216   -6.2850576    383.27508  0.036924382  0.037117542            5 
  866000    1.0987084   -6.3262463    382.49244  0.036806432  0.037109683            6 
  867000    1.1168036   -6.3421676    383.58456  0.036868951  0.037102101            6 
  868000    1.1307192   -6.3283347    384.58698  0.036922713  0.037094294            3 
  869000    1.1367244    -6.339215    385.24392  0.036943222  0.037086794            1 
  870000    1.0915021   -6.3010516    386.67961  0.037038277   0.03707936            3 
  871000    1.1236853    -6.307543    385.63635  0.036895939  0.037072347            4 
  872000     1.089566   -6.2909574     387.3786  0.037020126  0.037065418            6 
  873000    1.1255295   -6.2778429    386.72072  0.036914922  0.037058284            5 
  874000    1.1109606   -6.3298578    387.32036  0.036929859  0.037051202            6 
  875000     1.123214   -6.2824389    389.23969  0.037070446    0.0370446            4 
  876000    1.1367178   -6.2846773    389.34212  0.037037873  0.037038148            4 
  877000    1.0922922    -6.302447    388.60882  0.036925962  0.037031369            2 
  878000    1.1268818   -6.2855332     390.3822  0.037052221   0.03702483            3 
  879000    1.0960248    -6.286096    388.83315  0.036863211   0.03701802            3 
  880000    1.1099216   -6.2872486    389.79032  0.036911962  0.037011201            5 
  881000     1.124415   -6.3359737    389.95983  0.036886098  0.037004242            3 
  882000    1.1017239   -6.2926495    391.69542   0.03700826  0.036997582            4 
  883000    1.1304743   -6.2759877    389.69054  0.036777137   0.03699063            5 
  884000    1.1426336   -6.2908822    391.42494  0.036899033  0.036983629            3 
  885000    1.1166252   -6.3199121    391.92517  0.036904441  0.036976801            6 
  886000     1.106961   -6.3189756    393.73428  0.037032946  0.036970264            4 
  887000    1.1023671   -6.3199455    392.25203  0.036851938  0.036963705            2 
  888000    1.1270361   -6.2743173    393.59036  0.036936032  0.036957096            3 
  889000    1.1092139   -6.3130893    393.25996  0.036863513  0.036950245            2 
  890000    1.0940583   -6.2648268    394.29874  0.036919358  0.036943567            5 
  891000    1.0977658   -6.2906156    393.40972  0.036794774  0.036936625            3 
  892000    1.1199326   -6.3113279    393.93584  0.036802675  0.036929617            3 
  893000     1.091169   -6.2747146     394.8508  0.036846845  0.036922698            4 
  894000    1.1260614   -6.2900896    396.13057  0.036924923  0.036916141            3 
  895000    1.1103495    -6.286705    396.62558  0.036929756  0.036909516            3 
  896000    1.0964989   -6.3055204    396.94298   0.03691806  0.036902862            5 
  897000    1.0977993   -6.3195578    396.59953  0.036844996   0.03689621            2 
  898000      1.10838   -6.3272465    397.74406  0.036910176  0.036889598            7 
  899000     1.112765   -6.2722408     397.8698  0.036880775  0.036883342            3 
  900000    1.0964254   -6.3387988    397.56031   0.03681114   0.03687692            4 
  901000    1.0982344   -6.3338092    397.11567  0.036729159  0.036870282            5 
  902000    1.0962242   -6.2776327     398.7237  0.036837001  0.036863433            4 
  903000    1.1163672   -6.2683462    398.75183  0.036798803  0.036856604            3 
  904000    1.1204121   -6.3057862    399.14148  0.036794016  0.036849793            2 
  905000    1.0827809   -6.3214247    397.94818  0.036643479  0.036842732            5 
  906000    1.1144324   -6.2937555    400.85711  0.036870595  0.036835756            3 
  907000    1.1060255   -6.3240557    401.01266  0.036844235  0.036829113            4 
  908000    1.0974151   -6.3122918    401.22286   0.03682295  0.036822621            4 
  909000    1.1211438   -6.2873718    402.11203  0.036863956  0.036816368            5 
  910000    1.1107002   -6.2866148    402.93748  0.036899037  0.036810144            3 
  911000    1.1009646   -6.3006115    403.20871  0.036883344  0.036803951            5 
  912000    1.0873178   -6.3212204    403.60997  0.036879566  0.036797998            5 
  913000    1.1161935    -6.311489    403.84194  0.036860345  0.036792082            3 
  914000    1.0993548    -6.286418    405.01507  0.036926976  0.036786103            5 
  915000    1.1010574   -6.2902752    405.58412  0.036938445  0.036780385            4 
  916000    1.0990435   -6.2785048     405.1859   0.03686189  0.036774655            4 
  917000    1.1049965   -6.2828095    404.83427  0.036789737  0.036768618            3 
  918000    1.1095133   -6.3025887    405.47574  0.036807892  0.036762259            5 
  919000    1.1274928    -6.313161    406.44834  0.036856034  0.036756127            2 
  920000    1.1085201   -6.3478644    405.33904  0.036715493  0.036749673            3 
  921000     1.105898   -6.3273195    405.91326  0.036727584  0.036743105            3 
  922000    1.0892726   -6.2876193    406.59228  0.036749121   0.03673657            5 
  923000    1.0942775    -6.339325    406.22779  0.036676398  0.036730089            5 
  924000    1.0988945   -6.3388051    405.44885  0.036566454  0.036723334            4 
  925000    1.0880387   -6.3256302    406.39295  0.036611978  0.036716538            5 
  926000      1.13501   -6.2993101    406.79068  0.036608232  0.036709565            3 
  927000    1.1119188   -6.3183226    408.19658  0.036695126  0.036702568            5 
  928000    1.1213104   -6.2607732    408.62148   0.03669374   0.03669563            7 
  929000    1.1127524   -6.3072972    407.71674  0.036573084  0.036688961            3 
  930000    1.1021785   -6.2829376    409.11606  0.036659145  0.036681853            4 
  931000    1.1105082    -6.285586    408.47202  0.036562121  0.036674495            2 
  932000    1.1094467   -6.3352789    409.88155  0.036648922  0.036667473            3 
  933000    1.1105549   -6.3217453    409.79077  0.036601533  0.036660381            9 
  934000    1.1119302     -6.32862    409.38456  0.036526103  0.036653407            3 
  935000    1.1130922   -6.3770925    410.91181  0.036623156  0.036646305            3 
  936000    1.1006743   -6.2823208    411.94153  0.036675706  0.036639247            4 
  937000    1.1122259   -6.2868443    412.57823   0.03669319  0.036632401            2 
  938000    1.0940567   -6.3160625    409.80946   0.03640809  0.036625612            3 
  939000     1.086971   -6.3048531    411.12903  0.036486424  0.036618538            4 
  940000    1.1194701   -6.3396228    412.67596  0.036584748  0.036611681            2 
  941000    1.1112439   -6.3576973     412.8765  0.036563629  0.036604666            4 
  942000    1.1036223   -6.2720055     412.0003  0.036447302  0.036597544            5 
  943000     1.099445   -6.3272105    413.37072  0.036529756  0.036590494            5 
  944000    1.1243688   -6.3222893     413.2567  0.036480994  0.036583174            4 
  945000     1.089055    -6.302976    413.64735  0.036476838  0.036576008            5 
  946000    1.1046641    -6.341955    412.08717  0.036300843  0.036568523            3 
  947000     1.101413   -6.3246333     414.0309  0.036433553  0.036561054            7 
  948000    1.1233996   -6.2843009    415.35884  0.036511853  0.036553952            4 
  949000    1.0840141   -6.3001179    415.31414  0.036469454  0.036546379            2 
  950000    1.0840352   -6.2827532    414.62196  0.036370347  0.036538891            3 
  951000     1.112302    -6.324013    414.98534  0.036363945  0.036531767            2 
  952000    1.0924564   -6.2844181    414.96091  0.036323609  0.036524438            6 
  953000    1.0893647   -6.3398375    415.79378  0.036358323  0.036517134            7 
  954000    1.0914845    -6.310429    415.72106  0.036313859   0.03650964            3 
  955000    1.0858754   -6.3510592    415.60178  0.036265426  0.036502063            3 
  956000    1.1040446   -6.3343691    415.37196  0.036207458  0.036494133            4 
  957000    1.0984763   -6.3245158    416.58417   0.03627518  0.036486613            2 
  958000    1.1014684   -6.3290713    418.00264  0.036360703  0.036479311            4 
  959000    1.1016765   -6.3085194    417.29357  0.036261173    0.0364718            3 
  960000    1.1024509   -6.2908016    416.98991  0.036197041  0.036464052            3 
  961000    1.1283422   -6.3544509     416.8157  0.036144268  0.036456411            4 
  962000    1.1177821   -6.3288261    418.90912  0.036288039   0.03644856            2 
  963000    1.0883118   -6.3727824    418.34999  0.036201973  0.036440981            4 
  964000    1.0937587   -6.3458031    418.44644  0.036172756  0.036433254            9 
  965000     1.087274   -6.3672506    419.61129  0.036235862  0.036425831            3 
  966000    1.0783939   -6.3162487    420.15193  0.036244991  0.036418148            2 
  967000    1.0833747    -6.310946    419.62228  0.036161864  0.036410396            5 
  968000     1.108124   -6.2989254    420.52795  0.036202475   0.03640275            2 
  969000    1.0884556   -6.3229774    421.00719  0.036206329  0.036395083            3 
  970000    1.0753192   -6.3404375    422.11568  0.036264234  0.036387179            6 
  971000    1.0983186   -6.3310701    421.49794  0.036173871  0.036379013            4 
  972000     1.094125   -6.3844081    422.21013  0.036197714  0.036370987            7 
  973000    1.1069464   -6.3473519    421.56564  0.036105313  0.036363004            5 
  974000    1.0831019   -6.3277763     423.1212  0.036201335  0.036355194            2 
  975000    1.0903146   -6.3044583    423.40622  0.036188566   0.03634738            3 
  976000    1.0785497   -6.3370043    423.34221  0.036146022  0.036339574           10 
  977000    1.0915564   -6.3400682    422.85459  0.036067433  0.036331536            5 
  978000    1.0972526   -6.3269827    425.05071  0.036217682  0.036323663            2 
  979000    1.0769447   -6.3430852    424.40743   0.03612593  0.036315639            5 
  980000    1.1073199   -6.3511876     424.0897  0.036062049   0.03630784            5 
  981000    1.1021617   -6.3474202    425.01098  0.036103549  0.036300084            4 
  982000    1.0905408   -6.3163057    425.92383  0.036144249  0.036292685            6 
  983000    1.0940909   -6.3535302    426.00921  0.036114718   0.03628509           10 
  984000    1.0655332   -6.3602837    426.69829  0.036136373  0.036277694            3 
  985000    1.0933114   -6.3347254    427.41957  0.036160708  0.036270507           10 
  986000    1.0924679   -6.2978769     426.6892  0.036062306  0.036263095            2 
  987000    1.0965149   -6.3018275    428.22139  0.036155133  0.036255555            2 
  988000    1.0902509   -6.3144644    427.61865    0.0360677   0.03624778            8 
  989000     1.104772   -6.3312558    428.08753  0.036070739  0.036240253            2 
  990000    1.1026525   -6.3536602    428.71993  0.036087536  0.036232876            2 
  991000    1.0948848   -6.3154701    428.67756  0.036047558  0.036225448            4 
  992000    1.0867794   -6.3104689    428.63586  0.036007717  0.036217785            4 
  993000    1.1049976   -6.3380337    428.83378  0.035988065  0.036209918            5 
  994000    1.0819806   -6.3397942    429.30546  0.035991403  0.036202476            5 
  995000    1.1010682   -6.3476457    430.59917  0.036063582  0.036194859            5 
  996000    1.1123598   -6.2979852     429.8933  0.035968315  0.036187018            5 
  997000    1.0827095   -6.3375706    430.65564  0.035995958  0.036179367            2 
  998000    1.0877385   -6.3293322    430.81331  0.035973055  0.036171282            3 
  999000    1.0949383   -6.3665237    429.94896  0.035864945  0.036163078            3 
 1000000    1.1079436   -6.3657695    429.89201  0.035824334  0.036154642            7 
 1001000    1.1363143   -6.3429836    431.23917  0.035900697  0.036146246            2 
 1002000    1.0764321   -6.3481019    430.94042  0.035840022   0.03613807            4 
 1003000    1.0919155   -6.3419055    431.35659  0.035838866  0.036129962            5 
 1004000    1.0806477   -6.3574814    431.93163  0.035850899  0.036121919            4 
 1005000    1.1096503    -6.329087    432.94551  0.035899296  0.036113672            4 
 1006000    1.0961355   -6.3411549    432.82454   0.03585359  0.036105469            4 
 1007000    1.1005013   -6.3448671    433.03528  0.035835426  0.036097348            2 
 1008000    1.1025013   -6.3204438    434.17219  0.035893865  0.036089669            4 
 1009000    1.1053116   -6.3459117    435.02611  0.035928817  0.036081725            4 
 1010000    1.1062184   -6.3516159    434.39358  0.035841055  0.036074057            4 
 1011000    1.0780866   -6.3615491    436.01871  0.035939558  0.036066494            3 
 1012000    1.0911075   -6.3614122    434.88145  0.035810396  0.036058967            4 
 1013000    1.0824464   -6.3640829     436.9817   0.03594782   0.03605133            2 
 1014000    1.0905353    -6.314882    436.90517  0.035906079   0.03604415            2 
 1015000    1.0859101   -6.3291285    436.01104  0.035797294  0.036036887            2 
 1016000    1.0663424   -6.2823303    438.09557  0.035933035  0.036029591            2 
 1017000    1.0887035    -6.335983    438.27178  0.035912142  0.036022199            3 
 1018000     1.085811   -6.3707377    436.86468   0.03576168   0.03601457            4 
 1019000     1.083482    -6.359689    436.71431  0.035714288  0.036006938            4 
 1020000    1.0915268   -6.3197084     438.8972  0.035857614  0.035999185            4 
 1021000    1.0751368   -6.3548546    437.60683  0.035717175  0.035991343           13 
 1022000     1.091688   -6.3488369    437.94464  0.035709772  0.035983628            3 
 1023000    1.0914516   -6.3759014    438.67204  0.035734119  0.035975726            3 
 1024000    1.1048261   -6.3497639    440.24274  0.035827046  0.035967911            6 
 1025000    1.1170081    -6.295354    440.63317  0.035823835  0.035960326            4 
 1026000    1.0878207   -6.3464223    440.85871  0.035807238  0.035952734            6 
 1027000    1.1183765   -6.3450088    439.91814  0.035696051  0.035945092            3 
 1028000    1.1081427   -6.3043182    442.31169  0.035855358  0.035937282            4 
 1029000    1.1212198   -6.3637094    441.50165  0.035754912   0.03592988            5 
 1030000    1.0869811   -6.3750146    442.19666  0.035776429  0.035921993            4 
 1031000    1.0846892   -6.3368587    442.68207  0.035780962  0.035914132            2 
 1032000    1.0620054   -6.4051518    441.41332  0.035643841  0.035906461            5 
 1033000    1.0723663   -6.3434999    443.87701  0.035808084  0.035898552            3 
 1034000    1.0870064   -6.3153755    443.25184  0.035723069    0.0358908            4 
 1035000    1.0951842   -6.3836513     444.1044  0.035757198  0.035883272            5 
 1036000    1.0693137    -6.375724    443.92235   0.03570804  0.035875649            3 
 1037000    1.0649665   -6.3225803    445.28881  0.035783415  0.035868093            2 
 1038000    1.0709102   -6.3456671    444.66787  0.035699091  0.035860311            5 
 1039000    1.0870768   -6.3491187    445.68834  0.035746579  0.035852706            5 
 1040000    1.0890431   -6.3458638    445.37015  0.035686711  0.035845116            5 
 1041000     1.081435   -6.3136853    446.34244  0.035730262  0.035837576            3 
 1042000    1.0677824   -6.3567085    445.46535  0.035625828  0.035830133            3 
 1043000    1.0966702   -6.3776058     446.6836  0.035689006  0.035822534            3 
 1044000    1.0623941   -6.3245585    447.59852  0.035727851  0.035814991            4 
 1045000    1.0700594   -6.3593871    447.51505  0.035687005  0.035807622            5 
 1046000    1.0934043   -6.3770587    448.47746  0.035729562    0.0358004            4 
 1047000    1.1005041   -6.3737335    449.25306  0.035757168  0.035793092            3 
 1048000     1.084994   -6.2865051    449.28718  0.035725762  0.035785925            2 
 1049000    1.0686478   -6.3454502    449.24247  0.035688153  0.035778883            5 
 1050000    1.0842724   -6.3612394    448.75938  0.035615824  0.035771302            5 
 1051000    1.0799796   -6.3189376    450.09861  0.035688123  0.035763982            5 
 1052000    1.0850101   -6.3538524     449.5987  0.035614599  0.035756633            4 
 1053000    1.0933412   -6.3570091    450.88729  0.035682755  0.035749309            7 
 1054000    1.0943753    -6.401403    450.62582  0.035628227  0.035741908            5 
 1055000    1.0939229   -6.3525068    450.85181  0.035612307  0.035734358            4 
 1056000    1.0905131   -6.3537583    451.57214  0.035635428  0.035727044            4 
 1057000    1.0715636   -6.3949729    451.21786  0.035573783   0.03571942            3 
 1058000    1.0957026   -6.3252867    452.67665   0.03565506  0.035712035            4 
 1059000    1.1040821   -6.3597087    452.41976  0.035601178  0.035704782            2 
 1060000    1.0924643   -6.3429323    454.46003   0.03572799  0.035697579            4 
 1061000     1.079127   -6.3548743    453.02124   0.03558131  0.035690351            4 
 1062000    1.0768881   -6.3377011    454.29506  0.035647761  0.035683362            2 
 1063000    1.0848912   -6.3739632     453.9098  0.035584023  0.035676377            2 
 1064000    1.0995147   -6.3712363    454.12776  0.035567651  0.035669349            3 
 1065000    1.0545963    -6.348887    455.59124  0.035648767  0.035662381            7 
 1066000    1.0677678   -6.3754986    456.76085  0.035706758  0.035655401            3 
 1067000    1.0887493   -6.3137775    457.25695  0.035712039  0.035648549            4 
 1068000    1.0885558   -6.3757508    456.03758  0.035583456  0.035642068            3 
 1069000    1.0512884   -6.3846092    458.00541  0.035703571    0.0356356            8 
 1070000    1.0846699   -6.3764287    457.96955  0.035667411  0.035629314            3 
 1071000    1.0855402   -6.3530281    459.54945  0.035757038  0.035622794            2 
 1072000    1.0825268   -6.3652075    458.60667  0.035650394  0.035616659            2 
 1073000    1.0955241   -6.4043346    458.81219  0.035633131  0.035610265            8 
 1074000    1.0972321   -6.3438722    460.44319  0.035726504  0.035603743            3 
 1075000    1.0801175   -6.3751898    459.95362  0.035655319  0.035597656            2 
 1076000    1.0770871   -6.4033925    460.25929  0.035645856  0.035591355            4 
 1077000    1.0780901   -6.3634293    462.34018  0.035773768  0.035585199            3 
 1078000    1.0882492    -6.361974    460.76472  0.035618794  0.035579068            4 
 1079000     1.065533   -6.3402651    462.66987  0.035732922  0.035573004            3 
 1080000    1.1212772    -6.319207    462.80099  0.035709953  0.035567031            2 
 1081000     1.072568   -6.3239234    462.95906  0.035689104  0.035560864            8 
 1082000    1.0888731    -6.348001    462.75162  0.035640143  0.035554713            7 
 1083000    1.0528766   -6.3653671    462.47147  0.035585678  0.035548452            8 
 1084000    1.0873614   -6.3620497    462.63522  0.035565438  0.035542141            5 
 1085000    1.0769239    -6.374592    462.75355  0.035541747  0.035535612            3 
 1086000    1.0961992   -6.3434913    463.20804  0.035543895  0.035529106            3 
 1087000    1.0811006   -6.3880629    463.68704  0.035547918  0.035522463            6 
 1088000    1.0646047   -6.3664078    464.88946  0.035607342   0.03551589            4 
 1089000    1.1087307   -6.3616799    463.33665   0.03545582  0.035509182            8 
 1090000    1.0692754   -6.3595906     463.9656  0.035471376  0.035502473            2 
 1091000    1.0751247   -6.3447681     465.0786  0.035523877  0.035495842            3 
 1092000    1.0765067   -6.3672985    465.47027  0.035521235  0.035488932            4 
 1093000    1.0674442   -6.3642994    465.41342  0.035484402  0.035482027            5 
 1094000    1.0872644   -6.3233732     466.7422  0.035553184  0.035475172            7 
 1095000    1.0468813   -6.3468283    464.83508  0.035375576  0.035468264            5 
 1096000    1.0693691   -6.3268866    464.28108  0.035301177  0.035461226            3 
 1097000    1.0557094   -6.3195767    467.17071  0.035488507  0.035454274            3 
 1098000    1.0767486   -6.3691864    466.86254  0.035432798  0.035447221            3 
 1099000    1.1044193   -6.3821158    466.55868  0.035377516  0.035440247            8 
 1100000    1.0607243   -6.3699575    467.39147  0.035408445  0.035433337            3 
 1101000    1.0850815   -6.3520904    468.42046  0.035454168  0.035426299           16 
 1102000    1.1018411   -6.4174099     469.0085  0.035466463  0.035419607            3 
 1103000    1.0874367   -6.3492711    470.08949  0.035515978  0.035412916            6 
 1104000    1.0967947   -6.3659854    470.17399  0.035490187  0.035406351            4 
 1105000    1.0788318   -6.3614624    470.33711   0.03547037   0.03539983            4 
 1106000    1.0605262   -6.3803867    468.33632  0.035287546  0.035393153            4 
 1107000    1.0727131   -6.3743388    469.83035  0.035368138  0.035386356           10 
 1108000    1.0372315   -6.3666347    471.89926  0.035491822  0.035379446            3 
 1109000    1.0741118   -6.3449122    470.27393  0.035337687  0.035372501            4 
 1110000    1.0659525   -6.3322078    471.61885  0.035406821  0.035365618            3 
 1111000    1.0940555   -6.3931191    470.02746  0.035255585  0.035358453            4 
 1112000    1.0642808   -6.3596585    472.45538  0.035405829  0.035351299            5 
 1113000    1.0872874   -6.3315301    470.01814  0.035191535  0.035344357            6 
 1114000    1.0892167   -6.3594034    470.14137  0.035169163  0.035337058            2 
 1115000    1.0681228   -6.3667784    471.74351  0.035257362  0.035329764            8 
 1116000    1.0610117    -6.398546     470.2271  0.035112537  0.035322395            3 
 1117000    1.0687008   -6.3910665    470.00099  0.035064234  0.035315009            5 
 1118000    1.1007149   -6.3525333    471.89382  0.035173958  0.035307567            3 
 1119000      1.07646   -6.3946017    471.39471  0.035105355  0.035299979            7 
 1120000    1.0789411   -6.4027318    473.78104  0.035251566   0.03529249            5 
 1121000    1.0743544    -6.379118    473.87232  0.035226905   0.03528493            6 
 1122000    1.0727225   -6.3749735    471.23546  0.034999662  0.035277259            4 
 1123000    1.0571443   -6.3452645     474.2056  0.035188899  0.035269517            3 
 1124000     1.074482   -6.3739561    473.84804  0.035131082  0.035261842            5 
 1125000     1.067536   -6.3675758    472.45589  0.034996733  0.035254118            3 
 1126000    1.0821862   -6.3885128     474.3655  0.035106979  0.035246427            2 
 1127000    1.0634313   -6.3674253    473.38736  0.035003502  0.035238835            4 
 1128000    1.0383345   -6.3925974    474.86074   0.03508132  0.035231054            2 
 1129000     1.115045   -6.3532517    477.74484  0.035263127  0.035223535            3 
 1130000    1.0903916   -6.3868558    476.07293  0.035108623  0.035216274            9 
 1131000     1.063736   -6.3675216    476.98288  0.035144627  0.035209067            4 
 1132000    1.0588065   -6.3704857    477.17483  0.035127711  0.035201717            5 
 1133000    1.0746401    -6.382158    477.96598  0.035154897  0.035194723            4 
 1134000    1.0775247   -6.3915649    477.39404  0.035081866  0.035187583            3 
 1135000    1.0795844   -6.3707477    478.77539  0.035152378  0.035180685            3 
 1136000    1.0483289   -6.3781608    478.48354  0.035100025  0.035173523            4 
 1137000    1.0789925   -6.3970098    477.08945  0.034966978  0.035166323            4 
 1138000    1.0679895   -6.3738319    479.11289  0.035084424  0.035159193            7 
 1139000    1.0503965    -6.363765    478.15894  0.034983827   0.03515197            3 
 1140000    1.0523372   -6.3793787    480.32732  0.035111646  0.035145005            9 
 1141000    1.0722646   -6.3456426    480.25746  0.035075771  0.035137795            3 
 1142000    1.0449673   -6.3909653    479.71923  0.035005782  0.035130561            2 
 1143000    1.0646973   -6.3752864    481.43792  0.035100461  0.035123397            4 
 1144000    1.0521854   -6.3680018    481.16074  0.035049588  0.035116444            5 
 1145000    1.0694707   -6.3870403    480.84974  0.034996342  0.035109374            6 
 1146000    1.0731511   -6.3795324    480.15897  0.034915574  0.035102171            6 
 1147000    1.0620554    -6.414626    481.43442  0.034977798  0.035094969            2 
 1148000     1.090705   -6.3822139    482.15786  0.034999845  0.035087741            3 
 1149000    1.0607454   -6.3992187    481.60158  0.034929038  0.035080378            4 
 1150000    1.0686593    -6.405987     481.4914  0.034890681  0.035072985           17 
 1151000    1.0733369   -6.4117459    483.14826  0.034980326   0.03506541            4 
 1152000    1.0671024   -6.3819451    483.80163  0.034997225  0.035058023            5 
 1153000    1.0421518   -6.3703956    483.16898  0.034921146  0.035050792            3 
 1154000     1.064186   -6.4112802    483.30602  0.034900781  0.035043341            5 
 1155000    1.0687502   -6.3659782    485.12802  0.035002022  0.035036026            4 
 1156000     1.054433   -6.3606737    484.97421  0.034960655    0.0350288            5 
 1157000    1.0622922   -6.3974099    484.74236   0.03491374  0.035021447            4 
 1158000    1.0726855    -6.397043    484.74191  0.034883557  0.035013919            4 
 1159000    1.0546687   -6.3837239    485.07623  0.034877497  0.035006393           10 
 1160000    1.0680257   -6.4088198    484.31168  0.034792506  0.034998932            7 
 1161000    1.0749223   -6.3852029    484.66905  0.034788189  0.034991542            2 
 1162000    1.0625559   -6.3933863    485.60154  0.034825125  0.034983815            4 
 1163000    1.0727499   -6.3667665    486.68561  0.034872858  0.034976027           11 
 1164000    1.0899828   -6.3753059    485.62844  0.034767214  0.034968412            6 
 1165000    1.0686042   -6.3966503    486.75161  0.034817712  0.034961056            5 
 1166000    1.0468285   -6.3984347    486.61999  0.034778444  0.034953517            3 
 1167000    1.0611098   -6.4069067    488.27644  0.034866927  0.034945863            6 
 1168000    1.0612536   -6.3868843    488.06895  0.034822271  0.034938263            5 
 1169000    1.0783966    -6.395111    488.51502  0.034824281  0.034930724            9 
 1170000    1.0637925   -6.4139223    488.47033  0.034791334  0.034923137            7 
 1171000    1.0589709   -6.4018969     489.2417  0.034816517  0.034915555            5 
 1172000    1.0787556   -6.3754383    489.29434  0.034790553  0.034907914            6 
 1173000    1.0742238    -6.384821    487.23119  0.034614322  0.034900334            3 
 1174000    1.0652001   -6.3894552    489.34979  0.034735221  0.034892656            4 
 1175000    1.0728329   -6.4006587    488.34311  0.034634263  0.034884723           11 
 1176000    1.0940542   -6.3946056    488.27543  0.034600017  0.034876729            6 
 1177000    1.0482198   -6.3894677    490.53302   0.03473046  0.034868783            9 
 1178000    1.0556754   -6.3665079    491.87841  0.034796152  0.034861068            5 
 1179000    1.0598517   -6.3990944    491.89748  0.034767987  0.034853465            4 
 1180000    1.0681632   -6.3882744    491.12855  0.034684219   0.03484596            6 
 1181000    1.0713009   -6.3909006    490.62293  0.034619174  0.034838202            4 
 1182000     1.034962   -6.3878787    491.37504  0.034642911  0.034830339            2 
 1183000    1.0604694   -6.3862112    492.18504  0.034670685  0.034822499            5 
 1184000    1.0497115   -6.3713234    492.93627  0.034694276  0.034814816            6 
 1185000    1.0712681   -6.4334025     491.7402  0.034580886  0.034807086            4 
 1186000    1.0447303   -6.4283052    491.59789  0.034541729  0.034799144           18 
 1187000    1.0663572    -6.394622    492.81371  0.034597986  0.034790966            3 
 1188000    1.0746425   -6.4185646    492.76811  0.034565664  0.034782976            2 
 1189000     1.066046   -6.3948479    492.64682  0.034528093  0.034774832            7 
 1190000    1.0538258   -6.3588896    493.56024  0.034563042  0.034766668            9 
 1191000    1.0404931   -6.3876307     494.1972  0.034578589  0.034758622            6 
 1192000    1.0749022   -6.4064071    493.34751  0.034490178  0.034750504            3 
 1193000     1.050751   -6.4141556    494.06336  0.034511271  0.034742376            5 
 1194000     1.038704   -6.4078738    492.86497  0.034398728   0.03473391            5 
 1195000    1.0619103   -6.4070024    493.92047  0.034443547  0.034725584            3 
 1196000    1.0531967   -6.4063748    495.73897  0.034541455  0.034717204            6 
 1197000    1.0688545    -6.404812    494.43602  0.034421889   0.03470886            4 
 1198000    1.0703544   -6.3789962    494.78202  0.034417224  0.034700751            8 
 1199000    1.0417877   -6.3777835    494.82367  0.034391414  0.034692486            8 
 1200000    1.0536169   -6.4192699    494.78884  0.034360336  0.034684055            3 
 1201000    1.0500035   -6.4208647    495.67724  0.034393369  0.034675523            5 
 1202000    1.0885081   -6.4339241    496.95648  0.034453445   0.03466712            3 
 1203000    1.0537972   -6.3871995     497.0741  0.034432952  0.034658669            5 
 1204000    1.0788445   -6.4104278    495.45462  0.034292263  0.034650056            7 
 1205000    1.0701752   -6.3953856    497.68771  0.034418237  0.034641532            3 
 1206000    1.0322644   -6.4041018    496.88371  0.034334142  0.034633238            7 
 1207000    1.0563552   -6.4067372    497.71526  0.034363108  0.034624798            5 
 1208000    1.0479248   -6.3761568    498.83309  0.034411775  0.034616635            3 
 1209000    1.0796661    -6.406649    498.84312  0.034384003  0.034608307            6 
 1210000    1.0548739   -6.3891786    498.86603  0.034357164  0.034599911            2 
 1211000    1.0636033   -6.4023077    497.30628  0.034221462  0.034591755            7 
 1212000    1.0338122   -6.3863168    498.90151  0.034302909  0.034583438            6 
 1213000    1.0682629   -6.4313668    499.32284  0.034303575  0.034575188            2 
 1214000    1.0451366   -6.3872622    499.04146  0.034256004   0.03456675            2 
 1215000    1.0604628   -6.3870905    500.40241  0.034321153  0.034558437            4 
 1216000    1.0472536   -6.4084243    500.80291  0.034320375  0.034550156            9 
 1217000    1.0407648   -6.3949441    499.59039  0.034209147  0.034541936            8 
 1218000    1.0859629   -6.4323189     500.1154  0.034216981  0.034533755            4 
 1219000    1.0530222   -6.3873494    501.40585  0.034277129  0.034525365            4 
 1220000    1.0592619   -6.3986586    501.15311   0.03423177  0.034517182            6 
 1221000     1.051172    -6.459072    500.29706  0.034145308  0.034508838            5 
 1222000    1.0501446   -6.3854209    502.18565  0.034246157  0.034500542            6 
 1223000    1.0464136   -6.4268304    503.84887  0.034331485  0.034492484            5 
 1224000    1.0534759    -6.403173    501.78075  0.034162633  0.034484241            5 
 1225000    1.0421837   -6.4112501    503.06351  0.034222008   0.03447615            3 
 1226000    1.0610636   -6.3890163    503.93539  0.034253357  0.034468196            5 
 1227000    1.0595883   -6.4140571    505.32608  0.034319892  0.034460342            4 
 1228000    1.0653231    -6.427758    505.31869  0.034291442  0.034452481            5 
 1229000    1.0568766   -6.3902438    507.30574  0.034398274  0.034444874            2 
 1230000    1.0556593   -6.3849219    507.11941  0.034357683  0.034437264            3 
 1231000    1.0557684    -6.393467    506.95665  0.034318755  0.034429837            4 
 1232000    1.0678537   -6.3916541    505.73889  0.034208529  0.034422119            5 
 1233000    1.0497378   -6.3836437    507.03804  0.034268589  0.034414298            6 
 1234000    1.0448338    -6.414493    505.93961   0.03416664  0.034406407            5 
 1235000    1.0492833   -6.4292904    506.54296  0.034179687  0.034398504            4 
 1236000     1.064799   -6.4109489    507.10239  0.034189751  0.034390734            8 
 1237000    1.0652172   -6.4043907    509.25425  0.034307077  0.034383101            3 
 1238000    1.0599256   -6.3919851     507.2815  0.034146574  0.034375367            7 
 1239000    1.0545818   -6.4175214    508.49374  0.034200547  0.034367828            6 
 1240000    1.0620901   -6.3845195    508.87895  0.034198854  0.034360206            4 
 1241000    1.0613596    -6.416115    510.23758  0.034262529  0.034352573            7 
 1242000    1.0678519   -6.3609254    510.58944  0.034258551  0.034345014            6 
 1243000    1.0656944   -6.4070744    509.85087  0.034181475  0.034337534            6 
 1244000    1.0529074   -6.3983074    511.43341  0.034260009  0.034329923            3 
 1245000    1.0500974   -6.4187055    512.57699  0.034309035  0.034322425            4 
 1246000    1.0554334    -6.430302    511.82753  0.034231376  0.034314987            6 
 1247000    1.0485869   -6.4173784    512.42156  0.034243622  0.034307499            5 
 1248000    1.0647361   -6.3647917    513.28327  0.034273723  0.034300151            7 
 1249000    1.0509691   -6.3938589    512.74234  0.034210191  0.034292835            2 
 1250000     1.064113   -6.4110963    512.88636  0.034192424  0.034285284            7 
 1251000    1.0390299    -6.422075     513.3806  0.034198015  0.034277781            4 
 1252000    1.0371646   -6.4279459    512.75204  0.034128863  0.034270163           10 
 1253000    1.0650036   -6.3740693    513.70052  0.034164706   0.03426269            5 
 1254000    1.0636331   -6.4140166    512.67347   0.03406921  0.034255118            6 
 1255000    1.0393204   -6.4068983    514.76031  0.034180631  0.034247408            4 
 1256000    1.0499342   -6.4201366    513.37235  0.034061329   0.03423969            3 
 1257000    1.0704799   -6.3981716    515.20877  0.034155978  0.034232142            5 
 1258000    1.0482424    -6.435583    515.29251  0.034134374  0.034224562            8 
 1259000    1.0673263   -6.4325182    515.92519  0.034149139  0.034216994            5 
 1260000    1.0542723   -6.3824036    517.12468  0.034201368  0.034209632            3 
 1261000    1.0351039   -6.4130007    515.95169  0.034096728  0.034202413            7 
 1262000    1.0467961   -6.4159332    516.22945  0.034088051  0.034195224            5 
 1263000     1.062804   -6.4004795    518.58663  0.034216589  0.034188224            3 
 1264000    1.0655558   -6.4117768    517.60116  0.034124549  0.034181155            3 
 1265000    1.0565888   -6.3736509     517.3279  0.034079572  0.034174184            8 
 1266000    1.0437869   -6.4006217    521.58802  0.034333071  0.034167158            2 
 1267000    1.0635137   -6.4186585    518.67711  0.034114517  0.034160189            8 
 1268000    1.0402644   -6.3770254    520.74353  0.034223418  0.034153014            6 
 1269000     1.042434   -6.4319588    518.38796  0.034041763  0.034145787            8 
 1270000    1.0252835   -6.4027078    519.75051  0.034104364   0.03413853            4 
 1271000    1.0564173   -6.4429809    519.60803   0.03406819  0.034131326            7 
 1272000    1.0500373   -6.4379849    520.26469  0.034084427  0.034124142            3 
 1273000     1.075444   -6.4138988    520.32282  0.034061457  0.034117008           10 
 1274000    1.0841466   -6.4343484    520.44976  0.034043025  0.034109809            4 
 1275000    1.0463859   -6.4496245    519.08045  0.033926827  0.034102315            2 
 1276000    1.0754595   -6.4215493    521.64886  0.034067977  0.034094833            2 
 1277000    1.0472882   -6.4260993     521.8467  0.034054209  0.034087525            3 
 1278000    1.0264063   -6.4194888    522.24198  0.034053337  0.034080382            6 
 1279000    1.0475261    -6.398573    522.72056  0.034057894  0.034073193            7 
 1280000    1.0500578   -6.3999241     523.1905  0.034061882  0.034065883            3 
 1281000      1.03987    -6.401845    523.36461  0.034046618  0.034058526            4 
 1282000    1.0509467    -6.412425    522.66284  0.033974444  0.034051172            4 
 1283000     1.049434   -6.4380917    521.62304  0.033880426  0.034043703            4 
 1284000    1.0436743   -6.4766677    521.20176  0.033826698  0.034036225            8 
 1285000    1.0389586   -6.4088033    523.28686  0.033935594  0.034028694            4 
 1286000    1.0425475   -6.4173399    524.62401  0.033995854  0.034021373            3 
 1287000    1.0605298    -6.451828    524.26975    0.0339465  0.034013864            8 
 1288000    1.0400745   -6.4497874    523.31646  0.033858466  0.034006405            3 
 1289000    1.0404811   -6.3657614    527.45578  0.034099804  0.033998991            8 
 1290000    1.0460356   -6.3908798     525.5619  0.033951027  0.033991723            4 
 1291000    1.0373278   -6.4149304    526.58358  0.033990678  0.033984616            3 
 1292000    1.0479892    -6.429464    525.62935  0.033902822  0.033977448            3 
 1293000    1.0407098    -6.414861     526.2892  0.033919129  0.033970162            2 
 1294000    1.0412688   -6.4625431    525.90906  0.033868435  0.033962632            2 
 1295000    1.0331662   -6.4079223    527.87028  0.033968487  0.033955232            7 
 1296000    1.0500822   -6.3845206    529.15761  0.034025052  0.033947895            2 
 1297000    1.0667288   -6.4237161    525.65319  0.033773656  0.033940566            5 
 1298000    1.0219517   -6.4093201    525.79651  0.033756838  0.033932948            4 
 1299000    1.0555266   -6.3991601    528.06615  0.033876453  0.033925635            4 
 1300000    1.0438159   -6.4048743    528.72942  0.033892912  0.033918494            4 
 1301000    1.0668061   -6.4058583    528.00402  0.033820396  0.033911306            4 
 1302000    1.0424075    -6.406619    528.64163   0.03383523  0.033904149            7 
 1303000    1.0558611   -6.3982429     529.2085  0.033845517  0.033896941            4 
 1304000    1.0397587   -6.4598448    530.50723  0.033902558  0.033889712            7 
 1305000    1.0364225   -6.4032376     528.8987  0.033773863  0.033882531            2 
 1306000    1.0876494   -6.4327317    529.15297  0.033764227  0.033875143            5 
 1307000    1.0520057   -6.4279536    529.11052  0.033735687  0.033867728            6 
 1308000    1.0493096     -6.42642    530.77702  0.033816069  0.033860412            3 
 1309000    1.0279556   -6.3757028     531.4355  0.033832155   0.03385322            4 
 1310000    1.0634635   -6.4024063    531.70193  0.033823278  0.033846126           10 
 1311000    1.0565203   -6.4029611    533.53404  0.033913936  0.033839092            4 
 1312000    1.0192374   -6.3564285    532.67403  0.033833462  0.033832121           10 
 1313000    1.0542936    -6.473809    533.30442  0.033847704  0.033825012            6 
 1314000    1.0363834   -6.4295188    534.13659   0.03387472  0.033817752            3 
 1315000      1.04878   -6.4351663    534.05341  0.033843689  0.033810607            3 
 1316000     1.051568   -6.4212958     532.6782  0.033730889  0.033803381            2 
 1317000    1.0482959   -6.4343437    533.99167  0.033788387  0.033796162            3 
 1318000    1.0549267   -6.4055332    534.82239  0.033815275  0.033789042            2 
 1319000    1.0138654    -6.436512    534.63293  0.033777668  0.033781863            4 
 1320000    1.0421263   -6.4306103    535.03182  0.033777261  0.033774633            4 
 1321000    1.0366267   -6.3963371    535.81238  0.033800932  0.033767546            3 
 1322000    1.0203535   -6.4269876    534.75637  0.033708798  0.033760445            5 
 1323000    1.0163605   -6.4010599    534.47554   0.03366563  0.033753261            5 
 1324000    1.0557951   -6.4235235     536.0905  0.033741849  0.033745897            4 
 1325000     1.049415   -6.4403973    535.43263  0.033675008  0.033738606            4 
 1326000    1.0357676   -6.4520863     535.1128  0.033629512  0.033731194            5 
 1327000    1.0407597   -6.4129629    535.98606  0.033659009  0.033723727            3 
 1328000    1.0062166   -6.4267742    536.29018  0.033652747  0.033716219            2 
 1329000    1.0369025   -6.4067947    536.35372   0.03363141  0.033708673            3 
 1330000    1.0215772   -6.4153662    534.95358  0.033518395  0.033701168            4 
 1331000    1.0433213   -6.4402433    535.82123  0.033547535  0.033693639            5 
 1332000    1.0323068   -6.4210371    537.43011  0.033623005  0.033686238            5 
 1333000    1.0234507   -6.4523739    536.76288  0.033556069  0.033678914            5 
 1334000    1.0493132   -6.4226085    537.59761  0.033583059  0.033671452            5 
 1335000    1.0227818   -6.4270148    535.98038  0.033456952  0.033663906            8 
 1336000    1.0379005   -6.4127368    537.63155  0.033534902  0.033656082            2 
 1337000    1.0680422   -6.4306725    537.37295  0.033493701  0.033648525            5 
 1338000    1.0296794    -6.409484    539.15437   0.03357962  0.033641019            6 
 1339000    1.0637174   -6.4175579     539.6291  0.033584086  0.033633443            4 
 1340000     1.021546   -6.4342459    537.49245  0.033426147   0.03362576           10 
 1341000   0.99352822   -6.4346723    538.59604  0.033469801  0.033618032            6 
 1342000    1.0487901   -6.4422378    537.67319  0.033387555  0.033610502            7 
 1343000    1.0463975   -6.3881587    540.29625  0.033525456  0.033602951            3 
 1344000    1.0412594    -6.399004    540.30518  0.033501065  0.033595419            2 
 1345000    1.0155831   -6.4301057    539.72758  0.033440371    0.0335879            5 
 1346000    1.0358765   -6.4209396    540.25502  0.033448181  0.033580361            2 
 1347000    1.0308212   -6.4606335    542.04741  0.033534237  0.033572947            7 
 1348000    1.0265058    -6.419005    541.66415  0.033485667  0.033565701            6 
 1349000    1.0211986   -6.4009616    543.65844   0.03358404  0.033558509            4 
 1350000    1.0410107   -6.4565879    541.86085  0.033448201  0.033551485            8 
 1351000    1.0397177   -6.4319004    545.63134  0.033656016  0.033544489            4 
 1352000    1.0294561   -6.4150271    544.76711  0.033577854  0.033537413            2 
 1353000    1.0320829   -6.4594022    543.25154  0.033459691  0.033530244            4 
 1354000    1.0346142   -6.4355598    543.75778  0.033466136  0.033523073            7 
 1355000    1.0262683   -6.4367434    545.21753  0.033531213  0.033516118            6 
 1356000    1.0395814   -6.4566947    546.18982  0.033566237  0.033508993            4 
 1357000    1.0338822   -6.4636053    544.02839  0.033408769   0.03350182            3 
 1358000    1.0592966   -6.4785819    546.06996  0.033509448  0.033494532            3 
 1359000   0.99706969   -6.4317043    545.63277  0.033457982  0.033487211            4 
 1360000    1.0191104   -6.4415503    545.87511   0.03344823  0.033479982            2 
 1361000    1.0243415   -6.4481995    545.42599  0.033396154  0.033472608           12 
 1362000    1.0184542   -6.4401592    545.95264  0.033403857    0.0334651            5 
 1363000    1.0220979   -6.4277789    546.29987  0.033400579  0.033457879            5 
 1364000    1.0395234   -6.4958241    546.38319  0.033381182  0.033450681            5 
 1365000    1.0356495   -6.4794937    546.93435  0.033390376  0.033443478            6 
 1366000    1.0320238   -6.4134461    549.24999  0.033507198  0.033436462            3 
 1367000     1.030739   -6.4335653    548.92324  0.033462768  0.033429377            5 
 1368000    1.0351727   -6.4580422    549.00177   0.03344309  0.033422251            5 
 1369000    1.0259199   -6.4574838    548.50661   0.03338852   0.03341516            3 
 1370000    1.0348532   -6.4329045    549.48706  0.033423787  0.033407969            5 
 1371000    1.0478375   -6.4488421    549.17806  0.033380626   0.03340085            6 
 1372000    1.0252473   -6.4307767    551.02752   0.03346863  0.033393934           11 
 1373000     1.028487   -6.4513705    549.92433  0.033377296  0.033386877            4 
 1374000    1.0136578   -6.4584713    551.78488  0.033465847  0.033379925            5 
 1375000      1.03002   -6.4619602    549.61031  0.033309716  0.033373004            5 
 1376000    1.0545687   -6.4360518    551.09482  0.033375413  0.033366071            9 
 1377000    1.0208662   -6.4337454    551.03314  0.033347442  0.033359255            4 
 1378000      1.02022     -6.45965    552.57485  0.033416476   0.03335242            6 
 1379000    1.0427183   -6.4532248     552.9993  0.033417893  0.033345657            4 
 1380000    1.0453281    -6.456028    553.70633  0.033436373  0.033338994            5 
 1381000    1.0149255   -6.4374728    553.74578  0.033414541  0.033332275            4 
 1382000    1.0377682   -6.4668246    554.57262  0.033440221  0.033325497            4 
 1383000    1.0077614   -6.4425238    554.30549  0.033399945   0.03331866            5 
 1384000     1.043771   -6.4432808    555.85366  0.033469031   0.03331199            3 
 1385000    1.0386556   -6.4633636    555.94299   0.03345024  0.033305469            3 
 1386000    1.0480585   -6.4212291    557.55009  0.033522733     0.033299            6 
 1387000    1.0281488   -6.4422611    555.92203  0.033400747  0.033292401            5 
 1388000    1.0262488   -6.4345447    555.97194  0.033379679  0.033285828            4 
 1389000    1.0505497   -6.4425555    555.33504  0.033317437   0.03327915            2 
 1390000    1.0439537   -6.4630307    557.31551  0.033412201  0.033272446            5 
 1391000    1.0065882   -6.4304013    557.69747  0.033411063  0.033265756            8 
 1392000    1.0333068   -6.4540942    558.07801  0.033409842  0.033259183            4 
 1393000    1.0509873   -6.4436644    558.08545  0.033386303  0.033252477            3 
 1394000    1.0425059    -6.475482    558.25793  0.033372664  0.033245745            4 
 1395000    1.0210736   -6.4402976    560.02725  0.033454436  0.033239202            5 
 1396000    1.0248108   -6.4403079    557.46106  0.033277284  0.033232591            4 
 1397000    1.0197903   -6.4642853    558.66642  0.033325365  0.033225943            7 
 1398000    1.0024662   -6.4646729    558.74598   0.03330627  0.033219263           11 
 1399000    1.0303704   -6.4862197    559.26943  0.033313642  0.033212529            4 
 1400000    1.0413072   -6.4449943    559.15049  0.033282767  0.033205938            4 
 1401000     1.048991   -6.4391442    557.69077  0.033172185  0.033199348            2 
 1402000    1.0183883   -6.4473586    560.85728  0.033336738  0.033192825            3 
 1403000    1.0362095   -6.4585912    560.21483  0.033274818  0.033186206            6 
 1404000    1.0264346   -6.4648768    561.90403  0.033351379  0.033179579            4 
 1405000    1.0158467   -6.4953069    559.79351  0.033202462  0.033172929            5 
 1406000    1.0263158   -6.4419111    561.01279  0.033251114  0.033166218            5 
 1407000    1.0128718   -6.4869744    561.10302  0.033232825  0.033159525            2 
 1408000    1.0324303    -6.458075    561.71026  0.033245162  0.033152882            3 
 1409000    1.0187326   -6.4544479    562.00572  0.033239042  0.033146458           11 
 1410000    1.0212486   -6.5088897    561.68986    0.0331968  0.033139888            4 
 1411000    1.0289637   -6.4774791    562.89952  0.033244715  0.033133303            5 
 1412000     1.029801   -6.4554556     564.1268  0.033293602  0.033126872            5 
 1413000    1.0213104   -6.4576064    566.03229  0.033382419  0.033120606            2 
 1414000    1.0327812   -6.4844603    564.75993  0.033283824  0.033114321            3 
 1415000    1.0172637   -6.4576341    565.00535  0.033274755   0.03310793            4 
 1416000    1.0293539   -6.4558149    565.01376  0.033251751  0.033101577            3 
 1417000    1.0163591   -6.4714285     567.4199  0.033369789  0.033095237            3 
 1418000    1.0360349    -6.466088    567.20083  0.033333382  0.033089075            4 
 1419000     1.008178   -6.4566197    567.17245  0.033308225  0.033082773            3 
 1420000    1.0218959   -6.4322794    568.55278  0.033365773  0.033076583            3 
 1421000    1.0094842   -6.4316388    567.76241  0.033295942  0.033070268            5 
 1422000    1.0200141   -6.4382288    566.76393  0.033214014  0.033063904            3 
 1423000    1.0247201   -6.4845436      567.195  0.033215917  0.033057526            5 
 1424000    1.0538182   -6.4753109    568.28783  0.033256545   0.03305127            3 
 1425000    1.0132304   -6.4451795    568.59605  0.033251231  0.033045026            5 
 1426000    1.0288592   -6.4831408    569.14583  0.033260041  0.033038864            3 
 1427000   0.99281395   -6.4547807     569.3728  0.033249989  0.033032639           11 
 1428000    1.0286028   -6.4645573    569.04955   0.03320784  0.033026396            3 
 1429000    1.0224717    -6.500881    569.37321  0.033203476  0.033020021            9 
 1430000    1.0121836    -6.498714    570.58615  0.033250941  0.033013811            4 
 1431000    1.0226812   -6.4584511    571.58171  0.033285681  0.033007722            3 
 1432000   0.99916197   -6.4644758    570.16933  0.033180245  0.033001676            8 
 1433000    1.0363901   -6.4615326    570.56133  0.033179887  0.032995694            6 
 1434000    1.0217566   -6.4949984    569.91831  0.033119381  0.032989508            6 
 1435000    1.0108082   -6.4669592    573.63998  0.033312426  0.032983326            4 
 1436000    1.0317173   -6.4846003    571.53183  0.033166889  0.032977033            5 
 1437000    1.0140813   -6.4634623    572.34616  0.033191032   0.03297091            4 
 1438000    1.0163883   -6.4428745    571.63135  0.033126527  0.032964864            3 
 1439000    1.0233617      -6.4401    571.52807  0.033097526  0.032958658            4 
 1440000    1.0306509   -6.4343497    573.36769     0.033181   0.03295256            3 
 1441000    1.0213172   -6.4671559    572.89143  0.033130432  0.032946337            5 
 1442000    1.0462243   -6.4590936    572.37681  0.033077717  0.032940107            3 
 1443000    1.0077555   -6.4540721    574.03914  0.033150794  0.032933945            2 
 1444000    1.0432219   -6.4509666    573.01066  0.033068482  0.032927706            6 
 1445000    1.0168961   -6.4563877    574.06978  0.033106677  0.032921381            9 
 1446000    1.0023743   -6.4707395    573.73805  0.033064664  0.032915087            8 
 1447000    1.0129373   -6.4929745    574.44442  0.033082494  0.032908701            5 
 1448000    1.0144598   -6.4503648    574.26066  0.033049071  0.032902334            7 
 1449000    1.0006114   -6.4787128     574.5081  0.033040493  0.032895899            7 
 1450000    1.0308901   -6.4618905    575.11517  0.033052596  0.032889611            5 
 1451000    1.0160873   -6.4708303    575.83065  0.033070908  0.032883288           11 
 1452000    1.0159795   -6.4714399    575.83715  0.033048505  0.032876857            3 
 1453000    1.0258162     -6.47778    576.86645  0.033084793  0.032870524            4 
 1454000    1.0067332   -6.4841007    576.78884   0.03305759  0.032864204            4 
 1455000    1.0076711   -6.4875857    576.09547  0.032995159  0.032858043            4 
 1456000    1.0118375   -6.4617133    577.22834  0.033037336  0.032851735            6 
 1457000    1.0398155   -6.4945986    576.91664  0.032996834  0.032845354            5 
 1458000    1.0354572   -6.4998136    576.56707  0.032954222  0.032839014            2 
 1459000    1.0410012   -6.4735155    577.26384  0.032971432  0.032832589            6 
 1460000     1.026849   -6.4385544    577.52796  0.032963925  0.032826354            5 
 1461000    1.0055863   -6.4728675    578.78094   0.03301283  0.032820042            4 
 1462000    1.0215412   -6.4597667    580.18111  0.033070058  0.032813837            5 
 1463000    1.0348752   -6.4874716    579.26079  0.032995033  0.032807616            7 
 1464000    0.9953663   -6.4754311    579.45833  0.032983739  0.032801262            6 
 1465000    1.0105919   -6.4773103    579.31607  0.032953132   0.03279493            9 
 1466000    1.0083443   -6.4682474    579.07534   0.03291697  0.032788481            6 
 1467000    1.0148581   -6.4671071    580.90843  0.032998661  0.032782079            5 
 1468000    1.0086372    -6.424108    580.67002  0.032962649  0.032775809            4 
 1469000    1.0308302    -6.462766    581.95668    0.0330132  0.032769545            3 
 1470000    1.0139792   -6.4931096    578.34079  0.032785759   0.03276328            6 
 1471000    1.0100801    -6.487462    581.01714  0.032915088  0.032756866            4 
 1472000    1.0258043   -6.4680465    580.77032  0.032878754  0.032750541            3 
 1473000     1.006588   -6.4945425    581.29591  0.032886168  0.032744258            6 
 1474000    1.0400221   -6.4660089    580.77298  0.032834293  0.032737898            4 
 1475000    1.0085183   -6.4727042    582.51307  0.032910343  0.032731688            6 
 1476000    1.0113627   -6.4553453    583.35439  0.032935546  0.032725397            3 
 1477000    1.0017494   -6.4699525    582.96232  0.032891126  0.032718977           10 
 1478000    1.0147253   -6.4793076     583.1084  0.032877109  0.032712672            5 
 1479000     1.020508   -6.4743866    583.29031  0.032865129  0.032706394            4 
 1480000   0.99569796   -6.4928002    584.32857  0.032901383  0.032700016            6 
 1481000    1.0022718   -6.4609335    584.79398  0.032905356  0.032693591            2 
 1482000    1.0330176   -6.4850858    581.95639  0.032723593  0.032687177           13 
 1483000    1.0314218    -6.458733    584.67177  0.032854112  0.032680763           10 
 1484000    1.0067262   -6.4712643    583.13383   0.03274561  0.032674238            6 
 1485000   0.99080202   -6.4996095    584.72876  0.032813062  0.032667823            5 
 1486000    1.0244066    -6.475398    585.55083  0.032837081  0.032661373           10 
 1487000    1.0241927   -6.5199555    585.65657  0.032820924  0.032655118            5 
 1488000    1.0305813   -6.5000697    586.03306  0.032819952  0.032648971            9 
 1489000   0.99748206   -6.4954207    587.14684  0.032860244  0.032642984            3 
 1490000    1.0229644   -6.4860802    587.78559  0.032873914  0.032636885            3 
 1491000    1.0184739   -6.5227536    588.72386  0.032904307  0.032630922            4 
 1492000     1.000821   -6.4715467    589.22417  0.032910197   0.03262496            3 
 1493000    1.0097886   -6.4980399    587.89834  0.032814152  0.032618823            5 
 1494000    1.0262386   -6.4527138    588.09832  0.032803342   0.03261278            6 
 1495000    1.0180506   -6.4637453     587.8856  0.032769543  0.032606766            7 
 1496000    1.0105288   -6.5501893    588.67414  0.032791563  0.032600675            4 
 1497000    0.9951955   -6.4615192     590.1079  0.032849471  0.032594511            4 
 1498000    1.0193894   -6.4601348    590.60646  0.032855277  0.032588467            8 
 1499000    1.0268226   -6.5078672    591.22794  0.032867908  0.032582463            5 
 1500000   0.99419102   -6.4478152    590.18904   0.03278828  0.032576481            3 
 1501000    1.0202133   -6.4586973    591.75044  0.032853123  0.032570609            6 
 1502000   0.99491515   -6.4442607    592.78864   0.03288885  0.032564741           10 
 1503000    1.0193898   -6.4819482    591.19931  0.032778848  0.032558849            3 
 1504000    1.0061558   -6.5057627    593.34955  0.032876194  0.032552989            6 
 1505000     1.016989   -6.4916547    592.43857  0.032803908  0.032547234            5 
 1506000     1.002574   -6.5255649    593.56203  0.032844291  0.032541353            4 
 1507000     1.003016   -6.4571587    593.34783  0.032810652   0.03253534            6 
 1508000    1.0183858   -6.5374891    591.55395  0.032689763  0.032529396            6 
 1509000    1.0031764   -6.4877901    593.22841   0.03276057   0.03252335            3 
 1510000    1.0199136    -6.493512    592.79207  0.032714794  0.032517338            4 
 1511000    1.0140231   -6.5261539    593.88038  0.032753165  0.032511235            5 
 1512000    1.0042805   -6.5328662    593.30182  0.032699615  0.032505075            2 
 1513000   0.99472649   -6.4721882    593.32574   0.03267932  0.032498868            7 
 1514000    1.0160345   -6.4974332    593.59303  0.032672448  0.032492818            3 
 1515000    1.0148651   -6.4871088    594.44541  0.032697767  0.032486684            5 
 1516000    1.0256636   -6.4995955    594.45424  0.032676684  0.032480601            7 
 1517000     1.007269   -6.4582713    595.27299   0.03270012  0.032474633            5 
 1518000   0.98984875   -6.5059234    598.81513  0.032873031  0.032468783            4 
 1519000    1.0193196   -6.4690741    596.16616  0.032706066  0.032462905            3 
 1520000    1.0056009   -6.4715683    597.71951   0.03276971  0.032456989            3 
 1521000    1.0064085   -6.5076305    597.51955   0.03273721  0.032451117            5 
 1522000    1.0166731   -6.4982649     595.7702  0.032619919   0.03244507            5 
 1523000    1.0210805   -6.4820745    597.50287  0.032693306  0.032438994            6 
 1524000    1.0023877    -6.471081    596.25548  0.032603646  0.032432806            6 
 1525000   0.99356305   -6.4864964    595.62782  0.032547968  0.032426609            5 
 1526000    1.0193293   -6.4830568    598.82202  0.032701071  0.032420424            4 
 1527000     1.039618   -6.4885436    594.99385  0.032470741  0.032414108           12 
 1528000   0.99170014   -6.4882055    596.73707  0.032544561  0.032407847            6 
 1529000   0.99740951   -6.5200238    597.88979  0.032586101  0.032401636            5 
 1530000    1.0088754   -6.5049367     598.5024   0.03259817   0.03239537           11 
 1531000   0.98501319   -6.5353945    597.50044  0.032522341  0.032389034            6 
 1532000    1.0167341   -6.5138836     597.5119  0.032501735  0.032382686            3 
 1533000    1.0044123    -6.490989    599.43562  0.032585106  0.032376527            4 
 1534000    1.0000184   -6.4857696    600.72229  0.032633762  0.032370298            3 
 1535000    1.0011013   -6.4513682    599.77155  0.032560888  0.032364202            3 
 1536000    1.0092825   -6.5571846     599.0147  0.032498627  0.032357926            7 
 1537000    1.0017014   -6.4750841    600.41383  0.032553341  0.032351604            3 
 1538000   0.98408578   -6.4625099    600.78648  0.032552367   0.03234531            5 
 1539000   0.96915673   -6.4610101     600.2643   0.03250294  0.032339094            6 
 1540000    1.0213404   -6.5423661    598.34737  0.032378104  0.032332938            3 
 1541000    1.0093924   -6.4811545    601.92689  0.032550665  0.032326726            2 
 1542000   0.99976047   -6.5047201    599.62573  0.032405195  0.032320489            4 
 1543000    1.0052408   -6.4983423    601.32989  0.032476231  0.032314295            7 
 1544000    1.0095357   -6.5243214    601.30267  0.032453728  0.032307997            5 
 1545000    1.0039846   -6.5351055    601.63696  0.032450753   0.03230185            3 
 1546000     1.023222   -6.5143602    603.81166  0.032546985  0.032295635            4 
 1547000   0.99269859   -6.4966152    603.64132   0.03251677  0.032289574            2 
 1548000   0.98951249   -6.4864569    602.68486  0.032444276  0.032283507            4 
 1549000   0.99294682    -6.500892    606.01607  0.032602543  0.032277544            5 
 1550000    1.0036365   -6.4859042    605.09327  0.032531896  0.032271662            3 
 1551000    1.0059933   -6.4995313    605.81512  0.032549705  0.032265782            6 
 1552000    1.0093149   -6.4934672    605.09085  0.032489844  0.032259658            7 
 1553000    1.0067489   -6.4906838    604.66248  0.032445937  0.032253577            4 
 1554000    1.0074624   -6.4831111    604.47834  0.032415183  0.032247428            6 
 1555000    1.0008789   -6.5209915    604.82738  0.032413043  0.032241234            4 
 1556000    1.0046928   -6.4885874    605.63989  0.032435727   0.03223508            5 
 1557000   0.99552553   -6.4924321    606.05886  0.032437319  0.032228924            6 
 1558000    1.0058557   -6.5218168    605.83932  0.032404756  0.032222611            5 
 1559000    1.0005939   -6.4857134    604.73622  0.032325006  0.032216354            7 
 1560000    1.0002003   -6.4830286    604.87563  0.032311733   0.03221007            5 
 1561000   0.98486288   -6.4758596    606.94969  0.032401756  0.032203821            8 
 1562000   0.98951094   -6.5251687    605.58502  0.032308206  0.032197539            7 
 1563000    1.0167737   -6.4918766    607.89342  0.032410611  0.032191265            3 
 1564000    1.0143742   -6.4993303    605.75804   0.03227611  0.032185015            4 
 1565000    1.0095693   -6.5200643    607.01479  0.032322407  0.032178816            5 
 1566000   0.99959608   -6.4932165    607.51088  0.032328165  0.032172697            8 
 1567000    1.0128134   -6.5153267    608.10599  0.032339183   0.03216637            2 
 1568000    1.0148783   -6.5037173    607.86215  0.032305599  0.032160109            5 
 1569000   0.99683052    -6.497809    607.05068   0.03224191  0.032153707            5 
 1570000    1.0115225   -6.5106413    607.56067  0.032248443  0.032147381            4 
 1571000    1.0296979   -6.5063194    608.30674  0.032267491    0.0321409            3 
 1572000    1.0141962   -6.5091691    607.75996  0.032217979  0.032134444            7 
 1573000    1.0162343   -6.5312497    608.68391  0.032246446  0.032128023            4 
 1574000    1.0053601   -6.5363356    607.68943  0.032173308  0.032121573            5 
 1575000    1.0043313   -6.4967154    610.72651  0.032313572  0.032115118            4 
 1576000    1.0092942   -6.4778491    609.94046  0.032251505  0.032108631            3 
 1577000   0.99855391    -6.520504    609.88462  0.032228103  0.032102124            7 
 1578000    1.0011931   -6.5061323    610.63124  0.032247108   0.03209555            4 
 1579000   0.98817129   -6.5152506    610.66404  0.032228416   0.03208906           13 
 1580000   0.99231882   -6.5016695    608.88685  0.032114285  0.032082486            9 
 1581000    1.0058062   -6.5157864    610.40987   0.03217425  0.032075878            3 
 1582000     1.005164   -6.5339298    609.94917  0.032129644  0.032069168            8 
 1583000   0.99677408    -6.521361    611.41251  0.032186382  0.032062456            4 
 1584000   0.99812769   -6.5074493    610.60569  0.032123616  0.032055798           11 
 1585000   0.98364953   -6.5384343    611.03352  0.032125842  0.032049081            7 
 1586000    1.0096349   -6.5266117    611.99389  0.032156047  0.032042427            3 
 1587000    1.0140836   -6.5021135    613.66808  0.032223697  0.032035815            5 
 1588000   0.99304851   -6.5044915    611.94469  0.032112967  0.032029288            2 
 1589000   0.99861181   -6.4946634     612.2868  0.032110699  0.032022706            5 
 1590000   0.99201092   -6.5010002    611.11415  0.032029044  0.032016057            4 
 1591000    1.0065263   -6.5094372    612.29364  0.032070691  0.032009291            7 
 1592000   0.99603827   -6.5249996    613.14187  0.032094947  0.032002574            5 
 1593000    1.0039519   -6.5023386    612.99012  0.032066861  0.031995827            3 
 1594000   0.99355025   -6.5322239    613.49781  0.032073286  0.031989071            4 
 1595000   0.98833425   -6.5097098    612.08624  0.031979427  0.031982334            6 
 1596000   0.99808243    -6.510497    614.15209  0.032067256  0.031975603            5 
 1597000    1.0030286   -6.5369595    615.45717  0.032115277  0.031968881            7 
 1598000   0.97934371   -6.5260389    613.71321  0.032004235  0.031962169            4 
 1599000   0.98951147   -6.5368924    614.61202  0.032031062   0.03195545            2 
 1600000   0.98938399   -6.5540311    613.13284  0.031934002  0.031948813            4 
 1601000   0.98136248   -6.4956074    614.57928  0.031989344  0.031942113            4 
 1602000    1.0149516   -6.5214295     614.8571  0.031983827  0.031935622            6 
 1603000   0.98331669   -6.5299371    615.45467   0.03199494  0.031929039            4 
 1604000    1.0082527   -6.5270781    614.51852  0.031926357   0.03192235            7 
 1605000   0.99918525   -6.5004688    616.37795  0.032003009  0.031915722            6 
 1606000    1.0115095   -6.5124043    616.82309  0.032006179  0.031909112            8 
 1607000   0.99385178   -6.5016431    618.14591   0.03205486  0.031902563            5 
 1608000    1.0015563   -6.5103161     617.6567  0.032009572  0.031896073            6 
 1609000    1.0057261   -6.5284982    618.04159  0.032009612  0.031889591            3 
 1610000   0.97665896   -6.5180684    617.55259   0.03196442   0.03188309            7 
 1611000   0.99896801   -6.4964027    618.17074  0.031976554  0.031876511            3 
 1612000   0.99076507   -6.5101838     618.9457  0.031996779    0.0318699            5 
 1613000   0.98417901    -6.512865    617.94047  0.031925009  0.031863348            8 
 1614000    1.0035649   -6.5374462    619.02672  0.031961313  0.031856819            3 
 1615000    1.0146744   -6.5567776     619.6615  0.031974278  0.031850363            5 
 1616000   0.96343481   -6.5423516    618.60512  0.031900017  0.031843743            5 
 1617000   0.96223689   -6.5402001    619.02936  0.031902152  0.031837167            7 
 1618000    1.0057087   -6.5164641    620.01032  0.031932958  0.031830632            9 
 1619000   0.98924782   -6.5324549    620.20979  0.031923502  0.031823985            6 
 1620000   0.97837554   -6.5299167    620.63188  0.031925508  0.031817404            7 
 1621000   0.98756133   -6.5361752    619.63589  0.031854611  0.031810817            7 
 1622000   0.98215073   -6.5073937    622.50615  0.031982437   0.03180418           10 
 1623000   0.97189643   -6.5534234    620.66954   0.03186843  0.031797698            3 
 1624000   0.97992713   -6.5370107    621.83297  0.031908506  0.031791173            6 
 1625000   0.97822915   -6.4729854    621.01338   0.03184684  0.031784661            4 
 1626000   0.99910387   -6.5071706    620.43246  0.031797482  0.031778092            5 
 1627000   0.97498613   -6.5509801    623.13569  0.031916395   0.03177147            6 
 1628000   0.99798305   -6.4927142    622.00086  0.031838701  0.031764944            5 
 1629000   0.98319569   -6.5365201    623.22639  0.031881849  0.031758316            8 
 1630000   0.98557459   -6.5277212    622.77339  0.031839131  0.031751786            5 
 1631000   0.97859057   -6.5755462    621.82699  0.031771254  0.031745188            3 
 1632000     0.981286   -6.5370521    623.37382  0.031830771  0.031738575            4 
 1633000   0.98653725   -6.4923311    624.56596  0.031872115   0.03173204           11 
 1634000   0.97668822   -6.5112493    623.62168  0.031804451  0.031725505            6 
 1635000   0.99840186   -6.5471178    625.51658  0.031881579  0.031718992            4 
 1636000   0.97491253   -6.5335194    624.85593   0.03182844  0.031712447            5 
 1637000   0.96518551   -6.5319053    623.31473   0.03173054  0.031705751            5 
 1638000   0.99290497   -6.5073718    624.19387  0.031755895  0.031699049            3 
 1639000    0.9959677   -6.5234848    623.59471  0.031706056  0.031692175            4 
 1640000   0.98269842   -6.5208109    624.19999  0.031717479  0.031685356            5 
 1641000    1.0188773   -6.5034501    624.73767  0.031725456  0.031678545            6 
 1642000   0.98622436   -6.5075072    624.07223  0.031672362  0.031671759            3 
 1643000   0.99234515   -6.5461318      624.017  0.031650284  0.031664871            7 
 1644000   0.99423235   -6.5055564    624.10083  0.031635282  0.031657986           10 
 1645000   0.99909873   -6.5072826    624.88649   0.03165585  0.031651079           10 
 1646000   0.98666128   -6.5317803    624.98601  0.031641657  0.031644108            4 
 1647000   0.99532387   -6.5574245    623.29029  0.031536647  0.031637115            3 
 1648000   0.97508061   -6.5432997    624.61518  0.031584505  0.031630142            3 
 1649000   0.99527723   -6.5630577    624.44099  0.031556549  0.031623066            6 
 1650000   0.96244657   -6.5371583    625.87274  0.031609734  0.031616013            5 
 1651000   0.97701872   -6.5420729    625.09159   0.03155116  0.031608965            3 
 1652000   0.98567701   -6.5555147    624.44159  0.031499273  0.031601912            6 
 1653000     0.982931   -6.5232179    626.38392  0.031578137  0.031594962           10 
 1654000   0.97414272   -6.5631351    624.99222  0.031488927  0.031587922            4 
 1655000   0.98266363   -6.5570184    625.01263  0.031470928  0.031580954            5 
 1656000   0.97814337   -6.5806618    625.39068  0.031470948   0.03157384            6 
 1657000   0.98131072   -6.5561997    626.03221  0.031484219  0.031566663            4 
 1658000   0.98487098   -6.5297483    626.07165  0.031467212  0.031559453            3 
 1659000   0.99451486   -6.5308697    625.46589  0.031417816  0.031552349            5 
 1660000   0.98857949   -6.5319951     627.0714  0.031479488  0.031545181            8 
 1661000   0.97204319   -6.5354382    627.29425  0.031471716   0.03153814            8 
 1662000   0.99926857   -6.5209974    629.09506  0.031543074   0.03153107            5 
 1663000   0.97165296    -6.525188    629.27702  0.031533224  0.031523998            7 
 1664000   0.99958953   -6.5399166     627.5498  0.031427775  0.031516969            4 
 1665000   0.98520794   -6.5364936    627.10377  0.031386575  0.031509709            7 
 1666000   0.97126163   -6.5358174    627.55685  0.031390399  0.031502423            5 
 1667000   0.99870657   -6.5521348    627.17824  0.031352641  0.031495309            6 
 1668000   0.97302498   -6.5440629    627.81245   0.03136553  0.031488097            9 
 1669000   0.98581618   -6.5237418    630.93006    0.0315024  0.031481044            5 
 1670000    1.0011411   -6.4965702    629.23515  0.031398959  0.031473974            5 
 1671000   0.98905992   -6.5389747    629.59099  0.031397915  0.031466825            5 
 1672000   0.94757667   -6.5455457    629.58273  0.031378724  0.031459817            6 
 1673000   0.96902354   -6.5436157    631.10396  0.031435742  0.031452738            5 
 1674000    0.9849007   -6.5558916    630.73975  0.031398833  0.031445605            5 
 1675000    0.9741309    -6.542473    629.76809  0.031331746  0.031438459            4 
 1676000   0.96736069   -6.5349994    629.89486  0.031319355  0.031431345           10 
 1677000    1.0015657   -6.5508234    631.85492  0.031398078  0.031424233            7 
 1678000   0.98958549     -6.55182    631.28497  0.031351062  0.031416948            4 
 1679000    0.9799087   -6.5361035     632.8549  0.031410308  0.031409917            4 
 1680000   0.98440898   -6.5508441    631.46174  0.031322507  0.031402881            3 
 1681000   0.98328893   -6.5492342    631.13679  0.031287765  0.031395673            5 
 1682000   0.99565446   -6.5543322    629.98127  0.031211914  0.031388397            5 
 1683000   0.98297262   -6.5393281    630.87836  0.031237788  0.031381114            7 
 1684000    1.0028539   -6.5324586    632.84688  0.031316651  0.031373891            4 
 1685000   0.99363121   -6.5120222    632.98695  0.031304993  0.031366748            4 
 1686000   0.98220846   -6.5349006    633.11671  0.031292839  0.031359459            9 
 1687000   0.96477145   -6.5164753    633.32782  0.031284717  0.031352222            5 
 1688000   0.99955359   -6.5367478    632.50646  0.031225635  0.031344886           10 
 1689000   0.97345149    -6.532309    633.34831  0.031248683  0.031337589            5 
 1690000   0.96509432   -6.5383656     632.4501  0.031185903   0.03133025            5 
 1691000   0.96369804    -6.508315    633.42976  0.031215738  0.031322872            5 
 1692000   0.96921137   -6.5338404    634.31191  0.031240736  0.031315572           12 
 1693000   0.97894319   -6.5116546    634.80789  0.031246697  0.031308276            4 
 1694000   0.97070401   -6.5725605    632.07768  0.031093943  0.031301041            8 
 1695000    0.9834606   -6.5470761    634.31543  0.031185616  0.031293699            3 
 1696000   0.98103521   -6.5520137    637.25192  0.031311513  0.031286339            6 
 1697000   0.97270026   -6.5418441     635.2146  0.031193017  0.031279075            5 
 1698000   0.99953814   -6.5888224     634.6984  0.031149313  0.031271771            7 
 1699000    0.9651258   -6.5844976    633.36101  0.031065382  0.031264331            9 
 1700000   0.95232103   -6.5158764    635.81309  0.031167308  0.031256962            6 
 1701000   0.98299626   -6.5514889     632.9612  0.031009269  0.031249535            5 
 1702000    1.0049034   -6.5672765    635.39912  0.031110415   0.03124206            4 
 1703000   0.97160599   -6.5740057     633.9341  0.031020459  0.031234667            7 
 1704000   0.96557663   -6.5293034    636.44416  0.031125008  0.031227163            3 
 1705000   0.96686709   -6.5631134    633.77082  0.030976091  0.031219684            9 
 1706000   0.98052991   -6.5680319    636.28328   0.03108066  0.031212216            3 
 1707000   0.96445388   -6.5831925    636.54531  0.031075245  0.031204803            7 
 1708000   0.96519894   -6.5404341    636.59657  0.031059552  0.031197408            4 
 1709000   0.99001867   -6.5356513     637.6682  0.031093632  0.031190113            6 
 1710000   0.96449697   -6.5176441     638.6742  0.031124474  0.031182737            3 
 1711000   0.96169053     -6.56011    638.06222  0.031076477   0.03117539            9 
 1712000    0.9965536   -6.5549578      638.194  0.031064739  0.031167978            3 
 1713000   0.97754831   -6.5202337    638.87196  0.031079586    0.0311605            3 
 1714000    0.9896167   -6.5598348    637.86714  0.031012599  0.031153073            5 
 1715000   0.99189322    -6.541566    638.82608  0.031041112  0.031145609            3 
 1716000   0.98456367   -6.5237787    638.64087  0.031014028  0.031138132            6 
 1717000    1.0042384   -6.5199696    638.95596  0.031011258   0.03113063            4 
 1718000   0.95877334   -6.5497427    638.72341  0.030981927  0.031123164            6 
 1719000   0.99520674   -6.5337525    638.85731  0.030970395  0.031115622            5 
 1720000   0.97870365   -6.5547425    638.60041  0.030939942  0.031108056            4 
 1721000   0.96748798    -6.556832     639.2816  0.030954949  0.031100585            6 
 1722000   0.99186509    -6.551449    638.32473  0.030890666  0.031092963            5 
 1723000   0.96088838   -6.5922445    637.62249  0.030838774  0.031085364            4 
 1724000   0.98654029   -6.5802918    637.99943  0.030839106  0.031077693            9 
 1725000   0.96609342   -6.5624514    639.63172  0.030900083  0.031070122            5 
 1726000   0.98208182   -6.5576224    639.48529  0.030875111  0.031062701            6 
 1727000   0.96460476   -6.5195904    640.47903  0.030905184  0.031055223            5 
 1728000   0.95240788   -6.5772789    641.18435  0.030921313  0.031047829            4 
 1729000   0.96457696   -6.5663172    641.04239  0.030896587  0.031040394            9 
 1730000   0.94770709    -6.610331    638.38949  0.030750939  0.031032947            3 
 1731000   0.95633889   -6.5365227    641.95293  0.030904724  0.031025437            3 
 1732000   0.94424709   -6.5652033    641.24944  0.030853033  0.031017931            3 
 1733000   0.97526545   -6.5484032    642.95904  0.030917438  0.031010533           24 
 1734000   0.97643947   -6.6192635    642.49959  0.030877528  0.031003091            7 
 1735000   0.96667874   -6.5551438    644.20317  0.030941555  0.030995713            5 
 1736000   0.96587343   -6.5483577      643.049  0.030868328  0.030988351            4 
 1737000   0.99595138   -6.5734772     642.2334  0.030811428  0.030980901            6 
 1738000   0.98340128   -6.5484966    642.85584  0.030823544  0.030973567            4 
 1739000   0.98214787   -6.5522818    645.12951  0.030914774  0.030966285            8 
 1740000   0.98271568   -6.5646973    645.31242  0.030905767  0.030958987            4 
 1741000   0.96007539   -6.5359751    645.19371  0.030882334  0.030951629            6 
 1742000   0.96819257   -6.5513507    644.24595  0.030819267  0.030944328           10 
 1743000   0.98531005   -6.5474456    644.47552  0.030812561  0.030936864            4 
 1744000   0.98520758   -6.5348857    644.11747  0.030777784  0.030929512            7 
 1745000   0.97648974    -6.557956    644.86913  0.030796043  0.030922177            4 
 1746000   0.99033622   -6.5168998    645.06146  0.030787584  0.030914846           12 
 1747000   0.98421444   -6.5551357    643.40991  0.030691181  0.030907428            4 
 1748000   0.98354883   -6.5716301    644.35954  0.030718895  0.030900054           13 
 1749000   0.98744037   -6.5532988    646.42175  0.030799588  0.030892678            6 
 1750000   0.96631571   -6.5590892    646.42511  0.030782148  0.030885249            5 
 1751000   0.98200086   -6.5472414    646.43278  0.030764933  0.030877888            8 
 1752000   0.97508102   -6.5658553    646.19324   0.03073598  0.030870536            6 
 1753000   0.99406638   -6.5621933    647.48684  0.030779941  0.030863207            3 
 1754000   0.99194207   -6.5304527    647.87065  0.030780627  0.030855845            8 
 1755000   0.94191268   -6.5457715    647.14413  0.030728591  0.030848417            4 
 1756000   0.96136841   -6.5153748    647.29078  0.030718051  0.030840963           11 
 1757000   0.96515972     -6.56821    647.33877  0.030702844  0.030833419            7 
 1758000   0.95123856   -6.6031368    647.09647  0.030673894  0.030825875            4 
 1759000   0.95003286   -6.5629219    645.96142  0.030602682  0.030818396            4 
 1760000   0.98037148   -6.5634838    648.50891  0.030705914  0.030810854            5 
 1761000   0.98719224   -6.5433853    648.25185  0.030676313   0.03080344            6 
 1762000   0.96552539   -6.5688208    645.95633  0.030550337  0.030795901            6 
 1763000   0.96846828   -6.5724538    646.93582  0.030579307  0.030788275            3 
 1764000   0.96123369   -6.5825702    647.50598  0.030588907  0.030780662            6 
 1765000   0.96441143   -6.5491636    649.59532  0.030670223  0.030773072            5 
 1766000   0.97516105   -6.5834144    647.90467  0.030573078  0.030765513            7 
 1767000    0.9628741   -6.5898823      648.604  0.030588757  0.030757989            5 
 1768000   0.95472642   -6.5871713    648.60583  0.030571542  0.030750326            7 
 1769000   0.98523978   -6.5787196    648.28329  0.030539066  0.030742674            6 
 1770000    0.9637937   -6.5407479    647.90571  0.030504035  0.030735055            9 
 1771000   0.98214614   -6.5635806    648.13546  0.030497622  0.030727328            5 
 1772000   0.96851832   -6.5466493    648.06644  0.030477165  0.030719692            4 
 1773000   0.96817702   -6.5870912    649.91153  0.030546697  0.030712083            6 
 1774000   0.96048195   -6.5789314    650.01099   0.03053415  0.030704558            3 
 1775000   0.96875627   -6.6029835      650.913  0.030559296  0.030696891           20 
 1776000    0.9711576   -6.5794529    649.69071  0.030484737  0.030689309            6 
 1777000   0.95661829   -6.5532249    650.32734  0.030497437  0.030681712            3 
 1778000   0.95972789    -6.538087    652.98886  0.030605027  0.030674214            3 
 1779000   0.97216291   -6.5405964     652.2543  0.030553415  0.030666657           15 
 1780000   0.97560683   -6.5569711    652.84936  0.030564108  0.030659179            7 
 1781000   0.95952859   -6.5706821    651.69927  0.030493135   0.03065172            3 
 1782000   0.94504669    -6.550321     652.3683  0.030507309  0.030644203            6 
 1783000   0.98170877    -6.584781    653.41183  0.030538971  0.030636685            8 
 1784000   0.96687633   -6.5699307    652.36129  0.030472781  0.030629166            6 
 1785000   0.95043906   -6.5850383    653.83762  0.030524632  0.030621634            5 
 1786000   0.96436106   -6.5546501    652.61458  0.030450475   0.03061419            5 
 1787000   0.95438938   -6.5602207    654.27279  0.030510763   0.03060672            3 
 1788000   0.96798002    -6.558274    653.62695  0.030463598  0.030599266            4 
 1789000   0.96728053    -6.562579    652.44373  0.030391454  0.030591739            5 
 1790000   0.97717259   -6.5710313    652.50665  0.030377404  0.030584151            7 
 1791000   0.96044605   -6.5467424     653.8842  0.030424539  0.030576519            3 
 1792000   0.95585018   -6.6048512    650.86066  0.030266958   0.03056888            6 
 1793000   0.94091963   -6.5703184    653.01082   0.03035001  0.030561182            8 
 1794000   0.95206396   -6.5864146    653.73604   0.03036678  0.030553561            8 
 1795000   0.97986937   -6.6077335    654.69163  0.030394226  0.030545925            6 
 1796000   0.96929957   -6.5565744    654.51531  0.030369122   0.03053835            7 
 1797000   0.97289236   -6.5872754    657.50898  0.030491049  0.030530776            7 
 1798000   0.94354869   -6.6305463    653.95339  0.030309297  0.030523065            5 
 1799000   0.95234457   -6.5857743    656.00613  0.030387536  0.030515344            9 
 1800000   0.95370848   -6.6030281    655.90682  0.030366056  0.030507602            3 
 1801000    0.9510322   -6.5823629     655.7567  0.030342249  0.030500009            7 
 1802000   0.98271189   -6.5687419    656.34259  0.030352506  0.030492345            7 
 1803000   0.97496823   -6.5800874    654.69316  0.030259436  0.030484671           18 
 1804000   0.96203419   -6.5853721      655.143  0.030263442  0.030476964            3 
 1805000   0.95268271   -6.5654557    654.78844  0.030230306  0.030469308            5 
 1806000   0.97180509   -6.5764777    655.56557  0.030249426  0.030461752            4 
 1807000   0.97277395   -6.5600388    655.60893  0.030234686   0.03045415           13 
 1808000   0.95659136   -6.5642792    656.97291  0.030280831   0.03044652           10 
 1809000   0.95940563   -6.5735034    655.26388  0.030185364  0.030438888            3 
 1810000   0.95219676   -6.5585743    657.42851  0.030268348  0.030431131            8 
 1811000   0.96586029   -6.5464037    657.27322  0.030244488  0.030423448            6 
 1812000   0.98546697   -6.5819236    657.64914  0.030245085  0.030415816            4 
 1813000   0.96864118   -6.5918157     658.1449  0.030251191  0.030408293            5 
 1814000   0.97108373   -6.5675347    657.28933   0.03019521  0.030400683            7 
 1815000   0.97158688   -6.5805848    657.50923   0.03018867  0.030393028            8 
 1816000   0.96447887   -6.5806746    658.64437  0.030224136  0.030385289            7 
 1817000   0.94808302   -6.6015039    655.70862  0.030072859  0.030377565            4 
 1818000   0.97148074   -6.5914417    657.36295  0.030132148  0.030369828            7 
 1819000   0.92835448   -6.5809397     657.6416  0.030128349  0.030362262            3 
 1820000    0.9634636   -6.5758736    659.54828  0.030199097  0.030354645            6 
 1821000   0.95139845   -6.6072927    657.57654  0.030092282  0.030347008            6 
 1822000   0.95876053   -6.5713343    660.01484  0.030187287  0.030339504            3 
 1823000   0.94301125   -6.5736021    661.73964  0.030249572  0.030331995           10 
 1824000   0.98604692   -6.5852392    659.54915  0.030132911  0.030324503            9 
 1825000   0.95249548   -6.5960466    661.09267   0.03018688  0.030316993            6 
 1826000   0.96362799   -6.5815564    661.66784  0.030196597  0.030309544            4 
 1827000   0.95097601   -6.6062999    660.24846  0.030115328  0.030301899            7 
 1828000    0.9584969   -6.5843812    660.63224   0.03011635   0.03029428            3 
 1829000   0.94761568   -6.5687432    661.63683  0.030145655  0.030286703            7 
 1830000   0.96262069   -6.5811643    661.14825  0.030106933   0.03027913            4 
 1831000   0.96214955    -6.591342    660.21912  0.030048203  0.030271474            7 
 1832000   0.96295847   -6.5573874    661.02407  0.030068416  0.030263864            6 
 1833000   0.95705794   -6.5901942    660.88118  0.030045516   0.03025625            4 
 1834000   0.95821358   -6.5735141     663.1634  0.030132833  0.030248635            4 
 1835000   0.95020382   -6.5905425     662.1503  0.030070404  0.030241041            5 
 1836000   0.93866958   -6.5730153    663.96673  0.030136471  0.030233395            6 
 1837000   0.95858202   -6.5771167    660.90385  0.029981122  0.030225766            2 
 1838000   0.96492397    -6.542056    663.59416  0.030086786  0.030218141            4 
 1839000   0.94264481   -6.5890018    662.20054  0.030007275  0.030210524            5 
 1840000    0.9525658   -6.5922546    664.00596  0.030072734  0.030202893           11 
 1841000   0.98879317   -6.5847817    663.51934  0.030034372  0.030195233           11 
 1842000   0.96484558   -6.6008386    661.28282  0.029916885  0.030187563            2 
 1843000   0.96353641   -6.6106355    663.09343  0.029982521  0.030179948            6 
 1844000   0.93225945   -6.5520251    664.26493  0.030019203  0.030172391            4 
 1845000   0.96054017   -6.6015353    666.03157  0.030082727   0.03016478            5 
 1846000   0.95791677   -6.5711669    665.75846  0.030054102  0.030157333            4 
 1847000   0.95869671   -6.6172775    666.53413  0.030072827  0.030149833            8 
 1848000   0.99134589   -6.5575069    665.77133  0.030022156  0.030142457            6 
 1849000    0.9514158   -6.6054364    665.50452  0.029993894  0.030135046            8 
 1850000   0.95450132   -6.6143759    664.76731  0.029944474   0.03012757            8 
 1851000   0.94319355   -6.5994156    666.63004  0.030012157   0.03012003            3 
 1852000   0.95086829   -6.6129953    667.51051   0.03003557  0.030112555            5 
 1853000   0.96600966   -6.6096091    666.66389  0.029981287  0.030105152           10 
 1854000   0.94368979   -6.5838675     667.9957  0.030024977  0.030097696            9 
 1855000   0.95053475   -6.5917702     668.3818  0.030026136  0.030090448            9 
 1856000   0.94545171   -6.5554524     668.6216  0.030020726  0.030083182            5 
 1857000   0.94620481   -6.5797688    668.28227  0.029989332  0.030075865            4 
 1858000   0.96513875   -6.5769629    669.10077  0.030009902  0.030068513            6 
 1859000   0.96129769   -6.5617439    669.08055  0.029992852  0.030061185            6 
 1860000   0.95123917   -6.6072211    669.11802  0.029978406  0.030053794            3 
 1861000   0.97195676   -6.6265383    668.79769  0.029947953  0.030046414            9 
 1862000    0.9574606   -6.6059584    670.44305  0.030005507  0.030039035            4 
 1863000   0.95446787   -6.5868436    668.57697   0.02990593   0.03003175           10 
 1864000    0.9502464   -6.5894946     668.7165  0.029896124  0.030024403            5 
 1865000   0.97181821   -6.5904717    668.52394   0.02987149  0.030016997            8 
 1866000   0.97411524   -6.6312658    667.71816  0.029819496  0.030009548           10 
 1867000   0.96510855   -6.5870946    669.24517  0.029871682  0.030002169            4 
 1868000   0.95173131   -6.6019591    670.87406  0.029928357  0.029994674            8 
 1869000   0.95720918   -6.5629456    668.58379  0.029810228   0.02998724            3 
 1870000   0.94191151    -6.603647     669.6081  0.029839933   0.02997976            7 
 1871000    0.9504086   -6.6060654    669.92648  0.029838165  0.029972277            9 
 1872000   0.95059887   -6.5966985     671.5508  0.029894533  0.029964814            5 
 1873000   0.96808517   -6.5681099    671.22814  0.029864217  0.029957371            5 
 1874000   0.95637486    -6.583249    671.26587  0.029849959  0.029949952            2 
 1875000   0.96838843   -6.6219583    669.38839  0.029750595  0.029942489            5 
 1876000   0.96981823   -6.5914987    671.38113  0.029823255  0.029934947            6 
 1877000   0.96111732   -6.6021347    669.55296  0.029726201  0.029927425            9 
 1878000   0.97374726   -6.5948917    670.80251   0.02976582  0.029919889            4 
 1879000   0.95008605   -6.6237596     669.8995   0.02970993  0.029912246            2 
 1880000   0.94194387   -6.5908643    671.08829  0.029746821  0.029904612            4 
 1881000   0.96173469   -6.5989492    671.06929  0.029730165  0.029897063            6 
 1882000   0.97187545   -6.5903202    672.12206  0.029760984  0.029889535            3 
 1883000   0.92311871   -6.5911865    671.79688  0.029730788  0.029881952            7 
 1884000   0.94707758   -6.6288344    671.92373  0.029720618  0.029874424           10 
 1885000    0.9431451   -6.6215976    672.29647   0.02972133  0.029866812            8 
 1886000   0.94937208   -6.5941045    673.85087  0.029774252  0.029859184            3 
 1887000   0.93357785   -6.5918239    673.38551  0.029737922  0.029851631            5 
 1888000   0.95574927   -6.5783659    672.50305  0.029683221  0.029844123            7 
 1889000   0.94521101   -6.6396538     672.1217  0.029650684  0.029836637            5 
 1890000   0.95410854   -6.6153737     672.3696  0.029645926  0.029828922           15 
 1891000   0.94976785    -6.616381    671.48914  0.029591448  0.029821258            5 
 1892000   0.92274971   -6.6151344    674.58779  0.029712288  0.029813584            2 
 1893000    0.9413693   -6.6144567    672.26459  0.029594321  0.029806032            4 
 1894000   0.94316273   -6.5917314    674.24151  0.029665677  0.029798432            5 
 1895000   0.94475464   -6.6294871    673.87554  0.029633929  0.029790787           10 
 1896000   0.93239694   -6.5959728    673.59399  0.029605924  0.029783047           12 
 1897000   0.95873945   -6.6465318    673.59615  0.029590412  0.029775439            4 
 1898000   0.96113801   -6.5969662    674.63968  0.029620639  0.029767791            5 
 1899000   0.94726737   -6.6024875    675.51868  0.029643614  0.029760203            3 
 1900000   0.95635678   -6.6167001    675.05787  0.029607801  0.029752589            4 
 1901000    0.9368301   -6.5836548    673.12419   0.02950746  0.029744873           11 
 1902000   0.94549283    -6.601853    673.98573  0.029529694  0.029737221            4 
 1903000    0.9537957   -6.6233981    672.67874  0.029456942  0.029729458            6 
 1904000   0.94862696   -6.6109107    674.72968  0.029531236  0.029721769            5 
 1905000   0.96591753   -6.6356536    673.65658  0.029468792  0.029714114           13 
 1906000   0.93094642   -6.6189004    674.17039  0.029475795  0.029706409           12 
 1907000   0.94183193   -6.5946777    674.66984  0.029482164  0.029698645            4 
 1908000   0.92842147   -6.6298557    674.60115  0.029463712  0.029690948            8 
 1909000   0.95044283   -6.5810603    678.27199  0.029608521  0.029683261            6 
 1910000   0.93187474   -6.5887059    676.66536  0.029522921  0.029675644            9 
 1911000   0.95058142   -6.6148737    676.09547  0.029482621  0.029667945            8 
 1912000   0.94905134   -6.6027143    675.98972  0.029462593  0.029660192            8 
 1913000   0.94304325   -6.6307513    676.34347  0.029462601  0.029652461            5 
 1914000   0.94871234   -6.6458956    676.98557  0.029475164   0.02964469            5 
 1915000   0.92376138   -6.6011918     677.8921  0.029499221  0.029637111            3 
 1916000   0.92699167   -6.5983386    677.96043  0.029486797  0.029629457            8 
 1917000     0.956638   -6.6104317    677.51487  0.029452046  0.029621751            8 
 1918000   0.93033351   -6.5591963    679.63953  0.029529003  0.029614144            4 
 1919000   0.95903031   -6.5780898    676.51641  0.029377993  0.029606471            5 
 1920000   0.94030692   -6.5903882    678.43179  0.029445824  0.029598796            5 
 1921000   0.96062673   -6.5961916     676.3902  0.029341931   0.02959101            4 
 1922000   0.91655855   -6.5855365    676.90807  0.029349119  0.029583114            6 
 1923000   0.92913213   -6.6003387    675.79178  0.029285482   0.02957529            9 
 1924000   0.92817728   -6.5743747    677.70226  0.029353008   0.02956744            5 
 1925000   0.94949796     -6.57565    678.69008  0.029380523  0.029559648            4 
 1926000   0.94172388   -6.6030443    677.90046  0.029331103  0.029551915            3 
 1927000   0.96192804   -6.6045871     677.2848  0.029289258  0.029544117            6 
 1928000   0.93037949    -6.634295     677.0421  0.029263576  0.029536349            3 
 1929000   0.94881065   -6.6163011    677.43903  0.029265553  0.029528506            3 
 1930000   0.94197475   -6.6182193    677.59329   0.02925705  0.029520636            4 
 1931000   0.92939008   -6.5929976    677.33902  0.029230926  0.029512775           17 
 1932000   0.92673321   -6.6272584    678.04294  0.029246158  0.029504938            4 
 1933000   0.93730743   -6.6298766    678.79151    0.0292633  0.029497052           18 
 1934000   0.93583905   -6.6034432    678.81258  0.029249077  0.029489093            6 
 1935000   0.93174004   -6.5972646    678.59884  0.029224756   0.02948123            3 
 1936000   0.93488873   -6.6173905    677.80165  0.029175347   0.02947333            9 
 1937000   0.93403975   -6.6182667    678.51192  0.029190841  0.029465402            4 
 1938000   0.95326997   -6.6398099    677.49395  0.029132007  0.029457451           10 
 1939000   0.92359413   -6.6370926    678.35434   0.02915396  0.029449407           13 
 1940000   0.94625064   -6.6301125    680.61187  0.029235905  0.029441438            8 
 1941000    0.9351706   -6.6172236    679.84104  0.029187748  0.029433486            5 
 1942000   0.92294957    -6.596402    681.12237  0.029227702  0.029425527            3 
 1943000   0.94862954   -6.6232629     680.5319  0.029187335  0.029417699            7 
 1944000   0.93815255    -6.655765    679.63776  0.029133992   0.02940992            8 
 1945000   0.93027896   -6.6410307    680.71374  0.029165113  0.029402025            5 
 1946000   0.94165753   -6.6272152    680.57067  0.029143999  0.029394218            4 
 1947000   0.93596342    -6.629551     681.4697   0.02916751  0.029386314            3 
 1948000   0.94411245   -6.6185143    679.14248  0.029052981  0.029378433            5 
 1949000    0.9279509   -6.6345554    681.11451  0.029122392  0.029370462            5 
 1950000   0.94893303   -6.6052141    680.96014  0.029100861  0.029362578            5 
 1951000   0.93811696   -6.6262116    683.95934   0.02921405  0.029354714            8 
 1952000   0.95383709   -6.6262233    681.00057   0.02907277  0.029346876            9 
 1953000   0.95263522   -6.6156678    682.07307  0.029103647  0.029339028            4 
 1954000   0.93259554   -6.6213001    684.03337  0.029172355  0.029331258            2 
 1955000   0.94430571   -6.6122361    683.32389  0.029127191    0.0293235            6 
 1956000   0.94646081   -6.6086031     684.1572  0.029147802  0.029315704            5 
 1957000   0.94200919   -6.6094998    686.99787   0.02925387  0.029308018            3 
 1958000   0.95070258    -6.632224    683.84366  0.029104684  0.029300274            5 
 1959000   0.93693721   -6.6397808     685.5067  0.029160571  0.029292532            5 
 1960000   0.93975698   -6.6345595    683.22609  0.029048729  0.029284784            7 
 1961000   0.94886465   -6.6214101    683.44838  0.029043361  0.029277031            6 
 1962000   0.93558382   -6.6167644    687.03521  0.029180904  0.029269434            3 
 1963000   0.92426769   -6.5966913    685.69902  0.029109315  0.029261922            5 
 1964000   0.94888992   -6.6345735    686.35442  0.029122302  0.029254336            4 
 1965000   0.94121365   -6.6537799    685.72143  0.029080637  0.029246739            7 
 1966000   0.93218762   -6.5940371    686.04107  0.029079394  0.029239232            5 
 1967000   0.93366538   -6.6216648    688.46115  0.029167139  0.029231765            6 
 1968000   0.94622261   -6.6032046    686.54032  0.029070982  0.029224326           13 
 1969000   0.92422938   -6.6108811    687.51716  0.029097561  0.029216772            7 
 1970000   0.93156146   -6.6377878     687.6425  0.029088092  0.029209176            4 
 1971000    0.9399201    -6.617738    686.34665  0.029018546  0.029201569            6 
 1972000   0.94566063   -6.5963597    687.88984  0.029069043  0.029193987            6 
 1973000   0.95979362   -6.6406085     686.8857  0.029011898   0.02918631           14 
 1974000   0.95279829   -6.6258604    685.65623  0.028945299  0.029178674            5 
 1975000    0.9280395   -6.6460458    687.78268  0.029020366  0.029171024            9 
 1976000   0.93069446   -6.6158185    688.29965  0.029027482  0.029163414            6 
 1977000   0.92376058   -6.6348274    688.81968  0.029034719  0.029155744            6 
 1978000   0.92980209   -6.5904298    688.01714  0.028986229  0.029148122            8 
 1979000   0.95697202   -6.6680487    687.71952   0.02895905  0.029140437            8 
 1980000   0.94137577    -6.634444    690.07506  0.029043563  0.029132779            6 
 1981000   0.93041336   -6.6195895    690.54666  0.029048741  0.029125153            4 
 1982000   0.92933614   -6.6146874    689.77639  0.029001698  0.029117476           10 
 1983000   0.93432183   -6.5912772    690.78597  0.029029499  0.029109958            6 
 1984000   0.90932288    -6.606407    690.13266  0.028987427  0.029102367            5 
 1985000   0.93629811   -6.6396534    690.66778  0.028995289  0.029094699            7 
 1986000   0.92191449   -6.6601779    688.46111  0.028888096  0.029087058           11 
 1987000   0.91803165   -6.6486025     689.3598  0.028911248  0.029079426            8 
 1988000    0.9459901   -6.6625859    689.59169  0.028906426  0.029071766            6 
 1989000   0.93320182   -6.6363416    689.93964   0.02890647  0.029064072            6 
 1990000   0.92719844   -6.6285778    691.09477  0.028940317  0.029056429            6 
 1991000   0.92218558   -6.6133964    691.85987  0.028957805  0.029048836           11 
 1992000   0.95222253   -6.6305312    689.95213  0.028863459  0.029041168            5 
 1993000   0.94377263    -6.643593    690.42549   0.02886877  0.029033587            5 
 1994000   0.92702086   -6.6176867    692.13344   0.02892567  0.029026039            7 
 1995000   0.91443681   -6.6212062    692.51218  0.028926991  0.029018419            6 
 1996000   0.92191162   -6.6325704    691.95377  0.028889186  0.029010861            5 
 1997000   0.92218615   -6.6528968    690.46884  0.028812754  0.029003249           10 
 1998000   0.93182975   -6.6269197     691.5364  0.028842859   0.02899566            9 
 1999000   0.92024789   -6.6483998    691.97113  0.028846554  0.028988111            9 
 2000000   0.91626547   -6.6206794    692.48033  0.028853347  0.028980547            9 
 2001000   0.93470196   -6.6417638    693.42947  0.028878455   0.02897291            3 
 2002000   0.90933432   -6.6540004    690.69286  0.028750119  0.028965324            9 
 2003000   0.92693892   -6.6397494    691.71309  0.028778212  0.028957766            5 
 2004000    0.9318493   -6.6269492    694.38301  0.028874876  0.028950263            3 
 2005000   0.94148031   -6.6277998    693.55357     0.028826  0.028942712           12 
 2006000   0.92605615   -6.6281239    695.62231   0.02889757   0.02893522            5 
 2007000   0.92416743   -6.6512603    694.46027  0.028834922  0.028927684            4 
 2008000   0.93230233   -6.6527969    693.03623  0.028761464  0.028920127            3 
 2009000   0.92208686   -6.6695162    692.38144  0.028719987  0.028912443            8 
 2010000   0.91963663    -6.630763    695.78521  0.028846816  0.028904856            5 
 2011000   0.96521121   -6.6357476    695.34773  0.028814343  0.028897336            6 
 2012000   0.93041958   -6.6522941    694.22896  0.028753685  0.028889777            9 
 2013000   0.91738856   -6.6637171    695.48139  0.028791248  0.028882169            5 
 2014000   0.95378865    -6.656967    693.82921   0.02870859  0.028874556            6 
 2015000   0.91742071   -6.6619067    692.28883  0.028630638  0.028866923            3 
 2016000   0.94902529   -6.6663675    694.65509  0.028714248   0.02885924           14 
 2017000   0.94106633   -6.6633211     693.9734  0.028671848  0.028851582            6 
 2018000   0.92583854   -6.6140927     694.1866  0.028666444  0.028844091            5 
 2019000   0.91460728   -6.6397725    696.72301  0.028756935  0.028836602            6 
 2020000   0.91321507   -6.6359586    695.69819   0.02870042  0.028829125            5 
 2021000   0.94402196   -6.6423294    695.04839  0.028659426  0.028821657           10 
 2022000   0.90954792   -6.6327144    695.97935   0.02868362  0.028814223            7 
 2023000   0.92891299    -6.641388    696.65838  0.028697412  0.028806703            6 
 2024000   0.92525859   -6.6550557     695.8434  0.028649679  0.028799181            5 
 2025000    0.9314322   -6.6492168    694.24441  0.028569729  0.028791539           13 
 2026000   0.92036979   -6.6602389    697.13556  0.028674546  0.028783903            4 
 2027000   0.92365409   -6.6685085    697.15593  0.028661237  0.028776289           10 
 2028000   0.90663167   -6.6748353    695.82525  0.028592425  0.028768582           10 
 2029000   0.92974958   -6.6166524    696.69347  0.028613992  0.028760936            8 
 2030000   0.92825011   -6.6267026    697.93237  0.028650754  0.028753355            6 
 2031000   0.91318835   -6.6428062    698.09068  0.028643143  0.028745796            6 
 2032000   0.91835603   -6.6582814    698.99167  0.028665997  0.028738187            4 
 2033000   0.92257935   -6.6111269    699.25673  0.028662762  0.028730669            9 
 2034000   0.92481438   -6.6263174    697.72748  0.028586016  0.028723154            6 
 2035000    0.9270004   -6.6214281    698.59833   0.02860763  0.028715569            6 
 2036000   0.92328725   -6.6590691    697.56617  0.028551333  0.028707907           21 
 2037000   0.91364419   -6.6506894    698.25633  0.028565551  0.028700313            3 
 2038000   0.93521377   -6.6524037    698.48025   0.02856069  0.028692748            8 
 2039000   0.95035692   -6.6195919    698.03929  0.028528661  0.028685197            5 
 2040000   0.92592786   -6.6631596    699.55773  0.028576705  0.028677715            5 
 2041000   0.93684072   -6.6438013    699.98245  0.028580044  0.028670194           10 
 2042000   0.92069105   -6.6531171     699.5601  0.028548812  0.028662722            6 
 2043000   0.93636537   -6.6621802     699.3382  0.028525787  0.028655221            6 
 2044000   0.91486892   -6.6740534    699.18818  0.028505715  0.028647692            3 
 2045000   0.92981761   -6.6662851    697.72832  0.028432287  0.028640203            6 
 2046000   0.94576173   -6.6379837    700.42877  0.028528379  0.028632679            7 
 2047000   0.92341174    -6.673423     701.6027  0.028562233  0.028625168            4 
 2048000    0.9220193   -6.6685366    699.29667  0.028454454  0.028617573            9 
 2049000    0.9411746   -6.6421309     698.8047  0.028420559  0.028609973            4 
 2050000   0.92905252   -6.6499731    701.05494  0.028498168  0.028602374            4 
 2051000    0.9268327   -6.6423662    697.84651  0.028353913  0.028594809            6 
 2052000   0.92218277   -6.6204717    701.00326  0.028468294  0.028587196            5 
 2053000   0.95057177   -6.6679149    701.96773  0.028493576   0.02857962           11 
 2054000   0.92718056   -6.6543508    701.72528  0.028469867  0.028572026            6 
 2055000   0.92097911   -6.6792495    703.14543  0.028513602  0.028564529            4 
 2056000   0.92706179   -6.6642507     702.6147  0.028478222  0.028556982            3 
 2057000   0.92709427   -6.6585615    701.81645  0.028432039   0.02854946           15 
 2058000   0.93869064   -6.6376941    703.04648   0.02846803  0.028541977            7 
 2059000   0.93360284   -6.6210864    703.55111  0.028474628  0.028534552            7 
 2060000   0.93467567   -6.6731486    703.68758  0.028466326  0.028527111            5 
 2061000   0.93498799   -6.6736837    703.07013  0.028427549  0.028519628            8 
 2062000   0.93990845   -6.6780879    700.78597  0.028321451  0.028512088            4 
 2063000   0.92076859   -6.6562691    702.99768  0.028397063  0.028504533            5 
 2064000   0.93106054   -6.6446084    702.46514  0.028361803  0.028496924            4 
 2065000   0.91640799   -6.6712364    702.70714  0.028357834  0.028489419            8 
 2066000   0.89691698   -6.6944992      702.642  0.028341481  0.028481827            6 
 2067000   0.92219861   -6.6898484    701.55703  0.028284028  0.028474241            7 
 2068000   0.92264997   -6.6420203    702.99941  0.028328474  0.028466649            6 
 2069000   0.92757985   -6.6448559    703.03292  0.028316132  0.028459093           10 
 2070000   0.90605655   -6.6736182    704.50572  0.028361744  0.028451581           12 
 2071000   0.91010917   -6.6947447    703.17758  0.028294607  0.028444081            3 
 2072000   0.92419164   -6.6657762    706.16022   0.02840091   0.02843659            9 
 2073000   0.91258956   -6.6709503    703.45774  0.028278571  0.028429098           16 
 2074000    0.9325164   -6.6585039    705.19926  0.028334911  0.028421586            9 
 2075000   0.93670058   -6.6604306    704.82569  0.028306253  0.028414224            9 
 2076000   0.88290357   -6.6892505    705.56809  0.028322419  0.028406755           16 
 2077000   0.92833759   -6.6126883    707.04442  0.028368016   0.02839928           11 
 2078000   0.91903503   -6.6389257    707.38444     0.028368  0.028391873           10 
 2079000    0.9385921   -6.6598075    707.03327  0.028340278  0.028384482            4 
 2080000   0.91588685   -6.7009905    707.60832  0.028349692  0.028377061           11 
 2081000   0.91881621   -6.6433805    706.54414  0.028293454  0.028369652            6 
 2082000   0.92334423   -6.6811316     705.5701  0.028240878  0.028362246           15 
 2083000   0.91385568   -6.6909819    707.18839  0.028292062   0.02835472            9 
 2084000   0.92075932   -6.7132995    705.83109  0.028224212  0.028347228            8 
 2085000    0.9266862    -6.643724    707.13188  0.028262665  0.028339783            8 
 2086000   0.90139257   -6.6561266    707.17467  0.028250826  0.028332366            8 
 2087000   0.91310413   -6.6677616      706.013  0.028190904  0.028324886            6 
 2088000   0.92651444   -6.6575666    708.03525  0.028258112  0.028317464            5 
 2089000   0.92130437   -6.6320767    708.45181  0.028261202  0.028310044            4 
 2090000   0.90047575   -6.6461266    705.90927  0.028146303  0.028302601           11 
 2091000   0.92905216   -6.6526947    707.23626  0.028185727  0.028295114            4 
 2092000   0.90568789    -6.661646    707.98986  0.028202273  0.028287626           12 
 2093000   0.94829879   -6.6457812    707.93797  0.028186732  0.028280095           11 
 2094000   0.93897579   -6.6596575    707.88537  0.028171178  0.028272602            6 
 2095000   0.91872967   -6.6792763    710.52986  0.028262922  0.028265077            7 
 2096000   0.88919742   -6.6895739    707.29013  0.028120632  0.028257561            7 
 2097000   0.93155018   -6.6628897    708.54489  0.028157085  0.028250009            8 
 2098000   0.90701702   -6.6991547    708.44296  0.028139615  0.028242476            5 
 2099000   0.91462376   -6.6789203    707.67355  0.028095663  0.028234996            6 
 2100000   0.91870259   -6.6583715    709.18783  0.028142374  0.028227545            3 
 2101000   0.91502911   -6.6733155    710.77832  0.028192064  0.028220081            7 
 2102000   0.92438494    -6.647667    709.56567  0.028130577  0.028212546            7 
 2103000   0.92472435   -6.6733365    709.74323  0.028124236  0.028205032            7 
 2104000   0.88852477   -6.6891332    708.28868  0.028053259  0.028197466            9 
 2105000   0.94072639    -6.674408    708.61062  0.028052677  0.028189894            6 
 2106000   0.91356096   -6.6447692    709.46264  0.028073071   0.02818232            8 
 2107000   0.90385975   -6.6394595    709.09285  0.028045121  0.028174775            9 
 2108000    0.9208138   -6.6788117    710.01375  0.028068222  0.028167174            7 
 2109000   0.92540128    -6.698124    708.53179  0.027996357  0.028159617            5 
 2110000    0.8989802   -6.6891274    708.39454  0.027977667  0.028152095            4 
 2111000   0.92051516   -6.6694741    710.30249  0.028039732  0.028144558           10 
 2112000    0.9311943   -6.6823929    710.23568  0.028023819  0.028136996            5 
 2113000   0.91699826   -6.6646325    711.91654  0.028076847  0.028129406            9 
 2114000   0.89430171   -6.6496128    712.05362   0.02806897  0.028121906            4 
 2115000   0.89655878   -6.6990279     711.0641   0.02801671   0.02811439            6 
 2116000    0.9179553   -6.6718444    710.54483   0.02798302  0.028106842            5 
 2117000   0.90537157   -6.6872044    711.63343  0.028012653  0.028099269            3 
 2118000   0.90672265   -6.6728758    711.04982  0.027976464  0.028091663            8 
 2119000   0.91883064   -6.6543551     710.7247  0.027950476  0.028084046           22 
 2120000   0.90960377   -6.7082419    708.31477  0.027842562  0.028076395            9 
 2121000   0.91101265   -6.6851779    710.54099  0.027916902  0.028068785           10 
 2122000   0.90950897   -6.6596241    713.07244  0.028003159  0.028061211            7 
 2123000   0.91024783   -6.6792934    709.66761   0.02785632  0.028053599            6 
 2124000   0.89842494   -6.6821639    711.54445  0.027916841  0.028046027            6 
 2125000   0.89946492    -6.681246    712.27091  0.027932192  0.028038464            6 
 2126000   0.91386326   -6.6848305    711.34533  0.027882774  0.028030909            6 
 2127000   0.91280496   -6.6818579    712.87926  0.027929763  0.028023412           11 
 2128000    0.9022866   -6.6775336    710.78381  0.027834579  0.028015803           12 
 2129000   0.91951455   -6.6889341    710.96505  0.027828599  0.028008314            6 
 2130000   0.90341251   -6.6896011    713.54452  0.027916452  0.028000764            6 
 2131000   0.90511576   -6.6690918    713.76376  0.027911926  0.027993244            9 
 2132000   0.91764577    -6.680374    712.87026  0.027863909  0.027985753            6 
 2133000   0.92565803   -6.6709569    712.92033  0.027852803  0.027978261           16 
 2134000   0.92366019   -6.6818412    714.91694  0.027917719  0.027970722            6 
 2135000   0.92326842   -6.6714953     713.0563  0.027832018  0.027963254            5 
 2136000   0.89378966   -6.6765213    715.08548  0.027898154  0.027955837           12 
 2137000   0.90468416   -6.6745149    714.36285   0.02785692  0.027948488            3 
 2138000   0.90404247   -6.6652792    717.08706  0.027950073  0.027941118            5 
 2139000   0.91243707    -6.666947    715.99349  0.027894401  0.027933681           14 
 2140000   0.91011975   -6.6861174    716.88422  0.027916052  0.027926258            5 
 2141000   0.90874361   -6.6557951    717.08897  0.027910983  0.027918928           10 
 2142000   0.91290426   -6.6551356    718.39315  0.027948691  0.027911635           12 
 2143000   0.90171646   -6.6848731    716.58382  0.027865291  0.027904313           11 
 2144000   0.92255992   -6.6785472    716.74995  0.027858751   0.02789703            6 
 2145000   0.90834043   -6.6723843    718.56002  0.027916085  0.027889731            8 
 2146000   0.92285608   -6.6893003    716.07677  0.027806647  0.027882424            6 
 2147000   0.90716519   -6.6580083    717.50939  0.027849301   0.02787509            4 
 2148000   0.89478499   -6.6926208     716.3847  0.027792703  0.027867813            9 
 2149000   0.89718272   -6.6808566    717.15469  0.027809628  0.027860474            2 
 2150000   0.91193896   -6.6970668    716.66056  0.027777541  0.027853128            4 
 2151000   0.91194466   -6.6778182    717.95427  0.027814748  0.027845773            4 
 2152000   0.90105333   -6.6670881    719.55283  0.027863725  0.027838438            4 
 2153000   0.88783216   -6.6517574    717.25437   0.02776182  0.027831093            9 
 2154000   0.91004115   -6.6409929    718.31064  0.027789796  0.027823818            5 
 2155000   0.91595433   -6.6697134    719.63916  0.027828274   0.02781655           11 
 2156000   0.90906877   -6.7073929    719.45496  0.027808247    0.0278092            6 
 2157000   0.89759202   -6.7209384    715.20724  0.027631249  0.027801754            9 
 2158000   0.88926413   -6.6939537     716.2264    0.0276578  0.027794276           10 
 2159000   0.91561854    -6.677755    718.28033  0.027724268  0.027786857            8 
 2160000   0.90540618   -6.6850567    718.64784  0.027725611  0.027779559            8 
 2161000   0.90668436   -6.6652171    720.57969  0.027787278   0.02777221            3 
 2162000   0.89741538   -6.6777406    718.50344  0.027694397  0.027764854            2 
 2163000   0.88245716   -6.7277732    720.13681  0.027744522  0.027757548            6 
 2164000    0.9055359   -6.6730382    720.06742  0.027729029  0.027750306            8 
 2165000   0.90829345   -6.6491732    722.10083  0.027794489  0.027743112            7 
 2166000   0.90742107   -6.6781626    722.30711  0.027789593  0.027735927            5 
 2167000   0.90590398   -6.6757687     720.9127  0.027723146  0.027728673            4 
 2168000   0.90655822   -6.7039437    720.24899  0.027684848  0.027721358            6 
 2169000   0.88931108   -6.6893576    718.80595  0.027616642  0.027714062            5 
 2170000   0.91227528   -6.6409989    721.02667  0.027689196  0.027706771            6 
 2171000   0.88661033    -6.669214    721.86988  0.027708808  0.027699444            7 
 2172000   0.90818398   -6.6591875    721.08947  0.027666109  0.027692127            6 
 2173000   0.89825138   -6.6843855    721.77293  0.027679588  0.027684841            5 
 2174000   0.91854104   -6.6919524    721.40007  0.027652563  0.027677475            8 
 2175000   0.90265805    -6.711954    721.79455  0.027654964   0.02767017            7 
 2176000    0.8917898   -6.6796386    720.85818  0.027606395  0.027662776            6 
 2177000   0.89577448   -6.6744498    721.64919  0.027623993  0.027655428            4 
 2178000   0.89217039   -6.6923481    720.21263  0.027556345  0.027648055            9 
 2179000   0.90377173   -6.6371124    723.86954  0.027683553  0.027640696            9 
 2180000   0.91220119   -6.6939766    722.19024  0.027606661  0.027633416           14 
 2181000   0.90896759   -6.6908779    723.29483  0.027636208  0.027626114           16 
 2182000   0.91475647   -6.6843699    723.20144  0.027619975  0.027618771            4 
 2183000    0.9146109   -6.6935326    722.03701  0.027562873  0.027611498            9 
 2184000    0.9086996   -6.6928489    723.05342  0.027589035  0.027604214            6 
 2185000   0.90162168   -6.7142728    722.10405    0.0275402  0.027596942            6 
 2186000   0.89845479   -6.7041203    723.56745  0.027583389  0.027589615            8 
 2187000   0.92485127   -6.6770508    722.74512  0.027539442  0.027582297            9 
 2188000   0.89881145   -6.6922386    722.93915  0.027534246   0.02757497            7 
 2189000   0.91623979   -6.6962687    724.10942  0.027566218  0.027567669            4 
 2190000   0.87863128   -6.6977769    722.74064  0.027501546  0.027560319            5 
 2191000    0.9008045   -6.7040766    724.54338   0.02755756  0.027553039            5 
 2192000   0.89229899   -6.6869178    723.20714  0.027494189  0.027545803            7 
 2193000   0.92403154   -6.7121947    723.50785  0.027493078  0.027538487           10 
 2194000   0.89860482   -6.7343208    722.74675  0.027451639  0.027531096            8 
 2195000   0.91127719   -6.6649722    723.89861  0.027482863  0.027523715            9 
 2196000    0.8917789   -6.7080961    724.29593  0.027485425   0.02751637            6 
 2197000   0.92802051   -6.7115608     725.2556  0.027509316   0.02750904           12 
 2198000   0.91193738   -6.6850316     723.6659  0.027436529  0.027501744            7 
 2199000   0.89233119   -6.6672909    724.11372  0.027441023  0.027494431           11 
 2200000    0.8830544   -6.7158144     723.7754  0.027415735  0.027487083            9 
 2201000   0.90227366   -6.6807572    724.96192  0.027448202  0.027479748            9 
 2202000   0.88719951   -6.6879462    724.51841  0.027418953  0.027472449            7 
 2203000   0.89647597   -6.6615848    723.39019  0.027363829  0.027465117            8 
 2204000    0.9047024    -6.726471    725.27805  0.027422794  0.027457809            6 
 2205000   0.87601347   -6.6803682    725.32341  0.027412071  0.027450517           12 
 2206000   0.91661031    -6.721647    725.11118  0.027391628  0.027443207            8 
 2207000   0.89595234   -6.7206272    725.36617  0.027388845  0.027435897            7 
 2208000   0.91268687   -6.6881766     726.8922  0.027434035  0.027428587            8 
 2209000   0.89649649   -6.6885156    726.98425  0.027425089  0.027421401           14 
 2210000   0.89995268   -6.7036326    726.79662  0.027405604  0.027414184            5 
 2211000   0.89996725   -6.6901432    726.62702  0.027386817  0.027406964            9 
 2212000   0.90167926   -6.7078776    725.92243  0.027347891  0.027399656           10 
 2213000   0.89631738   -6.7115441    724.74452  0.027291178  0.027392327            8 
 2214000   0.90016833   -6.7463561    725.64719  0.027312827  0.027384973            5 
 2215000    0.9025962   -6.7309191    724.66967   0.02726372  0.027377595            4 
 2216000   0.88490376    -6.721479     727.1663  0.027345303  0.027370219            7 
 2217000   0.89366879   -6.7014844    727.36885  0.027340582  0.027362869           10 
 2218000   0.90199325   -6.7503886    725.35686  0.027252662  0.027355509           10 
 2219000   0.89888166   -6.6882894    727.70995   0.02732875  0.027348179            4 
 2220000   0.90593445   -6.7083426    725.71101  0.027241404  0.027340871           12 
 2221000   0.90306133   -6.7383948    725.49981  0.027221215  0.027333519            6 
 2222000   0.86882467   -6.6990774    728.37766  0.027316894  0.027326199           15 
 2223000   0.90277923   -6.6848214    727.71486  0.027279759  0.027318901            6 
 2224000   0.88500126    -6.699694    728.64704  0.027302422  0.027311581           12 
 2225000   0.90118173   -6.7110346    728.67154  0.027291069   0.02730423            5 
 2226000   0.89921701   -6.7200656    728.82849  0.027284684  0.027296896           10 
 2227000   0.89611454    -6.739496    727.89792  0.027237611  0.027289513           14 
 2228000   0.89556455    -6.729504    729.05186  0.027268546  0.027282124           11 
 2229000   0.90509454   -6.7389201    728.27524  0.027227278  0.027274834            4 
 2230000    0.8940706   -6.7147492     727.2221  0.027175714  0.027267542           12 
 2231000   0.88066729   -6.7051136    728.60776   0.02721529  0.027260315            4 
 2232000   0.88743874   -6.7239498     728.1707  0.027186779  0.027253067           14 
 2233000   0.89061285   -6.6989943    730.38665  0.027257302  0.027245747           11 
 2234000   0.87198413   -6.7180107     729.3411  0.027206099   0.02723845           11 
 2235000   0.88780235   -6.7021862    731.70405   0.02728203  0.027231175            7 
 2236000   0.90162854   -6.7388161    728.49491  0.027150228  0.027223901            5 
 2237000   0.87917025   -6.7120331    729.89294   0.02719017  0.027216562            5 
 2238000   0.90579367   -6.7191441    728.34163  0.027120257  0.027209294            6 
 2239000   0.89131942   -6.6939517    728.64469  0.027119424  0.027201987           14 
 2240000   0.90162779   -6.7141525    729.76842  0.027149123   0.02719471            4 
 2241000   0.89275313   -6.6954732    731.61671  0.027205738  0.027187454            6 
 2242000   0.88591994   -6.7189705    730.41274  0.027148853  0.027180162            6 
 2243000    0.8877916   -6.7029782    731.91325  0.027192497  0.027172856            3 
 2244000   0.90148114   -6.7246001    731.75356  0.027174449  0.027165578            7 
 2245000   0.88458162   -6.7105752    732.50592  0.027190272  0.027158239            5 
 2246000   0.90139316   -6.7145376    730.81214  0.027115321  0.027150951            8 
 2247000   0.88957646   -6.7073378    731.76638  0.027138643  0.027143686            5 
 2248000   0.87097249   -6.6976482    732.09753  0.027138847  0.027136432            3 
 2249000   0.89561834   -6.6897364    732.77762  0.027151979  0.027129246            8 
 2250000   0.90060094   -6.7196331    733.27214  0.027158228   0.02712201            7 
 2251000   0.90546903   -6.6945569    731.43072  0.027077992  0.027114778            6 
 2252000   0.90014778   -6.7445687    732.26175   0.02709672  0.027107579           13 
 2253000   0.88377358   -6.7006138    732.52525  0.027094439  0.027100346            8 
 2254000   0.88078974    -6.711132    733.51844  0.027119138  0.027093099           10 
 2255000   0.88576293   -6.7371714    731.14522  0.027019409  0.027085834            6 
 2256000   0.89536668   -6.7287242    732.42311  0.027054636  0.027078585           12 
 2257000   0.88667502   -6.6999238    732.13079  0.027031856  0.027071349            6 
 2258000   0.90260379   -6.6981747    733.63083  0.027075245  0.027064159            6 
 2259000   0.89068573    -6.731692    732.75726  0.027031034  0.027056959            8 
 2260000   0.88784524   -6.7095529    733.76197   0.02705612  0.027049676           15 
 2261000    0.8921297   -6.7255765    732.71619  0.027005609  0.027042411            4 
 2262000   0.88056234   -6.6972444    732.71596  0.026993662  0.027035149            6 
 2263000   0.89877247   -6.7383283    732.37627  0.026969225  0.027027904            5 
 2264000   0.89024915   -6.7431666    732.49116  0.026961541  0.027020596           18 
 2265000   0.87659151   -6.7253008    734.30609  0.027016413  0.027013266           11 
 2266000   0.88690374   -6.7087998    734.68864  0.027018559   0.02700597            6 
 2267000   0.88942786    -6.709061    733.75269  0.026972235  0.026998739            9 
 2268000   0.87920332   -6.6856078    735.55372  0.027026518  0.026991488            6 
 2269000   0.89587372   -6.7153005    734.33454   0.02696983  0.026984243           10 
 2270000   0.90594076   -6.6943085    735.37746  0.026996236  0.026976989            8 
 2271000   0.90186917   -6.7401283    733.45321  0.026913739  0.026969776            7 
 2272000   0.88136155   -6.7194687    736.96498  0.027030699  0.026962564            3 
 2273000   0.87951928   -6.6913141    739.09332  0.027096837  0.026955412            9 
 2274000   0.86217738   -6.7016027    735.26052  0.026944464   0.02694825            6 
 2275000   0.87861856   -6.7430706    737.63889  0.027019739  0.026941151            7 
 2276000   0.87913961   -6.7266262    736.51997    0.0269669  0.026934014           17 
 2277000   0.90366497   -6.7325146    736.57694  0.026957142  0.026926872           14 
 2278000   0.89177113   -6.7036357    737.56683   0.02698152  0.026919716            8 
 2279000   0.86646609   -6.7358012    738.03396  0.026986762  0.026912561            9 
 2280000   0.86905294   -6.7296056    736.95506  0.026935492  0.026905335           10 
 2281000   0.89002004   -6.7222369    736.42997    0.0269045  0.026898185           14 
 2282000   0.89641361   -6.7151742    736.93513  0.026911157  0.026891011            9 
 2283000   0.88216665   -6.7447955    737.54347  0.026921575  0.026883865            5 
 2284000   0.89733801   -6.7244582    739.58672  0.026984337  0.026876704            9 
 2285000   0.87917089   -6.7001628    738.01724   0.02691529  0.026869639            7 
 2286000   0.89431724   -6.7271827    739.05546  0.026941363  0.026862577            8 
 2287000   0.87431429   -6.7451917    740.75876  0.026991647  0.026855594            2 
 2288000    0.8900593   -6.7530151    741.04899  0.026990421   0.02684851            6 
 2289000   0.89663725   -6.7021203    739.72705  0.026930503   0.02684149            9 
 2290000   0.88192698   -6.7024307    738.76129  0.026883599   0.02683444            9 
 2291000   0.89906706   -6.7338195    739.84936  0.026911442  0.026827381           18 
 2292000   0.90719158   -6.7176084    741.09181  0.026944874   0.02682034            5 
 2293000   0.89187203   -6.7418325    741.58726  0.026951129  0.026813284            6 
 2294000    0.8836675   -6.7080515    740.27246  0.026891618  0.026806278            7 
 2295000   0.87304677   -6.7176741    742.16426  0.026948593  0.026799291            6 
 2296000   0.88102868   -6.7151152    740.33102  0.026870319  0.026792353           12 
 2297000   0.88285046   -6.7214516    741.17783  0.026889342  0.026785352           13 
 2298000   0.89239432    -6.707338    740.46942  0.026851952   0.02677841            9 
 2299000   0.88435487   -6.7298504    742.33768  0.026907992  0.026771373           12 
 2300000   0.88605049   -6.7111435    744.13129  0.026961279  0.026764355            9 
 2301000     0.876914   -6.7297935    740.93818  0.026833919  0.026757291            4 
 2302000   0.86688321   -6.7339815    741.75862  0.026851963  0.026750204            9 
 2303000    0.8982679    -6.733104    741.82738  0.026842791  0.026743205            6 
 2304000    0.8877334   -6.7648429    740.25929  0.026774424  0.026736132           30 
 2305000   0.88864046   -6.7447714    741.40486  0.026804225  0.026729001            9 
 2306000   0.87039161   -6.7374897    741.62349  0.026800502  0.026721937            7 
 2307000   0.89277421   -6.7594589    741.58987   0.02678767  0.026714849           17 
 2308000   0.88340119   -6.7687803    740.47432  0.026735786  0.026707738           19 
 2309000   0.88179475   -6.7451829     740.9769  0.026742345  0.026700577           11 
 2310000   0.89019839   -6.7084449    741.05963  0.026733753  0.026693521            7 
 2311000   0.86958503   -6.7609646    742.91888  0.026789228  0.026686445           11 
 2312000   0.88603291   -6.7398986    742.54439  0.026764143  0.026679341            7 
 2313000   0.87996688   -6.7299517    743.57322  0.026789639  0.026672292            5 
 2314000   0.88092918   -6.7385238    743.42547  0.026772741  0.026665292            4 
 2315000   0.88735845   -6.7342131    744.54653  0.026801531  0.026658284           29 
 2316000   0.88415684   -6.7529178    742.79838  0.026727058  0.026651261           18 
 2317000   0.89821603   -6.7294186    745.16772  0.026800738  0.026644245           21 
 2318000   0.87745274   -6.7406178    744.64253  0.026770295  0.026637242            6 
 2319000   0.87186155   -6.7067118     742.9153  0.026696683  0.026630318            7 
 2320000   0.86483086   -6.7555402    743.34698  0.026700682  0.026623329           12 
 2321000   0.87210139   -6.7333299    743.15264    0.0266822  0.026616273            3 
 2322000   0.88690991   -6.7623624    742.41247  0.026644146  0.026609188           11 
 2323000   0.88543353   -6.7665854    744.98818  0.026725075  0.026602198            8 
 2324000   0.88575611   -6.7299414    744.73214  0.026704394  0.026595157           16 
 2325000   0.87274033   -6.7147322    745.88178  0.026734114   0.02658817            9 
 2326000   0.89901457   -6.7540568    742.16079  0.026589309  0.026581124            9 
 2327000   0.87376875   -6.7505471    742.75715  0.026599239  0.026573971            8 
 2328000   0.88928041    -6.767652     743.0457  0.026598142  0.026566837           13 
 2329000   0.89230591   -6.7305229    744.57737  0.026641526   0.02655968            9 
 2330000   0.86948726   -6.7209164     745.3905  0.026659174  0.026552564            6 
 2331000   0.90139596   -6.7409659    745.15017  0.026639145  0.026545512           11 
 2332000   0.89408273   -6.7387819    744.17628   0.02659292  0.026538473           13 
 2333000   0.87766151   -6.7345468    746.71909  0.026672349  0.026531435            8 
 2334000   0.88589433   -6.7170475    744.74331  0.026590378  0.026524406           19 
 2335000   0.86360166   -6.7279292    748.22785  0.026703349  0.026517419           12 
 2336000    0.8868769   -6.7053814     746.3792   0.02662597  0.026510462            7 
 2337000   0.87237353   -6.7586457    746.34175  0.026613242  0.026503469           10 
 2338000    0.8765777   -6.7116382    747.49098  0.026642821  0.026496538           18 
 2339000   0.86718264   -6.7400639    747.17274  0.026620092  0.026489626            5 
 2340000   0.88022945   -6.7138309    748.34635  0.026650511  0.026482681            4 
 2341000   0.88520445    -6.738481    747.99656  0.026626675  0.026475814           10 
 2342000   0.87107694   -6.7337528    747.47396  0.026596711  0.026468934           10 
 2343000   0.88193219   -6.7092575    747.43723  0.026584053  0.026462033            4 
 2344000     0.864161   -6.7355084    746.24832  0.026530444  0.026455125            9 
 2345000   0.87598156   -6.7382043    747.35037  0.026558293  0.026448155            9 
 2346000   0.86393042   -6.7432892    748.94198  0.026603509  0.026441206            7 
 2347000   0.89382257   -6.7443946    747.50473  0.026541142  0.026434284            6 
 2348000   0.89590131   -6.7669215    747.56289  0.026531903  0.026427335            4 
 2349000   0.88369674   -6.7584202    748.05429  0.026538041  0.026420373            3 
 2350000   0.88168225    -6.747072    749.14773  0.026565522   0.02641351           22 
 2351000   0.87407698    -6.761922    749.43879  0.026564539  0.026406657            6 
 2352000   0.88423349   -6.7479283    748.30726  0.026513154  0.026399758            4 
 2353000   0.84941237   -6.7748963    748.55387   0.02651062  0.026392859            7 
 2354000   0.87632741   -6.7565199    750.45179  0.026566546   0.02638605           11 
 2355000    0.8705152   -6.7457743    749.65764  0.026527164  0.026379232           10 
 2356000   0.88155573   -6.7747774    750.62688  0.026550187  0.026372486            5 
 2357000   0.88045058   -6.7161898    749.63101  0.026503713   0.02636569            6 
 2358000   0.90230509   -6.7523276     750.3706   0.02651861   0.02635886            4 
 2359000    0.8815725   -6.7443115    752.92576  0.026597632  0.026352056            5 
 2360000   0.87205149   -6.7615073    752.88387  0.026584882  0.026345258            5 
 2361000   0.87838293    -6.741828    751.18425  0.026513633  0.026338434            6 
 2362000   0.87635518   -6.7522615    749.96639  0.026459441  0.026331548            6 
 2363000   0.85994261   -6.7696714    750.34622  0.026461638  0.026324587            6 
 2364000   0.86780541    -6.743145    750.66434  0.026461659  0.026317647            9 
 2365000   0.85577637    -6.733675    750.51103  0.026445068  0.026310753            7 
 2366000   0.85780699   -6.7425865    751.49256  0.026468462  0.026303841            9 
 2367000   0.85042778   -6.7572623    748.59475  0.026355258  0.026296836            8 
 2368000   0.88088445   -6.7490062    749.06546  0.026360693  0.026289835            4 
 2369000    0.8792294   -6.7620997    750.84437  0.026412142  0.026282844            9 
 2370000    0.8640996   -6.7494007    749.37354  0.026349281  0.026275858            3 
 2371000    0.8808417   -6.7660575    749.52654  0.026343545  0.026268785            6 
 2372000   0.86389356   -6.7613789    750.28368  0.026359039  0.026261703            7 
 2373000   0.87208447   -6.7335826    749.96442  0.026336719  0.026254602           13 
 2374000   0.86945776   -6.7464905    749.78038  0.026319165   0.02624758           17 
 2375000   0.89364776   -6.7490291    748.35909  0.026258214  0.026240562            5 
 2376000   0.87477905   -6.7367281    748.55016  0.026253864  0.026233511           13 
 2377000   0.88754017   -6.7675417    750.61043  0.026315048  0.026226429            9 
 2378000   0.84817331   -6.7237641    750.16123  0.026288241  0.026219408           19 
 2379000   0.87908751   -6.7692886    751.45394  0.026322472  0.026212428            5 
 2380000   0.87305431   -6.7533355    752.82246   0.02635933  0.026205452            9 
 2381000   0.86291956   -6.7599328    751.91238  0.026316407  0.026198481           19 
 2382000   0.87304334      -6.7412    753.98344  0.026377814  0.026191616            9 
 2383000   0.85720719   -6.7614215    752.01046   0.02629775  0.026184751            9 
 2384000    0.8641306   -6.7688431    752.25224  0.026295171  0.026177848           10 
 2385000   0.87465669   -6.7447118    752.98874  0.026309879  0.026170964           13 
 2386000   0.87656457   -6.7352921    753.22881  0.026307237  0.026164031            8 
 2387000   0.87246915    -6.746095    752.96148  0.026286883  0.026157136            8 
 2388000   0.87015564   -6.7545015    752.59068  0.026262936  0.026150253           18 
 2389000   0.87958319   -6.7547972     754.4694  0.026317476  0.026143342            5 
 2390000   0.86741131   -6.7598022    754.14958  0.026295313  0.026136448            9 
 2391000   0.86600477   -6.7725357    753.85702  0.026274119  0.026129567           12 
 2392000   0.86178552   -6.7740242    754.39765  0.026281969  0.026122652            8 
 2393000     0.864388   -6.7124819    752.37806  0.026200657  0.026115769            8 
 2394000   0.85988598   -6.7781145    753.14784  0.026216508  0.026108835           19 
 2395000   0.86769406   -6.7601835    752.69051  0.026189649  0.026101856            7 
 2396000   0.86524884   -6.7380462    753.97216  0.026223295  0.026094999           17 
 2397000   0.88189503   -6.7572282    755.51781   0.02626609  0.026088043            4 
 2398000   0.90672777   -6.7722122    752.09429  0.026136165  0.026081056           12 
 2399000   0.85161869   -6.7629143    755.33065  0.026237691  0.026074098           23 
 2400000    0.8801846   -6.7483277    756.19321  0.026256709  0.026067203            9 
 2401000   0.85696841   -6.7460997    754.45895  0.026185581  0.026060214           16 
 2402000    0.8604868   -6.7652719    753.03878  0.026125409  0.026053254           14 
 2403000   0.87437061   -6.7729077    753.84026  0.026142331  0.026046275           10 
 2404000   0.87335854   -6.7611155    754.07093  0.026139453  0.026039332            6 
 2405000   0.85859011    -6.746893    754.61364  0.026147389  0.026032414           14 
 2406000    0.8650229   -6.7346641     755.3728  0.026162815  0.026025497            7 
 2407000   0.85874198   -6.7671566    755.45935  0.026154942   0.02601858            7 
 2408000   0.86473452   -6.7392023    755.34251  0.026140037  0.026011656           21 
 2409000   0.86383578   -6.7451731    756.92827  0.026184041  0.026004717            7 
 2410000   0.86859817    -6.824833    754.68576  0.026095635  0.025997751            4 
 2411000   0.87579348   -6.7569887    753.83719  0.026055482  0.025990777            9 
 2412000   0.84777518   -6.7801923    753.54702  0.026034654  0.025983775           11 
 2413000   0.86317821   -6.7578384      756.477  0.026125052  0.025976824           13 
 2414000   0.87640247   -6.7224635     758.5769   0.02618672  0.025969897           16 
 2415000   0.85079427   -6.7663673    755.88511  0.026082992  0.025962978           14 
 2416000   0.86499312   -6.7600841     755.4456  0.026057037  0.025956053            9 
 2417000   0.87712747   -6.7523093    755.75578   0.02605695  0.025949196            7 
 2418000   0.84619221   -6.7673179    758.37796  0.026136544  0.025942298            9 
 2419000   0.87049609   -6.7582151    757.39671  0.026091936  0.025935446            5 
 2420000   0.84991192   -6.7464143    756.86837  0.026062961  0.025928603            3 
 2421000   0.85948377   -6.7777716    757.01014  0.026057075  0.025921736            9 
 2422000   0.84774221   -6.7594349    757.39924  0.026059704  0.025914847            6 
 2423000   0.87631374   -6.7691357    757.09494  0.026038483   0.02590802            8 
 2424000   0.86256396   -6.7617492    758.47654  0.026075239  0.025901162           12 
 2425000   0.86849796   -6.7481599    758.12454   0.02605239  0.025894293            5 
 2426000   0.86404361   -6.7751003    759.74885  0.026097446  0.025887443            4 
 2427000   0.86904271   -6.7937652      757.923  0.026024001  0.025880531            8 
 2428000   0.86562834    -6.796867    757.79461  0.026008876  0.025873623           10 
 2429000   0.87131055   -6.7725321     757.9288  0.026002772  0.025866742           12 
 2430000    0.8745577   -6.7540347    757.59055  0.025980471  0.025859894            8 
 2431000   0.84441276   -6.7403804    757.22544  0.025957269  0.025853036           11 
 2432000   0.86699349   -6.7755341    759.00612  0.026007611  0.025846155           13 
 2433000   0.87088672   -6.7586208    759.40757  0.026010672  0.025839222            5 
 2434000   0.86499108   -6.7878759    759.48067  0.026002488  0.025832318            6 
 2435000   0.83844192   -6.7722445    758.08743  0.025944128  0.025825396            8 
 2436000   0.86033361   -6.7715838    757.63638  0.025918048  0.025818443            6 
 2437000    0.8645896   -6.7338017    760.09697  0.025991553  0.025811522            4 
 2438000   0.85584639   -6.7715608     758.6201  0.025930411  0.025804606           15 
 2439000   0.85143983   -6.7605037    758.85676  0.025927865  0.025797679            4 
 2440000   0.84903628   -6.7782217    759.85299  0.025951263  0.025790755            7 
 2441000   0.84774316   -6.7651342    758.21535  0.025884725  0.025783807            9 
 2442000   0.86150862   -6.7876908    757.21936  0.025840137  0.025776855           17 
 2443000   0.86468981   -6.7853136    759.17091  0.025896129  0.025769884            8 
 2444000   0.86642771   -6.7754949    760.73279  0.025938788   0.02576296           11 
 2445000   0.86383403   -6.7564691    760.25813  0.025912002  0.025756057           10 
 2446000   0.85030379   -6.7891417    757.08376   0.02579326  0.025749154            7 
 2447000   0.85929208   -6.7963578     759.6383  0.025869715  0.025742174           10 
 2448000   0.84694351   -6.7945465    758.89373  0.025833801  0.025735204           15 
 2449000   0.86286505   -6.7601135    758.82819  0.025821022  0.025728233           11 
 2450000    0.8652823   -6.7771209     759.5456  0.025834884  0.025721221            4 
 2451000   0.88019202   -6.7592295    759.01646  0.025806353  0.025714254            5 
 2452000    0.8643266   -6.7560696    761.26975  0.025872408  0.025707378           10 
 2453000   0.86884725   -6.7845255    761.00454  0.025852852  0.025700504            7 
 2454000   0.85524743   -6.7662911    760.64334  0.025830051  0.025693568            6 
 2455000     0.865609   -6.7589816    761.23796  0.025839714  0.025686615            9 
 2456000   0.85556284   -6.8169379    760.93294  0.025818843  0.025679629           10 
 2457000   0.86521712   -6.7868605     761.5369  0.025828819  0.025672691            8 
 2458000    0.8574296   -6.7908888    761.98538  0.025833516  0.025665732            7 
 2459000    0.8619662   -6.7315871    762.47222  0.025839509  0.025658822           18 
 2460000   0.84935698   -6.7805207    763.39003  0.025860096  0.025651961            4 
 2461000   0.88036446   -6.8121499    761.85167  0.025797497  0.025645044           10 
 2462000   0.86800812   -6.7371784    763.96452  0.025858534  0.025638206            7 
 2463000   0.85474711   -6.7951696    760.40055  0.025727451  0.025631373            7 
 2464000   0.86131878   -6.7840427     761.3901  0.025750477  0.025624475            8 
 2465000   0.86551152   -6.7615493    763.48401  0.025810819   0.02561761            7 
 2466000   0.84882601   -6.8060559    761.11826  0.025720406  0.025610756            7 
 2467000   0.84992449   -6.7702243    762.61671  0.025760597  0.025603883           24 
 2468000   0.85453043    -6.801592    762.28649  0.025739009  0.025597019            8 
 2469000   0.85264512   -6.7596116    762.11324  0.025722737   0.02559015            5 
 2470000   0.84916879   -6.7834857    761.69596  0.025698244  0.025583219            6 
 2471000   0.85009574   -6.7975349    760.67156  0.025653297  0.025576295            5 
 2472000   0.86494103   -6.7948682    761.73872  0.025678894  0.025569397            4 
 2473000    0.8446797   -6.8016003    762.97851  0.025710288  0.025562522           10 
 2474000   0.83920916   -6.8071364    762.04511  0.025668456  0.025555632           18 
 2475000   0.85816141   -6.7564089    763.85366  0.025718978  0.025548801           15 
 2476000   0.84544071   -6.7719468    764.61629  0.025734259  0.025542023           14 
 2477000   0.84866196   -6.7840986    765.21852   0.02574413  0.025535259           10 
 2478000   0.86411855   -6.7724571    765.13992  0.025731098  0.025528497            9 
 2479000   0.85038254   -6.7704295    766.93701  0.025781128  0.025521789            9 
 2480000   0.86386862   -6.8066713    763.41816  0.025652492   0.02551499           10 
 2481000   0.85612842   -6.7848113    765.94072  0.025726882  0.025508273            9 
 2482000   0.86593288   -6.7835258    765.47055   0.02570073  0.025501548            9 
 2483000   0.85113782   -6.7763625    765.39051  0.025687693  0.025494777            8 
 2484000   0.87032429   -6.7649401    764.67251  0.025653264  0.025488066            6 
 2485000   0.85281765   -6.7717585    765.25813   0.02566258  0.025481373           10 
 2486000   0.84193545   -6.7960131    766.55906  0.025695866  0.025474613            7 
 2487000   0.86840431     -6.79266    765.56802  0.025652326  0.025467905            2 
 2488000   0.86568888   -6.7934716    764.69926  0.025612917  0.025461189            7 
 2489000   0.88332279    -6.809127    765.61745  0.025633368  0.025454424            9 
 2490000   0.84140359   -6.7804238    766.54731  0.025654194  0.025447643            9 
 2491000    0.8658479   -6.7736106     765.1076  0.025595731  0.025440892           11 
 2492000   0.84547121   -6.8134493    764.79847  0.025575123  0.025434159           10 
 2493000   0.82751745   -6.7924422    766.79433  0.025631579  0.025427375            4 
 2494000   0.84344683   -6.7809466    767.74047  0.025652916  0.025420607            7 
 2495000   0.85939719   -6.7655121    766.67517  0.025607053  0.025413944            8 
 2496000   0.85167607   -6.7854766    766.37636  0.025586818  0.025407266            6 
 2497000   0.85925713   -6.7761198    767.77288  0.025623177  0.025400574            6 
 2498000   0.85410078   -6.7864967    767.25698  0.025595709  0.025393912           16 
 2499000   0.85233544   -6.8027221     768.3645  0.025622399  0.025387193            7 
 2500000   0.87395376   -6.7868819    768.32805  0.025610935  0.025380491            5 
 2501000   0.86423133   -6.8071098    767.12629  0.025560652  0.025373842           14 
 2502000   0.84001421   -6.7868723    768.44785  0.025594453  0.025367187            5 
 2503000   0.85361932   -6.8189256    767.12044  0.025540033  0.025360491            6 
 2504000   0.84765312   -6.8133028    767.21809  0.025533083  0.025353754            6 
 2505000   0.85495793   -6.7953226    769.75227  0.025607195   0.02534706           10 
 2506000   0.82943171   -6.8271954    769.55795  0.025590514  0.025340358            8 
 2507000   0.84432958    -6.801329    768.17189  0.025534234   0.02533362            6 
 2508000   0.83883581   -6.8021832    769.39349  0.025564643  0.025326882           14 
 2509000   0.85101921   -6.8179595    768.46809  0.025523718  0.025320131            9 
 2510000   0.85066072   -6.7847725    769.89363  0.025560877  0.025313455            6 
 2511000   0.83556764   -6.8002256    767.83872  0.025482501  0.025306771           10 
 2512000   0.83485708   -6.8038641    767.46579  0.025459985  0.025300046           14 
 2513000   0.83125701   -6.8107606    767.92293  0.025465013  0.025293288           12 
 2514000   0.84451331    -6.771958    771.00746  0.025557129  0.025286595           21 
 2515000   0.83751542   -6.7856586    769.00273  0.025480541  0.025279864           15 
 2516000    0.8372511   -6.8115157     768.3271  0.025448036  0.025273135            4 
 2517000   0.84877458   -6.7826789    769.69036   0.02548306  0.025266424            8 
 2518000   0.86015591   -6.8193261    768.66799  0.025439105  0.025259652            7 
 2519000    0.8509599   -6.7911633    767.59149  0.025393393  0.025252942            5 
 2520000   0.84194848   -6.7810068    769.56275  0.025448503  0.025246231           16 
 2521000   0.84768082   -6.8202196    769.36462   0.02543186  0.025239522           23 
 2522000   0.85012643   -6.7802355    769.81066  0.025436514  0.025232834           14 
 2523000    0.8346587    -6.808195    768.50732  0.025383384  0.025226146            7 
 2524000   0.84831325   -6.8183396    768.67875  0.025378987  0.025219414            6 
 2525000   0.84599208   -6.8231417    770.61271  0.025432763   0.02521268           10 
 2526000   0.84623811   -6.7825883     771.1525  0.025440502  0.025205953           10 
 2527000   0.85958438   -6.7970488    769.90217  0.025389202   0.02519923           30 
 2528000   0.84750607   -6.8035749    770.71913  0.025406089  0.025192514            9 
 2529000   0.83849139   -6.8075443    772.54176  0.025456101  0.025185811           13 
 2530000   0.85554964   -6.8102427    769.41194  0.025342949  0.025179138           11 
 2531000   0.85052045   -6.7960543    772.20208  0.025424802  0.025172454           10 
 2532000   0.86696104   -6.7831216    772.26286  0.025416761  0.025165856            6 
 2533000   0.84784476   -6.8336798    771.62008   0.02538558  0.025159252            9 
 2534000   0.85085109   -6.8042138    771.34715  0.025366586  0.025152625            8 
 2535000   0.82991089   -6.8060692    772.38983  0.025390856   0.02514598            7 
 2536000    0.8416177   -6.8086582    772.05199  0.025369742  0.025139316           10 
 2537000   0.84326232   -6.8017128    770.30602  0.025302392  0.025132661           14 
 2538000   0.84353766   -6.8292614    771.49578  0.025331487  0.025125899           11 
 2539000   0.84565696   -6.7928935    770.75594  0.025297228  0.025119165            7 
 2540000   0.85468717   -6.8339415    769.82246  0.025256642  0.025112431           29 
 2541000   0.83090001   -6.8041383    772.96115  0.025349638  0.025105698           20 
 2542000   0.85413707   -6.8215491    771.95253    0.0253066  0.025098999            6 
 2543000   0.85765616     -6.80007    772.47209  0.025313674  0.025092351            7 
 2544000   0.83101345   -6.8063633    772.52819  0.025305562  0.025085718            9 
 2545000   0.83539534   -6.7756259    772.64259  0.025299364  0.025079043           10 
 2546000   0.83573237   -6.8031432    772.14005  0.025272979   0.02507238            8 
 2547000   0.84006862   -6.8290259    770.59873  0.025212627  0.025065701           17 
 2548000   0.83983938   -6.7701818    773.52756   0.02529852  0.025059003           19 
 2549000   0.84596428   -6.8051709     773.8774  0.025300033  0.025052308            9 
 2550000   0.83795058   -6.8171197    773.15582   0.02526653  0.025045616            8 
 2551000   0.84540568   -6.8216746    771.03227  0.025187256  0.025038881            8 
 2552000   0.83740996   -6.7999031    773.49913  0.025257939  0.025032145            3 
 2553000   0.82893805   -6.8142861    772.62507  0.025219515  0.025025461           12 
 2554000   0.84058591   -6.8057952    771.90249  0.025186064   0.02501874           14 
 2555000   0.86416769   -6.7980618     773.6119   0.02523196  0.025012059            6 
 2556000   0.85282013   -6.8256763    772.60608  0.025189296  0.025005378           15 
 2557000    0.8449597   -6.8192279    774.12991  0.025229107   0.02499871           10 
 2558000    0.8380939   -6.8034936    774.80238  0.025241151  0.024992078            7 
 2559000   0.85655845   -6.8265793    774.23537  0.025212823  0.024985403            9 
 2560000   0.83414394   -6.8055788    774.88056  0.025223977  0.024978786           11 
 2561000   0.82029134   -6.8302692    775.71645  0.025241327  0.024972184           14 
 2562000   0.84952648   -6.8247165    776.36921  0.025252707  0.024965594            6 
 2563000   0.84965912   -6.8219359    776.26031  0.025239313   0.02495907            5 
 2564000   0.84246824   -6.7976071    774.54973  0.025173873  0.024952513            7 
 2565000   0.84432352   -6.8268756     775.0235  0.025179451  0.024945948            7 
 2566000   0.84267209   -6.7925397    776.44185    0.0252157  0.024939355            5 
 2567000    0.8462894   -6.8097058    776.85086  0.025219155  0.024932807            5 
 2568000   0.84426342   -6.8304808    778.15816  0.025251757  0.024926227            9 
 2569000   0.84988954   -6.8030388    776.99754   0.02520428  0.024919666           10 
 2570000   0.83450979     -6.82939    777.86016  0.025222444  0.024913064           19 
 2571000   0.85843265   -6.8316307    776.34655  0.025163573  0.024906447           12 
 2572000   0.84590542   -6.7999329    775.12615  0.025114248  0.024899863           31 
 2573000   0.82852753   -6.7888159    775.56595  0.025118731  0.024893269           19 
 2574000   0.85041915   -6.8304235    775.57719  0.025109337  0.024886624           22 
 2575000   0.82860171    -6.813606    775.84302  0.025108189  0.024880045           22 
 2576000   0.85651342   -6.8308164    776.95787  0.025134507  0.024873508            9 
 2577000    0.8381279   -6.8051784    776.28033  0.025102843  0.024866928            9 
 2578000   0.83139247    -6.798745    778.01692  0.025149241  0.024860376           10 
 2579000   0.83773536   -6.8180343      776.757  0.025098779  0.024853825            6 
 2580000   0.84064048    -6.819642    778.40837  0.025142389  0.024847279           15 
 2581000    0.8290384   -6.7990153    778.75245  0.025143757  0.024840716           17 
 2582000   0.83006106   -6.8015808      779.881  0.025170443  0.024834176            7 
 2583000   0.84573483   -6.8318285    779.07499  0.025134694  0.024827638           10 
 2584000    0.8426457   -6.7893079    779.33332  0.025133299  0.024821106           10 
 2585000   0.84356033   -6.7985836    777.90073  0.025077393  0.024814588           19 
 2586000    0.8387187    -6.810179    779.03974    0.0251044  0.024808064           13 
 2587000   0.84174705   -6.8160695    777.95659  0.025059805  0.024801528            6 
 2588000   0.81675237   -6.8053873    779.59071  0.025102741  0.024795041           13 
 2589000   0.85439428   -6.8238976    779.03549  0.025075173  0.024788567           10 
 2590000   0.83967589   -6.8303198    779.28685  0.025073579  0.024782047            5 
 2591000   0.84404743   -6.8147933    779.13187  0.025058918  0.024775515            7 
 2592000   0.84489474   -6.8210792     779.3242  0.025055433  0.024768992            3 
 2593000   0.84586588    -6.828324    780.64243  0.025088136  0.024762477            7 
 2594000    0.8449943   -6.8324224    777.94996  0.024991967  0.024755917            8 
 2595000   0.83388724   -6.7828492     780.2986  0.025057759  0.024749336           22 
 2596000   0.83366571   -6.8552123    779.11668  0.025010166  0.024742756            8 
 2597000   0.83824406   -6.8430344    778.85946  0.024992281  0.024736202            8 
 2598000   0.85073487   -6.8332019    779.39263  0.024999764  0.024729675           12 
 2599000   0.83976901   -6.8358422    781.62541  0.025061736  0.024723168            6 
 2600000   0.83627816   -6.7980722    781.69134   0.02505421  0.024716687            8 
 2601000   0.83105496   -6.8146386    776.97992  0.024893628  0.024710156            6 
 2602000   0.85456895   -6.8523115    778.11791  0.024920507  0.024703567            8 
 2603000   0.82060783   -6.8243685    778.55897  0.024925053  0.024696979           12 
 2604000   0.81194667   -6.8141708    781.60028   0.02501281  0.024690439            8 
 2605000   0.83159429   -6.8188918    783.48137  0.025063383  0.024683908            6 
 2606000   0.82652026   -6.7925789    781.38241  0.024986647  0.024677396            6 
 2607000   0.83964571   -6.8472446    780.77092  0.024957516  0.024670891            7 
 2608000   0.82412865   -6.7893561    779.00043  0.024891374  0.024664345           11 
 2609000     0.817969   -6.8542575    778.78637  0.024874996  0.024657787           10 
 2610000   0.83472991   -6.8403533    779.68457  0.024894143  0.024651207           13 
 2611000   0.82968588    -6.844028    780.13248  0.024898905  0.024644641            7 
 2612000   0.81340213   -6.8394385    779.45898  0.024867885    0.0246381            5 
 2613000    0.8232951   -6.8422465    781.65619  0.024928441  0.024631598           11 
 2614000   0.83130777      -6.8188    779.27065  0.024842854   0.02462504            7 
 2615000   0.82842988   -6.8124866    780.68374  0.024878386  0.024618456           10 
 2616000   0.82512576   -6.8133073     781.9959  0.024910675  0.024611929            5 
 2617000   0.82698293   -6.8133702    780.42708    0.0248512  0.024605428           10 
 2618000   0.85170431   -6.8041718    781.48833  0.024875488  0.024598911           19 
 2619000   0.83559381   -6.8418514    779.68575  0.024808634  0.024592392            9 
 2620000    0.8270786   -6.8330412     782.0842  0.024875452  0.024585864           32 
 2621000   0.84937186   -6.8312276    781.63993  0.024851835  0.024579308            6 
 2622000   0.84400813   -6.8378816    782.41146  0.024866878  0.024572743           10 
 2623000   0.83010486   -6.8671543     780.3059  0.024790504  0.024566116           13 
 2624000   0.82604439   -6.8606915    779.58856  0.024758275  0.024559498           13 
 2625000    0.8343924   -6.8670086    781.11441  0.024797283  0.024552854            8 
 2626000   0.82571439   -6.8364179    781.94641  0.024814242  0.024546242           14 
 2627000   0.83862973   -6.8562086    779.82424  0.024737477   0.02453963           11 
 2628000   0.83676612   -6.8644928    782.22856  0.024804305   0.02453302            8 
 2629000   0.83603792   -6.8381857    781.56087  0.024773706  0.024526452           17 
 2630000    0.8546836   -6.8471429     780.5264  0.024731508  0.024519832           22 
 2631000   0.83127846   -6.8283647    782.27309  0.024777432  0.024513193           20 
 2632000   0.83331182   -6.8396274    782.10747  0.024762775  0.024506609           13 
 2633000   0.82736541   -6.8374382    783.25317  0.024789631  0.024500035           10 
 2634000   0.85237715   -6.8468675    783.17222  0.024777658  0.024493472            6 
 2635000   0.82514901   -6.8328213    784.18295   0.02480022  0.024486898            7 
 2636000   0.83319037   -6.8251424    784.83636  0.024811468  0.024480316           13 
 2637000   0.82331875   -6.8169832    784.30707  0.024785333  0.024473712           12 
 2638000   0.84790192   -6.8300248    784.05789  0.024768066  0.024467097           10 
 2639000   0.82672837   -6.8611378     782.4207  0.024706982   0.02446051           11 
 2640000    0.8281405    -6.845784    782.35856  0.024695662    0.0244539            7 
 2641000   0.83472181   -6.8316054    781.57521  0.024661593  0.024447286           11 
 2642000   0.82340483   -6.8290112    782.05562  0.024667412   0.02444067           11 
 2643000   0.83784565   -6.8381447    781.69295  0.024646644  0.024434055            8 
 2644000   0.83278939   -6.8245187    782.61894  0.024666507   0.02442742           12 
 2645000   0.81237183   -6.8256648    783.28931  0.024678302  0.024420801            7 
 2646000   0.84480002   -6.8666668    781.46511  0.024611524  0.024414165            6 
 2647000    0.8400478   -6.8248602    784.14187  0.024686496  0.024407582           10 
 2648000   0.84235942   -6.8142299    783.92593  0.024670378  0.024401035            4 
 2649000   0.81624767   -6.8392978    783.05487  0.024633663   0.02439448            9 
 2650000   0.80891999   -6.8487592    781.31567  0.024569675  0.024387893           11 
 2651000    0.8123862   -6.8029551     782.0878  0.024584679   0.02438128            8 
 2652000   0.84640564   -6.8435144    783.62328  0.024623658  0.024374677           12 
 2653000   0.83553593   -6.8179512    785.51711  0.024673863  0.024368109            8 
 2654000   0.81557441    -6.814881    785.04939  0.024649881   0.02436154            6 
 2655000   0.82157537   -6.8521258    783.74457  0.024599641  0.024354964           12 
 2656000   0.81380614    -6.829433    782.79039  0.024560441  0.024348349            5 
 2657000   0.81106124   -6.8423418    783.79455  0.024582692  0.024341722           10 
 2658000   0.82740326   -6.8577657     784.6929  0.024601608  0.024335074            5 
 2659000   0.84079383   -6.8767675    783.89995  0.024567505  0.024328409           10 
 2660000   0.83915045   -6.8138667    786.14618   0.02462864  0.024321792            8 
 2661000   0.82718757   -6.8572017     783.7062  0.024542972  0.024315204            8 
 2662000   0.83924806   -6.8356861    782.84972  0.024506941  0.024308648           15 
 2663000   0.82944626   -6.8417347    784.20751  0.024540228  0.024302033           10 
 2664000   0.84719373   -6.8327357    785.28825  0.024564823  0.024295443            8 
 2665000   0.83993395   -6.8503949    783.21399  0.024490744  0.024288842           12 
 2666000   0.80843283   -6.8384882     783.4627  0.024489332  0.024282208           16 
 2667000   0.83014048   -6.8657033    782.63058  0.024454149  0.024275524            6 
 2668000   0.81991337    -6.842876    786.58563  0.024568517  0.024268917           21 
 2669000   0.81457447   -6.8296831    785.48853  0.024525057  0.024262323           20 
 2670000   0.81913558    -6.872264    783.72798  0.024460923  0.024255755           19 
 2671000   0.83761834    -6.839019    784.49983  0.024475846  0.024249171           10 
 2672000   0.83723735   -6.8733359      785.007  0.024482504  0.024242573            9 
 2673000   0.81866401   -6.8693021    786.12485  0.024508194  0.024235987            9 
 2674000   0.82623063   -6.8451919    784.85328  0.024459402   0.02422938           10 
 2675000    0.8193975   -6.8557571    786.93206  0.024515017  0.024222763           12 
 2676000   0.82343471    -6.833122    783.59043  0.024401795  0.024216154           10 
 2677000   0.82358221   -6.8719762    782.86479  0.024370091  0.024209549           13 
 2678000   0.81450223   -6.8563686    785.15168  0.024432153  0.024202907           21 
 2679000   0.82487638   -6.8682511    785.62722  0.024437826  0.024196268            7 
 2680000   0.85145681   -6.8475143    787.84104  0.024497545  0.024189688           19 
 2681000   0.82577936    -6.862537    784.91787  0.024397547  0.024183098           20 
 2682000   0.83265375   -6.8358636    787.79971  0.024477992  0.024176582            8 
 2683000    0.8241056   -6.8461597    785.95007   0.02441142  0.024170077           17 
 2684000   0.82095339   -6.8516521    788.74507  0.024489104  0.024163547            9 
 2685000   0.80380544   -6.8521269    786.13526  0.024398984  0.024157037            5 
 2686000   0.82181416   -6.8350435    787.44244  0.024430455  0.024150503            4 
 2687000   0.82182967   -6.8517915    787.08318  0.024410221  0.024143976           12 
 2688000   0.82795667    -6.852533    786.86319   0.02439432  0.024137415            8 
 2689000   0.82626468   -6.8456164    789.10407  0.024454694  0.024130867           11 
 2690000   0.82940178   -6.8681946    786.97752  0.024379725  0.024124374           24 
 2691000   0.81984718   -6.8660937    787.10959  0.024374755  0.024117868           13 
 2692000   0.81548643   -6.8757495    789.41725  0.024437136  0.024111406           14 
 2693000    0.8264097    -6.909087    787.22307  0.024360164  0.024104907           13 
 2694000   0.82486696   -6.8478884    786.92793  0.024341992  0.024098401           13 
 2695000   0.82981328   -6.8514803    790.15835  0.024432849  0.024091914           10 
 2696000   0.82034945   -6.8428636    789.40578  0.024400525  0.024085431           12 
 2697000   0.83255013   -6.8393206    789.10426  0.024382161  0.024078953           16 
 2698000   0.82487508   -6.8483146     790.0411   0.02440206  0.024072499            8 
 2699000   0.81110415   -6.8391553    788.11964  0.024333693  0.024066013            9 
 2700000   0.81596538   -6.8557359    788.99967  0.024351842  0.024059549           12 
 2701000   0.82677684   -6.8716173     789.2819  0.024351533  0.024053079           13 
 2702000   0.82250973   -6.8779152    789.78781  0.024358124   0.02404659           15 
 2703000   0.81297101   -6.8506582    791.21705  0.024393176  0.024040121           15 
 2704000   0.82443798   -6.8667036    790.55898  0.024363874  0.024033644           10 
 2705000   0.81100656   -6.8805696    790.63793  0.024357299  0.024027159            9 
 2706000   0.82242877   -6.8610698    790.98415   0.02435896  0.024020711            6 
 2707000   0.82299765   -6.8310948    789.69864  0.024310388    0.0240143            3 
 2708000   0.81179828   -6.8540852    790.56157  0.024327965  0.024007888            5 
 2709000   0.80838316   -6.8646899    790.42516  0.024314789  0.024001479           10 
 2710000   0.79902813    -6.860559    788.34454  0.024241837  0.023995043           16 
 2711000   0.81927018   -6.8501478    790.84378  0.024309719  0.023988591           13 
 2712000   0.81931601   -6.8548484    788.86544  0.024239966  0.023982133           13 
 2713000   0.81721005   -6.8902285    792.59051  0.024345451  0.023975687            8 
 2714000   0.80938375    -6.838792    791.96619  0.024317311  0.023969278            8 
 2715000    0.8277903   -6.8846464    790.45779  0.024262056  0.023962888            7 
 2716000   0.79295368   -6.8415996    793.41359  0.024343814  0.023956467            7 
 2717000   0.81105424   -6.8598358    791.04746  0.024262283   0.02395004           22 
 2718000   0.82403656   -6.8506638    791.99498  0.024282407  0.023943659           19 
 2719000   0.82659732   -6.8479332    791.37121  0.024254359   0.02393729           26 
 2720000   0.81111153   -6.8627694    790.51151  0.024219102  0.023930869           19 
 2721000   0.82849481   -6.8858185     790.5737  0.024212106   0.02392441           12 
 2722000   0.82023991   -6.8545774    790.91541  0.024213673  0.023917978           13 
 2723000   0.83133375   -6.8505972    792.45419  0.024251873  0.023911574           11 
 2724000     0.806395   -6.8434858     793.4427   0.02427321  0.023905162            6 
 2725000   0.81718994    -6.884736    792.03996  0.024221405   0.02389873            9 
 2726000   0.80968596   -6.8274111    792.34679    0.0242219  0.023892274            9 
 2727000    0.8132729    -6.861538    790.69915  0.024162668   0.02388587            5 
 2728000   0.83449433   -6.8464513    791.86176  0.024189326  0.023879428           10 
 2729000   0.81986008    -6.867695    790.95983   0.02415292   0.02387301            5 
 2730000   0.83492648   -6.8535384    792.74114  0.024198447  0.023866575           22 
 2731000   0.81986291   -6.8586479    793.25546  0.024205281  0.023860154            9 
 2732000   0.81618666   -6.8385719    792.44094  0.024171576  0.023853721           12 
 2733000   0.81599177   -6.8553371    790.95313  0.024117366  0.023847301            6 
 2734000   0.79355788   -6.8847906    791.86943  0.024136474  0.023840863           17 
 2735000   0.80472655   -6.8752156    793.18879  0.024167849  0.023834382           17 
 2736000    0.8311337   -6.8932112    792.39851  0.024134945  0.023827897           12 
 2737000   0.81262103   -6.8753054    791.25133  0.024091199  0.023821402            9 
 2738000   0.79669405    -6.851538    794.71647  0.024187864  0.023814901           24 
 2739000    0.8201926   -6.8719563     792.8074   0.02412095  0.023808444           15 
 2740000   0.81590177   -6.8614331    791.93033  0.024085472  0.023801977           13 
 2741000   0.80933117   -6.8227662    794.52336   0.02415552  0.023795557            7 
 2742000   0.81083027   -6.8629473    794.06181  0.024132683  0.023789154            7 
 2743000   0.81329201   -6.8947194     793.0067  0.024091831  0.023782721            9 
 2744000    0.8201179   -6.8886418    791.72456  0.024044113  0.023776273           11 
 2745000   0.81834193   -6.8189992    795.23684   0.02414198   0.02376983           10 
 2746000   0.82491238   -6.8606554    792.67803  0.024055536  0.023763404           14 
 2747000   0.80470245   -6.8704258    793.01317  0.024056946  0.023756903           10 
 2748000   0.81492322   -6.8570348    790.09109  0.023959579  0.023750435            8 
 2749000   0.81765639   -6.8699362      793.349  0.024049624  0.023743932            8 
 2750000    0.8146085   -6.8634809    792.44166  0.024013384  0.023737423           12 
 2751000   0.81325196   -6.8406012    793.67101  0.024041894  0.023730902            9 
 2752000   0.80331599    -6.877702    792.64292  0.024002026  0.023724413            7 
 2753000   0.79709214   -6.8618616    793.23497  0.024011229  0.023717963            6 
 2754000    0.7970052   -6.8392231    793.72653  0.024017385  0.023711515            6 
 2755000   0.80812982    -6.871608    794.62928  0.024035974  0.023705132           27 
 2756000   0.80278223   -6.8557872    795.69208  0.024059388  0.023698749            4 
 2757000   0.82143715     -6.86453    793.75061  0.023991978  0.023692308           12 
 2758000   0.81482349   -6.8642393    794.43041   0.02400382  0.023685885            8 
 2759000   0.81319652    -6.892578    792.29569  0.023930642  0.023679439            8 
 2760000   0.82814966   -6.8626013    795.00823  0.024003872  0.023672988            9 
 2761000   0.80661762   -6.8756325    795.38977  0.024006693  0.023666577           19 
 2762000   0.82707081   -6.8827094    795.22256  0.023992957  0.023660175           10 
 2763000    0.8278908   -6.8984731    794.35943  0.023958241  0.023653786            6 
 2764000   0.80679265   -6.8497558    796.07807  0.024001389  0.023647392           13 
 2765000    0.8085799   -6.8657737     796.3578  0.024001139  0.023641002           19 
 2766000   0.81779567   -6.8807521    794.46922  0.023935563  0.023634599           10 
 2767000   0.81953368   -6.8923941     794.4272  0.023925647  0.023628209           20 
 2768000   0.80511954   -6.8622316    795.04381  0.023935568  0.023621835           24 
 2769000   0.80592586   -6.8470036    795.76827  0.023948726  0.023615486            7 
 2770000   0.81210861   -6.8758981    795.90502  0.023944194  0.023609096            4 
 2771000   0.80847025   -6.8814785    794.10135  0.023881311  0.023602684           12 
 2772000   0.79237119   -6.8773124    795.88134  0.023926207  0.023596308            9 
 2773000   0.79704631   -6.8872965    795.74808  0.023913574  0.023589919           13 
 2774000   0.81014524   -6.8764139     798.5748   0.02398987  0.023583536            4 
 2775000   0.80895475   -6.8982927    797.95843  0.023962716   0.02357721            6 
 2776000   0.80474748   -6.8960882    798.22144  0.023961979  0.023570891            7 
 2777000   0.80867705   -6.8689505    796.71059  0.023908012  0.023564577           27 
 2778000   0.80630869   -6.8797444    797.76815   0.02393113  0.023558249            6 
 2779000   0.80856069   -6.8667012    798.08093  0.023931898  0.023551909            4 
 2780000   0.81849585   -6.8695455    795.65418  0.023850545  0.023545555           21 
 2781000   0.78374149   -6.8893144    796.69343   0.02387311  0.023539223            7 
 2782000   0.82949544   -6.8795673    798.40696  0.023915857  0.023532922            8 
 2783000   0.80588265   -6.8894311    797.46767  0.023879137  0.023526582           12 
 2784000   0.79161734   -6.9002647    796.77469  0.023849817  0.023520261           22 
 2785000   0.80308999   -6.9080921    796.47503  0.023832287  0.023513877           18 
 2786000   0.80856399   -6.8825387    795.44174  0.023792826  0.023507511            8 
 2787000    0.8187295   -6.8704723    795.96523  0.023799941  0.023501122           12 
 2788000   0.80606634     -6.87794    797.83955  0.023847428  0.023494771           10 
 2789000   0.79652469   -6.8907685    795.78491  0.023777486   0.02348841           11 
 2790000   0.82366358   -6.8858962    796.18334  0.023780864  0.023482044            6 
 2791000   0.80582257   -6.8659713     799.0133  0.023856841  0.023475714            6 
 2792000   0.79393749   -6.8740896    797.83935  0.023813257  0.023469371           12 
 2793000   0.80607818    -6.907452    799.37971   0.02385069  0.023463025            7 
 2794000   0.77455585   -6.8581991    798.62607  0.023819675  0.023456671           12 
 2795000   0.79938969   -6.9117452    795.47798  0.023717292  0.023450326           11 
 2796000   0.79059433   -6.8766807    798.70241  0.023804912  0.023443957           13 
 2797000   0.81478778   -6.8830776     799.0762  0.023807538  0.023437626            8 
 2798000   0.81953695      -6.8754    797.78644  0.023760616  0.023431316            5 
 2799000   0.81665456   -6.8781026    800.32221  0.023827623  0.023425003           10 
 2800000    0.8189842   -6.8864105    797.59492  0.023737944  0.023418671           15 
 2801000   0.82000065   -6.8895065    798.34187  0.023751692   0.02341231           15 
 2802000   0.79459566   -6.8974051    799.02928  0.023763659  0.023405928           22 
 2803000   0.78721753   -6.9161756    796.92841  0.023692722  0.023399535            8 
 2804000   0.80443917   -6.8969452     798.8416  0.023741132  0.023393161           13 
 2805000   0.83265431   -6.8865151     799.0018  0.023737427  0.023386795           16 
 2806000   0.80729261   -6.8663828    800.15474  0.023763208  0.023380463           12 
 2807000   0.80650574   -6.8608948    799.77843  0.023743571  0.023374182            8 
 2808000   0.81525536   -6.8811574    801.09541  0.023774199  0.023367935           10 
 2809000    0.8133675   -6.8853447    799.44528  0.023716782  0.023361668            5 
 2810000   0.79501878   -6.9139672    800.52425   0.02374034  0.023355369           16 
 2811000   0.79570587   -6.8947677    800.19376  0.023722097  0.023349089           13 
 2812000   0.78670506   -6.8752007    800.39537  0.023719635  0.023342786            8 
 2813000    0.7952655   -6.9130298    798.64788  0.023659435  0.023336467           17 
 2814000   0.81074543   -6.9073145    799.39777  0.023673234  0.023330133            9 
 2815000   0.79646541   -6.8869687    800.22359  0.023689272   0.02332384           15 
 2816000   0.81182987   -6.8847231    802.05313     0.023735  0.023317595            8 
 2817000   0.81199054   -6.8657584    801.72545  0.023716881  0.023311364            7 
 2818000   0.79973587   -6.8887444    799.79255  0.023651305  0.023305123           10 
 2819000   0.79128731   -6.8798072     801.6329  0.023697319  0.023298883            8 
 2820000   0.79860628   -6.8690665    802.46727  0.023713572  0.023292667           14 
 2821000   0.79078678   -6.8686668    802.38035  0.023702598  0.023286463           10 
 2822000   0.78637295   -6.8790406    803.87236  0.023738258  0.023280255           25 
 2823000   0.82401282   -6.8979515    801.14909   0.02364946   0.02327401           11 
 2824000   0.80754861   -6.8942239    802.46706  0.023679977  0.023267741           20 
 2825000   0.79246841   -6.8962815    801.59463  0.023645859  0.023261529           11 
 2826000   0.78951546   -6.8558826    803.26397  0.023686718  0.023255281           12 
 2827000   0.79465935    -6.900259    801.31862  0.023620994  0.023249039           13 
 2828000   0.79400499   -6.9033289    801.90089    0.0236298  0.023242775           11 
 2829000    0.8057688   -6.8919197     800.2577  0.023573044  0.023236488           13 
 2830000   0.80315696   -6.8994812    801.13292  0.023590486  0.023230214           23 
 2831000    0.8103055   -6.9203716    802.30895  0.023616771  0.023223937           10 
 2832000   0.78085329   -6.9238758    801.72542  0.023591261  0.023217647            7 
 2833000    0.8005196   -6.9111165    801.62629  0.023580018  0.023211364            7 
 2834000   0.80401109   -6.8826687    802.15511  0.023587248  0.023205113            8 
 2835000   0.79906538   -6.9065818    801.76546  0.023567474  0.023198877           10 
 2836000     0.792044    -6.927819    800.13145   0.02351115  0.023192611           13 
 2837000   0.79318017   -6.9112936    801.88053   0.02355424  0.023186331           25 
 2838000   0.80413863   -6.9094495    800.32156  0.023500163   0.02318001           10 
 2839000   0.79158797   -6.9038807      803.213  0.023576758  0.023173735           13 
 2840000   0.80574361   -6.9111003    800.87735  0.023499922   0.02316746            6 
 2841000   0.78466569   -6.8927764    799.63615  0.023455243  0.023161169           14 
 2842000   0.78262363   -6.9160261    802.07067  0.023518375  0.023154911           13 
 2843000   0.79489236   -6.9132484    802.76609  0.023530487  0.023148616           38 
 2844000   0.79204308   -6.9040444     803.7024  0.023549648  0.023142356            7 
 2845000   0.79086761   -6.9188994    803.08607  0.023523318  0.023136101            4 
 2846000   0.80265726    -6.878172    804.37342  0.023552747  0.023129836            7 
 2847000    0.7999483    -6.901565    803.83647  0.023528757  0.023123564           10 
 2848000   0.79095785   -6.9077461    802.81754  0.023490682  0.023117315           18 
 2849000   0.79229006   -6.9329481    804.74458  0.023538802  0.023111051           14 
 2850000    0.7852458   -6.9012275    803.70972  0.023500284  0.023104833           18 
 2851000   0.79507422   -6.8801771    804.60908  0.023518329  0.023098635           19 
 2852000   0.79893398   -6.8936704    802.93019  0.023461027  0.023092424           22 
 2853000   0.80248189   -6.9056937    802.71833  0.023446615  0.023086213           14 
 2854000   0.77762651   -6.9012896    803.06315  0.023448469  0.023079952           13 
 2855000    0.8081888   -6.9048464    802.21394  0.023415468   0.02307368           11 
 2856000   0.80744894   -6.9271361    803.40167  0.023441925  0.023067428            5 
 2857000   0.79565209   -6.9182945    802.48766   0.02340706  0.023061137            9 
 2858000   0.78326221   -6.9061615    804.76054  0.023465143  0.023054847           22 
 2859000   0.80974718   -6.8991605    804.18596  0.023440188  0.023048552            8 
 2860000   0.78967763   -6.8707164    803.74942  0.023419272  0.023042294           15 
 2861000   0.78813754   -6.8700411    803.44661  0.023402266   0.02303604            7 
 2862000   0.80131957   -6.8942956    804.22735  0.023416822  0.023029775            5 
 2863000   0.79800405   -6.9143999    803.81889  0.023396754  0.023023491           10 
 2864000   0.78773144   -6.9235615    803.58177  0.023381686  0.023017219           16 
 2865000   0.79946853   -6.9353635    803.34894  0.023366752  0.023010954           12 
 2866000   0.78817175   -6.9182515    805.51513  0.023421584  0.023004719            7 
 2867000   0.79778141   -6.8869557    805.40338  0.023410167  0.022998532            9 
 2868000   0.79160187   -6.9302893    804.15105  0.023365616  0.022992298           24 
 2869000   0.78783062   -6.9076487    803.93972  0.023351334  0.022986066            8 
 2870000   0.78417892   -6.9085558    803.86173  0.023340933  0.022979786           11 
 2871000   0.79589124   -6.9041613    802.50699   0.02329348   0.02297355            9 
 2872000   0.82851049   -6.9418915    804.57132  0.023345268  0.022967268           13 
 2873000   0.76920785   -6.9226685    806.77607  0.023401093  0.022960986           16 
 2874000   0.78936469   -6.9081563    804.08526  0.023314929  0.022954746            8 
 2875000   0.78289494   -6.9454017    806.85657  0.023387147  0.022948533           11 
 2876000    0.7949923    -6.917017    804.71597   0.02331699  0.022942303            8 
 2877000   0.80554927   -6.9438009    806.06537  0.023347972  0.022936112            9 
 2878000   0.81465811       -6.909    806.46714  0.023351492  0.022929946           18 
 2879000   0.79280895   -6.9309395    805.95769  0.023328635  0.022923765           23 
 2880000   0.78325268   -6.9338227    806.58454  0.023338673  0.022917576           12 
 2881000   0.79860595   -6.9241659    806.85854  0.023338498  0.022911362           27 
 2882000   0.79250831    -6.924828    804.96255  0.023275577  0.022905113           11 
 2883000   0.78856122   -6.9162176    804.44198  0.023252456  0.022898873           12 
 2884000   0.79365859   -6.8964103    807.41724  0.023330364  0.022892653           10 
 2885000   0.77444672   -6.9203502    805.21395  0.023258635  0.022886422           10 
 2886000    0.7948335   -6.9007393    806.18428  0.023278594  0.022880214           11 
 2887000   0.79566724   -6.9272944     804.4537  0.023220578  0.022873996            6 
 2888000   0.77479985    -6.886025    807.49636  0.023300334  0.022867788           14 
 2889000   0.78297696   -6.9272091    807.38099  0.023288941  0.022861599           33 
 2890000   0.79173291   -6.9302175    807.98689  0.023298353  0.022855398           12 
 2891000    0.7942893   -6.9096285     807.1806  0.023267053  0.022849274            6 
 2892000   0.78940389   -6.9219607    809.62951  0.023329573   0.02284312           11 
 2893000   0.78397658   -6.9304335    807.69932   0.02326591  0.022837003            8 
 2894000   0.77794005   -6.9261978    807.76481  0.023259756  0.022830887           10 
 2895000   0.78154845   -6.9201118    807.60296  0.023247063  0.022824702           15 
 2896000   0.77698941   -6.9348032    808.17405  0.023255469  0.022818544            8 
 2897000   0.77432941   -6.9257659    807.40212  0.023225236  0.022812355           19 
 2898000   0.77128408   -6.9308074     807.3568  0.023215919  0.022806157           18 
 2899000    0.7949123   -6.8834183    808.32366  0.023235704  0.022800003            8 
 2900000   0.78404355   -6.9010885    808.98156  0.023246597  0.022793853            8 
 2901000   0.77861525   -6.9149525    809.53523  0.023254488  0.022787691           12 
 2902000   0.78077236   -6.9149363     807.1893  0.023179109  0.022781526           18 
 2903000   0.79591943   -6.9376291    806.56611  0.023153235  0.022775353           15 
 2904000   0.78208318   -6.9305781    807.91764  0.023184046  0.022769191           11 
 2905000   0.78177449   -6.9026475     807.5394  0.023165215  0.022763044            6 
 2906000   0.78414684   -6.8912767    809.28503  0.023207302  0.022756907           10 
 2907000   0.78631741   -6.9222267    809.52887  0.023206309   0.02275078           10 
 2908000   0.77612021   -6.9408808    808.53562  0.023169865  0.022744614           13 
 2909000   0.79218533   -6.9375678    806.93269  0.023115982  0.022738453            8 
 2910000   0.78086849   -6.9580989    807.79296  0.023132674  0.022732266           13 
 2911000    0.7785981   -6.9609233    807.82751  0.023125716  0.022726116           21 
 2912000   0.78175612   -6.9416864    809.79359  0.023174038  0.022719989           10 
 2913000   0.79587284   -6.9467674    809.13132  0.023147137   0.02271383           15 
 2914000    0.7731407   -6.9418502    808.89923  0.023132556  0.022707669            7 
 2915000     0.784388   -6.9382426    808.63184  0.023116976    0.0227015           24 
 2916000   0.79826058   -6.9279306    808.62144  0.023108752  0.022695353           19 
 2917000   0.79286426   -6.9019592    809.61262  0.023129146  0.022689187            9 
 2918000   0.78605668   -6.9374841    808.34756  0.023085091  0.022683035           30 
 2919000   0.76786813   -6.9063306    809.21583  0.023101971  0.022676893            8 
 2920000     0.781994   -6.9222224     809.7946  0.023110577  0.022670788           18 
 2921000    0.7742926   -6.9213384    810.81705  0.023131834  0.022664707           20 
 2922000   0.77903579     -6.93757    809.67933  0.023091471  0.022658598            5 
 2923000   0.80142829   -6.9396928    808.48176  0.023049429  0.022652461           17 
 2924000    0.7840761   -6.9568002     811.5062  0.023127742  0.022646292           13 
 2925000   0.80110177   -6.9404665    809.60481  0.023065664  0.022640108           22 
 2926000   0.77879343   -6.9319463    810.04395  0.023070288  0.022633957           14 
 2927000   0.79589545    -6.931896    809.61019  0.023050057  0.022627811           29 
 2928000   0.79299531   -6.9301511    809.99413  0.023053112  0.022621695           12 
 2929000    0.7743926   -6.9368436    809.24069  0.023023805  0.022615569           14 
 2930000   0.80253166    -6.935224    808.30972  0.022989469  0.022609416           29 
 2931000   0.77256828    -6.951192    807.79356   0.02296695  0.022603241            7 
 2932000   0.77377849   -6.9526725    809.04888  0.022994795  0.022597043           10 
 2933000   0.78192008   -6.9172119    809.77621   0.02300762  0.022590863           18 
 2934000   0.78745846   -6.9718313    810.23559  0.023012826  0.022584686            6 
 2935000   0.78537143   -6.9562547    807.69063  0.022932727  0.022578478           13 
 2936000   0.78507306   -6.9613584    808.30688  0.022942407  0.022572278           13 
 2937000   0.77287801   -6.9451563    810.35619  0.022992742   0.02256608            8 
 2938000   0.77768304   -6.9308115    808.66052   0.02293682  0.022559887           20 
 2939000   0.77167127   -6.9421298    809.62508  0.022956365  0.022553692            7 
 2940000   0.77836512    -6.921926    809.66809  0.022949776  0.022547498           23 
 2941000   0.77579242   -6.9225422    809.96919  0.022950504  0.022541332           26 
 2942000   0.77623562   -6.9510107    810.92677  0.022969827  0.022535168           30 
 2943000   0.77848809   -6.9539945    810.86788  0.022960354  0.022528998           20 
 2944000   0.77707982   -6.9291944    810.91596  0.022953917  0.022522837           19 
 2945000   0.77760532   -6.9290459    811.23161  0.022955054  0.022516671           11 
 2946000   0.78244777   -6.9517383    809.42513  0.022896162   0.02251051           10 
 2947000   0.78712119   -6.9224805    807.76436  0.022841431  0.022504317            6 
 2948000   0.76026993   -6.9402397    811.20143  0.022930841  0.022498145           28 
 2949000   0.78283493   -6.9413697    809.50961  0.022875257  0.022491976           15 
 2950000   0.77205234   -6.9382292    811.52136  0.022924332  0.022485781           15 
 2951000   0.77501402   -6.9294579    812.77491  0.022951963  0.022479641           17 
 2952000   0.78186449   -6.9280598    809.71935  0.022857931  0.022473517           12 
 2953000   0.77831559   -6.9282164    810.48073  0.022871677  0.022467389           12 
 2954000   0.78375839    -6.938403    812.50354  0.022920998  0.022461252           57 
 2955000   0.79703021   -6.9517492    810.45857  0.022855572  0.022455096           35 
 2956000   0.77429691   -6.9254319    812.31629  0.022900211   0.02244896           37 
 2957000   0.77317561   -6.9464977    810.04772  0.022828535  0.022442827           53 
 2958000     0.790611   -6.9246216    811.23289  0.022854206  0.022436687           46 
 2959000   0.77438011   -6.9561803    811.39345  0.022851004  0.022430557           40 
 2960000   0.78585285   -6.9387721    811.95227  0.022859016  0.022424436           30 
 2961000   0.77395638   -6.9099754     811.2806  0.022832393  0.022418298           30 
 2962000   0.77500637   -6.9465784    810.35304  0.022798589  0.022412159           32 
 2963000   0.77566681   -6.9610725    812.21239  0.022843188  0.022406018           13 
 2964000    0.7858457   -6.9508745    813.69361  0.022877126  0.022399887           12 
 2965000   0.76475297   -6.9350142    812.00743  0.022822019  0.022393783           15 
 2966000   0.78564057   -6.9507896    810.75479   0.02277913   0.02238765           15 
 2967000   0.77480335   -6.9480354    812.21586  0.022812489  0.022381495           13 
 2968000   0.75201333   -6.9636003    810.05209   0.02274405  0.022375344            8 
 2969000   0.77906089   -6.9559742    810.14982  0.022739133  0.022369187           12 
 2970000   0.78168642   -6.9637402    811.56938  0.022771307  0.022363031           24 
 2971000   0.79948792   -6.9523262    811.57981  0.022763935  0.022356835           13 
 2972000   0.78112658    -6.968914    810.82166  0.022735017  0.022350654           43 
 2973000     0.786013   -6.9542542    811.95576  0.022759159  0.022344505           19 
 2974000   0.78552907   -6.9377575    811.26734  0.022732217  0.022338356           47 
 2975000    0.7893628   -6.9541437    810.96853  0.022716205   0.02233224           28 
 2976000    0.7693997   -6.9397674    813.94365  0.022791881  0.022326123           29 
 2977000   0.78511168   -6.9319834    814.91893  0.022811525  0.022320028           18 
 2978000    0.7743087   -6.9490287    812.19024  0.022727508  0.022313889           15 
 2979000   0.76653953   -6.9575243    813.07504   0.02274463  0.022307777           16 
 2980000    0.7717902   -6.9558999    811.75361  0.022700045  0.022301652           17 
 2981000   0.78277741   -6.9478532     813.6735    0.0227461  0.022295503           43 
 2982000   0.77043036   -6.9624124    811.54661  0.022679036  0.022289375           18 
 2983000   0.77882663   -6.9702034    811.16401  0.022660745  0.022283252           21 
 2984000   0.76263193   -6.9486626    815.35778  0.022770269  0.022277141            7 
 2985000   0.77272313   -6.9416037    815.40551  0.022763973  0.022271075           16 
 2986000    0.7764509    -6.932085    816.18854  0.022778202  0.022265017           15 
 2987000   0.75758392   -6.9540389    814.16786  0.022714202  0.022258926           22 
 2988000   0.78698344   -6.9459011    813.77576  0.022695665  0.022252837           10 
 2989000   0.78329107   -6.9627627    816.09521  0.022752738  0.022246741           12 
 2990000   0.78620414   -6.9170055     814.5958  0.022703339  0.022240661            7 
 2991000   0.76289589   -6.9400255    814.37209  0.022689515  0.022234563           61 
 2992000   0.77723534   -6.9481858     813.3944  0.022654702  0.022228488           40 
 2993000   0.77727547    -6.953943    813.08609  0.022638548  0.022222401           45 
 2994000   0.78774688   -6.9293751    814.85384  0.022680189  0.022216338           16 
 2995000   0.76372656   -6.9408693    813.50959  0.022635214  0.022210295           33 
 2996000   0.76181805    -6.961226    813.23848  0.022620118  0.022204198           23 
 2997000   0.75393602   -6.9293118    817.49847  0.022731022  0.022198117           23 
 2998000   0.76626652    -6.961943    814.26171   0.02263347  0.022192048           13 
 2999000   0.77543817   -6.9728993    814.36286  0.022628733  0.022185972           11 
 3000000   0.76696812   -6.9557277    812.63864  0.022573295  0.022179877            8 
 3001000   0.78645357   -6.9642255     815.1484  0.022635466  0.022173797           36 
 3002000   0.77445182   -6.9547837    814.24369  0.022602812  0.022167732           33 
 3003000   0.78024825   -6.9288696    814.82136  0.022611315  0.022161656           14 
 3004000     0.771637   -6.9807693    815.99506  0.022636348  0.022155588           20 
 3005000   0.75866708   -6.9613477     815.5406  0.022616212  0.022149539           25 
 3006000   0.76447246   -6.9781396    814.53566  0.022580829   0.02214347           23 
 3007000   0.76762797    -6.945022    816.87348  0.022638108  0.022137411           13 
 3008000   0.77959164   -6.9390912     817.0658   0.02263591  0.022131357           11 
 3009000   0.76435366   -6.9408981    816.08452  0.022601211  0.022125357           11 
 3010000   0.76024445   -6.9449091    815.64049  0.022581409  0.022119341            9 
 3011000   0.76762241   -6.9521179    815.42822  0.022568034  0.022113298           22 
 3012000   0.77612022   -6.9647069    816.70651  0.022595908  0.022107225           16 
 3013000     0.764057    -6.955223    816.08216  0.022571141   0.02210115           15 
 3014000   0.78284367   -6.9692215    814.07386  0.022508125  0.022095085           15 
 3015000   0.76193893   -6.9436499    815.83806  0.022549421  0.022089027           19 
 3016000   0.77430659   -6.9542118    816.12865  0.022549974  0.022082994           10 
 3017000    0.7417874   -6.9401682    816.22901  0.022545272  0.022076986           34 
 3018000   0.76677521   -6.9692194    814.91014  0.022501385  0.022070939           35 
 3019000   0.76195994   -6.9570425     816.1356  0.022527758  0.022064909           11 
 3020000   0.75989105   -6.9772439    816.94753  0.022542702  0.022058903           39 
 3021000   0.76221419   -6.9338119    817.37594  0.022547058  0.022052904           14 
 3022000   0.75567611   -6.9636275    818.35422  0.022566573  0.022046896           13 
 3023000   0.75687956   -6.9434839    818.03629  0.022550344  0.022040884           12 
 3024000   0.76230347   -6.9922525    815.80006  0.022481263  0.022034882           12 
 3025000   0.78433635   -6.9644015    817.33257  0.022516049  0.022028844           10 
 3026000   0.77002397   -6.9863542    817.29852   0.02250767  0.022022815            5 
 3027000   0.76761271   -6.9493771    817.89099  0.022516545  0.022016811           21 
 3028000   0.76316712   -6.9520751    818.21463  0.022518016  0.022010795            8 
 3029000   0.77235882   -6.9524001    816.65272  0.022467611  0.022004783           16 
 3030000   0.77982296    -6.955692    817.50682  0.022483686  0.021998784           21 
 3031000   0.78576125   -6.9630486    817.53875  0.022477146  0.021992738           18 
 3032000   0.76073273   -6.9688788    818.60351  0.022498997  0.021986664           15 
 3033000   0.77152902    -6.984853    815.50064  0.022406326  0.021980598           21 
 3034000   0.76534802    -6.948569    817.42151    0.0224517   0.02197452           10 
 3035000   0.77362215   -6.9558589    814.75844  0.022371182  0.021968423           11 
 3036000    0.7571658   -6.9506216     817.2611  0.022432507   0.02196235            7 
 3037000   0.74134895   -6.9808767    818.17427  0.022450177  0.021956292           17 
 3038000   0.77044093    -6.963344    818.55552  0.022453246   0.02195023           12 
 3039000    0.7793877   -6.9886346    817.85964  0.022426775  0.021944185            9 
 3040000    0.7556468   -6.9663287    815.18344  0.022346037  0.021938131            9 
 3041000   0.77315181   -6.9978357    815.67689  0.022352211  0.021932071           16 
 3042000   0.75689328   -6.9988694    816.49857  0.022367373  0.021926006           11 
 3043000   0.77647076   -6.9693952    817.28632  0.022381595  0.021919948           12 
 3044000   0.77205398   -6.9586447    816.72353  0.022358835  0.021913904           14 
 3045000   0.75595257   -6.9396038     817.9223  0.022384299   0.02190786           40 
 3046000   0.77076595   -6.9699369    816.87543   0.02234831  0.021901853           28 
 3047000   0.74887478   -6.9516972    818.19036  0.022376938    0.0218958           14 
 3048000   0.76854052    -6.966315    817.00984  0.022337321  0.021889741            8 
 3049000   0.77537379   -6.9642023    816.13766  0.022306157   0.02188366           15 
 3050000   0.78749917    -6.945291    818.13779  0.022353492  0.021877613           16 
 3051000   0.76908975   -6.9315392    818.37778   0.02235272  0.021871601           15 
 3052000    0.7658333   -6.9779091    818.89137  0.022359419  0.021865574            8 
 3053000    0.7758965   -6.9660044    817.48535  0.022313717  0.021859522           38 
 3054000   0.74982383    -6.965436    817.31942  0.022301883  0.021853462           40 
 3055000   0.75803702   -6.9871796     818.0023  0.022313211    0.0218474           21 
 3056000   0.75649704    -6.971685    816.49619  0.022264839  0.021841345           23 
 3057000   0.77275409   -6.9554229    818.47618   0.02231153  0.021835316           14 
 3058000   0.76239901   -6.9683256    818.74556  0.022311575   0.02182929           27 
 3059000   0.74541333   -6.9771183    816.42724  0.022241126  0.021823254           18 
 3060000   0.78077296   -6.9435351    817.70347  0.022268613  0.021817194           28 
 3061000   0.76038585   -6.9766453    818.62431  0.022286407  0.021811134           18 
 3062000   0.76583634   -6.9765656    816.79595  0.022229369  0.021805086           14 
 3063000   0.76424501   -6.9535546    818.94582  0.022280602  0.021799025           42 
 3064000   0.76758294   -6.9509462    817.17904  0.022225279  0.021792973           17 
 3065000   0.77112388   -6.9842316    817.28342  0.022220865  0.021786938           42 
 3066000   0.75874745   -6.9771758    819.52306  0.022274491  0.021780923           14 
 3067000   0.74978584   -7.0125342    817.91745  0.022223602  0.021774875           24 
 3068000   0.74960757   -6.9707293    818.76666  0.022239425   0.02176883           41 
 3069000   0.77366191   -6.9940457    817.57112  0.022199715  0.021762791           24 
 3070000   0.76438145   -6.9580727     818.8225  0.022226452  0.021756742           22 
 3071000   0.76621553   -6.9401261    820.08661  0.022253517  0.021750733           12 
 3072000   0.76046824   -6.9713199    817.68083  0.022181012  0.021744725           12 
 3073000   0.77629227   -6.9868743    819.35329  0.022219148  0.021738655           14 
 3074000   0.76218357   -6.9796383    818.71914  0.022194728  0.021732606           16 
 3075000   0.76529359   -6.9711379    818.40842   0.02217909  0.021726528           44 
 3076000   0.76545886   -6.9624482     819.5236  0.022202091  0.021720463           23 
 3077000   0.76244508   -7.0114394    816.62478  0.022116368  0.021714372           21 
 3078000   0.75090076   -6.9994927    818.50113  0.022159983   0.02170829           13 
 3079000   0.75327759   -6.9717481    819.20464  0.022171826  0.021702222           18 
 3080000   0.76265837   -6.9896558    818.82294    0.0221543  0.021696125           25 
 3081000   0.76453767   -6.9938355    817.87301  0.022121416  0.021690058           34 
 3082000   0.75890643   -6.9827358    818.59512  0.022133764  0.021684007           13 
 3083000   0.75259558   -6.9921146    818.62202  0.022127312  0.021677965           10 
 3084000     0.756196   -6.9493857    819.38295  0.022140698  0.021671927           21 
 3085000   0.76385099    -6.966446      820.249  0.022156915  0.021665902           22 
 3086000   0.76540625   -6.9894183    818.14692  0.022092972   0.02165985           16 
 3087000   0.75511227   -6.9962951     819.7048   0.02212787  0.021653819           30 
 3088000   0.75562544   -6.9795147    819.15293  0.022105811  0.021647793           25 
 3089000   0.76651409   -6.9733134    819.58091    0.0221102  0.021641759           39 
 3090000   0.75076026   -6.9668443    819.95049  0.022113012  0.021635726           13 
 3091000   0.74759571   -6.9679005    820.13516  0.022110837  0.021629702           13 
 3092000   0.76228257   -7.0062324     818.3674  0.022056043  0.021623674            9 
 3093000   0.73771196   -6.9978073    820.76951  0.022113631  0.021617631           24 
 3094000   0.76848275   -7.0031096    821.02625  0.022113398  0.021611602           21 
 3095000   0.75429294   -6.9786547    819.39527  0.022062339  0.021605571           15 
 3096000   0.75817069   -6.9798881    818.41502  0.022028828  0.021599557           26 
 3097000    0.7682042   -6.9935147    819.34152  0.022046645  0.021593552           11 
 3098000   0.76890656   -6.9749216     821.7779  0.022105065  0.021587562            8 
 3099000   0.76042704   -6.9822739    820.57449  0.022065572  0.021581555           28 
 3100000    0.7586752   -6.9908882    822.01194  0.022097095  0.021575567           14 
 3101000   0.75510041   -7.0003172    819.85323  0.022031958  0.021569581           12 
 3102000   0.77270467   -6.9749212    820.14111   0.02203259  0.021563584           36 
 3103000   0.76903587   -6.9848521     818.7719  0.021988718  0.021557585           20 
 3104000   0.75263138   -6.9752508     819.4893  0.022000894  0.021551588           15 
 3105000   0.75929179   -6.9783617    820.30652  0.022015741  0.021545593           17 
 3106000    0.7519419   -6.9629776    821.18227  0.022032149  0.021539581           14 
 3107000   0.77434108   -6.9726486    821.29002  0.022027948  0.021533577           24 
 3108000   0.75036802   -6.9731008     820.6929   0.02200485  0.021527557           11 
 3109000   0.74599797   -7.0294569    820.12624  0.021982584  0.021521566           16 
 3110000   0.75310225   -6.9877111    820.08067  0.021974295   0.02151559           21 
 3111000   0.75886851   -6.9724277    821.19854  0.021997175  0.021509612            6 
 3112000   0.74722356   -6.9581595    822.15599  0.022015745  0.021503636           26 
 3113000   0.77061683   -6.9886178    820.10819  0.021953854  0.021497679            8 
 3114000   0.74665879   -6.9993365    820.82722  0.021966046  0.021491688           15 
 3115000   0.75256775   -6.9837576    822.23922  0.021996769  0.021485677           13 
 3116000   0.75903421   -6.9893788    821.18067    0.0219614  0.021479708           11 
 3117000   0.76879999   -6.9921624    821.32035  0.021958089  0.021473711           23 
 3118000   0.75989227   -6.9944639    820.78963  0.021936862  0.021467728           36 
 3119000   0.75001895   -6.9828237    819.59839  0.021898001  0.021461724           36 
 3120000   0.76478343   -6.9741525    822.37363  0.021965108  0.021455731           56 
 3121000   0.75935835   -7.0111677    821.29208  0.021929192  0.021449738           14 
 3122000   0.76790131   -6.9978321    821.54263  0.021928855  0.021443735           17 
 3123000    0.7646281   -6.9733495    821.40676  0.021918208  0.021437728           20 
 3124000   0.77076476   -6.9743507    821.45209  0.021912401  0.021431754           16 
 3125000   0.75654808   -6.9947729    822.77454  0.021940654  0.021425782           21 
 3126000   0.72659508   -6.9505575    821.62627  0.021903025  0.021419842           35 
 3127000   0.74954891   -6.9767052    822.64217  0.021923094  0.021413872           19 
 3128000   0.74314725    -7.006183    820.94598  0.021870897  0.021407905           35 
 3129000   0.74402856   -6.9861616      821.771  0.021885879  0.021401933           17 
 3130000   0.76603035   -7.0082165    822.63067  0.021901775  0.021395962           47 
 3131000   0.73699756   -7.0192955    821.60017  0.021867353  0.021389971           45 
 3132000   0.75312026   -7.0107251    822.14021  0.021874739   0.02138397           14 
 3133000   0.75866222   -6.9802395     822.0557   0.02186551  0.021377969           33 
 3134000   0.74907557   -7.0300173     821.3734   0.02184039   0.02137196           65 
 3135000    0.7552017   -6.9914166    821.14078   0.02182724  0.021365971           41 
 3136000   0.74936094   -6.9899824    820.16465  0.021794341   0.02136002           41 
 3137000   0.72734267   -7.0191618    820.66269  0.021800624  0.021354029           38 
 3138000   0.75160033   -6.9763073    822.91067  0.021853375  0.021348084           23 
 3139000   0.77633942   -7.0143616    821.39385  0.021806144  0.021342119           18 
 3140000   0.74923928   -7.0012213    821.28807  0.021796393  0.021336167           40 
 3141000   0.76605795   -7.0116189    822.22735  0.021814373  0.021330197           27 
 3142000    0.7338661   -7.0215966    823.41987  0.021839059  0.021324211           21 
 3143000   0.73595713   -6.9888573    822.09099  0.021796877  0.021318233           26 
 3144000   0.75619593   -7.0129823    821.46058  0.021773234  0.021312252           46 
 3145000   0.77048627   -7.0240982    820.79731  0.021748736  0.021306249           19 
 3146000   0.75552106   -7.0079868    821.43388  0.021758685  0.021300224           13 
 3147000   0.75937526    -7.004961    822.84178  0.021789053  0.021294236           13 
 3148000   0.76193019    -7.016804    821.78952  0.021754276  0.021288238           18 
 3149000   0.74693142   -7.0253529    823.05514   0.02178086  0.021282242           34 
 3150000    0.7509204   -7.0192585     824.2003  0.021804241   0.02127626           46 
 3151000   0.75044876   -7.0112081     821.4298  0.021724051  0.021270299           91 
 3152000   0.75335345   -6.9816889    823.76253  0.021778832  0.021264344           18 
 3153000   0.74328294   -7.0307768    824.21246  0.021783816  0.021258379           31 
 3154000     0.750205   -7.0046152    821.81181   0.02171348  0.021252396           26 
 3155000   0.74529151   -7.0207215    825.39979  0.021801368  0.021246427           48 
 3156000   0.75840034   -7.0106664    822.65353  0.021721946  0.021240465           20 
 3157000   0.72009116   -7.0282249    822.93227  0.021722423  0.021234496           40 
 3158000   0.74269506   -7.0135684    824.57367  0.021758858  0.021228553           29 
 3159000   0.73737763   -7.0114446     822.0791  0.021686164  0.021222604           32 
 3160000   0.74256299   -6.9951922    825.01133  0.021756628  0.021216659           24 
 3161000   0.74652473   -7.0097966    823.85889  0.021719363  0.021210747            7 
 3162000   0.73384504   -7.0061569    823.80278  0.021711016   0.02120482           39 
 3163000   0.74742868   -7.0479331    821.31065  0.021638493  0.021198895           58 
 3164000   0.74673864   -7.0248607    823.46476  0.021688389   0.02119294           56 
 3165000   0.74552204   -7.0339478     823.0397  0.021670345  0.021186967           51 
 3166000   0.74874758   -7.0292867     826.0976  0.021743988  0.021181003           54 
 3167000   0.75278774   -7.0051345    823.99495  0.021681795  0.021175069           70 
 3168000   0.76107971   -6.9871697    822.77216  0.021642786  0.021169143           59 
 3169000   0.74274681   -6.9883769    825.46233  0.021706698  0.021163231           56 
 3170000    0.7364841   -7.0204047    823.11126  0.021638046    0.0211573           91 
 3171000   0.75018526   -7.0462687    822.86278  0.021624692  0.021151341           91 
 3172000   0.74035494   -7.0189018    823.55957   0.02163618  0.021145405           82 
 3173000   0.75143602   -7.0070463    824.73844  0.021660322  0.021139516          114 
 3174000   0.73035307   -7.0217752    824.27973  0.021641455  0.021133616          116 
 3175000   0.74664807   -7.0166235    824.52995  0.021641206  0.021127738           82 
 3176000   0.73350905   -7.0499578    823.65743  0.021611498  0.021121841           95 
 3177000   0.75938294   -7.0146005    823.62425  0.021603826  0.021115937          105 
 3178000   0.76412883   -7.0290013    826.46369  0.021671483  0.021110031           79 
 3179000   0.75049671   -7.0269435     822.9372  0.021572224  0.021104123          101 
 3180000   0.76416982   -7.0247672    826.35729  0.021655065  0.021098226          123 
 3181000   0.74465504   -7.0288815    824.52311  0.021600207  0.021092353          131 
 3182000   0.73551884    -7.011764    823.45211   0.02156537  0.021086462          144 
 3183000   0.74009023   -7.0719899    825.05646  0.021600599  0.021080568          157 
 3184000   0.73036912   -7.0400922    826.45738   0.02163048  0.021074684          189 
 3185000   0.74538904   -7.0519838    825.60664   0.02160143  0.021068766          195 
 3186000   0.74039496   -7.0503167    823.03571  0.021527404  0.021062849          185 
 3187000   0.74916186   -7.0278798    825.79011  0.021592671  0.021056933          112 
 3188000   0.74434546   -7.0795781    824.56276  0.021553815  0.021051032          182 
 3189000   0.73141742   -7.0484378    823.18723  0.021511112  0.021045126          143 
 3190000    0.7498127   -7.0495263    825.38305  0.021561731  0.021039238          210 
 3191000   0.74113917   -7.0410836    824.14934  0.021522755  0.021033335          183 
 3192000   0.73675387    -7.048827    825.74583  0.021557692  0.021027384          178 
 3193000   0.73846383   -7.0534554    823.11613  0.021482308  0.021021463          155 
 3194000   0.74515746   -7.0494173    823.78428  0.021493015  0.021015539          171 
 3195000   0.75843939   -7.0435812    825.35315  0.021527208  0.021009643          177 
 3196000   0.73110124   -7.0163813    826.09406  0.021539791  0.021003731          173 
 3197000   0.73799245   -7.0324982     824.4848  0.021491106  0.020997815          162 
 3198000   0.72724839   -7.0284985     827.0396  0.021550959  0.020991901          100 
 3199000    0.7508978   -7.0324238    825.37059  0.021500745     0.020986          145 
 3200000   0.75285704   -7.0122829    824.72275  0.021477155  0.020980141          159 
 3201000   0.72905228   -7.0404672    825.78568  0.021498117  0.020974276          166 
 3202000   0.74228848   -7.0065613    826.32229  0.021505369  0.020968396          162 
 3203000   0.74455901   -7.0114005    827.16235  0.021520511  0.020962537          120 
 3204000   0.75043055   -7.0380593    825.16538  0.021461854  0.020956646          123 
 3205000   0.75545829   -7.0242474     825.2842  0.021458247  0.020950752          124 
 3206000   0.74597867   -7.0411587    826.57585  0.021485128  0.020944877          118 
 3207000   0.74221624   -6.9911899    827.76068  0.021509216  0.020939005           30 
 3208000   0.73529743   -7.0175665    825.48858   0.02144349  0.020933155           68 
 3209000   0.75000112   -7.0127427    826.16473  0.021454366  0.020927273           16 
 3210000   0.74216393   -7.0303566    825.26395  0.021424298   0.02092143           87 
 3211000   0.75015124   -7.0295789    826.02707   0.02143743  0.020915591           56 
 3212000   0.74033823    -7.016201     827.1497  0.021459882  0.020909733           37 
 3213000   0.73607378   -7.0267398    826.37547  0.021433122  0.020903894           12 
 3214000   0.74403373   -6.9966163    826.97301  0.021441947  0.020898057           11 
 3215000   0.73434123   -7.0094437    828.15388  0.021465886  0.020892208           14 
 3216000   0.73403538   -7.0458014    827.28091  0.021436591  0.020886303           15 
 3217000     0.738025   -7.0435617    826.68959   0.02141461  0.020880408           37 
 3218000   0.74503945   -7.0097761    827.23185  0.021421997  0.020874532           28 
 3219000   0.73417453   -7.0258357    827.38077  0.021419198  0.020868682           34 
 3220000   0.73887139   -7.0116893    824.99659  0.021350843  0.020862825           51 
 3221000   0.74404663   -7.0130621    826.61974  0.021386209  0.020856978           37 
 3222000   0.72619982   -7.0204008    826.04228  0.021364636  0.020851132           36 
 3223000   0.73994669   -7.0454151    827.40431  0.021393223  0.020845254           63 
 3224000   0.73245875   -7.0587561    826.30313  0.021358125  0.020839371           35 
 3225000    0.7249546   -7.0473495    825.09063  0.021320171  0.020833465           22 
 3226000   0.74790695    -7.020406    827.17401   0.02136738  0.020827558           29 
 3227000    0.7208352   -7.0393611    824.81223  0.021299768  0.020821654           17 
 3228000   0.73874912   -7.0325217    825.19506  0.021303053  0.020815749           51 
 3229000   0.73230319   -7.0476541    827.83813  0.021364667  0.020809859           29 
 3230000   0.72954273   -7.0284741    826.63368  0.021326978  0.020803956           56 
 3231000   0.73078035   -7.0443334    826.45261  0.021315707  0.020798017           65 
 3232000   0.73386089    -7.018427    826.91785  0.021321108  0.020792087           10 
 3233000   0.72124751     -7.03733    825.57614  0.021279929  0.020786184           16 
 3234000   0.73056107   -7.0276168    827.53734  0.021323885   0.02078029           19 
 3235000   0.73498858   -7.0076158    827.49446  0.021316189  0.020774414           18 
 3236000   0.72296815   -7.0389271    827.11776  0.021299901  0.020768533           46 
 3237000   0.74069915   -7.0375112    826.32684   0.02127296  0.020762655           28 
 3238000   0.71346039   -7.0189004     827.9292  0.021307628  0.020756781           34 
 3239000   0.71759637   -7.0292435    826.73415  0.021270303  0.020750906           30 
 3240000   0.74568774   -7.0235647    825.98193  0.021244391  0.020745029           35 
 3241000   0.72949495   -7.0066274    825.86913  0.021234936  0.020739158           18 
 3242000   0.72873348   -7.0518977    826.38768  0.021241715  0.020733276           39 
 3243000   0.73735396   -7.0460021    826.35945   0.02123444  0.020727374           23 
 3244000     0.736178   -7.0472313    824.47663  0.021179527  0.020721473           29 
 3245000   0.72077548    -7.040087    825.99657  0.021212033  0.020715563            8 
 3246000   0.73009864   -7.0448964    825.81836  0.021200923  0.020709651           17 
 3247000    0.7311453   -7.0374862    826.31564  0.021207156  0.020703743           39 
 3248000   0.75040476   -7.0346716    827.44115  0.021229504  0.020697833           42 
 3249000    0.7234179   -7.0101867    827.76946  0.021231391  0.020691955           26 
 3250000   0.72914764   -7.0328706    825.72921  0.021172544  0.020686058           11 
 3251000   0.74491402   -7.0403187    826.59449  0.021188211  0.020680143           47 
 3252000   0.74041127   -7.0716504    824.35653  0.021124347  0.020674194           38 
 3253000   0.74294219   -7.0553802     826.9055  0.021183151  0.020668252           11 
 3254000   0.73439124   -7.0654641    827.36694  0.021188459  0.020662329           29 
 3255000   0.72315588   -7.0759045    826.27358  0.021153957    0.0206564           24 
 3256000   0.74749269   -7.0511187    826.48557  0.021152886  0.020650481           93 
 3257000   0.72974099   -7.0440414    828.39562  0.021195262  0.020644553           39 
 3258000   0.74157811    -7.018716    825.51527  0.021115083  0.020638657           30 
 3259000   0.73752762    -7.066201    826.19421  0.021125964  0.020632738           18 
 3260000   0.74631207   -7.0306993    826.50009  0.021127303  0.020626822           20 
 3261000   0.72722537   -7.0586867    825.49365  0.021095105  0.020620902           17 
 3262000   0.73673443   -7.0319047    827.15524  0.021131086  0.020615013           18 
 3263000   0.73017449   -7.0342666    826.19163  0.021100001  0.020609107           25 
 3264000   0.71865035   -7.0543133    826.67531  0.021105885  0.020603201           26 
 3265000   0.72871305   -7.0271917    827.29894  0.021115338  0.020597272           19 
 3266000   0.72596201    -7.023154    826.64767  0.021092255  0.020591346           27 
 3267000   0.73418295   -7.0379606    827.30373  0.021102534  0.020585414           17 
 3268000   0.71881949   -7.0485078     827.4915  0.021100864  0.020579481           13 
 3269000   0.72952318   -7.0568234    825.62924  0.021046937  0.020573559           20 
 3270000   0.72740429   -7.0529541    827.02398  0.021076044  0.020567617           24 
 3271000   0.72412313   -7.0506583    825.93174  0.021041775  0.020561712           18 
 3272000   0.71590982   -7.0781361    826.33733  0.021045674  0.020555789           18 
 3273000   0.70858323   -7.0570085    826.96531  0.021055233   0.02054986           17 
 3274000   0.70576447    -7.062893     828.1604   0.02107922  0.020543936           15 
 3275000   0.72808062   -7.0510962     825.0149  0.020992746  0.020538018           20 
 3276000   0.70724342   -7.0717252    828.72382  0.021080683  0.020532127           11 
 3277000   0.70875131   -7.0609053     827.1951  0.021035375  0.020526228           13 
 3278000   0.71413947   -7.0448726    826.56123  0.021012844   0.02052033           17 
 3279000   0.71197341   -7.0364299    828.10138  0.021045577  0.020514456           14 
 3280000   0.72321288   -7.0323826    828.76143  0.021055931  0.020508605           15 
 3281000    0.7313926    -7.035967    828.77503  0.021049858  0.020502775            9 
 3282000   0.73804619   -7.0517628    827.17006  0.021002693  0.020496905           10 
 3283000   0.73899425   -7.0393265    830.00023  0.021068135  0.020491033            8 
 3284000   0.72374899   -7.0443305    827.24444  0.020991789  0.020485186           13 
 3285000   0.71797735   -7.0309226    828.41032  0.021014975  0.020479338           10 
 3286000   0.72977088   -7.0528898    827.38319  0.020982532  0.020473477           16 
 3287000   0.73626895   -7.0444141    827.58376  0.020981233   0.02046759           18 
 3288000   0.74706019    -7.051771    827.50022  0.020972735  0.020461711           21 
 3289000     0.738276   -7.0355024    828.98407  0.021003954  0.020455852           17 
 3290000   0.71231674   -7.0558411    829.30206  0.021005625  0.020449992           27 
 3291000   0.73489595   -7.0392082    827.97183  0.020965558  0.020444169            9 
 3292000   0.71657056   -7.0478326    827.15025  0.020938392  0.020438323           30 
 3293000    0.7348053   -7.0593084    827.97716   0.02095296  0.020432467           13 
 3294000   0.71787217   -7.0589792    830.58583  0.021012594  0.020426636           15 
 3295000   0.72124692   -7.0304235    829.34023  0.020974715  0.020420795           20 
 3296000   0.72195554   -7.0490756    828.25834  0.020940998  0.020414944           33 
 3297000   0.71495732   -7.0366159    829.81034  0.020973874   0.02040909           18 
 3298000   0.72865083   -7.0223157    829.32722  0.020955307  0.020403262           17 
 3299000   0.72518792   -7.0288357    829.96136  0.020964973  0.020397454           50 
 3300000   0.72365436   -7.0257443    830.96762  0.020984031  0.020391652           24 
 3301000   0.72003916   -7.0795642    828.15342   0.02090663  0.020385821           24 
 3302000   0.72509622   -7.0586793    829.65879   0.02093829  0.020380015           25 
 3303000   0.71650564   -7.0720288    828.86526   0.02091193  0.020374196           14 
 3304000   0.74311007   -7.0712648    830.01578  0.020934619  0.020368355           22 
 3305000   0.73885596   -7.0568186    828.71221  0.020895416   0.02036252           22 
 3306000   0.71905499   -7.0655315    827.42828  0.020856732  0.020356689           13 
 3307000    0.7102303   -7.0676214    829.05074   0.02089131  0.020350831           11 
 3308000   0.71892132   -7.0450621    828.34155  0.020867129  0.020344985           13 
 3309000   0.72034881   -7.0422404     827.9611  0.020851241   0.02033913           28 
 3310000   0.72803444   -7.0387397    828.81079  0.020866334  0.020333291           21 
 3311000   0.72504996   -7.0625659    828.83305  0.020860592  0.020327435           18 
 3312000   0.71094586   -7.0572308    828.93615  0.020856888  0.020321589           12 
 3313000   0.71510565   -7.0449884    828.78752  0.020846854  0.020315759           10 
 3314000   0.72674291   -7.0421166    829.35455  0.020854822  0.020309937           13 
 3315000   0.72370809   -7.0721977    829.64254   0.02085577  0.020304102           29 
 3316000   0.71122923   -7.0542995    830.18798  0.020863188  0.020298278           23 
 3317000    0.7320655   -7.0622467     831.0401  0.020878306  0.020292447           15 
 3318000   0.70383335   -7.0316087     828.9773  0.020820206  0.020286637            8 
 3319000   0.72411488   -7.0418595    829.66276  0.020831143  0.020280807           14 
 3320000   0.74179722   -7.0462999    826.97984  0.020757526  0.020274957           14 
 3321000   0.73170513   -7.0587883    828.22162  0.020782435  0.020269107           12 
 3322000   0.72068869   -7.0630574    827.22573  0.020751197  0.020263243           27 
 3323000   0.72763265   -7.0853505     830.0219  0.020815074  0.020257347           16 
 3324000   0.72643668   -7.0934668    828.36504  0.020767274  0.020251446           30 
 3325000   0.70427298   -7.0730163    828.00197  0.020751929  0.020245566           28 
 3326000   0.73633574   -7.0627776     829.5755  0.020785115  0.020239701           12 
 3327000   0.72497027   -7.0628035    827.86574  0.020736042   0.02023383           23 
 3328000   0.71879708   -7.0746404    828.17169  0.020737472  0.020227967           22 
 3329000    0.7201919   -7.0911044    829.14872    0.0207557    0.0202221           28 
 3330000   0.72238427   -7.0617636    829.38668  0.020755423   0.02021627           29 
 3331000   0.72685916   -7.0594375    828.49728  0.020726941  0.020210433           21 
 3332000   0.71162787   -7.0849905    827.84122  0.020704312  0.020204582           42 
 3333000   0.73103589   -7.0497076    828.93842  0.020725533   0.02019872           12 
 3334000   0.71716267   -7.0844118    830.00267  0.020745918  0.020192868           19 
 3335000    0.7086038   -7.1058222    828.72584  0.020707792  0.020187017           26 
 3336000    0.7101276   -7.0729996    830.10331  0.020735994  0.020181181           16 
 3337000   0.71257854   -7.0903586    830.03191  0.020727997  0.020175361           24 
 3338000    0.6980179   -7.0767907    831.19679  0.020750869  0.020169546           17 
 3339000   0.71459369   -7.0814693    828.61251  0.020680156  0.020163717           23 
 3340000   0.72457285   -7.0796096    829.57441  0.020697964  0.020157888           18 
 3341000   0.71349616   -7.0839047    828.23037  0.020658245  0.020152048           37 
 3342000   0.72123569   -7.0787966    829.48833  0.020683431  0.020146217           57 
 3343000    0.7173946   -7.0641428    828.81614  0.020660488  0.020140377           36 
 3344000   0.70205098   -7.0701288    828.23653  0.020639866  0.020134575           49 
 3345000    0.7286077   -7.0633923      829.512  0.020665471   0.02012875           56 
 3346000   0.71339661   -7.0742304     829.7871  0.020666146  0.020122913           12 
 3347000   0.72224749   -7.0451006    828.61448  0.020630776  0.020117092           14 
 3348000   0.70567022   -7.0717805    830.27682   0.02066599  0.020111263           15 
 3349000   0.72917533   -7.0709112    829.03527  0.020628926  0.020105441           24 
 3350000   0.71858899   -7.0869329    828.82114  0.020617441  0.020099617           16 
 3351000   0.71383631   -7.0899416    830.44839  0.020651755  0.020093798           49 
 3352000    0.7213111    -7.104593    828.04291  0.020585792  0.020087968           49 
 3353000   0.72497408   -7.1011828    832.16736  0.020682159   0.02008215           22 
 3354000   0.71005683   -7.0697903    830.23543  0.020627992  0.020076344           33 
 3355000    0.7112284   -7.0314337    829.49209   0.02060338  0.020070538           15 
 3356000   0.72264035   -7.0791786    828.26351  0.020566734  0.020064715           39 
 3357000   0.70583314   -7.0886851    829.46255  0.020590372  0.020058859           38 
 3358000   0.70079384   -7.1003614    830.17654  0.020601959  0.020053034           31 
 3359000   0.71421116   -7.0948367    830.06534  0.020593067  0.020047209           24 
 3360000   0.72331802    -7.092967    828.53288  0.020548931  0.020041394           27 
 3361000   0.71320163   -7.0874069    830.69067  0.020596317  0.020035592           29 
 3362000   0.71296892   -7.0501997    830.37013  0.020582246  0.020029782           19 
 3363000   0.71679093   -7.0759256    830.87289  0.020588584  0.020023965           15 
 3364000   0.70673905   -7.0700547    830.56184  0.020574758  0.020018147           16 
 3365000   0.71209782   -7.0604292    829.74722   0.02054847  0.020012337           15 
 3366000   0.70283003   -7.0828155    828.63127  0.020514737  0.020006518           68 
 3367000   0.71663561   -7.0688603    829.44639  0.020528819  0.020000706           41 
 3368000   0.71173276   -7.0320017    829.57458  0.020525895  0.019994917           48 
 3369000   0.70557378   -7.0782342    831.24485  0.020561117  0.019989114           40 
 3370000   0.71915655   -7.0781268    831.31319  0.020556706  0.019983325           23 
 3371000   0.71621437   -7.0722584    830.94162  0.020541422  0.019977541           43 
 3372000   0.70034828   -7.0839332    829.46839  0.020498922  0.019971727           21 
 3373000   0.73272596   -7.0733274    831.88651  0.020552587  0.019965919           48 
 3374000   0.71453582   -7.0824512    830.98827   0.02052431  0.019960112           23 
 3375000   0.72234171   -7.0879484    828.43019  0.020455067  0.019954298           36 
 3376000   0.71013978   -7.0890979    828.23555  0.020444203  0.019948504           32 
 3377000   0.71178461   -7.0651538    830.15839  0.020485598  0.019942692           14 
 3378000   0.71849239   -7.0446558    831.41541  0.020510544  0.019936914           15 
 3379000    0.7153742   -7.0738535    830.49641  0.020481809  0.019931125           21 
 3380000   0.71726938    -7.049752    830.40434   0.02047348  0.019925331           23 
 3381000   0.72807216   -7.0931516    831.13653  0.020485471  0.019919545           16 
 3382000   0.69693963   -7.0722712    831.30512  0.020483568  0.019913739           22 
 3383000    0.7106332   -7.0805508    828.33761  0.020404414  0.019907912           24 
 3384000   0.70335763   -7.0875676    828.86202  0.020411299  0.019902095           17 
 3385000   0.71281942   -7.0881573    829.26454  0.020415178  0.019896271           25 
 3386000   0.71460481   -7.0702364    831.25165  0.020458054  0.019890468           33 
 3387000   0.71222462   -7.0732295    831.10604  0.020448431  0.019884683           18 
 3388000   0.71150537   -7.0856347    830.80062  0.020434883  0.019878881           21 
 3389000   0.69412141   -7.0790665    830.59966  0.020423912  0.019873095           24 
 3390000   0.70736636   -7.0859276    832.48531  0.020464241  0.019867327           28 
 3391000   0.70908492   -7.1005636    829.89384  0.020394521  0.019861563           41 
 3392000   0.71427104    -7.081809    830.97106  0.020414973  0.019855783           27 
 3393000   0.70911114   -7.0688597    831.94889  0.020432972  0.019850011           18 
 3394000   0.70323091    -7.088869    830.94438  0.020402288  0.019844251           23 
 3395000   0.71234505   -7.0903624     830.7243  0.020390876  0.019838486           20 
 3396000   0.71158554   -7.0924081    831.69067  0.020408585  0.019832711           22 
 3397000   0.70438375   -7.0704644     830.5093  0.020373597  0.019826955           40 
 3398000   0.70217687   -7.0848403    832.22654  0.020409715  0.019821191           26 
 3399000   0.70428021   -7.1099929    830.37629  0.020358348  0.019815411           34 
 3400000   0.70531516   -7.0963442    832.38942  0.020401702   0.01980964           22 
 3401000   0.70733339   -7.0870173    831.38051  0.020370982  0.019803875           20 
 3402000   0.70907058   -7.0946646    829.46982  0.020318191  0.019798105           45 
 3403000   0.71307974    -7.066562    831.92709  0.020372394  0.019792347           43 
 3404000   0.69404295   -7.1269161     830.8843  0.020340881  0.019786591           22 
 3405000   0.71082038   -7.0873349      830.713  0.020330715  0.019780827           35 
 3406000   0.70455073   -7.1015828    829.71098  0.020300229   0.01977504           25 
 3407000   0.70886363   -7.1335244    831.17047  0.020329969  0.019769253           49 
 3408000   0.69935754   -7.0755519    831.29093   0.02032695  0.019763449           22 
 3409000   0.68805815   -7.0717674    832.61059  0.020353246  0.019757682           66 
 3410000   0.73123341   -7.1045028    830.24235  0.020289403  0.019751894           36 
 3411000   0.69203579   -7.0744939    831.73881  0.020320014   0.01974611           65 
 3412000   0.70225284   -7.1238951    829.63247  0.020262614  0.019740337           64 
 3413000   0.71778067   -7.1203493    831.59073  0.020304491  0.019734548           44 
 3414000   0.70713471   -7.1089229    831.14822  0.020287742  0.019728754           25 
 3415000   0.71167081   -7.1091058    830.69654  0.020270779   0.01972297           33 
 3416000   0.70829817   -7.1055509    830.62608  0.020263126  0.019717199           24 
 3417000   0.71311225   -7.1112887     831.8333  0.020286638   0.01971144           21 
 3418000     0.703966   -7.0859542    832.43092  0.020295273  0.019705686           14 
 3419000   0.71606125    -7.103703    831.20818  0.020259534  0.019699937           16 
 3420000   0.72020903   -7.1036076     831.9822  0.020272471  0.019694192           22 
 3421000   0.72008523   -7.0796931     831.6189  0.020257695  0.019688464           61 
 3422000   0.71575937   -7.0959651    830.94789  0.020235435  0.019682705           23 
 3423000   0.71769167   -7.1029409    832.22568  0.020260631  0.019676961           19 
 3424000   0.69851256   -7.0982174    831.12519   0.02022793  0.019671238           18 
 3425000    0.7055253   -7.0709634    831.35251  0.020227555  0.019665528           53 
 3426000   0.69697963   -7.1001842    831.49418  0.020225097  0.019659817           56 
 3427000   0.69217472   -7.0916851      831.557  0.020220723  0.019654093           28 
 3428000    0.7042466   -7.1115477    832.16385  0.020229576  0.019648373           36 
 3429000   0.70950846   -7.0649495      832.608  0.020234471  0.019642637           33 
 3430000   0.70664762   -7.1054199    832.08162  0.020215783  0.019636887           15 
 3431000   0.70690955   -7.0850233    831.47873  0.020195247  0.019631124           46 
 3432000    0.7117632   -7.1113343    832.23339  0.020207687  0.019625374           24 
 3433000   0.70922233   -7.1093098    831.28221  0.020178712  0.019619629            8 
 3434000   0.70620355   -7.1032097    830.12715  0.020144806  0.019613866           48 
 3435000   0.71134095   -7.0914825    832.51872  0.020196961  0.019608112           55 
 3436000   0.71508301   -7.0986997    831.61817  0.020169242  0.019602329           70 
 3437000   0.70623911   -7.1115802    831.28509  0.020155297  0.019596551           59 
 3438000   0.71022489   -7.1209132    832.84609  0.020187272  0.019590767           46 
 3439000   0.70507667   -7.1041682    829.91505  0.020110377  0.019584997           29 
 3440000   0.69564379   -7.1169213    829.47579   0.02009389  0.019579232           30 
 3441000   0.70872207   -7.1017561    831.39048   0.02013442   0.01957346           97 
 3442000   0.69853007   -7.1070221    831.55419  0.020132534  0.019567676           86 
 3443000   0.69680328   -7.1038249    829.69551    0.0200817  0.019561882           90 
 3444000   0.70059637    -7.113969    830.28554  0.020090146  0.019556116           78 
 3445000   0.70827562   -7.1254186    830.78162  0.020096314  0.019550322           92 
 3446000   0.70982417   -7.1165867    831.78742  0.020114805  0.019544542           82 
 3447000   0.69006829   -7.0968723    830.93372  0.020088331   0.01953877           70 
 3448000   0.70436854   -7.1109875    830.72989  0.020077578  0.019532992           70 
 3449000   0.69975253   -7.1141841    829.39271  0.020039449  0.019527209           47 
 3450000   0.69114669   -7.1136632    830.45174  0.020059221  0.019521437           57 
 3451000   0.69295145   -7.0920017    830.98107   0.02006619  0.019515665           48 
 3452000   0.70251952   -7.1255118    831.11375   0.02006358  0.019509877           50 
 3453000    0.6914157   -7.0978867    831.29596  0.020062167  0.019504116           27 
 3454000   0.70557517   -7.1013906    830.52106  0.020037663  0.019498352           46 
 3455000   0.68599736   -7.0946769    831.54589  0.020056582  0.019492599           54 
 3456000   0.69450869   -7.1119274    830.18527   0.02001797  0.019486826           64 
 3457000   0.70311441   -7.1254817    831.19706   0.02003657  0.019481053           44 
 3458000   0.71699348   -7.1223325    830.05575  0.020003271  0.019475291           28 
 3459000   0.69764984   -7.0945146    830.68834  0.020012729  0.019469531           46 
 3460000   0.69328615   -7.1236973    830.28887  0.019997323  0.019463748           48 
 3461000   0.70773399   -7.1179353    830.57698  0.019998483  0.019457987           65 
 3462000   0.69077376   -7.1034838    830.01264  0.019979122  0.019452214           61 
 3463000   0.69256787   -7.0963928    829.72722  0.019966484  0.019446435           78 
 3464000   0.69272317   -7.1087012    829.68464  0.019959696   0.01944065           64 
 3465000    0.6956895   -7.1349155    829.50596  0.019949638  0.019434853           64 
 3466000   0.68926538   -7.1369396    830.89192  0.019977205  0.019429039          101 
 3467000   0.69963775   -7.1344949    829.76415  0.019944336  0.019423228          114 
 3468000    0.6864593   -7.1132449    832.51004  0.020004567  0.019417431           51 
 3469000   0.69397644   -7.1350273    828.87606  0.019911503   0.01941164           69 
 3470000   0.69719026   -7.1309124    828.72959  0.019902248  0.019405819           76 
 3471000   0.69791445   -7.1225613    831.53363  0.019963834  0.019399985           63 
 3472000   0.70062164    -7.122297    831.26367  0.019951605  0.019394161           60 
 3473000   0.69873612   -7.1221958    829.18761  0.019896046  0.019388347           67 
 3474000   0.70026066   -7.1509259     828.7306  0.019879356  0.019382545           26 
 3475000   0.70672981   -7.1223145    832.24136  0.019957826  0.019376735           24 
 3476000   0.69053103   -7.1358457    829.86277  0.019895061  0.019370928           15 
 3477000   0.68488086   -7.1251246    831.21441  0.019921733  0.019365122           14 
 3478000   0.69944546   -7.1275622    830.13055  0.019890036  0.019359304           35 
 3479000   0.68640975   -7.1115634       831.23  0.019910654  0.019353498           54 
 3480000    0.6919604   -7.1446896    831.73268   0.01991697  0.019347703           21 
 3481000   0.68343395   -7.1071207    830.43433  0.019880167  0.019341918           22 
 3482000    0.7006528   -7.1151886    831.89253  0.019909356   0.01933613           16 
 3483000   0.69700476   -7.1187281     829.7461  0.019852285  0.019330355           36 
 3484000   0.69079808    -7.106677    830.29678  0.019859758  0.019324571           25 
 3485000   0.70037246   -7.0706325    830.17707  0.019851197    0.0193188           49 
 3486000   0.70886152   -7.1241359    833.18254  0.019917349  0.019313052           26 
 3487000   0.68676504   -7.1443368    831.08526  0.019861516  0.019307269           94 
 3488000   0.68596295   -7.1365009    831.85652  0.019874248  0.019301485           50 
 3489000   0.68391359   -7.1393028    829.32188  0.019808013  0.019295708           27 
 3490000   0.68113755    -7.162291     829.0215  0.019795165  0.019289913           42 
 3491000   0.71390802   -7.0983167    829.80717  0.019808249   0.01928411           87 
 3492000   0.68629807   -7.1484765    833.29541   0.01988582   0.01927832           70 
 3493000    0.6933131   -7.1436838    829.46406  0.019788722  0.019272537           80 
 3494000   0.69453834   -7.1356479    831.68634   0.01983606  0.019266762           94 
 3495000   0.69962897   -7.1033897    832.62315  0.019852722  0.019260993          140 
 3496000   0.68731475   -7.1252938    830.63198   0.01979958  0.019255233          127 
 3497000   0.68035725   -7.1343043    831.94773  0.019825272  0.019249452          105 
 3498000   0.69637656   -7.1272048    828.55168    0.0197387  0.019243679          119 
 3499000   0.69864237   -7.1281011    830.35242  0.019775946  0.019237924          158 
 3500000    0.6999343   -7.1424237    830.99616  0.019785623  0.019232147          185 
 3501000   0.68700898   -7.1251266    830.47345  0.019767529   0.01922638          191 
 3502000   0.70759342   -7.1481116    829.89677  0.019748162  0.019220599          197 
 3503000   0.70314776   -7.1284503    830.01121  0.019745247  0.019214833          186 
 3504000   0.70033212   -7.1295074    829.75018  0.019733404  0.019209054          108 
 3505000    0.7020051   -7.1650695    830.44958  0.019744403  0.019203269          164 
 3506000   0.68608517   -7.1460611    829.99629  0.019727997  0.019197481          227 
 3507000   0.68802457   -7.1197615    832.44707  0.019780607  0.019191707          128 
 3508000   0.68235487   -7.1360835    831.81869  0.019760041  0.019185957          152 
 3509000   0.68466965   -7.1433931    829.98447   0.01971085   0.01918018          303 
 3510000   0.68322308   -7.1476821    831.43004  0.019739555  0.019174431          228 
 3511000   0.69797485   -7.1319736    831.90127  0.019745117   0.01916867          265 
 3512000   0.69081626   -7.1424373    830.48824  0.019705966  0.019162911          164 
 3513000   0.67047897   -7.1653242    830.41604  0.019698644  0.019157148          250 
 3514000   0.70663671   -7.1411894    831.97896  0.019730103  0.019151371          155 
 3515000   0.69268053   -7.1369819    830.14754   0.01968107  0.019145605          192 
 3516000   0.68948274   -7.1378498    829.72437  0.019665443  0.019139843          159 
 3517000   0.67445431   -7.1506276    830.30122   0.01967352  0.019134086          195 
 3518000   0.68436265   -7.1494289    831.33439  0.019692401   0.01912832          180 
 3519000   0.69004821   -7.1498278    830.86196  0.019675617  0.019122554          312 
 3520000   0.68099657   -7.1219718    831.62371  0.019688061   0.01911678          253 
 3521000   0.69157349   -7.1412307    831.72708  0.019684916  0.019111026          255 
 3522000   0.67895167   -7.1458366    830.13271  0.019641603  0.019105278          240 
 3523000   0.69477716   -7.1588657    831.98465  0.019679834   0.01909953          314 
 3524000   0.66785599   -7.1749951    829.87672  0.019624402  0.019093774          326 
 3525000   0.67639279   -7.1544898    831.01731  0.019645799  0.019088005          284 
 3526000   0.69451624   -7.1392796    832.45383  0.019674178  0.019082261          184 
 3527000   0.68162744   -7.1232584    832.60235  0.019672109  0.019076514          345 
 3528000   0.68273958   -7.1459649     829.5335  0.019594045  0.019070748          291 
 3529000   0.68111369   -7.1377947    830.32317   0.01960714  0.019064993          360 
 3530000    0.6808201   -7.1676815    832.03573  0.019642014  0.019059245          205 
 3531000    0.6779097   -7.1449922    833.02912  0.019659896  0.019053521          207 
 3532000   0.68075728    -7.148477    829.82444  0.019578719  0.019047799          253 
 3533000   0.69428282   -7.1395166    832.36921  0.019633201  0.019042062          224 
 3534000   0.68122616   -7.1612144    830.85948  0.019592046   0.01903632          215 
 3535000   0.68863991   -7.1499028    831.18349  0.019594142  0.019030582          256 
 3536000   0.70735627   -7.1474933    830.61228  0.019575139   0.01902484          249 
 3537000   0.68630085   -7.1679429    829.02572  0.019532224  0.019019066          256 
 3538000    0.6786771   -7.1713071    830.23092   0.01955509  0.019013308          375 
 3539000   0.67651917   -7.1691109    831.48138   0.01957901  0.019007555          376 
 3540000   0.69664637   -7.1610749    830.65564  0.019554041  0.019001802          401 
 3541000   0.68438012   -7.1567266    831.23007  0.019562037  0.018996048          442 
 3542000   0.68175074   -7.1790713    831.22933  0.019556497  0.018990321          384 
 3543000   0.69040647   -7.1493045    832.91527  0.019590631  0.018984595          420 
 3544000   0.67193072   -7.1762095    831.59225  0.019553994  0.018978872          462 
 3545000   0.68266075   -7.1566272    832.19054  0.019562542  0.018973155          441 
 3546000   0.68772247   -7.1572363    830.71653  0.019522385  0.018967418          393 
 3547000   0.69781569    -7.137023    830.99028  0.019523313  0.018961691          343 
 3548000   0.67323983   -7.1784897    830.03767  0.019495436  0.018955972          382 
 3549000   0.67973266   -7.1440658    832.17961  0.019540237  0.018950222          386 
 3550000   0.68878083   -7.1459459    832.22327  0.019535757  0.018944492          403 
 3551000   0.69005632   -7.1847795    831.49397  0.019513141  0.018938767          424 
 3552000   0.68029318   -7.1782047    831.01137  0.019496325   0.01893303          424 
 3553000   0.68238819   -7.1871223     829.7324  0.019460841  0.018927274          421 
 3554000   0.68036705   -7.1642616    831.67904  0.019501009  0.018921562          523 
 3555000   0.67352064   -7.1468158    830.84401   0.01947595  0.018915852          465 
 3556000   0.68521319   -7.1876177    831.73576   0.01949137  0.018910131          447 
 3557000    0.6839862    -7.173054    831.19586  0.019473242  0.018904415          491 
 3558000   0.68655492   -7.1681847    832.06822  0.019488201  0.018898701          515 
 3559000   0.68617225   -7.1845489    831.00786  0.019457897  0.018892975          491 
 3560000   0.68272643   -7.1937942    830.49697  0.019440472  0.018887247          523 
 3561000   0.67078719   -7.1679452    829.61901  0.019414467  0.018881516          562 
 3562000   0.68698398   -7.1614186    830.32588  0.019425554  0.018875792          581 
 3563000   0.69223521   -7.1764778    828.98937  0.019388843  0.018870079          514 
 3564000   0.68635359   -7.1768884    830.31154  0.019414318  0.018864339          684 
 3565000   0.67425689   -7.1761973    831.26439  0.019431145  0.018858595          767 
 3566000   0.67187719   -7.1780672    831.32818  0.019427187  0.018852852          770 
 3567000   0.67320053   -7.1729395    831.75315  0.019431669  0.018847109          664 
 3568000    0.6757688   -7.2061693    830.92777  0.019406945  0.018841384          553 
 3569000   0.68961897   -7.1783893    831.27883  0.019409705  0.018835657          727 
 3570000   0.68880132   -7.1925111    831.08263  0.019399688  0.018829932          580 
 3571000    0.6815918   -7.1712559    832.25221  0.019421549  0.018824204          656 
 3572000   0.68488101   -7.1703658    832.47615  0.019421336  0.018818496          639 
 3573000   0.67752004   -7.1829803    829.78735  0.019353189  0.018812773          618 
 3574000   0.67562843   -7.1830013    831.15734  0.019379718  0.018807063          627 
 3575000   0.67482045   -7.1665973    831.76286  0.019388412  0.018801357          619 
 3576000   0.67128251   -7.1989334    829.71629  0.019335298  0.018795643          746 
 3577000   0.67931197   -7.1893956    830.00505  0.019336619  0.018789922          772 
 3578000   0.68168249   -7.1783509    831.39534  0.019363596  0.018784224          811 
 3579000   0.67932346   -7.1636931    830.55082  0.019338522  0.018778537          683 
 3580000   0.69083333   -7.1910927     832.0463  0.019367931   0.01877285          693 
 3581000   0.67631987   -7.1918345    831.29323  0.019344997  0.018767163          603 
 3582000   0.67134114   -7.1966456    831.03717   0.01933364  0.018761455          716 
 3583000   0.68879634   -7.2008075    830.89485  0.019324934  0.018755742          722 
 3584000   0.68389202   -7.1924882    832.40968  0.019354764  0.018750043          729 
 3585000   0.67796875   -7.1825041    831.06831  0.019318185  0.018744339          648 
 3586000   0.66803249   -7.1958499    830.85697  0.019307886  0.018738626          709 
 3587000   0.69382316   -7.1962174    831.69181  0.019321899  0.018732915          678 
 3588000   0.65622884    -7.195053    829.37674  0.019262745  0.018727209          656 
 3589000   0.67749156    -7.199578    830.60798  0.019285966  0.018721505          787 
 3590000   0.68011995   -7.1931246    832.02375  0.019313457   0.01871579          703 
 3591000   0.68553594   -7.1923814    831.10979   0.01928687  0.018710086          765 
 3592000   0.68783448   -7.2137828    830.67212  0.019271346  0.018704369          715 
 3593000   0.65818315   -7.2180112    829.93431  0.019248871  0.018698654          716 
 3594000   0.67297399   -7.2007739    829.50632  0.019233591  0.018692934          745 
 3595000   0.66800668   -7.1885754    830.27004  0.019245944  0.018687222          752 
 3596000   0.65889102   -7.1918029    830.61098  0.019248493  0.018681507          702 
 3597000   0.67682738   -7.2168148     832.3866  0.019284278  0.018675798          749 
 3598000   0.67396293    -7.206868    830.77362  0.019241561  0.018670092          623 
 3599000   0.67309711   -7.2006331    831.40133  0.019250749  0.018664396          681 
 3600000   0.68057265    -7.209058    831.18506  0.019240395  0.018658698          667 
 3601000   0.67809136   -7.1939149    829.91054  0.019205557  0.018652984          600 
 3602000   0.66459322   -7.1888473    830.77326  0.019220185  0.018647272          638 
 3603000   0.65799361   -7.1822313    830.95331  0.019219014  0.018641581          627 
 3604000    0.6728225   -7.1949106    831.62924  0.019229311  0.018635901          669 
 3605000   0.66954956   -7.1817081    831.26331  0.019215518   0.01863023          688 
 3606000   0.68179236   -7.1845924    832.81437  0.019246034  0.018624564          711 
 3607000   0.67718082    -7.172587    831.12943   0.01920177  0.018618906          676 
 3608000   0.67233507   -7.1998422    832.59254  0.019230241  0.018613241          775 
 3609000   0.67714713   -7.2162071    832.16061   0.01921494  0.018607572          774 
 3610000   0.68501442   -7.2022955    831.29479  0.019189631  0.018601883          796 
 3611000   0.66801068   -7.2161324    829.93212  0.019152869  0.018596185          860 
 3612000   0.66740331    -7.225584    829.39582  0.019135193  0.018590494          893 
 3613000    0.6901888   -7.1934449    831.35021  0.019174975  0.018584805          846 
 3614000     0.677837    -7.211203    831.81686  0.019180429  0.018579116          896 
 3615000   0.67759207   -7.2091131    829.78344  0.019128249   0.01857343          948 
 3616000   0.68115403   -7.2060835    830.29341  0.019134712  0.018567723          891 
 3617000   0.68763073    -7.228163    830.48325  0.019133795  0.018562019          974 
 3618000   0.66542331    -7.234541    829.65215  0.019109364  0.018556301         1050 
 3619000   0.66422939   -7.2476133    828.33911  0.019073849  0.018550576         1122 
 3620000   0.67261511   -7.2332654    829.02038  0.019084263   0.01854484         1123 
 3621000   0.68024981   -7.2444045    829.04211  0.019079492  0.018539107         1138 
 3622000   0.66045768   -7.2360986    830.33737  0.019104026  0.018533384         1131 
 3623000   0.68162432   -7.2433345    828.96431  0.019067171  0.018527647         1157 
 3624000   0.66798624   -7.2303006     826.3671  0.019002187  0.018521892         1179 
 3625000   0.66222841    -7.248965    828.89827  0.019055133  0.018516147         1199 
 3626000   0.67005394   -7.2740579    828.77359  0.019047012  0.018510407         1219 
 3627000   0.68928484   -7.2802625    828.55203   0.01903667  0.018504654         1197 
 3628000   0.68481501   -7.2530442    828.45063  0.019029094  0.018498894         1209 
 3629000   0.66796242   -7.2452394    827.46739  0.019001272   0.01849314         1233 
 3630000   0.68344103   -7.2867873    828.06622  0.019009785  0.018487377         1237 
 3631000   0.66566179   -7.2679099    828.07461  0.019004742  0.018481609         1267 
 3632000   0.67987871   -7.2761424    828.16244  0.019001524  0.018475838         1330 
 3633000   0.67482752   -7.2428094     827.9432  0.018991265  0.018470078         1348 
 3634000   0.66522257   -7.2453563    828.68144  0.019002968  0.018464321         1189 
 3635000   0.66219539   -7.2649643    827.93828  0.018980703  0.018458553         1324 
 3636000   0.66398476   -7.2802078    828.16161  0.018980602  0.018452777         1270 
 3637000   0.67694666    -7.245054    828.60396  0.018985518  0.018447013         1342 
 3638000   0.67673056   -7.2584769    827.04956  0.018944694  0.018441259         1364 
 3639000   0.66494115   -7.2745648    827.54936  0.018950933  0.018435501         1421 
 3640000    0.6631228   -7.2814105    827.45932  0.018943666   0.01842973         1357 
 3641000   0.67454209   -7.2744867    827.62429  0.018942239  0.018423962         1397 
 3642000   0.67153564   -7.2828018    827.05252  0.018923955  0.018418198         1352 
 3643000   0.65550425   -7.2364186     827.1784   0.01892164  0.018412442         1371 
 3644000   0.67236809   -7.2948239    827.79963  0.018930654  0.018406676         1367 
 3645000   0.67359158   -7.2787132    828.73915   0.01894694  0.018400901         1352 
 3646000   0.67721347   -7.2996119    828.12157  0.018927628  0.018395123         1432 
 3647000   0.66021419   -7.2801733     828.3666  0.018928037   0.01838936         1450 
 3648000   0.65631677   -7.2901393    828.40327  0.018923686  0.018383589         1440 
 3649000   0.66443924   -7.2821882    826.81421   0.01888221  0.018377824         1395 
 3650000   0.66587052   -7.2822946      828.046   0.01890516  0.018372032         1469 
 3651000     0.698296   -7.2857196    826.06644  0.018854799  0.018366246         1493 
 3652000   0.65400128   -7.3047263    826.11415  0.018850724  0.018360453         1439 
 3653000   0.66694797   -7.2875129    827.51624  0.018877549  0.018354674         1455 
 3654000   0.67546795   -7.2840457     829.6215  0.018920395  0.018348908         1382 
 3655000   0.66038469   -7.2732949    827.78677  0.018873387  0.018343135         1513 
 3656000   0.65357609   -7.2939208     828.8926  0.018893431  0.018337374         1410 
 3657000   0.66158176   -7.3231874    827.75757    0.0188624  0.018331612         1454 
 3658000   0.66715851   -7.2772698    829.14811  0.018888922  0.018325863         1426 
 3659000   0.67694991   -7.2830932    828.85811  0.018877155  0.018320112         1443 
 3660000   0.67999569   -7.2817779    826.82133  0.018825622  0.018314355         1470 
 3661000    0.6768279   -7.2779771     827.5443  0.018836937  0.018308607         1461 
 3662000   0.67376877   -7.2982285    828.73524  0.018858894  0.018302845         1492 
 3663000   0.66779115   -7.2784674    827.70772   0.01883037  0.018297077         1453 
 3664000   0.65265148   -7.2966123    827.52059  0.018820974  0.018291315         1417 
 3665000   0.65663656    -7.297475    826.72393  0.018797725  0.018285542         1468 
 3666000   0.65903805   -7.2935308    828.22116  0.018826631  0.018279771         1487 
 3667000   0.67005073   -7.2784032    828.30961  0.018823507     0.018274         1466 
 3668000   0.63923926   -7.2915729    826.65857  0.018780865  0.018268236         1532 
 3669000   0.68877157   -7.3179273    827.26182  0.018789448  0.018262457         1493 
 3670000   0.66725113   -7.3080213    825.53526  0.018745124  0.018256692         1547 
 3671000   0.66017836   -7.3001007    826.85115  0.018769889  0.018250909         1551 
 3672000   0.66174353    -7.324466    824.49516   0.01871131  0.018245132         1516 
 3673000   0.66858263    -7.298625    827.53376  0.018775156  0.018239352         1506 
 3674000   0.66324768   -7.3305669    825.86852  0.018732275  0.018233574         1601 
 3675000   0.66284681     -7.31643    824.89895  0.018705192  0.018227788         1528 
 3676000   0.66074766   -7.3127598     826.4342  0.018734907  0.018221999         1486 
 3677000    0.6697932   -7.3149624    827.15809  0.018746217  0.018216218         1490 
 3678000   0.66968657   -7.3017141    826.27455  0.018721102  0.018210436         1540 
 3679000   0.66546355    -7.309451     826.2718  0.018715951  0.018204659         1513 
 3680000   0.67442335   -7.2759621    827.52275  0.018739193  0.018198888         1528 
 3681000   0.66536391   -7.3161399    825.58662   0.01869027  0.018193128         1624 
 3682000   0.66402102   -7.3198903    826.78103  0.018712227  0.018187355         1586 
 3683000    0.6766078    -7.292828    826.39492   0.01869841  0.018181593         1593 
 3684000   0.65396737   -7.3117819    827.38435  0.018715715  0.018175838         1532 
 3685000   0.65803134   -7.2917113    828.02916  0.018725218  0.018170078         1581 
 3686000   0.67801721   -7.3143794    827.19133  0.018701197  0.018164324         1573 
 3687000    0.6741639   -7.3081932    827.46282  0.018702261  0.018158579         1591 
 3688000   0.64863456   -7.2949514    825.39478  0.018650461  0.018152837         1619 
 3689000   0.65325335   -7.3084698    828.12964  0.018707184   0.01814708         1652 
 3690000   0.66776303   -7.3171163     825.7629  0.018648665  0.018141328         1730 
 3691000   0.66840776   -7.3011057    827.01429  0.018671866  0.018135562         1701 
 3692000   0.65673526   -7.3135321    826.08851  0.018645912  0.018129795         1764 
 3693000   0.64686076   -7.3094129    827.94337  0.018682719  0.018124039         1670 
 3694000   0.66209729   -7.3285321    825.48253  0.018622147  0.018118285         1646 
 3695000   0.65717986   -7.3026809    827.50699  0.018662765  0.018112539         1749 
 3696000   0.66332189   -7.3171423    825.56915  0.018614023  0.018106778         1734 
 3697000   0.65746353   -7.3178046    825.18984  0.018600438  0.018100998         1734 
 3698000   0.65042755   -7.3313042    825.41124  0.018600398  0.018095243         1672 
 3699000   0.65782096   -7.3362811    825.78357  0.018603757  0.018089477         1664 
 3700000   0.64109021   -7.3229045    827.51209   0.01863766   0.01808372         1635 
 3701000   0.66978259   -7.3076287    826.36549  0.018606806   0.01807796         1677 
 3702000    0.6591307   -7.3194787    825.56889  0.018583848  0.018072207         1708 
 3703000   0.65842989   -7.3237215    827.46494  0.018621499  0.018066441         1660 
 3704000   0.66711843   -7.3148786    825.86336  0.018580439  0.018060673         1769 
 3705000   0.66432993   -7.3554189    824.71799  0.018549662  0.018054901         1768 
 3706000   0.65103667   -7.3359534    825.62663  0.018565089  0.018049113         1817 
 3707000   0.65328453   -7.3554818    824.19192  0.018527828  0.018043327         1807 
 3708000   0.66529209   -7.3536033    824.91432  0.018539067  0.018037541         1810 
 3709000   0.66257003   -7.3286708    825.97621  0.018557927  0.018031754         1834 
 3710000   0.65044567   -7.3538939    824.96292  0.018530164  0.018025971         1842 
 3711000   0.66826414   -7.3443769    825.19435  0.018530368  0.018020189         1932 
 3712000   0.65418813   -7.3190266    825.73822  0.018537586   0.01801441         1930 
 3713000   0.65312582   -7.3467941    825.74793  0.018532811  0.018008627         1890 
 3714000   0.66316167   -7.3529763    824.67902  0.018503837   0.01800284         2029 
 3715000   0.64853775   -7.3339275    825.52706  0.018517879  0.017997039         1923 
 3716000   0.66341081    -7.347818     826.2838  0.018529866  0.017991251         1988 
 3717000   0.65994758   -7.3358383     824.7771  0.018491102   0.01798546         1976 
 3718000   0.66683461   -7.3312457    823.81241  0.018464506  0.017979675         2018 
 3719000   0.64873572   -7.3608852    824.10014  0.018465989   0.01797389         2016 
 3720000   0.64936793   -7.3419931    823.64273  0.018450778  0.017968112         1977 
 3721000   0.65411373   -7.3452831     827.0329  0.018521744  0.017962322         1999 
 3722000   0.66613992   -7.3599672    825.64946  0.018485793  0.017956541         1966 
 3723000   0.65896017   -7.3550147    824.81644  0.018462182  0.017950764         1992 
 3724000   0.64468336   -7.3703444    825.09781  0.018463521  0.017944982         1990 
 3725000   0.65785676   -7.3669359    824.07394  0.018435659   0.01793921         1969 
 3726000   0.65015632    -7.342455     824.8819  0.018448781  0.017933426         1990 
 3727000      0.65361    -7.346864    825.26936  0.018452494  0.017927656         1977 
 3728000   0.64759915   -7.3640089    824.97897  0.018441053  0.017921886         2032 
 3729000   0.65810259   -7.3608362    824.32031  0.018421389  0.017916104         2016 
 3730000   0.64878869   -7.3623981    823.75188  0.018403751  0.017910322         2039 
 3731000   0.66503463   -7.3747278    823.48348  0.018392823  0.017904545         2071 
 3732000   0.66343566   -7.3652411    823.91436  0.018397516  0.017898758         2032 
 3733000   0.65170252   -7.3601112    825.20185  0.018421329  0.017892967         2042 
 3734000   0.65633587   -7.3744133    824.65257  0.018404137  0.017887175         2120 
 3735000   0.65052279   -7.3508267    823.55741  0.018374775  0.017881383         2075 
 3736000   0.64969109   -7.3783121    823.18424  0.018361533  0.017875593         2027 
 3737000   0.66250428   -7.3896159    823.07176  0.018354111  0.017869799         2086 
 3738000   0.65874615   -7.3508024    823.22391  0.018352593  0.017864005         2117 
 3739000    0.6584866   -7.3683109    823.29399  0.018349247  0.017858218         2115 
 3740000   0.66275453    -7.382052    823.11718  0.018340401  0.017852439         2143 
 3741000    0.6398601   -7.3798982    825.44102  0.018387263  0.017846657         2106 
 3742000   0.65791504    -7.382975    824.37046  0.018358508  0.017840868         2098 
 3743000   0.66096921   -7.3830593    824.00674  0.018345506  0.017835084         2071 
 3744000   0.65173406   -7.3760027    823.72197  0.018334268  0.017829299         2165 
 3745000   0.65614873   -7.3718964    823.32336  0.018320502   0.01782352         2181 
 3746000   0.63861294   -7.3884949    824.29846  0.018337303  0.017817734         2183 
 3747000   0.64619166    -7.364447    823.92348   0.01832407  0.017811945         2159 
 3748000   0.64543636   -7.3882669    823.93616  0.018319463  0.017806162         2204 
 3749000   0.65640187   -7.3579117    823.59326  0.018306954  0.017800392         2132 
 3750000   0.66010451    -7.392641    823.71693  0.018304821  0.017794616         2188 
 3751000   0.65039726   -7.3806097     822.5485  0.018273983  0.017788848         2153 
 3752000   0.65671962   -7.3842713    821.83987  0.018253373  0.017783071         2155 
 3753000   0.65194534   -7.3882229    823.56986  0.018286923  0.017777295         2149 
 3754000   0.66100735   -7.3875306    823.29636   0.01827598  0.017771531         2147 
 3755000   0.65196522   -7.3797884    824.86686  0.018305967  0.017765765         2193 
 3756000   0.64871016   -7.3886287    821.70549  0.018230952  0.017759986         2195 
 3757000   0.65974062   -7.4049345    822.76924  0.018249695  0.017754207         2214 
 3758000   0.65294293   -7.3943592    823.20814  0.018254571  0.017748431         2192 
 3759000   0.63955437   -7.4060103    822.38127  0.018231384  0.017742656         2250 
 3760000   0.65237105    -7.420765    822.43376  0.018227699  0.017736871         2283 
 3761000   0.65280884   -7.4026961    821.95488  0.018212241  0.017731073         2277 
 3762000    0.6507941   -7.3991826    823.18418  0.018234631  0.017725275         2328 
 3763000   0.65484378   -7.4035458    821.98312  0.018203187  0.017719487         2367 
 3764000   0.65370739   -7.4194601    821.36626  0.018184694  0.017713684         2334 
 3765000    0.6546655   -7.3916375    821.97514  0.018193341  0.017707897         2451 
 3766000   0.64306223   -7.4050416     822.1216  0.018191751  0.017702097         2343 
 3767000   0.65471717   -7.3889181    821.51645  0.018173534  0.017696302         2317 
 3768000   0.65291089   -7.4220309    822.65519  0.018193896  0.017690521         2402 
 3769000   0.66422345   -7.4201548    822.76633  0.018191526  0.017684739         2355 
 3770000   0.64217002   -7.3884305     822.8296  0.018188099  0.017678956         2333 
 3771000   0.64781761   -7.3960308    822.02934  0.018165591  0.017673169         2322 
 3772000    0.6506129   -7.4184626    821.05804  0.018139317  0.017667376         2431 
 3773000   0.64668434   -7.3962849    821.51284  0.018144554  0.017661586         2270 
 3774000   0.64067507    -7.419706    822.37242  0.018158727  0.017655791         2295 
 3775000   0.64269757   -7.3941023     821.4031  0.018132519  0.017650003         2368 
 3776000   0.64481702   -7.3975098    822.50529  0.018152041  0.017644205         2323 
 3777000   0.65275885    -7.386515    821.10869  0.018116421  0.017638408         2344 
 3778000   0.63055159   -7.4328945    820.33976  0.018094666  0.017632618         2415 
 3779000   0.63506232   -7.4348511    822.72829  0.018142549  0.017626818         2422 
 3780000   0.65894119   -7.4277699     822.6393  0.018135787  0.017621032         2369 
 3781000   0.65871999   -7.4208862    821.19208  0.018099094  0.017615249         2355 
 3782000   0.64240133   -7.4216867    822.28749  0.018118444  0.017609468         2400 
 3783000   0.64614752    -7.413192    821.43979  0.018094982  0.017603681         2380 
 3784000   0.64867231   -7.4028049    821.55632  0.018092766  0.017597908         2337 
 3785000   0.66948668    -7.418539    820.70579   0.01806926  0.017592128         2376 
 3786000    0.6552097   -7.4499808    821.45895  0.018081065  0.017586342         2447 
 3787000   0.64567491   -7.4382698    821.23955  0.018071463  0.017580562         2406 
 3788000   0.64942339   -7.4093976    821.99226  0.018083251  0.017574782         2399 
 3789000    0.6489021   -7.4037625     822.2384  0.018083892  0.017568999         2325 
 3790000   0.64107392   -7.4147425    822.41293  0.018082958  0.017563236         2379 
 3791000   0.64752798    -7.424158    820.08442  0.018027003  0.017557464         2349 
 3792000   0.63993222   -7.4204931    821.52435  0.018053893  0.017551688         2402 
 3793000   0.65526552   -7.4121584    821.05655  0.018038856  0.017545913         2378 
 3794000   0.64233781   -7.4129484    823.01182  0.018077048  0.017540147         2368 
 3795000   0.63629624   -7.3956896    821.99995  0.018050065  0.017534389         2391 
 3796000   0.65346936   -7.4100665    820.84778  0.018020016  0.017528635         2335 
 3797000   0.63339986   -7.4246718     819.9483  0.017995529  0.017522874         2297 
 3798000   0.66128625   -7.4229551    821.41515  0.018022976  0.017517112         2416 
 3799000    0.6292829   -7.4233654    821.46653  0.018019359  0.017511346         2359 
 3800000   0.63421875   -7.4140968    821.76368  0.018021133  0.017505578         2379 
 3801000   0.65498744   -7.4308799    820.50689  0.017988838  0.017499815         2459 
 3802000   0.65179051   -7.4324667    824.06392  0.018062071   0.01749406         2359 
 3803000   0.63915946   -7.4291248     821.9044  0.018010001  0.017488314         2446 
 3804000   0.64060258   -7.4190129    822.26875  0.018013248  0.017482558         2391 
 3805000   0.64976824   -7.4223309    821.52265  0.017992174  0.017476802         2462 
 3806000   0.66113251    -7.416781    822.19918  0.018002259  0.017471045         2441 
 3807000   0.63792667   -7.4155903    821.91638   0.01799134  0.017465292         2371 
 3808000   0.64892061   -7.4192878    819.38029  0.017931116  0.017459545         2400 
 3809000   0.64420554   -7.4201645    820.65053  0.017954199  0.017453792         2435 
 3810000   0.64458473   -7.4356218    821.89728  0.017976756  0.017448043         2503 
 3811000   0.63804085   -7.4237419    822.46411  0.017984433  0.017442284         2431 
 3812000   0.64666494   -7.4610435    821.61204  0.017961089  0.017436526         2473 
 3813000   0.63909105   -7.4559177    821.97027  0.017964207  0.017430768         2470 
 3814000   0.62986972   -7.4332876    820.12722  0.017919228  0.017425007         2487 
 3815000   0.65129115    -7.438208    820.89411  0.017931282   0.01741924         2442 
 3816000   0.64309252    -7.440722    820.69546  0.017922245  0.017413478         2444 
 3817000   0.64364898    -7.426931    819.38134   0.01788886  0.017407712         2558 
 3818000   0.65216151   -7.4183631    820.87539  0.017916784  0.017401955         2417 
 3819000   0.63718957    -7.437262    819.82117  0.017889089    0.0173962         2486 
 3820000   0.64234759   -7.4497524    821.35561   0.01791788  0.017390444         2528 
 3821000   0.64657986   -7.4346924    819.26299  0.017867552   0.01738469         2479 
 3822000   0.62910236    -7.436671    821.12812  0.017903544  0.017378936         2476 
 3823000   0.63986103   -7.4268981    820.63529  0.017888118  0.017373187         2435 
 3824000   0.64458457   -7.4465532    819.03268  0.017848515  0.017367442         2515 
 3825000   0.64228986   -7.4447787    819.87172  0.017862129   0.01736169         2539 
 3826000   0.64382239   -7.4477157    820.86155   0.01787902  0.017355934         2490 
 3827000   0.64425368   -7.4527412    820.88464  0.017874851  0.017350186         2502 
 3828000   0.65022681   -7.4445237    819.50994  0.017840255  0.017344454         2504 
 3829000    0.6271995   -7.4387298    820.92638  0.017866422  0.017338713         2537 
 3830000    0.6352958    -7.441735    818.83059  0.017816157  0.017332973         2555 
 3831000   0.64102646   -7.4310434    819.30911  0.017821916   0.01732723         2490 
 3832000   0.63641748   -7.4628004    820.44086  0.017841877  0.017321496         2508 
 3833000   0.62976339   -7.4499363    821.32115   0.01785636  0.017315754         2519 
 3834000   0.63463848   -7.4449971    820.98934  0.017844491   0.01731002         2565 
 3835000   0.64204884   -7.4349123    820.11394  0.017820816  0.017304288         2481 
 3836000   0.63933287   -7.4676446    819.12812  0.017794754  0.017298545         2541 
 3837000   0.64484289   -7.4519326    820.54946  0.017820986   0.01729281         2527 
 3838000     0.645179   -7.4449674    820.86184  0.017823125  0.017287082         2470 
 3839000   0.62295438    -7.452788    819.61605   0.01779144  0.017281345         2531 
 3840000   0.63170532   -7.4279524    820.06781   0.01779661  0.017275609         2459 
 3841000   0.62331437   -7.4732481    820.01084  0.017790741  0.017269867         2560 
 3842000   0.63173828   -7.4541245    821.01329  0.017807854  0.017264131         2539 
 3843000   0.63773158   -7.4721095     819.6399  0.017773439  0.017258401         2485 
 3844000   0.63039038   -7.4621793    818.52984   0.01774475  0.017252652         2597 
 3845000   0.64056079    -7.449805     818.9426  0.017749081  0.017246919         2513 
 3846000   0.64667744   -7.4820159     818.5969  0.017736976  0.017241179         2543 
 3847000   0.64644456   -7.4649872    820.30518   0.01776937  0.017235438         2519 
 3848000   0.64297516   -7.4622907    820.16173  0.017761645  0.017229705         2558 
 3849000   0.62762743   -7.4656849     820.6164  0.017766874  0.017223967         2618 
 3850000   0.63893406   -7.4576697    820.02524  0.017749464  0.017218243         2641 
 3851000   0.62108152    -7.452649    819.93985  0.017743007  0.017212513         2629 
 3852000   0.64807527   -7.4819673    819.00882  0.017718259  0.017206784         2624 
 3853000   0.63788303   -7.4684117    818.34989  0.017699409   0.01720106         2592 
 3854000   0.62754551   -7.4682467    819.60166  0.017721883  0.017195332         2554 
 3855000    0.6458142   -7.4851787    819.74469  0.017720378   0.01718961         2552 
 3856000   0.63637747   -7.4635347    819.49371  0.017710359  0.017183897         2603 
 3857000   0.63215132   -7.4599146    820.74582   0.01773282  0.017178183         2604 
 3858000    0.6379156   -7.4675617    820.70164  0.017727269  0.017172465         2640 
 3859000   0.63151657   -7.4669016    818.28734  0.017670539  0.017166745         2591 
 3860000   0.63776144   -7.4744669    818.99306  0.017681197  0.017161021         2554 
 3861000   0.63362217   -7.4925377    821.06715  0.017721384    0.0171553         2616 
 3862000   0.63202867   -7.4616094    819.71878    0.0176877  0.017149579         2623 
 3863000   0.62891988   -7.4564437    820.40987   0.01769803  0.017143865         2685 
 3864000   0.64051772   -7.4810983    819.65978  0.017677273  0.017138157         2663 
 3865000   0.63743142   -7.4817813    820.98197  0.017701207  0.017132441         2718 
 3866000   0.65440802   -7.4849151    819.46743  0.017663981  0.017126731         2662 
 3867000   0.63071145    -7.465909    818.36229  0.017635598  0.017121013         2656 
 3868000   0.63849377   -7.4521475    820.19991  0.017670629    0.0171153         2743 
 3869000   0.62919739   -7.4781338    820.02876  0.017662375  0.017109585         2716 
 3870000   0.64766368   -7.4754034    820.11618  0.017659694  0.017103869         2666 
 3871000   0.63351694   -7.4735084    819.25417  0.017636575  0.017098163         2676 
 3872000    0.6356805   -7.4743515    819.68866  0.017641371  0.017092447         2714 
 3873000    0.6449145   -7.4735228    819.29125  0.017628265  0.017086741         2672 
 3874000   0.62829436   -7.4738699    818.85691  0.017614372  0.017081042         2667 
 3875000   0.63874448   -7.4625379    821.13589  0.017658836  0.017075349         2663 
 3876000   0.63039404   -7.4787274    820.26289  0.017635511  0.017069663         2713 
 3877000     0.614759   -7.4839394    819.12527   0.01760651  0.017063964         2730 
 3878000   0.62241607   -7.5009661     821.0214  0.017642715  0.017058272         2739 
 3879000   0.62959719   -7.4894721    820.21234  0.017620786  0.017052575         2701 
 3880000   0.62885455   -7.4808111    820.27744  0.017617643   0.01704688         2712 
 3881000   0.62206951   -7.4554942    818.65077  0.017578175  0.017041186         2728 
 3882000   0.62794676   -7.4749494    819.07014  0.017582649  0.017035491         2774 
 3883000   0.63712051   -7.4987819    818.69193  0.017570004  0.017029796         2720 
 3884000   0.62703264   -7.4974494    819.01709  0.017572457  0.017024099         2724 
 3885000   0.62527677   -7.4715706    819.63223  0.017581129  0.017018408         2728 
 3886000   0.62253537   -7.4975208    817.99377  0.017541469  0.017012717         2713 
 3887000   0.61725627    -7.475244    817.86533  0.017534202  0.017007023         2695 
 3888000   0.62835967   -7.4839821    820.22195  0.017580203  0.017001334         2728 
 3889000   0.61707725   -7.4717365    819.01774  0.017549879   0.01699565         2689 
 3890000   0.61140149   -7.4817233     819.1286  0.017547742  0.016989967         2709 
 3891000   0.63542997   -7.4960017    818.57262  0.017531325  0.016984282         2729 
 3892000   0.63068389   -7.4977039    818.56126  0.017526577  0.016978601         2739 
 3893000   0.62901077   -7.4687492    820.14682  0.017556016  0.016972929         2692 
 3894000   0.63445848   -7.4931197    820.01247  0.017548632  0.016967256         2719 
 3895000   0.62145591   -7.4951045     819.6127  0.017535573  0.016961581         2699 
 3896000   0.63341694   -7.4925681    817.89404  0.017494311  0.016955904         2780 
 3897000   0.60787157   -7.5243763    817.86385  0.017489176  0.016950227         2731 
 3898000   0.62808449   -7.4904209    819.31789  0.017515775  0.016944558         2714 
 3899000   0.62605818   -7.4834974    819.53609  0.017515946  0.016938887         2762 
 3900000   0.62917709   -7.4650519    819.24971  0.017505336  0.016933217         2745 
 3901000   0.61459414   -7.5133934    818.34246  0.017481467  0.016927552         2674 
 3902000   0.62910807   -7.4839055    818.12807  0.017472409  0.016921885         2777 
 3903000   0.63009182   -7.5045786    818.53704  0.017476664  0.016916221         2808 
 3904000   0.62844145   -7.5074631    819.99747  0.017503361  0.016910568         2755 
 3905000   0.63047881    -7.480764    818.32405  0.017463168  0.016904909         2688 
 3906000   0.62734052   -7.5091248    818.31811   0.01745857   0.01689925         2775 
 3907000   0.62081993   -7.4803811     817.8362  0.017443823  0.016893593         2763 
 3908000   0.63494996   -7.4838826    818.42856  0.017451991   0.01688794         2738 
 3909000   0.63166869   -7.4766221    817.55146  0.017428828  0.016882284         2708 
 3910000   0.63870279   -7.4769946    818.76532  0.017450241  0.016876642         2754 
 3911000   0.62130961   -7.4874743    817.28714  0.017414283  0.016870993         2696 
 3912000   0.64462074    -7.493456    818.81821  0.017442447  0.016865342         2720 
 3913000   0.62539102   -7.5064315    818.84322  0.017438522  0.016859697         2709 
 3914000   0.61598438   -7.4941583    819.04286  0.017438317  0.016854053         2728 
 3915000   0.62808149    -7.483067    817.36939  0.017398242  0.016848415         2762 
 3916000   0.64379465   -7.4882311    820.11734  0.017452276  0.016842774         2654 
 3917000   0.63222081   -7.4913874    816.78196  0.017376861   0.01683714         2708 
 3918000   0.61741673   -7.4892184    818.74167  0.017414107  0.016831501         2756 
 3919000   0.63749996   -7.5057527    818.38628  0.017402107  0.016825861         2706 
 3920000   0.61489031   -7.4999695    817.80788  0.017385372  0.016820229         2726 
 3921000   0.61438252   -7.5070378    818.46928  0.017394994  0.016814597         2670 
 3922000   0.61792681   -7.5069051    819.57511  0.017414056   0.01680897         2721 
 3923000   0.63084877   -7.5010404    819.21482  0.017401963  0.016803343         2771 
 3924000    0.6322928   -7.5055014    817.31972  0.017357283  0.016797717         2767 
 3925000   0.63030233   -7.4816012    818.02434   0.01736782  0.016792099         2763 
 3926000   0.60765702   -7.4875261    819.55642  0.017395916  0.016786478         2700 
 3927000   0.62756812   -7.5120029    817.30904  0.017343796  0.016780857         2768 
 3928000   0.63402854   -7.4912915    818.18536  0.017357972  0.016775236         2730 
 3929000   0.60576935   -7.4996434     817.3034  0.017334848  0.016769617         2755 
 3930000   0.63138903   -7.5061266    819.07681  0.017368041  0.016763993         2767 
 3931000    0.6219143   -7.4793529    819.33428  0.017369081  0.016758378         2689 
 3932000   0.61952017   -7.4854539    816.67963  0.017308402  0.016752769         2732 
 3933000   0.61997669    -7.499284      818.555  0.017343737   0.01674716         2711 
 3934000   0.62605544   -7.5020833    818.35126  0.017335012  0.016741549         2781 
 3935000   0.61496777   -7.4894444    819.43964  0.017353656   0.01673594         2695 
 3936000   0.61663614   -7.5007734    817.90308  0.017316715  0.016730337         2675 
 3937000   0.61369893     -7.49655    817.55159  0.017304877  0.016724728         2753 
 3938000   0.61440504   -7.5054017    817.80763    0.0173059   0.01671912         2745 
 3939000   0.61908591   -7.5130647    818.33133  0.017312586  0.016713518         2698 
 3940000   0.61968994   -7.5122494    818.33992  0.017308374  0.016707912         2719 
 3941000   0.61908101   -7.4978114    820.06186  0.017340393   0.01670231         2763 
 3942000   0.62119464   -7.4962615    817.97703  0.017291921  0.016696711         2722 
 3943000   0.60994661   -7.5045277    818.63946  0.017301536  0.016691112         2810 
 3944000   0.62226525   -7.5176065    817.75464  0.017278453  0.016685517         2812 
 3945000   0.59982045   -7.5098722    817.29164  0.017264293  0.016679916         2796 
 3946000   0.61767623   -7.5102377    817.54559  0.017265281  0.016674322         2787 
 3947000   0.62157089   -7.5073113    817.56181  0.017261249  0.016668728         2797 
 3948000   0.60577609   -7.5376159    818.00261  0.017266181  0.016663137         2812 
 3949000   0.61505768   -7.5279843    818.40902  0.017270385  0.016657543         2836 
 3950000   0.60384323   -7.5123192    817.93655  0.017256045  0.016651955         2791 
 3951000   0.62237959    -7.510723     818.3276  0.017259926  0.016646365         2786 
 3952000   0.62218369   -7.5153723    818.84403  0.017266448  0.016640795         2789 
 3953000   0.61062767   -7.4895322    818.36323  0.017251944  0.016635219         2746 
 3954000   0.62591275   -7.4909938    817.72171  0.017234061  0.016629638         2784 
 3955000   0.62345484   -7.5062677    817.31521  0.017221138  0.016624057         2774 
 3956000   0.62277769   -7.5139308    817.85508  0.017228157   0.01661848         2774 
 3957000   0.62119595   -7.5136746    817.85727  0.017223849  0.016612896         2767 
 3958000   0.62355021   -7.5004965    818.62213  0.017235601  0.016607324         2659 
 3959000   0.61661024   -7.5090657     819.0097  0.017239406  0.016601755         2725 
 3960000   0.61721606   -7.5132005    818.94199  0.017233628  0.016596178         2778 
 3961000   0.61714431   -7.5196454    817.77008  0.017204622  0.016590612         2739 
 3962000   0.62016291     -7.51707    818.76088  0.017221119  0.016585046         2793 
 3963000   0.61907032   -7.5268421    817.93442  0.017199395  0.016579483         2816 
 3964000   0.61219598   -7.5187866    819.42696  0.017226433  0.016573925         2802 
 3965000   0.61497626   -7.5160172    817.76783  0.017187218  0.016568369         2771 
 3966000   0.60835059   -7.5296182     816.8575  0.017163756  0.016562804         2800 
 3967000   0.61044923   -7.5260753     817.1134  0.017164806  0.016557238         2778 
 3968000   0.61854047   -7.5112107    817.35902  0.017165638  0.016551681         2818 
 3969000   0.61360355   -7.5223817    816.54051  0.017144128  0.016546126         2702 
 3970000   0.63349484   -7.5167041    815.82002  0.017124686  0.016540567         2817 
 3971000   0.61226191   -7.5103766    818.31814  0.017172797  0.016535018         2862 
 3972000   0.62350257   -7.5236865    817.51437  0.017151611  0.016529465         2815 
 3973000   0.61579584   -7.5146157    816.54555  0.017126973  0.016523913         2816 
 3974000   0.62994174   -7.5454926    818.05192  0.017154251  0.016518354         2801 
 3975000   0.62193274     -7.49547    817.18053  0.017131667    0.0165128         2836 
 3976000   0.60187106   -7.5047449    816.78514  0.017119072   0.01650725         2862 
 3977000   0.61535843   -7.5349153    816.26098  0.017103784  0.016501699         2907 
 3978000   0.60540393   -7.5314636    817.38655  0.017123063  0.016496152         2847 
 3979000   0.61996777   -7.5273528    816.19703  0.017093847  0.016490604         2821 
 3980000   0.62098311   -7.5045542    818.94073     0.017147  0.016485063         2858 
 3981000     0.622395   -7.5017755    817.31706  0.017108705  0.016479522         2874 
 3982000   0.60668256   -7.5174075    817.35557  0.017105215  0.016473977         2917 
 3983000   0.63172474   -7.5270959    818.28473   0.01712036  0.016468445         2797 
 3984000   0.62081799   -7.5292353    817.40548  0.017097672  0.016462906         2875 
 3985000   0.61990911     -7.53272      816.868  0.017082141  0.016457365         2897 
 3986000   0.61413907   -7.5107056    817.84116  0.017098201  0.016451836         2878 
 3987000    0.6212054   -7.5333894    817.57582  0.017088367  0.016446303         2891 
 3988000   0.62616274   -7.5155104    817.22555  0.017076763  0.016440763         2871 
 3989000   0.61052279    -7.526337    819.16298  0.017112956  0.016435227         2888 
 3990000   0.61367581   -7.5246174    816.56942  0.017054499  0.016429698         2927 
 3991000   0.61261792   -7.5266792    817.58233  0.017071376  0.016424169         2883 
 3992000    0.6161025   -7.5293691     817.1126  0.017057294  0.016418645         2839 
 3993000   0.60262348   -7.5417308    816.76433  0.017045754  0.016413119         2826 
 3994000   0.60515192   -7.5231445    817.83344  0.017063792  0.016407603         2841 
 3995000   0.62003922   -7.5160055    817.48218  0.017052194  0.016402092         2824 
 3996000   0.61431898   -7.5182543    818.35133  0.017066052  0.016396579         2828 
 3997000   0.60739825   -7.5125563     818.0229  0.017054935  0.016391066         2833 
 3998000   0.61004082   -7.5364779    816.80009  0.017025181  0.016385553         2874 
 3999000   0.61212164   -7.5084477    815.78613  0.016999794  0.016380047         2843 
 4000000    0.6038341   -7.5273765    816.61999  0.017012916  0.016374542         2872 
 4001000   0.61132806   -7.5325666    818.33483  0.017044381  0.016369033         2853 
 4002000   0.61150121   -7.5312357    816.45421  0.017000962  0.016363525         2979 
 4003000   0.60916592   -7.5407811    817.53215  0.017019156  0.016358022         2882 
 4004000   0.61512667   -7.5260658    817.47422  0.017013699  0.016352521         2964 
 4005000   0.61126234   -7.5356419     815.9243  0.016977202   0.01634701         2963 
 4006000   0.59734117   -7.5358769    817.32867  0.017002177  0.016341513         2886 
 4007000   0.61902761   -7.5328847    816.90078  0.016989035  0.016336017         2884 
 4008000   0.61938531   -7.5344879    816.25416  0.016971352  0.016330525         2893 
 4009000   0.60693368   -7.5358952    816.05774  0.016963036  0.016325024         2953 
 4010000    0.5962914   -7.5335307    816.16777  0.016961092  0.016319526         2964 
 4011000   0.60324643    -7.556417    817.88716  0.016992586  0.016314032         2941 
 4012000   0.60794597    -7.539223     816.5204  0.016959962  0.016308537         2981 
 4013000   0.59716064   -7.5276794    817.59569  0.016978065  0.016303039         2936 
 4014000   0.60716709   -7.5439367     817.5509  0.016972905  0.016297547         2951 
 4015000     0.621591   -7.5295249    817.25681  0.016962574  0.016292057         2864 
 4016000   0.61612269   -7.5460427    816.05255  0.016933361  0.016286573         2931 
 4017000   0.60031521   -7.5481509     815.7856  0.016923608  0.016281086         2922 
 4018000   0.61463215    -7.525243       816.85  0.016941472  0.016275604         2926 
 4019000    0.6046202   -7.5458784    815.66477  0.016912681  0.016270121         2993 
 4020000   0.60356411   -7.5298605     816.9362   0.01693483  0.016264638         2884 
 4021000   0.60886464   -7.5315428    817.59555  0.016944283  0.016259159         2943 
 4022000    0.6248871   -7.5323251    816.73187  0.016922175  0.016253679         2935 
 4023000   0.61170346   -7.5470128    817.70811  0.016938191  0.016248197         2944 
 4024000   0.61302949   -7.5505529     816.6571  0.016912216  0.016242717         2939 
 4025000   0.61176538   -7.5646598     817.3564  0.016922493  0.016237238         2949 
 4026000   0.60493674   -7.5569666    816.42123  0.016898933  0.016231766         2917 
 4027000   0.60300926   -7.5437889    816.82893  0.016903173  0.016226298         2952 
 4028000   0.60540381   -7.5545126    817.35511  0.016909862  0.016220824         2915 
 4029000   0.61228498   -7.5490574    816.42204  0.016886366  0.016215358         2936 
 4030000   0.60834214   -7.5614891    816.12121  0.016875955  0.016209888         3014 
 4031000   0.61577282   -7.5600473    816.86709  0.016887189  0.016204418         2990 
 4032000   0.60678354   -7.5677572    816.70962  0.016879746  0.016198958         3034 
 4033000   0.61396161   -7.5568106    815.92027   0.01685925  0.016193489         2963 
 4034000   0.60925628   -7.5506981    815.77335  0.016852036  0.016188023         2965 
 4035000   0.60372386   -7.5480852    814.71892  0.016826083   0.01618256         2945 
 4036000   0.59124162   -7.5586559    817.27461  0.016874682  0.016177098         2998 
 4037000   0.61977844   -7.5612649    817.18413  0.016868634  0.016171636         2972 
 4038000   0.60614173    -7.543331    817.76309  0.016876405  0.016166179         2958 
 4039000   0.61028699   -7.5679186     816.6851  0.016849985  0.016160722         2964 
 4040000   0.60329237   -7.5364244    817.50864  0.016862802  0.016155268         2867 
 4041000   0.60937137   -7.5353718     816.6029  0.016839951  0.016149815         2933 
 4042000   0.61453396    -7.554982    816.91022  0.016842121  0.016144367         2959 
 4043000   0.60000307   -7.5434239    816.34557  0.016826316  0.016138916         2938 
 4044000   0.60595666   -7.5529458    816.98518  0.016835336  0.016133465         2938 
 4045000   0.59305182   -7.5509308    816.39753  0.016819067   0.01612802         2971 
 4046000   0.60725002   -7.5531407    816.93505  0.016825981  0.016122578         2922 
 4047000   0.59736466   -7.5510729    816.85508  0.016820177  0.016117138         2956 
 4048000   0.60112346    -7.547961     816.5288  0.016809305  0.016111696         2866 
 4049000   0.61914666   -7.5565271    815.60949  0.016786233  0.016106256         2904 
 4050000   0.61393204   -7.5648023    815.91669  0.016788409  0.016100815         2949 
 4051000   0.62090964    -7.554316     815.9185  0.016784302  0.016095376         2959 
 4052000   0.61622799   -7.5736565    815.59318  0.016773469   0.01608994         2963 
 4053000   0.60021752   -7.5633947    817.38171  0.016806105  0.016084509         2955 
 4054000   0.60974782   -7.5833383    816.22808  0.016778245  0.016079074         2991 
 4055000   0.59853653    -7.559861    814.84644  0.016745714  0.016073647         2968 
 4056000   0.59826508   -7.5311413    814.03182  0.016724848  0.016068225         2906 
 4057000   0.61629087   -7.5702835    815.36627  0.016748136  0.016062801         2953 
 4058000   0.59377494    -7.529399    814.75522  0.016731461   0.01605737         2933 
 4059000    0.5985929   -7.5540526    814.98641  0.016732085  0.016051943         2944 
 4060000   0.60570042   -7.5533029    814.66413  0.016721349  0.016046524         2975 
 4061000   0.59993519   -7.5397992    816.47708  0.016754434  0.016041103         2974 
 4062000   0.58139406   -7.5640739    817.10551  0.016763202   0.01603568         2977 
 4063000   0.60675266   -7.5615374    816.25035  0.016741536   0.01603026         2998 
 4064000   0.59696879   -7.5705266    815.97322  0.016731734  0.016024844         2988 
 4065000   0.60965523   -7.5610366    816.69448  0.016742404   0.01601943         2952 
 4066000   0.61044035   -7.5671558    815.83068  0.016720583   0.01601402         2946 
 4067000   0.58761965   -7.5719491    815.28788   0.01670535  0.016008609         2926 
 4068000   0.60636377   -7.5772362    815.27458  0.016700971  0.016003195         2948 
 4069000   0.60023871   -7.5536883    814.06035  0.016671999  0.015997791         2961 
 4070000   0.60589791   -7.5845738    815.56781  0.016698768  0.015992381         2952 
 4071000   0.60340362   -7.5721123    816.50378  0.016713825   0.01598698         2929 
 4072000   0.59187112   -7.5498072    816.30011  0.016705552  0.015981575         2958 
 4073000   0.59199797   -7.5648238     815.8668  0.016692585  0.015976176         3009 
 4074000   0.61018256   -7.5551666    815.87301  0.016688615  0.015970778         2964 
 4075000   0.60200129    -7.567542    815.45895  0.016676052  0.015965377         3014 
 4076000   0.60348789   -7.5586004    815.86513  0.016680265  0.015959981         2987 
 4077000   0.59289086    -7.571012    815.31099  0.016664847  0.015954582         2962 
 4078000   0.59392169   -7.5678918    815.28907  0.016660313  0.015949194         2942 
 4079000   0.59467315   -7.5439723    815.08753  0.016652111  0.015943805         2985 
 4080000   0.58639482    -7.562099    816.15487   0.01666983  0.015938418         2987 
 4081000   0.60558763   -7.5600326    815.01308   0.01664243  0.015933029         2900 
 4082000   0.59233452   -7.5585753    816.11631  0.016660875  0.015927642         2968 
 4083000   0.61894592   -7.5701491    814.19641   0.01661761  0.015922258         2989 
 4084000   0.58650273   -7.5554747    815.68924  0.016644002  0.015916878         2915 
 4085000   0.58851219   -7.5642164     817.0133  0.016666938    0.0159115         2952 
 4086000   0.60214137   -7.5853279    814.97728  0.016621335  0.015906117         2977 
 4087000   0.60342934   -7.5609265    815.16723  0.016621141   0.01590074         2968 
 4088000   0.59324349    -7.566442    814.18694  0.016597092  0.015895362         2972 
 4089000   0.59269142   -7.5729452    815.57296   0.01662128  0.015889992         2979 
 4090000    0.5869463   -7.5710002     816.5567  0.016637259  0.015884623         3022 
 4091000   0.61006355   -7.5761097    815.07274  0.016602965  0.015879258         2991 
 4092000    0.5935313   -7.5498891    814.52988  0.016587852  0.015873888         3009 
 4093000   0.60298248   -7.5653026    817.41854  0.016642612  0.015868527         2983 
 4094000    0.5783438   -7.5629864    816.11614  0.016612037  0.015863167         2956 
 4095000   0.59312235   -7.5652182    815.50883  0.016595621  0.015857807         2997 
 4096000   0.60610672   -7.5577536    815.32924  0.016587916  0.015852449         2960 
 4097000    0.5980457   -7.5582869    813.71148  0.016550962  0.015847095         3017 
 4098000    0.5959974   -7.5570669    816.28785  0.016599314  0.015841742         3010 
 4099000   0.59652357   -7.5530929    815.67083   0.01658272  0.015836395         2987 
 4100000   0.59986241   -7.5782266    816.26337  0.016590719  0.015831049         2991 
 4101000   0.60208868   -7.5627441    814.81891  0.016557322  0.015825704         2980 
 4102000   0.58987094     -7.56791    813.75601  0.016531692  0.015820359         3030 
 4103000   0.60035523   -7.5675675    815.67797  0.016566699   0.01581501         2966 
 4104000   0.58755606   -7.5706353    815.34551  0.016555911  0.015809665         2974 
 4105000   0.59115207   -7.5637327    814.71147  0.016539007  0.015804323         2929 
 4106000   0.60663212   -7.5684591    815.35937  0.016548128  0.015798988         2993 
 4107000   0.58483195    -7.551667    815.04319  0.016537683  0.015793648         3011 
 4108000   0.59263801   -7.5791192    814.13822    0.0165153  0.015788306         3001 
 4109000   0.59363513   -7.5819034    816.01037  0.016549249  0.015782964         3002 
 4110000   0.60574194   -7.5804166    816.25314  0.016550145  0.015777629         2961 
 4111000    0.5894505   -7.5857181    815.34684  0.016527748  0.015772292         2980 
 4112000   0.60051381    -7.573589    815.73032    0.0165315  0.015766961         2963 
 4113000   0.57938711    -7.610539    815.71953  0.016527262  0.015761628         3036 
 4114000    0.5851972   -7.5670327    814.28848  0.016494257  0.015756301         2950 
 4115000   0.59486824   -7.5863111    815.67547  0.016518337  0.015750973         3022 
 4116000   0.60407321   -7.5776023    815.18579  0.016504409  0.015745642         2948 
 4117000   0.59063967   -7.5951116     815.3824   0.01650438  0.015740317         3004 
 4118000   0.59728454   -7.5665089    814.60393  0.016484619  0.015734996         3010 
 4119000   0.58238672   -7.5737109    815.38161   0.01649635  0.015729674         3019 
 4120000   0.58146262   -7.6010733    814.47474  0.016474004  0.015724349         3020 
 4121000   0.59945046   -7.5836397    815.17742  0.016484215  0.015719028         2969 
 4122000   0.58153752   -7.5851381    814.23829   0.01646123  0.015713705         3004 
 4123000   0.59218352   -7.5893847    814.77445  0.016468074  0.015708386         2973 
 4124000   0.60205711   -7.5957511    815.84861  0.016485787  0.015703073         2990 
 4125000   0.59169763   -7.6016536    814.73836  0.016459361  0.015697762         3030 
 4126000   0.59500053   -7.5904235    814.12915  0.016443067   0.01569245         3047 
 4127000   0.61079323   -7.5831902    814.20864  0.016440688   0.01568714         2977 
 4128000    0.5979444   -7.5961982    815.78983  0.016468625  0.015681829         3007 
 4129000   0.59194316   -7.5973562    815.07333  0.016450176  0.015676522         3002 
 4130000   0.58056372   -7.5612356    815.24529  0.016449663  0.015671222         2988 
 4131000    0.5950397    -7.589524    814.05174  0.016421604  0.015665924         3042 
 4132000     0.597875   -7.5827021    815.47643  0.016446362  0.015660615         3032 
 4133000   0.58274391   -7.5837746     814.2132  0.016416913  0.015655322         3007 
 4134000   0.59528061   -7.5828163    815.72247  0.016443365  0.015650026         2974 
 4135000   0.58331693   -7.5774575    814.16827  0.016408067  0.015644734         3009 
 4136000   0.59241762    -7.589649    814.81737  0.016417178  0.015639449         3039 
 4137000    0.5932318   -7.6055994    813.54502   0.01638758  0.015634157         2991 
 4138000   0.59256388   -7.5779977    813.95441  0.016391864   0.01562887         3015 
 4139000   0.61168421   -7.6060253    814.80902   0.01640511  0.015623582         3012 
 4140000   0.58750014   -7.5845096    816.50274   0.01643524  0.015618301         3017 
 4141000   0.60382197   -7.6089877    814.96875  0.016400401  0.015613018         3018 
 4142000   0.59189473   -7.5718961    812.93921  0.016355609  0.015607733         2989 
 4143000   0.59054631   -7.5510562    814.48874  0.016382829  0.015602454         3027 
 4144000   0.58295115   -7.5846341    814.69444  0.016383012  0.015597177         2999 
 4145000   0.59325843   -7.5949786    814.97658  0.016384732  0.015591906         2999 
 4146000   0.58095398   -7.5873081     814.0634  0.016362426  0.015586639         2994 
 4147000   0.59088877   -7.5934247    815.18109   0.01638094  0.015581368         3013 
 4148000   0.58206065   -7.5998569    815.79706  0.016389366  0.015576103         3001 
 4149000   0.58873472   -7.6172846    814.56268  0.016360623  0.015570843         3033 
 4150000   0.58479156   -7.5940136    815.49895  0.016375481  0.015565576         3039 
 4151000   0.57731339   -7.5921921    814.62064  0.016353903   0.01556031         3079 
 4152000   0.59614219   -7.5901481    815.63933  0.016370411  0.015555047         2982 
 4153000   0.58195117   -7.5913756    814.27746  0.016339142  0.015549789         3016 
 4154000   0.58436519    -7.595017    815.83376  0.016366429   0.01554454         2984 
 4155000   0.59783246    -7.583546    814.44342  0.016334605  0.015539285         2984 
 4156000   0.59176499   -7.5889491    814.99707  0.016341776  0.015534038         3026 
 4157000   0.56982289   -7.5776938     813.6282  0.016310404  0.015528784         2988 
 4158000   0.58926806   -7.5807734    815.18254  0.016337633  0.015523538         3079 
 4159000   0.59202783   -7.6056513    814.97073  0.016329461  0.015518288         3007 
 4160000   0.59300158   -7.6163482    814.47392  0.016315583   0.01551304         3032 
 4161000   0.58921829   -7.6134606     814.9608  0.016321413  0.015507792         3047 
 4162000   0.59420566   -7.6080198    814.66992  0.016311667  0.015502545         3050 
 4163000   0.57877737   -7.6099838    815.29474  0.016320257  0.015497305         3069 
 4164000   0.58305628   -7.5932114    814.65287  0.016303492  0.015492059         3006 
 4165000   0.58761296   -7.5888074    814.84943   0.01630351  0.015486819         3004 
 4166000   0.60001492   -7.5689352     813.8431  0.016279467  0.015481585         3006 
 4167000   0.57399666    -7.632147    814.79096  0.016294516   0.01547635         3066 
 4168000   0.59807478     -7.58461    812.83433  0.016251486  0.015471122         3000 
 4169000   0.59415128   -7.6063659    813.96847  0.016270258  0.015465895         2988 
 4170000    0.5890054   -7.5991676    814.16358  0.016270255  0.015460665         3046 
 4171000   0.58770198   -7.5968481    814.17691  0.016266621  0.015455441         2986 
 4172000    0.5797765    -7.603323    812.99915  0.016239197  0.015450215         2998 
 4173000   0.58863149   -7.5704616    815.36455  0.016282542  0.015444993         3065 
 4174000   0.57472654   -7.6232621    815.47985  0.016280943  0.015439772         3050 
 4175000   0.57964824   -7.6102323     814.5077  0.016257639  0.015434553         3030 
 4176000   0.58198991   -7.6091757    813.58565  0.016235346  0.015429338         3028 
 4177000   0.59031037   -7.6091211    814.34947  0.016246698  0.015424119         3031 
 4178000   0.57822841   -7.5953798    813.12092  0.016218305  0.015418906         3024 
 4179000   0.58301473   -7.5835703    814.97803  0.016251456  0.015413694         2996 
 4180000   0.58502109   -7.5980299    816.13805  0.016270695  0.015408485         3016 
 4181000   0.58735893   -7.6043177    814.16392  0.016227456  0.015403278         2990 
 4182000   0.57827967   -7.5858663    814.48027  0.016229879  0.015398071         3025 
 4183000   0.57456295   -7.5966023    814.45162  0.016225429  0.015392865         3047 
 4184000   0.57880653   -7.5993402    813.42883   0.01620118  0.015387664         2999 
 4185000   0.58286827   -7.6010834    815.01579  0.016228909  0.015382468         3017 
 4186000   0.58495264   -7.5874004    813.64311  0.016197705  0.015377267         3000 
 4187000   0.58167459   -7.5741112    816.08133  0.016242364  0.015372079         3027 
 4188000   0.57552001   -7.5986691    813.68463  0.016190796  0.015366889         2995 
 4189000   0.59230626   -7.5668843    813.25813  0.016178446  0.015361699         3010 
 4190000   0.58319379   -7.5975008    814.80815  0.016205413  0.015356511         2998 
 4191000   0.58513666   -7.6117686    814.26141  0.016190675  0.015351326         2972 
 4192000   0.58997519   -7.5962886    814.09062  0.016183417   0.01534614         3057 
 4193000   0.58165936   -7.6067762    815.14123  0.016200438  0.015340953         2981 
 4194000   0.57776498   -7.5916616    813.39375  0.016161853  0.015335768         3040 
 4195000   0.58641349   -7.6117711    815.40458  0.016197946  0.015330584         3061 
 4196000   0.57950909   -7.5975253    812.96643  0.016145663  0.015325403         3034 
 4197000   0.58287641   -7.5896028    814.89355   0.01618008  0.015320227         3009 
 4198000     0.581794   -7.5926536    814.77271  0.016173827   0.01531505         3023 
 4199000   0.57897027   -7.6194772    815.15661  0.016177594  0.015309874         3025 
 4200000   0.57953844   -7.5986426    813.82388  0.016147299  0.015304703         3017 
 4201000   0.57694716   -7.5900826    812.92531  0.016125631   0.01529953         3034 
 4202000   0.59435983   -7.6020394    812.65369  0.016116407  0.015294362         3027 
 4203000   0.57252078   -7.6105272    812.59414  0.016111392  0.015289192         2974 
 4204000   0.58202091    -7.612343    814.66449  0.016148598  0.015284027         3012 
 4205000   0.57993169   -7.6207781    815.40561  0.016159445  0.015278863         3010 
 4206000    0.5798877     -7.61335     814.4407  0.016136486  0.015273695         3049 
 4207000   0.57313829   -7.5989015    814.78466  0.016139463  0.015268536         3028 
 4208000    0.5849363   -7.6073615    813.05001  0.016101275  0.015263378         3003 
 4209000   0.58903624    -7.610708    813.93412  0.016114954  0.015258218         3004 
 4210000   0.58469916   -7.6137383     814.6403  0.016125105  0.015253064         3019 
 4211000   0.58997752   -7.6221904    815.29343  0.016134201  0.015247911         3016 
 4212000   0.58274091   -7.6226877     813.2013  0.016088978  0.015242763         3012 
 4213000   0.57707787   -7.6065694    814.41811  0.016109227  0.015237617         3026 
 4214000   0.57167528   -7.6007279    814.49523   0.01610693  0.015232474         3006 
 4215000   0.57053122   -7.6172594    813.35356  0.016080537   0.01522733         3032 
 4216000   0.57549444   -7.5954374    813.44653   0.01607856  0.015222186         3011 
 4217000   0.58311683   -7.6212225    813.43129  0.016074447  0.015217041         3042 
 4218000   0.58267708   -7.6117843    813.95517  0.016080986  0.015211897         3012 
 4219000   0.57836113   -7.6211658    813.32641  0.016064755  0.015206756         3005 
 4220000    0.5679395   -7.6212313    814.37293  0.016081614  0.015201619         3005 
 4221000   0.57482929   -7.6282262    813.45942  0.016059769  0.015196483         3027 
 4222000   0.57627002   -7.6130117    815.08322  0.016088016  0.015191351         3014 
 4223000   0.56506255   -7.6121681    812.96005  0.016042309  0.015186217         3017 
 4224000   0.56615147    -7.603384     813.0227  0.016039747  0.015181087         3017 
 4225000   0.57084859   -7.5884726     813.5653  0.016046653  0.015175961         2979 
 4226000   0.57887893   -7.6254675    812.48695  0.016021591  0.015170828         3023 
 4227000   0.57554707    -7.613184     813.0829   0.01602955    0.0151657         2992 
 4228000   0.57580008   -7.6151126      812.682  0.016017857  0.015160578         3003 
 4229000   0.58313073   -7.6047662    815.52672  0.016070125   0.01515546         3027 
 4230000   0.56839501   -7.6016968    813.10581  0.016018633  0.015150342         3006 
 4231000   0.59182441   -7.6107804    813.68578   0.01602627  0.015145223         3028 
 4232000   0.57413493    -7.606339    812.91936  0.016007391  0.015140108         3002 
 4233000   0.57515318   -7.6213942    814.61845  0.016037059  0.015134994         3035 
 4234000   0.58206764   -7.6136924    813.32189  0.016007753  0.015129879         3051 
 4235000   0.57220641    -7.633179    812.33492  0.015984552  0.015124768         3053 
 4236000   0.57328027   -7.6295043    813.02003  0.015994256  0.015119659         3067 
 4237000   0.57111814   -7.6121048    813.29607   0.01599591  0.015114554         3017 
 4238000   0.56933091   -7.6121819    812.14268  0.015969457  0.015109451         3052 
 4239000   0.57256052   -7.6010764    813.37077  0.015989832  0.015104352         3002 
 4240000   0.57597364   -7.6048887    811.43349  0.015947985  0.015099251         3015 
 4241000   0.57833807   -7.6129093    812.13279  0.015957966  0.015094152         3006 
 4242000   0.57441049   -7.6090619     812.6055   0.01596349  0.015089059         2991 
 4243000   0.57436589   -7.6292403    811.60398  0.015940058  0.015083968         2989 
 4244000   0.57766518    -7.622922    813.42616  0.015972081  0.015078875         3060 
 4245000   0.58455496   -7.6070152    813.31115  0.015966061  0.015073785         3074 
 4246000    0.5738139   -7.6117026    813.10889  0.015958331  0.015068696         2989 
 4247000   0.57585482   -7.6166193    813.40575  0.015960399  0.015063602         3031 
 4248000   0.56680759   -7.6128457     814.2748   0.01597369  0.015058522         2970 
 4249000    0.5760225   -7.6359967    814.12182   0.01596693  0.015053437         3061 
 4250000   0.56240228   -7.6057843    813.38505  0.015948726  0.015048358         3027 
 4251000   0.56927289   -7.6122851    814.41714  0.015965207  0.015043278         3022 
 4252000   0.57504021   -7.6204366    812.42549  0.015922419  0.015038194         2995 
 4253000    0.5691461   -7.6057063    812.59935  0.015922082  0.015033121         3042 
 4254000      0.56607    -7.628964    814.06622  0.015947074  0.015028046         3056 
 4255000   0.57081809   -7.6309598    814.36177  0.015949114   0.01502297         3007 
 4256000   0.56302247   -7.6036229    814.07101  0.015939674  0.015017902         3022 
 4257000   0.58263543   -7.6381775    813.67523  0.015928182  0.015012837         2987 
 4258000   0.57021884   -7.6143781    813.15044   0.01591417  0.015007767         2993 
 4259000   0.58145649   -7.6071793     814.0006  0.015927068  0.015002706         3010 
 4260000   0.55883534    -7.585816    812.93572  0.015902498  0.014997649         2993 
 4261000   0.57486404   -7.6270507    813.77847  0.015915248  0.014992586         3050 
 4262000   0.56963617   -7.6178857    812.15849  0.015879839  0.014987531         3054 
 4263000   0.57754828   -7.6086526    814.26324  0.015917258  0.014982472         2990 
 4264000   0.57651234    -7.627019    813.48143  0.015898246   0.01497742         2979 
 4265000   0.56987759   -7.6258498    813.69102  0.015898613  0.014972372         2983 
 4266000   0.56979984   -7.6231639    812.48345  0.015871297  0.014967315         3042 
 4267000   0.57614042    -7.620741     812.4212  0.015866362  0.014962262         3037 
 4268000   0.56808952   -7.6082268    813.37275  0.015881224  0.014957214         3014 
 4269000   0.56979586   -7.6401612    812.81996  0.015866713  0.014952167         3034 
 4270000   0.57616347   -7.5988072    814.14339  0.015888825  0.014947123         3030 
 4271000   0.55614057   -7.6315701    813.93488  0.015881036  0.014942087         3019 
 4272000   0.57100277   -7.6100103    812.68178  0.015852875  0.014937048         3044 
 4273000   0.55929715   -7.6417909    813.84049  0.015871762  0.014932009         3019 
 4274000   0.58150813   -7.6256177     813.1877  0.015855321  0.014926969         3054 
 4275000   0.57061298   -7.5919022    812.84404  0.015844913  0.014921933         3004 
 4276000   0.57243488   -7.6212625     812.7988  0.015840326  0.014916899         3032 
 4277000   0.56529245    -7.649544    815.25426  0.015884465  0.014911874         3071 
 4278000   0.55756195   -7.6160161    814.09729  0.015858214  0.014906841         3024 
 4279000   0.56555171    -7.628143     813.0809  0.015834714  0.014901813         2995 
 4280000   0.54660143   -7.6174083    811.98812  0.015809737  0.014896785         2989 
 4281000   0.56978295   -7.6380713    813.06806  0.015827067  0.014891758         3009 
 4282000   0.57963007   -7.6529335    812.84011  0.015818934  0.014886736         3003 
 4283000   0.56729754   -7.6299543    814.09242  0.015839607  0.014881716         2987 
 4284000    0.5612108   -7.6377635    812.51993  0.015805321  0.014876693         3094 
 4285000   0.56430101   -7.6332327      813.377    0.0158183  0.014871672         2992 
 4286000   0.56005645   -7.6090404    812.46128  0.015796805  0.014866658         3034 
 4287000   0.55783613   -7.6304537    812.36003  0.015791152  0.014861646         3049 
 4288000   0.56477678   -7.6308902    814.12816  0.015821831  0.014856635         3044 
 4289000   0.56774161    -7.613058    812.89192  0.015794123  0.014851623         3081 
 4290000   0.56743877   -7.6292869    814.05797  0.015813092  0.014846616         3119 
 4291000   0.55103198   -7.6354388     812.9036  0.015786988  0.014841613         3078 
 4292000   0.56400581   -7.6344434    814.05312  0.015805629  0.014836605         3060 
 4293000   0.56336538   -7.6298053    813.70533  0.015795196  0.014831601         3058 
 4294000   0.57477294   -7.6406677    813.68894    0.0157912    0.0148266         3036 
 4295000   0.56556273   -7.6298352    812.20466  0.015758724  0.014821596         3006 
 4296000   0.56708741   -7.6320577    814.35185  0.015796707    0.0148166         3058 
 4297000   0.55800463   -7.6450695    813.42911  0.015775136  0.014811603         3086 
 4298000   0.56910677   -7.6305527    812.43023  0.015752098  0.014806604         3066 
 4299000    0.5641295   -7.6409497    812.44989  0.015748815  0.014801607         3039 
 4300000   0.54996857   -7.6179736    812.51496  0.015746414  0.014796617         3040 
 4301000   0.56821119   -7.6272513    812.05839  0.015733907  0.014791631         3059 
 4302000   0.57059325    -7.634018    811.78015   0.01572486  0.014786641         3053 
 4303000   0.56510488   -7.6487024    811.95461  0.015724584  0.014781654         3035 
 4304000   0.54952107   -7.6337194    813.11231  0.015743345   0.01477667         3045 
 4305000   0.56795317   -7.6175946     813.4556  0.015746334  0.014771685         3026 
 4306000   0.55734109   -7.6358104    812.95136  0.015732918  0.014766706         3060 
 4307000   0.55272957   -7.6254476    813.07736  0.015731703  0.014761733         3072 
 4308000    0.5575666   -7.6469821    812.46721  0.015716249  0.014756757         3063 
 4309000   0.56757798   -7.6301371    812.62198  0.015715595  0.014751781         3076 
 4310000   0.56448105   -7.6531677    813.84084  0.015735515  0.014746808         3043 
 4311000   0.55740312    -7.635453    811.17037  0.015680244  0.014741836         3004 
 4312000   0.56627326    -7.622906    812.19514  0.015696412  0.014736868         3092 
 4313000   0.56669176   -7.6402332    812.20858  0.015693032    0.0147319         3009 
 4314000   0.57371581   -7.6261709    813.90629  0.015722189  0.014726937         3057 
 4315000   0.55715952   -7.6379349    812.49764  0.015691341  0.014721974         2989 
 4316000   0.57143352   -7.6259052    813.78802   0.01571262  0.014717013         3040 
 4317000   0.55425068   -7.6425596    814.71151  0.015726807  0.014712056         3076 
 4318000   0.57324876   -7.6419157    811.82397  0.015667438  0.014707095         3075 
 4319000   0.55439264    -7.632472    811.60717  0.015659627  0.014702143         3061 
 4320000   0.56864499   -7.6156222    812.21587  0.015667744  0.014697192         3064 
 4321000   0.54367434   -7.6227978    812.55223  0.015670605  0.014692243         3024 
 4322000   0.57011129   -7.6449107    812.76386   0.01567106  0.014687294         3036 
 4323000   0.55271272    -7.622682    812.50916  0.015662525  0.014682346         3047 
 4324000   0.54921355   -7.6224388    813.60943  0.015680108  0.014677399         3036 
 4325000    0.5491307   -7.6261217    811.36148  0.015633169  0.014672455         3039 
 4326000   0.55163974   -7.6308262    812.59225  0.015653264  0.014667512         3079 
 4327000   0.56147482   -7.6423858    812.63048  0.015650383  0.014662572         3048 
 4328000   0.56374419   -7.6236911    812.56571   0.01564552   0.01465763         3037 
 4329000   0.55803676   -7.6288666    812.46201  0.015639909  0.014652697         3039 
 4330000   0.54863324   -7.6439967    812.08659  0.015629072  0.014647758         3041 
 4331000   0.56056663   -7.6483348    811.64707  0.015617007  0.014642823         3026 
 4332000   0.54985935   -7.6266203    811.98488    0.0156199  0.014637891         3068 
 4333000   0.54858973   -7.6247156    812.40615  0.015624397  0.014632962         3042 
 4334000    0.5551016   -7.6393718    812.22584  0.015617325  0.014628031         3082 
 4335000   0.55691052   -7.6550567    812.78752   0.01562452  0.014623102         3042 
 4336000   0.56433585   -7.6360693     812.0843  0.015607401   0.01461818         3066 
 4337000   0.55449283   -7.6285663    811.53968  0.015593338  0.014613259         3080 
 4338000   0.56714432   -7.6439093    813.85352  0.015634192   0.01460834         3060 
 4339000   0.54584841   -7.6342543    812.23766  0.015599556  0.014603425         3033 
 4340000    0.5536345   -7.6393145    813.01458  0.015610879  0.014598507         3042 
 4341000   0.55618036   -7.6349955    813.24231  0.015611654  0.014593594         3076 
 4342000   0.56345517   -7.6402558    813.39426  0.015610975  0.014588677         3041 
 4343000   0.56052742   -7.6272729    812.87645  0.015597445  0.014583765         3049 
 4344000   0.55941944   -7.6502644    811.97024   0.01557647  0.014578854         3035 
 4345000   0.56854012   -7.6459305    811.68046  0.015567328  0.014573945         3069 
 4346000   0.55643891   -7.6461084    812.59616  0.015581304   0.01456904         3060 
 4347000    0.5559426   -7.6452715    813.18136  0.015588938  0.014564131         3069 
 4348000   0.55200149   -7.6685534    812.55173  0.015573285   0.01455922         3088 
 4349000    0.5616537   -7.6413688    812.29702  0.015564824   0.01455431         3059 
 4350000   0.56245899   -7.6287392    810.88395  0.015534175  0.014549408         3064 
 4351000   0.56542155   -7.6512845    813.37102  0.015578239  0.014544509         3053 
 4352000   0.56837492   -7.6319192    811.58146  0.015540393  0.014539612         3007 
 4353000   0.56819987   -7.6463517    812.67466  0.015557751  0.014534716         3034 
 4354000   0.56457029   -7.6412776    812.36785  0.015548305  0.014529829         3032 
 4355000   0.55952352   -7.6429634    812.67513  0.015550615  0.014524942         3034 
 4356000   0.55647507   -7.6511346    812.22878  0.015538506  0.014520055         3040 
 4357000   0.56870962    -7.639625    811.41912  0.015519454  0.014515172         2985 
 4358000    0.5425362   -7.6299794    811.81377  0.015523439   0.01451029         3064 
 4359000   0.54648291   -7.6443415    812.58736  0.015534667  0.014505408         3043 
 4360000   0.56436527      -7.6412    812.27998  0.015525229  0.014500527         3089 
 4361000   0.54421652   -7.6288942    811.01241  0.015497447   0.01449565         2965 
 4362000   0.55813506   -7.6486059    812.58433  0.015523925  0.014490771         3011 
 4363000    0.5590295   -7.6669348    813.49083  0.015537681  0.014485893         3064 
 4364000   0.56711854   -7.6459427    812.38731  0.015513048  0.014481019         3042 
 4365000   0.55916622   -7.6449049    810.62625  0.015475874  0.014476146         3033 
 4366000   0.54343571   -7.6366341    812.22167   0.01550278  0.014471275         3042 
 4367000   0.56075652   -7.6327636    812.83067  0.015510852  0.014466411         3060 
 4368000   0.54916899   -7.6463575     810.3898  0.015460733  0.014461549         3030 
 4369000   0.54821661   -7.6592459    812.27585  0.015493169  0.014456684         3071 
 4370000   0.55185884   -7.6364201    811.00371  0.015465364  0.014451827         3028 
 4371000   0.54815227   -7.6456289    812.45232  0.015489444  0.014446969         2999 
 4372000   0.55379293   -7.6613547    813.61226   0.01550801  0.014442115         3055 
 4373000   0.55097856   -7.6263662    812.59739  0.015485124  0.014437266         3066 
 4374000   0.54488172   -7.6360424    812.72375  0.015483992  0.014432419         3025 
 4375000   0.54994977   -7.6628836    811.04878  0.015448548  0.014427571         3048 
 4376000   0.55114524   -7.6412884    811.38065  0.015451338  0.014422722         3056 
 4377000   0.54855398   -7.6636121    813.64362  0.015490892  0.014417878         3025 
 4378000   0.55890755   -7.6558346    812.43545  0.015464357  0.014413037         3047 
 4379000   0.53442253   -7.6412254    812.01941  0.015452908  0.014408198         3056 
 4380000   0.55664947   -7.6525891    812.49136  0.015458359  0.014403363         3057 
 4381000   0.56017062    -7.634882    810.74018  0.015421521  0.014398528         2998 
 4382000   0.54722969   -7.6438994    812.39486  0.015449469  0.014393693         3039 
 4383000   0.54224373   -7.6407465    811.97476  0.015437957  0.014388856         3016 
 4384000    0.5571364   -7.6590671    812.58772  0.015446087  0.014384023         2989 
 4385000   0.54407941   -7.6547161     811.3637  0.015419303  0.014379196         3028 
 4386000   0.54464973   -7.6439894    811.67954  0.015421788  0.014374365         3022 
 4387000   0.54809992   -7.6397692    812.48021  0.015433482  0.014369541         3031 
 4388000   0.54410908   -7.6272393    811.68946  0.015414947   0.01436472         2991 
 4389000   0.54970459   -7.6495082     811.2487  0.015403066  0.014359901         2992 
 4390000   0.54281448    -7.648959    813.00345  0.015432867  0.014355085         2994 
 4391000   0.53904013   -7.6612988    810.43924  0.015380688  0.014350264         3019 
 4392000   0.54749829   -7.6546567    812.52589  0.015416778  0.014345448         3066 
 4393000   0.55543949   -7.6349181    812.44456  0.015411726  0.014340632         3038 
 4394000   0.53535382   -7.6533744    810.84587  0.015377899  0.014335818         3049 
 4395000   0.55031192   -7.6518046    811.58747  0.015388462  0.014331009         3083 
 4396000   0.55594002   -7.6527297    811.35604  0.015380574  0.014326201         3065 
 4397000   0.55717714    -7.660811    811.84524  0.015386348  0.014321395         3027 
 4398000   0.55539949   -7.6630137    811.73975   0.01538085  0.014316592         3029 
 4399000    0.5588771   -7.6414029    812.95218  0.015400322  0.014311794         3051 
 4400000   0.54443905    -7.651644    811.67444  0.015372622  0.014306994         3101 
 4401000   0.54960238   -7.6684652    812.00829   0.01537545  0.014302194         3024 
 4402000   0.54564088   -7.6421439    812.88573  0.015388568  0.014297395         3030 
 4403000   0.54811722    -7.646791    812.27762  0.015373564  0.014292597         3033 
 4404000   0.54873642   -7.6638478    811.53347  0.015355992    0.0142878         3024 
 4405000   0.54190209   -7.6512028    812.56735  0.015372065  0.014283004         3044 
 4406000   0.54375518   -7.6651512    812.62633  0.015369691  0.014278213         3028 
 4407000   0.55655298   -7.6369916    811.24236  0.015340034  0.014273418         3042 
 4408000   0.55608727   -7.6560535    812.34986  0.015357491  0.014268627         3060 
 4409000   0.54995443   -7.6511491    810.58844  0.015320716  0.014263838         3048 
 4410000   0.55584212   -7.6450388    811.61278  0.015336598  0.014259051         3080 
 4411000   0.53720259   -7.6689962    811.22578   0.01532581  0.014254264         3061 
 4412000   0.55315671   -7.6705706     812.3725  0.015343995  0.014249479         3036 
 4413000   0.54737521   -7.6424049     811.5019  0.015324078  0.014244698         3049 
 4414000   0.54931971    -7.667819    812.62397  0.015341791  0.014239919         3009 
 4415000    0.5440536   -7.6583026    812.14254  0.015329229  0.014235141         3042 
 4416000   0.54657417   -7.6363683    811.69511  0.015317314  0.014230362         3080 
 4417000   0.54415891   -7.6520026    811.72301  0.015314373  0.014225589         3031 
 4418000   0.54493888    -7.683212    811.88765  0.015314012  0.014220813         3075 
 4419000   0.53891321   -7.6603639    811.44695  0.015302236  0.014216042         3087 
 4420000   0.54736845   -7.6568554    811.54771  0.015300673  0.014211271         3037 
 4421000   0.54226733   -7.6655829    811.50208  0.015296352  0.014206501         3055 
 4422000   0.53894195   -7.6577316    811.77945   0.01529812  0.014201733         3077 
 4423000    0.5612565   -7.6558059    811.43558  0.015288183  0.014196968         3024 
 4424000   0.54424477   -7.6659378    811.19728  0.015280238  0.014192205         3044 
 4425000   0.54508336    -7.660681    811.74038  0.015287013  0.014187445         3087 
 4426000   0.54235981   -7.6553121    811.26773   0.01527466  0.014182685         3063 
 4427000   0.55312987   -7.6516978    810.48163  0.015256412  0.014177933         3113 
 4428000   0.54243222    -7.660441    811.45447  0.015271275  0.014173179         3014 
 4429000   0.54183969   -7.6384885    811.34517   0.01526577  0.014168424         3013 
 4430000   0.54019603   -7.6584217    810.60113  0.015248328  0.014163667         3062 
 4431000   0.54213585   -7.6671679    811.94147  0.015270095  0.014158918         3025 
 4432000   0.53704203   -7.6634521    811.19515  0.015252616  0.014154165         3071 
 4433000   0.53378941   -7.6707257    811.70876  0.015258831  0.014149419         3061 
 4434000   0.54081203    -7.671603    811.71546  0.015255515  0.014144673         3110 
 4435000   0.53301654   -7.6727154    811.85626  0.015254721  0.014139929         3097 
 4436000   0.54714198   -7.6621769    810.17873  0.015219769  0.014135186         3100 
 4437000   0.53850835   -7.6811661     810.8609  0.015229151  0.014130442         3093 
 4438000   0.53944971   -7.6379494    811.59641   0.01523953  0.014125705         3094 
 4439000    0.5340301   -7.6723637    811.52007  0.015234664  0.014120969         3080 
 4440000   0.55366484   -7.6699426    812.96766  0.015258402  0.014116236         3070 
 4441000   0.53358918   -7.6743434    811.67115  0.015230638  0.014111501         3067 
 4442000   0.54787215   -7.6615868    810.91427   0.01521301  0.014106771         3103 
 4443000   0.55812524   -7.6790577    811.36856  0.015218106  0.014102038         3074 
 4444000   0.55286209   -7.6423538    809.88953  0.015186947  0.014097308         3056 
 4445000   0.53671802   -7.6744389    811.09773  0.015206182   0.01409258         3080 
 4446000   0.53708177   -7.6806638    810.64637  0.015194301  0.014087855         3035 
 4447000   0.54369079   -7.6711554    811.29057  0.015202956  0.014083126         3076 
 4448000   0.54109247   -7.6777372    809.96422  0.015174689  0.014078402         3043 
 4449000   0.53176698   -7.6792328     810.8469  0.015187812  0.014073678         3087 
 4450000   0.53638906   -7.6914776    809.95839   0.01516776  0.014068957         3107 
 4451000   0.53707601   -7.6737833    812.00728  0.015202712  0.014064242         3070 
 4452000   0.55437079   -7.6918515    810.47944  0.015170699  0.014059527         3100 
 4453000   0.54493694   -7.6812982    811.83605   0.01519268  0.014054812         3104 
 4454000   0.54380327   -7.6695355    811.53631  0.015183661    0.0140501         3045 
 4455000   0.53816849   -7.6715561    811.36396  0.015177029  0.014045391         3065 
 4456000   0.54709849   -7.6692849    811.41697  0.015174614  0.014040687         3111 
 4457000   0.54327069   -7.6619803    810.55371  0.015155069  0.014035976         3066 
 4458000   0.53544856   -7.6766654    810.49664  0.015150603  0.014031271         3080 
 4459000   0.53062694   -7.6823605    811.65011  0.015168762  0.014026573         3056 
 4460000   0.53653769   -7.6752404    813.01485   0.01519086  0.014021874         3081 
 4461000   0.54556199   -7.6797677    811.39082  0.015157118  0.014017175         3092 
 4462000   0.53622794   -7.6509625    810.29006  0.015133163  0.014012478         3075 
 4463000   0.52911048    -7.651761    810.78367  0.015138988  0.014007784         3043 
 4464000    0.5244534   -7.6760746    812.63823  0.015170218  0.014003094         3036 
 4465000   0.53659227   -7.6534839    810.57941  0.015128395  0.013998404         3056 
 4466000   0.54063538   -7.6845104    810.70363  0.015127326  0.013993717         3074 
 4467000   0.54121042   -7.6745525    811.41497  0.015137209  0.013989029         3054 
 4468000   0.53133534   -7.6690721    811.03523  0.015126739  0.013984343         3069 
 4469000   0.53186155    -7.685848    811.43054  0.015130725  0.013979662         3087 
 4470000   0.54912346   -7.6928826     812.3763  0.015144972  0.013974982         3079 
 4471000    0.5410427   -7.6661778     810.2997   0.01510288  0.013970305         3068 
 4472000   0.53873767   -7.6661639    810.04145   0.01509469  0.013965627         3056 
 4473000   0.53772696   -7.6634696    811.79789  0.015124039  0.013960956         3076 
 4474000   0.53528069    -7.683184    811.29179  0.015111231  0.013956283         3093 
 4475000   0.54717943   -7.6793968    810.82453  0.015099153  0.013951615         3080 
 4476000   0.54364278   -7.6681177    811.11762  0.015101237  0.013946947         3059 
 4477000    0.5396778   -7.6867218    810.15087  0.015079869  0.013942276         3041 
 4478000   0.54418473   -7.6971003    811.08596  0.015093903  0.013937606         3064 
 4479000   0.53658927   -7.6716224    811.26837  0.015093927  0.013932947         3051 
 4480000   0.53480572   -7.6672873    810.23322  0.015071303  0.013928284         3079 
 4481000   0.54338535   -7.6816095    810.45454  0.015072055  0.013923617         3057 
 4482000   0.53112114   -7.6816175    810.90928  0.015077147  0.013918955         3124 
 4483000   0.53482533   -7.6714586    809.85019  0.015054097  0.013914297         3069 
 4484000   0.53615817    -7.678703     810.5108  0.015063017   0.01390964         3013 
 4485000   0.53798286   -7.6714134    809.95474  0.015049326  0.013904984         3069 
 4486000   0.53348854   -7.6707349    811.00762   0.01506553  0.013900331         3033 
 4487000   0.53609284   -7.6838894    809.46289  0.015033484  0.013895681         3081 
 4488000   0.53568247   -7.6922309    810.62517  0.015051715   0.01389103         3111 
 4489000   0.53115158   -7.6823449    811.66149    0.0150676  0.013886387         3070 
 4490000   0.54391859   -7.6780319    811.21804  0.015056014  0.013881742         3088 
 4491000   0.53530097   -7.6816291    811.07172  0.015049946  0.013877101         3085 
 4492000   0.54150173   -7.6708161    811.31829   0.01505117  0.013872462         3081 
 4493000   0.53761511   -7.6853096    809.59371  0.015015834  0.013867823         3102 
 4494000   0.52660027    -7.671054    810.72814  0.015033529  0.013863182         3066 
 4495000   0.53517864   -7.6665984     809.6579  0.015010343  0.013858544         3043 
 4496000   0.52621087   -7.6910139    811.11202  0.015033957  0.013853902         3073 
 4497000   0.53605853   -7.6996908    810.26478  0.015014913  0.013849268         3060 
 4498000    0.5264977   -7.6954971    809.93364   0.01500544  0.013844631         3086 
 4499000   0.53655887   -7.6849467    809.87464  0.015001012      0.01384         3083 
 4500000   0.53408665   -7.6907981    810.37491  0.015006943  0.013835372         3110 
 4501000   0.53179949   -7.6723317    809.44082  0.014986314  0.013830749         2985 
 4502000   0.53929051   -7.6706378     810.7158  0.015006586  0.013826128         3070 
 4503000   0.53101258   -7.6810015    811.40147  0.015015942  0.013821505         3094 
 4504000   0.53525739    -7.681914    809.94212  0.014985608  0.013816889         3082 
 4505000   0.52829232   -7.6754535    810.51798  0.014992933  0.013812269         3048 
 4506000   0.53002267   -7.7063831    810.01272  0.014980262  0.013807655         3039 
 4507000   0.52642072   -7.6983014    811.75509  0.015009154  0.013803039         3061 
 4508000   0.54217374   -7.6715837    809.49999  0.014964138  0.013798427         3058 
 4509000   0.52458126    -7.689773    809.53889  0.014961538  0.013793814         3082 
 4510000   0.53606786   -7.6981777    810.74267  0.014980463  0.013789203         3030 
 4511000   0.53788302   -7.6900393    811.25109  0.014986535  0.013784593         3053 
 4512000    0.5223218   -7.6867263    811.15094  0.014981363  0.013779989         3074 
 4513000   0.54472231    -7.691908    811.73126   0.01498876  0.013775391         3086 
 4514000   0.52379801   -7.6936736    810.75482  0.014967413  0.013770789         3041 
 4515000   0.52839127    -7.676045    809.26077  0.014936522  0.013766189         3079 
 4516000   0.53699214   -7.6744177     808.8169  0.014925024  0.013761593         3084 
 4517000   0.53223454    -7.691824    811.36833  0.014968791  0.013756992         3063 
 4518000   0.53508963   -7.6984182    809.49536  0.014930931  0.013752392         3069 
 4519000   0.53417863   -7.6817605    810.82026  0.014952059  0.013747801         3067 
 4520000   0.52945796   -7.6873813    810.36343  0.014940329  0.013743208         3067 
 4521000   0.52220158   -7.6852812      810.737   0.01494391   0.01373862         3086 
 4522000   0.53899221   -7.7107274    810.34845  0.014933445  0.013734029         3080 
 4523000   0.52174054   -7.6833873    810.00323  0.014923783  0.013729442         3048 
 4524000    0.5188258   -7.6894795    810.97326  0.014938352  0.013724858         3085 
 4525000   0.52757541   -7.6749983     809.4444  0.014906895  0.013720274         3021 
 4526000   0.53467578    -7.706242    811.60227  0.014943332  0.013715696         3052 
 4527000   0.52649301   -7.6967879    810.95751  0.014928163  0.013711116         3072 
 4528000   0.52807284   -7.6921781    810.28028  0.014912402  0.013706543         3040 
 4529000   0.52602899   -7.6954175    810.63851  0.014915701  0.013701969         3059 
 4530000   0.51933148   -7.6879763    810.91099  0.014917421    0.0136974         3067 
 4531000   0.53505477   -7.6958865    809.59783  0.014889977  0.013692829         3098 
 4532000   0.52629689   -7.6723831    809.75827  0.014889642  0.013688259         3082 
 4533000    0.5380351   -7.6945975     811.3143  0.014914962  0.013683695         3083 
 4534000   0.52387428   -7.7090987    810.48362  0.014896405  0.013679133         3090 
 4535000   0.52921732   -7.6763357    810.24886  0.014888807  0.013674569         3077 
 4536000   0.52721118   -7.6853095    808.77226  0.014858397   0.01367001         3066 
 4537000   0.51783407   -7.6845885    810.23961  0.014882073  0.013665455         3079 
 4538000   0.53085834     -7.69812     810.5759   0.01488497  0.013660901         3106 
 4539000   0.51350621   -7.6931029    810.77179  0.014885287   0.01365635         3063 
 4540000   0.53296193   -7.6769067    809.45886  0.014857909  0.013651797         3078 
 4541000   0.51321252   -7.6911112    810.06543  0.014865768  0.013647243         3067 
 4542000   0.53722726   -7.6967857    810.17263  0.014864462  0.013642691         3077 
 4543000   0.53256095   -7.6967208     809.3034  0.014845245  0.013638142         3078 
 4544000   0.52173449   -7.6873147    809.96401  0.014854094   0.01363359         3053 
 4545000   0.52736848   -7.6917497    809.60395  0.014844223  0.013629044         3100 
 4546000   0.53451545   -7.6801062    810.12126  0.014850441  0.013624502         3047 
 4547000   0.52382475   -7.6830776    809.17087  0.014829757   0.01361996         3066 
 4548000   0.53105739   -7.6817415    810.55033  0.014851772  0.013615418         3063 
 4549000   0.52276613   -7.7063314    809.86252  0.014835908  0.013610878         3059 
 4550000   0.52219917   -7.6913315    809.62555  0.014828307  0.013606338         3069 
 4551000   0.53298328   -7.7089067    810.44192  0.014839997  0.013601803         3104 
 4552000   0.52754939    -7.685257    809.48846  0.014819282  0.013597271         3084 
 4553000   0.53347725   -7.6855934    810.36358  0.014832044  0.013592737         3094 
 4554000   0.51745955   -7.6890505    809.98353  0.014821833  0.013588206         3043 
 4555000   0.52418616   -7.6942509    810.48217  0.014827702  0.013583677         3085 
 4556000   0.52250787   -7.6701716    810.04943  0.014816532  0.013579155         3091 
 4557000   0.52211193   -7.7046376    810.27428  0.014817392  0.013574631         3006 
 4558000   0.53062442   -7.6835023    809.54413  0.014800792  0.013570106         3056 
 4559000   0.52493085   -7.7090508    810.17293   0.01480904  0.013565588         3099 
 4560000   0.51783983   -7.7061125    809.44585  0.014792505  0.013561066         3050 
 4561000   0.52410238   -7.6960005    810.08322  0.014800907  0.013556548         3055 
 4562000   0.51462192   -7.6728536    809.29148    0.0147832  0.013552031         3093 
 4563000   0.52162448   -7.7068751    810.91558   0.01480962  0.013547519         3076 
 4564000   0.51806327   -7.6964546    809.93821   0.01478853  0.013543008         3087 
 4565000   0.52153272   -7.6942872    810.31783   0.01479222  0.013538498         3120 
 4566000    0.5299121   -7.6811881    809.86747  0.014780761   0.01353399         3081 
 4567000   0.51568732    -7.688822    810.32482   0.01478587  0.013529484         3111 
 4568000   0.50757888   -7.6968501    810.13337  0.014779141  0.013524979         3117 
 4569000   0.52838317   -7.6985356    809.86307  0.014770976  0.013520476         3065 
 4570000   0.52181824   -7.6967853    809.55108  0.014762055  0.013515975         3115 
 4571000    0.5151899   -7.6930715     810.3765  0.014773873  0.013511474         3088 
 4572000   0.50577793   -7.6891374    809.62959  0.014757028  0.013506976         3106 
 4573000    0.5154414   -7.6861458     809.2633  0.014747126  0.013502478         3064 
 4574000   0.51579603   -7.7005809    810.09238  0.014759007  0.013497983         3069 
 4575000   0.52242753   -7.6873469    809.30468  0.014741433  0.013493495         3054 
 4576000   0.51661222   -7.6984719    808.02799  0.014714962  0.013489001         3068 
 4577000    0.5138483   -7.6971658    809.51909  0.014738895  0.013484509         3062 
 4578000   0.51130784   -7.7024017    809.49164  0.014735176  0.013480022         3121 
 4579000   0.53274966   -7.6879708    810.15429  0.014744018  0.013475536         3061 
 4580000   0.53057888   -7.7026089    808.43731  0.014709558  0.013471053         3045 
 4581000   0.51841023   -7.6949327    809.78364  0.014730838  0.013466568         3065 
 4582000   0.52235102   -7.7105412    809.50236  0.014722508  0.013462087         3044 
 4583000   0.51903351   -7.6888971    809.22179  0.014714193  0.013457609         3095 
 4584000   0.51650993   -7.6992792    809.63916  0.014718571  0.013453135         3054 
 4585000    0.5088968    -7.686479    810.09406  0.014723629  0.013448659         3096 
 4586000   0.52326561   -7.7036383    809.43369  0.014708419  0.013444184         3100 
 4587000   0.52200391   -7.7010168    810.24184  0.014719894  0.013439715         3080 
 4588000   0.51968233   -7.7045741     809.6673   0.01470625  0.013435246         3095 
 4589000   0.52095595     -7.70505    809.19027  0.014694383  0.013430774         3105 
 4590000   0.51017128   -7.7053407    809.91492  0.014704338  0.013426304         3078 
 4591000   0.52267165   -7.7021364    809.47017  0.014693062  0.013421839         3091 
 4592000   0.52590069   -7.7087453    809.98203  0.014699151  0.013417376         3075 
 4593000   0.51528634   -7.6919328    809.27078  0.014683046  0.013412911         3070 
 4594000   0.52328154   -7.7065626    809.85966  0.014690532  0.013408453         3105 
 4595000   0.52523245   -7.7024297    810.00964  0.014690055  0.013403992         3061 
 4596000   0.51670353   -7.7087428    809.14327   0.01467115  0.013399537         3050 
 4597000   0.51096542   -7.7015844    807.78346  0.014643308  0.013395078         3081 
 4598000   0.52380552   -7.7151497    809.28006  0.014667248  0.013390621         3084 
 4599000    0.5099028   -7.7035139    809.70922  0.014671835   0.01338617         3098 
 4600000   0.52262691   -7.7137529    808.76046  0.014651458  0.013381716         3099 
 4601000   0.51881549   -7.7090355    812.02307  0.014707366  0.013377266         3079 
 4602000   0.50629102   -7.7119018    808.87663  0.014647194   0.01337282         3096 
 4603000   0.50913971   -7.7174257    810.06385  0.014665505  0.013368374         3084 
 4604000   0.51554652   -7.7016583    808.98348  0.014642765  0.013363928         3080 
 4605000   0.51529778   -7.7053567     809.7307  0.014653107  0.013359487         3099 
 4606000    0.5114992   -7.6962945    808.62733  0.014629963  0.013355045         3136 
 4607000   0.51785028   -7.7061513    808.71434  0.014628362  0.013350608         3090 
 4608000   0.52836866   -7.7136348    808.99146  0.014630199  0.013346168         3080 
 4609000   0.50899555   -7.7087549    810.20264  0.014648923  0.013341732         3069 
 4610000   0.51150713   -7.7230687    809.46797  0.014632465  0.013337297         3087 
 4611000   0.50857181   -7.7117825    809.12446  0.014623084  0.013332866         3075 
 4612000   0.52500001   -7.7026723     809.8209  0.014632497  0.013328436         3042 
 4613000   0.51656808   -7.7151851    808.96541   0.01461387  0.013324006         3050 
 4614000   0.51633897   -7.7101279    808.75988  0.014606991  0.013319582         3053 
 4615000   0.51563482    -7.715934    809.96911  0.014625661  0.013315156         3107 
 4616000   0.50732143   -7.7056907    809.98815  0.014622836  0.013310734         3107 
 4617000   0.51389193    -7.697957    809.50023  0.014610863  0.013306313         3090 
 4618000   0.50072367   -7.7101151    808.59482   0.01459136   0.01330189         3062 
 4619000   0.50796273   -7.6989028    809.94347  0.014612533  0.013297473         3047 
 4620000   0.52124673   -7.7132562    808.53577  0.014583979   0.01329306         3059 
 4621000   0.51865613   -7.7166614    809.48627  0.014597964  0.013288646         3077 
 4622000   0.51938819   -7.7290844    809.36337  0.014592589  0.013284234         3071 
 4623000   0.51362438   -7.7058415    809.72059  0.014595872  0.013279823         3072 
 4624000   0.50920775   -7.7071225     807.3217  0.014549483  0.013275412         3074 
 4625000   0.51669812   -7.7137863    809.99874  0.014594572  0.013271007         3080 
 4626000   0.51312538   -7.7104943    809.16336  0.014576368  0.013266601         3066 
 4627000   0.52230175   -7.7302914    807.92311  0.014550881  0.013262197         3131 
 4628000   0.51277836   -7.6986814    809.71416  0.014579987  0.013257796         3096 
 4629000   0.50964802   -7.7043458    809.64455  0.014575584  0.013253395         3076 
 4630000   0.51691737   -7.7065783    809.39054  0.014567864  0.013248998         3110 
 4631000   0.51657342   -7.7133161    809.35056  0.014563999  0.013244601         3132 
 4632000   0.51006293   -7.7157037    807.92889  0.014535278  0.013240208         3099 
 4633000   0.51825507   -7.6970776    808.86264  0.014548936  0.013235816         3095 
 4634000   0.51374989   -7.7061642    808.44159  0.014538225  0.013231426         3088 
 4635000     0.524079   -7.7027297     808.6418  0.014538688  0.013227037         3103 
 4636000   0.51505522   -7.7069481    808.06489  0.014525181   0.01322265         3129 
 4637000   0.51629457   -7.7035907    809.18861  0.014542244  0.013218264         3073 
 4638000   0.50728169   -7.7183155    809.69286  0.014548168  0.013213881         3108 
 4639000    0.5120156   -7.7205542    809.42807  0.014540276    0.0132095         3066 
 4640000   0.50970608   -7.7033948    809.00094  0.014529471  0.013205118         3090 
 4641000   0.50250501    -7.710666    810.12004  0.014546435  0.013200741         3105 
 4642000   0.50923208   -7.7121876    810.28493  0.014546261  0.013196364         3115 
 4643000   0.50593661   -7.7082227     808.8365  0.014517131  0.013191984         3108 
 4644000   0.50487944   -7.7175298    809.23642  0.014521182   0.01318761         3077 
 4645000   0.51732005   -7.7166356    808.15254   0.01449861  0.013183237         3101 
 4646000   0.52703618   -7.7086928    809.73647    0.0145239  0.013178868         3066 
 4647000   0.51042687   -7.7181032    809.19583  0.014511079    0.0131745         3103 
 4648000   0.49864061   -7.7121099    808.65271   0.01449822   0.01317013         3073 
 4649000   0.51256381   -7.7119053    808.59296   0.01449403  0.013165765         3060 
 4650000   0.51235499   -7.7184963    808.19921  0.014483857  0.013161404         3136 
 4651000    0.5004499   -7.7177544    809.38906  0.014502061   0.01315704         3094 
 4652000   0.50745189   -7.7218207    809.94143  0.014508839  0.013152684         3054 
 4653000   0.51895275   -7.7158607    808.67624  0.014483062  0.013148327         3070 
 4654000   0.52154953   -7.6916378     809.2028  0.014489378  0.013143971         3068 
 4655000   0.50828542   -7.7047605    807.99522  0.014464648  0.013139618         3058 
 4656000   0.50487515   -7.7091682     808.9544  0.014478708  0.013135268         3048 
 4657000    0.4993615   -7.6992256    808.76341  0.014472182  0.013130915         3027 
 4658000   0.50139225   -7.7250885    807.02885  0.014438043  0.013126566         3053 
 4659000     0.517168   -7.7090317    808.81272  0.014466851  0.013122218         3080 
 4660000   0.50218916   -7.7068301    808.29302  0.014454453   0.01311787         3111 
 4661000   0.50567802   -7.7183346    808.19558   0.01444961  0.013113528         3076 
 4662000   0.49930504   -7.7239167    808.86905  0.014458549   0.01310919         3096 
 4663000   0.51231521   -7.7047674    808.59773  0.014450599   0.01310485         3030 
 4664000   0.50929896    -7.720648    808.16845  0.014439831  0.013100512         3075 
 4665000   0.52026507    -7.712106      807.211  0.014419632  0.013096173         3042 
 4666000   0.49789364   -7.7162666    808.85971  0.014445987  0.013091834         3058 
 4667000   0.50978019    -7.717486    808.03325  0.014428135  0.013087501         3076 
 4668000    0.4963742   -7.7174429    808.74559   0.01443776  0.013083167         3094 
 4669000   0.49628626    -7.705573    808.60525  0.014432163  0.013078837         3058 
 4670000    0.5128167   -7.7130849    809.56003  0.014446111  0.013074508         3076 
 4671000   0.50596159   -7.7290556    807.56602  0.014407443  0.013070181         3041 
 4672000   0.50370292   -7.7136818    809.16045  0.014432799  0.013065861         3086 
 4673000    0.5131688   -7.7262691    809.84525  0.014441923  0.013061536         3098 
 4674000   0.49913741    -7.722114    809.11844  0.014425874  0.013057217         3066 
 4675000   0.50085891   -7.7075824    808.19505  0.014406329  0.013052895         3092 
 4676000   0.50278193   -7.7384057    810.25091  0.014439886  0.013048575         3072 
 4677000   0.49477514   -7.7246636    808.27332  0.014401563  0.013044255         3082 
 4678000   0.50708239   -7.7152781    809.57966  0.014421755  0.013039939         3099 
 4679000    0.5105034   -7.7158889    808.19254  0.014393968  0.013035622         3065 
 4680000   0.50875426   -7.7251698     807.2344  0.014373832   0.01303131         3086 
 4681000   0.50223385   -7.7252705    808.65431  0.014396039  0.013027002         3071 
 4682000   0.50359761    -7.722497    807.18592  0.014366829  0.013022695         3102 
 4683000   0.49915123   -7.7243408    809.35619  0.014402381  0.013018388         3090 
 4684000   0.49653194    -7.728344    808.47703  0.014383665  0.013014085         3062 
 4685000   0.50426039   -7.7388875    807.92137  0.014370711  0.013009782         3080 
 4686000   0.49182417   -7.7324287    809.59995  0.014397495  0.013005482         3051 
 4687000   0.50510837     -7.73493    808.60781  0.014376783  0.013001181         3055 
 4688000   0.49871928   -7.7105548    808.52825  0.014372302  0.012996883         3085 
 4689000   0.50327208   -7.7154963    808.52709  0.014369217  0.012992584         3059 
 4690000   0.50532248   -7.7280466    809.21498  0.014378376  0.012988289         3074 
 4691000   0.49011114   -7.7364372    808.91898  0.014370052  0.012983994         3115 
 4692000   0.50714691   -7.7141056    807.87783  0.014348498  0.012979704         3063 
 4693000    0.5203799   -7.7266517    809.45517  0.014373449  0.012975415         3074 
 4694000   0.50824795   -7.7326655     809.0321  0.014362876  0.012971126         3092 
 4695000    0.5071262   -7.7172457    807.09795  0.014325487   0.01296684         3081 
 4696000   0.50182873   -7.7174252    809.01051  0.014356376  0.012962556         3069 
 4697000   0.49407264   -7.7042476    808.99505  0.014353045  0.012958273         3082 
 4698000   0.51294056   -7.7248126    808.09087  0.014333952  0.012953991         3126 
 4699000   0.51525561   -7.7316981    807.64877  0.014323061  0.012949711         3099 
 4700000    0.4971967   -7.7098316    808.93382  0.014342798  0.012945433         3100 
 4701000   0.49252622    -7.726594    808.59713  0.014333779  0.012941155         3094 
 4702000    0.5059688   -7.7269033    807.73974  0.014315535  0.012936882         3126 
 4703000    0.4980802   -7.7343879    808.72534  0.014329955  0.012932607         3106 
 4704000   0.50099793   -7.7254244     808.0419  0.014314801  0.012928338         3117 
 4705000   0.49406306   -7.7239762    808.40394  0.014318171  0.012924068         3071 
 4706000   0.49978244   -7.7334741    807.74019  0.014303375  0.012919799         3087 
 4707000   0.50474528   -7.7447517    807.44078  0.014295035  0.012915532         3091 
 4708000   0.49343765   -7.7160099    806.95867  0.014283465  0.012911265         3070 
 4709000   0.50323306   -7.7166871    809.12368  0.014318746  0.012907003         3051 
 4710000   0.50049458   -7.7243383    808.77621  0.014309558  0.012902744         3080 
 4711000    0.4789339   -7.7433435    808.30749  0.014298229  0.012898485         3064 
 4712000   0.48917362   -7.7415782    808.28959  0.014294878  0.012894224         3079 
 4713000   0.50119048   -7.7370187    809.32995   0.01431024  0.012889967         3098 
 4714000    0.5083686   -7.7239327    808.09035  0.014285291  0.012885714         3100 
 4715000   0.51003172   -7.7180641    808.23855  0.014284881  0.012881461         3069 
 4716000   0.49767549   -7.7231171    806.72149  0.014255045  0.012877209         3121 
 4717000   0.50041011   -7.7518741    808.40069  0.014281688   0.01287296         3075 
 4718000   0.49338803   -7.7196333    808.62151  0.014282562  0.012868711         3091 
 4719000   0.50399395   -7.7177652    807.84761  0.014265869  0.012864465         3098 
 4720000   0.50487348   -7.7308777    807.39721  0.014254894  0.012860222         3119 
 4721000   0.48840697   -7.7436196    808.35477  0.014268777  0.012855979         3059 
 4722000   0.50662807   -7.7340219    808.63419  0.014270687  0.012851737         3081 
 4723000   0.49808042   -7.7414695    808.73596  0.014269461  0.012847499         3101 
 4724000   0.49589729   -7.7330078    808.39168  0.014260367  0.012843264         3092 
 4725000   0.51334836   -7.7295238    807.52232  0.014242016  0.012839026         3051 
 4726000   0.49661478   -7.7334471    808.29663  0.014252656  0.012834796         3093 
 4727000   0.48889973   -7.7276028    809.40322  0.014269149  0.012830564         3080 
 4728000   0.49025733   -7.7363538    808.84186  0.014256237  0.012826333         3092 
 4729000   0.48969295   -7.7304989    806.98086  0.014220428  0.012822106         3102 
 4730000   0.50361842   -7.7461946    809.02084  0.014253362   0.01281788         3099 
 4731000   0.49481711   -7.7300627     808.4696   0.01424064  0.012813659         3115 
 4732000   0.50932935   -7.7289482     807.9277  0.014228087  0.012809437         3105 
 4733000   0.49547949   -7.7193189    808.10429   0.01422819  0.012805216         3105 
 4734000    0.4996192   -7.7312694    807.82629  0.014220291  0.012800994         3116 
 4735000   0.49792087   -7.7402239    807.36009  0.014209083  0.012796776         3097 
 4736000     0.494059   -7.7274334    806.38551  0.014188934  0.012792562         3059 
 4737000   0.49906053   -7.7333229    808.71576  0.014226933  0.012788352         3069 
 4738000   0.49391518   -7.7300892    808.43046  0.014218912   0.01278414         3089 
 4739000   0.48815431   -7.7312363    807.42901  0.014198302   0.01277993         3083 
 4740000   0.48320786   -7.7401432    808.38823   0.01421217  0.012775723         3063 
 4741000   0.48620395   -7.7270645    808.36609  0.014208783  0.012771516         3096 
 4742000   0.49406699   -7.7266775    809.25788  0.014221459  0.012767312         3087 
 4743000   0.49813943   -7.7493099    809.05385  0.014214875  0.012763111         3093 
 4744000   0.49382939   -7.7303369    807.49116  0.014184429  0.012758906         3084 
 4745000    0.4907056   -7.7370978    807.84384  0.014187633  0.012754705         3126 
 4746000   0.49752707   -7.7391681    808.22684  0.014191369  0.012750508         3085 
 4747000   0.49239776   -7.7395854    808.08641  0.014185914   0.01274631         3106 
 4748000   0.50008944   -7.7367226    808.58915   0.01419175  0.012742112         3084 
 4749000   0.49356876   -7.7303346    807.30376  0.014166206  0.012737915         3105 
 4750000   0.49393195   -7.7301056    809.22199  0.014196877  0.012733721         3131 
 4751000   0.48412693   -7.7361543    808.33266   0.01417829   0.01272953         3089 
 4752000   0.49264079   -7.7498204    807.13179  0.014154247   0.01272534         3131 
 4753000   0.48523764   -7.7354576    807.39238  0.014155838  0.012721152         3106 
 4754000   0.48630074   -7.7238902    807.99434  0.014163412  0.012716965         3106 
 4755000   0.50185142   -7.7292757    808.32272  0.014166189   0.01271278         3138 
 4756000   0.49163828   -7.7414498    808.39052  0.014164398  0.012708599         3116 
 4757000   0.49510066   -7.7454998    807.19179  0.014140421  0.012704418         3085 
 4758000   0.49063955   -7.7481625    808.06007  0.014152656   0.01270024         3073 
 4759000   0.48754065   -7.7605414    806.88954  0.014129186  0.012696059         3117 
 4760000   0.49069272   -7.7378723    807.71853  0.014140731  0.012691883         3101 
 4761000   0.49305773   -7.7510634    807.35279  0.014131359  0.012687708         3075 
 4762000   0.48503526   -7.7331717    807.51921  0.014131303  0.012683538         3093 
 4763000   0.49933128   -7.7514532    807.11234  0.014121218  0.012679365         3088 
 4764000   0.47987801   -7.7479273    807.69664  0.014128475  0.012675195         3090 
 4765000   0.47623791   -7.7537759     808.6517  0.014142212  0.012671029         3080 
 4766000    0.4839086    -7.756347    807.36328  0.014116717  0.012666865         3100 
 4767000   0.48881119   -7.7519126    807.38774  0.014114183  0.012662701         3131 
 4768000   0.48469412   -7.7401772     807.4264  0.014111899  0.012658538         3082 
 4769000   0.47307196   -7.7456001    807.64675   0.01411279  0.012654378         3083 
 4770000     0.495034   -7.7441535    808.07543  0.014117321   0.01265022         3043 
 4771000   0.48656356   -7.7601157    808.56005  0.014122826  0.012646067         3097 
 4772000   0.49716479   -7.7339064    808.06773  0.014111269  0.012641912         3104 
 4773000   0.48590943   -7.7305481    807.75987  0.014102938  0.012637757         3084 
 4774000   0.47553165     -7.75958    808.07076  0.014105411  0.012633606         3125 
 4775000    0.4832701   -7.7455133    807.55399  0.014093438  0.012629455         3115 
 4776000   0.48770611   -7.7423616    807.55518  0.014090508  0.012625307         3065 
 4777000   0.48457155   -7.7368402    807.07087   0.01407911  0.012621159         3093 
 4778000   0.48136898   -7.7330121    806.02039  0.014057841  0.012617012         3055 
 4779000    0.4806293   -7.7428059    807.01784  0.014072293  0.012612868         3084 
 4780000    0.4861888   -7.7613718    808.47989  0.014094838  0.012608724         3097 
 4781000   0.49399937   -7.7430703    807.08134  0.014067513  0.012604585         3129 
 4782000   0.48835487   -7.7364703    807.64589  0.014074409  0.012600444         3090 
 4783000   0.49193855   -7.7430836    808.12605  0.014079832  0.012596306         3087 
 4784000   0.48940957    -7.744903    805.99297  0.014039733  0.012592171         3100 
 4785000   0.48238137   -7.7564666    807.67809  0.014066146  0.012588037         3082 
 4786000   0.48977544   -7.7419188    807.05696  0.014052392  0.012583904         3076 
 4787000   0.49043196   -7.7391141    807.63333   0.01405949  0.012579776         3092 
 4788000   0.49263873   -7.7403277    806.93892  0.014044467  0.012575648         3102 
 4789000    0.4832218   -7.7339902    807.31528  0.014048084  0.012571522         3094 
 4790000   0.47167532   -7.7496958    806.30006  0.014027489  0.012567399         3080 
 4791000   0.48696508   -7.7381627    808.46919   0.01406229  0.012563274         3063 
 4792000   0.49648479   -7.7551429    808.44318  0.014058903  0.012559153         3098 
 4793000   0.48821525   -7.7331576    806.70184  0.014025694  0.012555031         3068 
 4794000    0.4852226   -7.7422984    807.96723  0.014044765  0.012550913         3086 
 4795000   0.48138055   -7.7415053    807.76375  0.014038299  0.012546795         3072 
 4796000   0.48751602   -7.7494187    807.24764  0.014026405  0.012542681         3079 
 4797000    0.4918762   -7.7445555    806.51563  0.014010764  0.012538565         3075 
 4798000   0.47349071   -7.7340505    806.47095  0.014007068  0.012534452         3066 
 4799000    0.4818655   -7.7530838    807.22817  0.014017298  0.012530345         3087 
 4800000   0.48426099   -7.7553884    807.31526   0.01401589  0.012526236         3050 
 4801000   0.48240975   -7.7614119    807.98854  0.014024657  0.012522128         3090 
 4802000   0.49490796   -7.7603791    807.44749  0.014012347  0.012518025         3072 
 4803000    0.4913297   -7.7463547    806.95349  0.014000859  0.012513923         3056 
 4804000   0.48856338   -7.7288579    807.23194  0.014002774   0.01250982         3091 
 4805000   0.48853242   -7.7408885    808.09566   0.01401484   0.01250572         3081 
 4806000   0.47859274   -7.7431892    806.85263   0.01399037  0.012501624         3096 
 4807000   0.48300852    -7.749171    808.23285  0.014011387  0.012497526         3060 
 4808000   0.48372826   -7.7608975    807.01815  0.013987419   0.01249343         3086 
 4809000   0.48445479   -7.7417856    808.77513  0.014014957  0.012489337         3098 
 4810000   0.48309859   -7.7404725    806.45462   0.01397184  0.012485246         3083 
 4811000   0.48106934   -7.7425292    807.94898  0.013994821  0.012481157         3078 
 4812000   0.47861912   -7.7519844     807.1551  0.013978164  0.012477067         3079 
 4813000   0.47034658   -7.7539143    806.95016  0.013971711  0.012472977         3080 
 4814000   0.48184344    -7.763587    807.14365  0.013972158  0.012468892         3082 
 4815000   0.47887501   -7.7669031    808.08976  0.013985631   0.01246481         3073 
 4816000   0.47819641   -7.7680738    807.16341  0.013966698  0.012460725         3089 
 4817000   0.47803165   -7.7337233    807.57429  0.013970907  0.012456645         3047 
 4818000   0.46448962   -7.7442071    807.61076  0.013968638  0.012452563         3103 
 4819000   0.47901297   -7.7634737    807.31507  0.013960626  0.012448487         3084 
 4820000   0.47253551   -7.7432728    806.94762  0.013951377  0.012444411         3116 
 4821000   0.47501845   -7.7490991    807.74035  0.013962185  0.012440338         3082 
 4822000    0.4803308   -7.7706657    808.24009  0.013967926  0.012436267         3078 
 4823000   0.47507548   -7.7519571    806.35453  0.013932451  0.012432198         3068 
 4824000   0.48741261   -7.7681692    807.54234  0.013950082   0.01242813         3096 
 4825000   0.47341842   -7.7413587    806.95874  0.013937111  0.012424063         3092 
 4826000   0.47192107   -7.7548537    806.70359  0.013929818  0.012419998         3058 
 4827000    0.4898368   -7.7571946    807.37235  0.013938477  0.012415935         3110 
 4828000   0.47761351   -7.7710087    806.83992    0.0139264  0.012411874         3084 
 4829000   0.47112013   -7.7593202     806.5707   0.01391887  0.012407811         3119 
 4830000   0.48797042   -7.7659868     807.8815  0.013938604  0.012403752         3094 
 4831000   0.47600512   -7.7483006    807.11468  0.013922492  0.012399696         3050 
 4832000   0.46646749   -7.7345642    805.82626   0.01389739   0.01239564         3093 
 4833000   0.46322341   -7.7533857     807.6717  0.013926335  0.012391585         3109 
 4834000   0.48140645   -7.7422893    808.16034  0.013931877  0.012387532         3073 
 4835000   0.47771142   -7.7625947    806.49582  0.013900307  0.012383484         3129 
 4836000   0.47705589   -7.7664771    807.67362  0.013917729  0.012379437         3061 
 4837000   0.47997902   -7.7544511    805.92504  0.013884726  0.012375391         3080 
 4838000   0.48054656   -7.7501008    807.08877  0.013901901  0.012371345         3095 
 4839000   0.46420269   -7.7651321    806.55113  0.013889769    0.0123673         3059 
 4840000    0.4814889   -7.7620463    807.89018  0.013909955  0.012363257         3114 
 4841000   0.47699963   -7.7463224    808.35752  0.013915126  0.012359219         3064 
 4842000   0.48651805   -7.7596107    807.01719  0.013889185  0.012355181         3063 
 4843000   0.47688705   -7.7601588    806.62167  0.013879511  0.012351146         3086 
 4844000   0.47629304   -7.7626306    806.29407   0.01387101  0.012347113         3117 
 4845000   0.47934808   -7.7620453    807.49148  0.013888742  0.012343075         3113 
 4846000   0.47750253   -7.7631421    806.92134  0.013876072  0.012339044         3106 
 4847000    0.4785931   -7.7778944    806.10043  0.013859095  0.012335014         3120 
 4848000   0.47786992   -7.7569093    806.62142  0.013865192  0.012330985         3100 
 4849000   0.47271028   -7.7489186    806.56348  0.013861337  0.012326957         3100 
 4850000   0.48471609   -7.7546323    806.06211  0.013849864  0.012322932         3105 
 4851000    0.4754306   -7.7619606    808.14406  0.013882774  0.012318905         3077 
 4852000   0.48451996   -7.7558136    806.81499  0.013857086  0.012314883         3084 
 4853000   0.46644691    -7.762046    806.70983  0.013852425  0.012310864         3098 
 4854000   0.48066613   -7.7783014    807.10727  0.013856395  0.012306845         3086 
 4855000   0.48207199   -7.7589687    807.18611  0.013854894  0.012302825         3095 
 4856000   0.47601388   -7.7761433    806.27926  0.013836478  0.012298808         3093 
 4857000   0.46353404   -7.7747453    807.30223  0.013851181  0.012294793         3061 
 4858000   0.47107897   -7.7586634    806.77506  0.013839287  0.012290781         3073 
 4859000   0.46722257   -7.7493452    807.48075  0.013848541  0.012286768         3097 
 4860000   0.47144009   -7.7627795      806.981  0.013837123  0.012282762         3092 
 4861000   0.47447008   -7.7742704    807.44848   0.01384229  0.012278752         3114 
 4862000    0.4801797   -7.7592121    807.67549  0.013843334  0.012274747         3074 
 4863000   0.47533534   -7.7631408    806.85704  0.013826462  0.012270744         3093 
 4864000   0.46485032   -7.7745861    806.83339  0.013823215  0.012266739         3111 
 4865000   0.47048408   -7.7578998    806.08296  0.013807519  0.012262738         3104 
 4866000    0.4797311   -7.7577959    807.26732  0.013824964  0.012258738         3072 
 4867000   0.47395742   -7.7630175    806.72211  0.013812789  0.012254738         3068 
 4868000   0.46609691    -7.751052    806.37006  0.013803925  0.012250741         3119 
 4869000   0.47841965   -7.7663608    806.93725  0.013810797  0.012246743         3092 
 4870000   0.47230143   -7.7516714    805.51592   0.01378364  0.012242752         3087 
 4871000   0.47329681   -7.7617783    808.85679  0.013837966  0.012238761         3056 
 4872000   0.47029859   -7.7436634    806.33472  0.013791987   0.01223477         3089 
 4873000    0.4699535   -7.7635377    806.64571  0.013794475  0.012230782         3085 
 4874000   0.47330435   -7.7728933    807.25523  0.013802066  0.012226796         3052 
 4875000   0.46781114    -7.766603    806.29603  0.013782838  0.012222812         3090 
 4876000   0.47018962    -7.755442     804.9297   0.01375666  0.012218828         3101 
 4877000   0.47127109     -7.76753    806.18716  0.013775326  0.012214848         3109 
 4878000     0.470572    -7.760405    805.55244  0.013761659  0.012210867         3081 
 4879000   0.47804417   -7.7725951    806.59202  0.013776594  0.012206889         3125 
 4880000   0.47380422   -7.7578471    807.86102  0.013795441  0.012202915         3089 
 4881000   0.46977493   -7.7573828    806.74673   0.01377359  0.012198941         3079 
 4882000   0.45790516   -7.7678613    807.40601  0.013782023  0.012194969         3109 
 4883000   0.46640212   -7.7531951    806.86367  0.013769944  0.012190997         3097 
 4884000   0.46658103   -7.7471576    806.92321  0.013768141  0.012187029         3103 
 4885000   0.47496535    -7.774877    807.27994  0.013771408  0.012183058         3114 
 4886000   0.47511613   -7.7818352     806.6083  0.013757134  0.012179092         3102 
 4887000   0.46845804   -7.7759433    806.18137  0.013747039  0.012175127         3098 
 4888000   0.47798684   -7.7679116    807.25738  0.013762571  0.012171165         3097 
 4889000   0.47238114   -7.7507737    806.44575  0.013745922  0.012167204         3052 
 4890000   0.46542495    -7.770061    806.41216  0.013742538  0.012163244         3105 
 4891000   0.46792901   -7.7761743    806.95079  0.013748906  0.012159284         3056 
 4892000   0.47772332   -7.7565069    806.87935  0.013744878  0.012155329         3113 
 4893000   0.47650567   -7.7664382    805.35434  0.013716097  0.012151377         3089 
 4894000   0.45630756   -7.7602548    806.38439  0.013730833  0.012147421         3094 
 4895000     0.468222    -7.766928    805.67132  0.013715889  0.012143465         3133 
 4896000   0.46556553   -7.7719127    806.25153  0.013722963  0.012139514         3112 
 4897000   0.46371712   -7.7762604     808.3824  0.013756422  0.012135566         3114 
 4898000   0.46831589   -7.7673618    805.48086  0.013704248  0.012131621         3077 
 4899000   0.46289259   -7.7761654    806.81403  0.013724128  0.012127674         3078 
 4900000    0.4681219   -7.7666077    807.14161  0.013726898  0.012123728         3107 
 4901000   0.47269697   -7.7722555    806.29276  0.013709664  0.012119785         3088 
 4902000   0.46671634   -7.7583944    806.01362  0.013702122  0.012115843         3105 
 4903000   0.45602217   -7.7714736    807.18585  0.013719251  0.012111903         3122 
 4904000   0.46028618   -7.7636043    806.53587  0.013705408  0.012107967         3112 
 4905000   0.46387878   -7.7710066    806.63838  0.013704356  0.012104029         3081 
 4906000   0.46705277   -7.7634576    807.68942  0.013719415  0.012100098         3073 
 4907000   0.47431902   -7.7738857    806.49773  0.013696382  0.012096167         3105 
 4908000   0.46794795   -7.7573925    806.05464  0.013686068  0.012092234         3110 
 4909000     0.481899   -7.7803492    805.24201  0.013669485  0.012088304         3134 
 4910000   0.47639883   -7.7785503    807.18062  0.013699603  0.012084375         3084 
 4911000   0.45818938   -7.7754848    806.40812  0.013683705  0.012080449         3124 
 4912000   0.45633507   -7.7700017      805.579  0.013666853  0.012076522         3120 
 4913000   0.45635169   -7.7821408    806.19896  0.013674587  0.012072598         3059 
 4914000   0.46613283   -7.7664577     805.9648  0.013667833  0.012068675         3120 
 4915000   0.46684913   -7.7761362    806.79808  0.013679181  0.012064756         3127 
 4916000   0.47578578   -7.7750693    805.75548  0.013658725  0.012060836         3081 
 4917000   0.47364751   -7.7691567    806.24522  0.013664247   0.01205692         3116 
 4918000   0.46968953   -7.7730917    806.75999  0.013670191  0.012053003         3112 
 4919000   0.46962539   -7.7643738    805.93683  0.013653467  0.012049091         3129 
 4920000   0.45624686   -7.7626479    806.47381  0.013659787  0.012045178         3094 
 4921000   0.46315005   -7.7806426    806.65147   0.01366002  0.012041266         3103 
 4922000   0.45648517   -7.7631987    806.41606  0.013653258  0.012037358         3123 
 4923000   0.46221936   -7.7606734    805.92097  0.013642105   0.01203345         3142 
 4924000   0.46679274   -7.7769016      806.385  0.013647187  0.012029546         3130 
 4925000   0.45239911   -7.7812621     806.6803  0.013649413  0.012025643         3079 
 4926000   0.46849117   -7.7738866    805.99408  0.013635033  0.012021739         3121 
 4927000   0.46775889   -7.7765701    806.49485  0.013640736  0.012017838         3138 
 4928000   0.45560424   -7.7676773    806.65993  0.013640759   0.01201394         3089 
 4929000   0.47006063    -7.767666    805.99004  0.013626666  0.012010039         3102 
 4930000   0.46238654   -7.7784109    806.61544  0.013634473  0.012006143         3102 
 4931000   0.45992413   -7.7737882    805.81161  0.013618124  0.012002249         3130 
 4932000   0.46562379   -7.7690806     805.3244   0.01360713  0.011998354         3148 
 4933000   0.46407814   -7.7729186    806.24098  0.013619856  0.011994461         3126 
 4934000   0.46749525   -7.7746179    805.45575  0.013603833  0.011990571         3098 
 4935000   0.46301007   -7.7764931     806.1458  0.013612729  0.011986684         3148 
 4936000   0.45285795    -7.780918    806.38351  0.013613984  0.011982799         3108 
 4937000    0.4749972   -7.7814239    805.84933   0.01360221  0.011978918         3144 
 4938000   0.46359979   -7.7705052    806.57484  0.013611699  0.011975033         3142 
 4939000   0.44778555   -7.7907546    805.56502  0.013591905  0.011971149         3148 
 4940000    0.4550897   -7.7651191    805.97051  0.013595994  0.011967267         3106 
 4941000   0.46049906   -7.7651724    806.64916  0.013604688  0.011963386         3077 
 4942000   0.47148547    -7.788663    805.57033  0.013583744  0.011959507         3089 
 4943000   0.45277578   -7.7889383    805.75357  0.013584085  0.011955629         3149 
 4944000   0.45338193   -7.7866989    806.83941  0.013599639  0.011951751         3120 
 4945000    0.4623136   -7.7671133    806.32759  0.013588264  0.011947877         3145 
 4946000   0.46254887   -7.7780069    805.15806  0.013565812  0.011944004         3104 
 4947000   0.45600973   -7.7780581    806.55186  0.013586548  0.011940137         3126 
 4948000   0.46280926   -7.7798936    805.26342  0.013562103  0.011936268         3131 
 4949000   0.46370948   -7.7782002    806.14759  0.013574251  0.011932401         3094 
 4950000   0.45454282   -7.7712824    804.03412  0.013535928  0.011928535         3123 
 4951000   0.47067731   -7.7708218    806.74842   0.01357888  0.011924674         3128 
 4952000   0.46269837   -7.7755258    804.71612  0.013541938  0.011920811         3136 
 4953000    0.4611948    -7.781905    806.95196  0.013576821  0.011916954         3118 
 4954000    0.4577234   -7.7714687    806.34726  0.013563909  0.011913095         3070 
 4955000   0.45776317   -7.7791676    805.09076   0.01354004  0.011909237         3121 
 4956000   0.45610384   -7.7660023     806.1234  0.013554671  0.011905381         3113 
 4957000   0.46296613   -7.7837816    805.55114  0.013542316  0.011901526         3122 
 4958000   0.45610553   -7.7843871    805.09414  0.013531904  0.011897675         3084 
 4959000   0.45375346   -7.7887453    806.71914  0.013556482  0.011893824         3131 
 4960000    0.4564543    -7.792145    806.08685  0.013543126  0.011889976         3095 
 4961000   0.46011423   -7.7916389    806.20035  0.013542302   0.01188613         3090 
 4962000   0.45259351   -7.7771407      804.877  0.013517349  0.011882284         3128 
 4963000   0.46518661   -7.7689425    806.78891  0.013546728  0.011878442         3094 
 4964000   0.46094123   -7.7975376    805.55225  0.013523238    0.0118746         3140 
 4965000   0.45103548   -7.7786739    805.21979  0.013514934  0.011870761         3109 
 4966000   0.47135161   -7.7790807    805.78756   0.01352174  0.011866924         3090 
 4967000   0.45993351   -7.7919231    806.34125  0.013528308  0.011863087         3106 
 4968000    0.4550987   -7.7704894    806.01884  0.013520177  0.011859253         3112 
 4969000   0.45078057   -7.7689311    804.72123  0.013495694  0.011855419         3121 
 4970000   0.45383531   -7.7765653    806.39561  0.013521053  0.011851585         3105 
 4971000   0.46201208   -7.8008012    806.50836  0.013520223  0.011847755         3083 
 4972000   0.47092744   -7.7818185    806.04266  0.013509699  0.011843927         3107 
 4973000   0.45690248   -7.7877846    806.45135   0.01351383  0.011840101         3118 
 4974000   0.44249715   -7.7727234    806.34446  0.013509323  0.011836274         3098 
 4975000   0.45350956   -7.7645327    805.21007  0.013487606  0.011832451         3121 
 4976000   0.45616523   -7.7849141    806.06158  0.013499156  0.011828628         3133 
 4977000   0.44831345   -7.7734652    805.95153  0.013494601  0.011824808         3085 
 4978000   0.45392985   -7.7725738    805.80771  0.013489482  0.011820988         3089 
 4979000   0.45721117   -7.7948837    806.84666  0.013504162   0.01181717         3104 
 4980000   0.45260506   -7.7904477    806.42669  0.013494422  0.011813355         3111 
 4981000   0.44828946   -7.7671173     806.3093  0.013489749  0.011809541         3121 
 4982000   0.45806734   -7.7705487    805.71214  0.013477053  0.011805728         3095 
 4983000   0.44884794   -7.7926545     807.1015  0.013497583  0.011801916         3104 
 4984000    0.4625438   -7.7851787    806.58487  0.013486237  0.011798105         3124 
 4985000   0.45441511   -7.7750435    805.29431  0.013461958  0.011794296         3084 
 4986000   0.45323799   -7.7986885    805.26527  0.013458772  0.011790487         3131 
 4987000   0.45767772   -7.7866638    807.22898  0.013488887   0.01178668         3137 
 4988000   0.46227943   -7.7872674    805.35026  0.013454796  0.011782874         3129 
 4989000   0.46025507    -7.785642    805.42348  0.013453322  0.011779069         3141 
 4990000   0.45005733   -7.7934895     806.4671  0.013468054  0.011775267         3128 
 4991000   0.46018375   -7.7852584    806.11123  0.013459414  0.011771466         3127 
 4992000    0.4409751   -7.7910175    804.97556   0.01343776  0.011767665         3119 
 4993000     0.455999   -7.7995517    805.32036  0.013440823  0.011763868         3084 
 4994000   0.44681938   -7.7974146    805.95246  0.013448679   0.01176007         3120 
 4995000   0.45709223   -7.7816506     806.0795  0.013448106  0.011756276         3102 
 4996000   0.45397888   -7.7957175    805.98312  0.013443807  0.011752482         3094 
 4997000   0.45456932   -7.7945639    805.34971  0.013430553  0.011748688         3105 
 4998000   0.46248708   -7.8042406    805.49773  0.013430334  0.011744899         3113 
 4999000   0.44913036   -7.7935691    804.93014  0.013418186  0.011741109         3118 
 5000000   0.45857063   -7.7931772    806.59675  0.013443279  0.011737323         3116 
 5001000   0.44072115   -7.7919752    805.00509  0.013414069  0.011733538         3110 
 5002000   0.45908177   -7.7983014    806.42454  0.013435035  0.011729755         3101 
 5003000   0.45569508   -7.7844598    806.24332  0.013429331  0.011725971         3074 
 5004000   0.44566662    -7.796614    807.03427  0.013439819  0.011722189         3116 
 5005000   0.45175073   -7.7769065    805.14702  0.013405711  0.011718412         3121 
 5006000   0.45650093   -7.8005234    806.51286   0.01342577  0.011714635         3087 
 5007000   0.43731829   -7.8051004    805.11045  0.013399748  0.011710855         3093 
 5008000   0.44672828   -7.7896234    805.58796  0.013405018  0.011707079         3127 
 5009000   0.44755398   -7.7928219    805.09648  0.013394165  0.011703309         3084 
 5010000   0.45709983    -7.798797    806.41903   0.01341349  0.011699536         3103 
 5011000   0.45482536   -7.7901603    804.65584  0.013381491  0.011695767         3078 
 5012000   0.44961952   -7.7846341    803.84269  0.013365301     0.011692         3128 
Loop time of 10777.7 on 48 procs for 5000000 steps with 4000 atoms

Performance: 80165.584 tau/day, 463.921 timesteps/s
99.4% CPU use with 48 MPI tasks x no OpenMP threads

MPI task timing breakdown:
Section |  min time  |  avg time  |  max time  |%varavg| %total
---------------------------------------------------------------
Pair    | 672.21     | 713.52     | 748.89     |  67.9 |  6.62
Neigh   | 66.15      | 68.059     | 70.163     |  10.3 |  0.63
Comm    | 580.53     | 630.44     | 682.34     |  90.7 |  5.85
Output  | 14.783     | 14.805     | 14.898     |   0.5 |  0.14
Modify  | 9176.8     | 9228.1     | 9281.3     |  23.8 | 85.62
Other   |            | 122.8      |            |       |  1.14

Nlocal:        83.3333 ave          93 max          75 min
Histogram: 5 6 2 7 6 3 9 5 4 1
Nghost:        1790.23 ave        1818 max        1751 min
Histogram: 4 0 1 7 4 3 10 8 8 3
Neighs:        10939.9 ave       12597 max        9530 min
Histogram: 3 4 8 6 6 6 5 6 3 1
FullNghs:      21828.1 ave       24196 max       18959 min
Histogram: 3 2 5 2 7 7 7 8 4 3

Total # of neighbors = 1047748
Ave neighs/atom = 261.93700
Neighbor list builds = 269829
Dangerous builds = 3

#clear
#
#next RN
#
#jump SELF
Total wall time: 2:59:40
