
units lj                  # Use reduced LJ style units
atom_style atomic         # Uncharged point particles
atom_modify map hash      # Needed for indexing of clusters etc
                          # Used to be able to find where atoms are in relation to each other.

lattice fcc 1.0 spacing 1 1 1
Lattice spacing in x,y,z = 1.5874011 1.5874011 1.5874011
region box block 0 10 0 10 0 10 units lattice
create_box 2 box
Created orthogonal box = (0.0000000 0.0000000 0.0000000) to (15.874011 15.874011 15.874011)
  3 by 4 by 4 MPI processor grid
create_atoms 1 box
Created 4000 atoms
  using lattice units in orthogonal box = (0.0000000 0.0000000 0.0000000) to (15.874011 15.874011 15.874011)
  create_atoms CPU = 0.004 seconds
set type 1 type/fraction 2 0.62 78393
Setting atom values ...
  2494 settings made for type/fraction
mass 1 1.0
mass 2 1.0
pair_style lj/cut  3.5
pair_modify tail  yes
pair_coeff 1  1  1.0  1.0   # Intearaction between 1 and 1 set with epsilon = 1 and sigma = 1
pair_coeff 1  2  1.5  0.8
pair_coeff 2  2  0.5  0.88

write_data data.0
System init for write_data ...
Neighbor list info ...
  update every 1 steps, delay 10 steps, check yes
  max neighbors/atom: 2000, page size: 100000
  master list distance cutoff = 3.8
  ghost atom cutoff = 3.8
  binsize = 1.9, bins = 9 9 9
  1 neighbor lists, perpetual/occasional/extra = 1 0 0
  (1) pair lj/cut, perpetual
      attributes: half, newton on
      pair build: half/bin/atomonly/newton
      stencil: half/bin/3d
      bin: standard
WARNING: Not all mixed pair coeffs generated from mixing. Use write_data with 'pair ij' option to store all pair coeffs. (../write_data.cpp:312)


#############################
#   M E L T   S Y S T E M   #
#############################

velocity all create 2.4 5833274 mom yes dist gaussian # Assign velocities
                                                    # Temperature 2.4, random number seed, zero linear momentum
                                                                                # Gaussian distribution

timestep 0.002   # simulation timestep
thermo 1000       # output thermodynamic data every 1000 steps bf 100

# Define a fix  in this case with index 1 applied to all
# particles in the simulation. This fix is for simulations
# in the anisotropic NPT ensemble. Note that we use the MTK
# correction.
fix 1 all npt temp 2.4 2.4 0.1 iso 5.68 5.68 0.5 mtk yes tchain 5 pchain 5 # Use NPT ensemble
                                                                         # Set temperature and pressure and damping
                                                                         # Numbers of thermostats in chain and in barostat
run 10000          # run for 10000 steps
Per MPI rank memory allocation (min/avg/max) = 3.642 | 3.644 | 3.648 Mbytes
Step Temp E_pair E_mol TotEng Press Volume 
       0          2.4   -4.6132646            0   -1.0141646   -4.0148013         4000 
    1000    2.3955367   -4.3987123            0  -0.80630549    5.3704116    3616.0953 
    2000    2.3562675   -4.3550668            0  -0.82154909     5.640376    3610.4599 
    3000    2.4128315   -4.3985297            0  -0.78018732    5.8312652    3576.2439 
    4000    2.3758321     -4.34034            0   -0.7774828    5.6854066    3610.6537 
    5000     2.398021   -4.3723216            0  -0.77618942    5.7255978    3605.3365 
    6000    2.4028239   -4.3219046            0   -0.7185698    5.4825162    3646.0485 
    7000    2.4555077   -4.3385282            0  -0.65618745    5.8886215    3615.0345 
    8000    2.3825042   -4.3678207            0  -0.79495778    5.6747524    3592.9392 
    9000    2.3580513   -4.3188546            0  -0.78266198    5.3689376    3648.7301 
   10000    2.3743789    -4.339795            0  -0.77911712    5.6845647     3608.106 
Loop time of 2.6177 on 48 procs for 10000 steps with 4000 atoms

Performance: 660121.316 tau/day, 3820.147 timesteps/s
99.6% CPU use with 48 MPI tasks x no OpenMP threads

MPI task timing breakdown:
Section |  min time  |  avg time  |  max time  |%varavg| %total
---------------------------------------------------------------
Pair    | 1.1985     | 1.2645     | 1.315      |   2.4 | 48.31
Neigh   | 0.21873    | 0.22262    | 0.23159    |   0.5 |  8.50
Comm    | 0.79882    | 0.86592    | 0.94863    |   3.4 | 33.08
Output  | 0.00024641 | 0.0002505  | 0.00031905 |   0.0 |  0.01
Modify  | 0.2205     | 0.24891    | 0.27651    |   2.9 |  9.51
Other   |            | 0.0155     |            |       |  0.59

Nlocal:        83.3333 ave          91 max          74 min
Histogram: 1 3 4 4 5 11 2 12 5 1
Nghost:        1760.29 ave        1783 max        1733 min
Histogram: 2 4 2 6 8 4 6 6 7 3
Neighs:        10580.7 ave       11467 max        9234 min
Histogram: 2 2 4 5 4 6 3 8 5 9

Total # of neighbors = 507873
Ave neighs/atom = 126.96825
Neighbor list builds = 904
Dangerous builds = 200

# Equilibrate just above the melting temperature to avoid step fn in T

fix 1 all npt temp 1.25 1.25 0.1 iso 5.68 5.68 0.5 mtk yes tchain 5 pchain 5
run 2000
Per MPI rank memory allocation (min/avg/max) = 3.644 | 3.646 | 3.650 Mbytes
Step Temp E_pair E_mol TotEng Press Volume 
   10000    2.3743789    -4.339795            0  -0.77911712    5.6845647     3608.106 
   11000    1.2456697   -6.3519927            0   -4.4839552    5.6433598    2775.6391 
   12000    1.2220026    -6.434853            0   -4.6023073     5.850356    2744.9982 
Loop time of 0.650022 on 48 procs for 2000 steps with 4000 atoms

Performance: 531674.122 tau/day, 3076.818 timesteps/s
99.7% CPU use with 48 MPI tasks x no OpenMP threads

MPI task timing breakdown:
Section |  min time  |  avg time  |  max time  |%varavg| %total
---------------------------------------------------------------
Pair    | 0.29121    | 0.32134    | 0.35097    |   2.1 | 49.44
Neigh   | 0.04151    | 0.043739   | 0.046889   |   0.5 |  6.73
Comm    | 0.20292    | 0.23615    | 0.27204    |   2.9 | 36.33
Output  | 5.1244e-05 | 5.2439e-05 | 7.5366e-05 |   0.0 |  0.01
Modify  | 0.040292   | 0.043882   | 0.046943   |   1.0 |  6.75
Other   |            | 0.004856   |            |       |  0.75

Nlocal:        83.3333 ave          89 max          77 min
Histogram: 5 1 0 5 5 17 4 5 4 2
Nghost:        2120.35 ave        2138 max        2100 min
Histogram: 1 2 3 7 9 9 8 2 2 5
Neighs:        13907.2 ave       15428 max       12629 min
Histogram: 3 4 8 5 5 8 7 5 1 2

Total # of neighbors = 667548
Ave neighs/atom = 166.88700
Neighbor list builds = 144
Dangerous builds = 12

#############################
# L I N E A R  Q U E N C H  #
#############################

# Define solid atoms. This closely follows ten Wolde  Ruiz-Montero and Frenkel  Faraday Discuss  1996  104  93-110
# Compute components of the per-atom q6 vector
compute q6 all orientorder/atom degrees 1 6 components 6 nnn NULL cutoff 1.3 # compute the Q6 parameter.
                                                                             # Use all neighbours within 1.3 unit cell.

# get number of connections
compute coord_number all coord/atom orientorder q6 0.5

# An atom is solid if it has 8 or more connections (of a possible 14)
variable is_solid atom c_coord_number>=8
group solid dynamic all var is_solid    # Must be dynamic to update
dynamic group solid defined

# do clustering
compute cluster solid cluster/atom 1.3 # Create a cluster where all atoms within are solid and max 1.3 units from another member

# define chunks one chunk per cluster
compute clus_chunks solid chunk/atom c_cluster nchunk every compress yes  # Says which atoms are in which chunk

# count the size of each chunk
compute size_chunks solid property/chunk clus_chunks count


# Find the maximum entry in the vector of chunk sizes
variable max_n equal max(c_size_chunks)


# Thermo style which includes this variable
# thermo_style custom step temp pe vol v_max_n

thermo ${N}  # Print the thermo information every 100 steps
thermo 1000  

# Reset the npt fix at a lower temperature (below freezing)
fix 1  all npt temp  ${temp} ${temp}  0.1  iso  5.68  5.68  0.5  mtk yes tchain  5  pchain  5
fix 1  all npt temp  0.45 ${temp}  0.1  iso  5.68  5.68  0.5  mtk yes tchain  5  pchain  5
fix 1  all npt temp  0.45 0.45  0.1  iso  5.68  5.68  0.5  mtk yes tchain  5  pchain  5

dump dmp2 all dcd ${N} traj.dcd
dump dmp2 all dcd 1000 traj.dcd


compute msd all msd com yes
variable twopoint equal c_msd[4]/6/(step*dt+1.0e-6)
fix 9 all vector 10 c_msd[4]
variable fit equal slope(f_9)/6/(10*dt)
thermo_style custom step temp pe c_msd[4] v_twopoint v_fit v_max_n

fix 1 all npt temp 1.25 ${temp} 0.1 iso 5.68 5.68 0.5 mtk yes tchain 5 pchain 5
fix 1 all npt temp 1.25 0.45 0.1 iso 5.68 5.68 0.5 mtk yes tchain 5 pchain 5
run 2000000 # 5000000  # Run for this many steps
Neighbor list info ...
  update every 1 steps, delay 10 steps, check yes
  max neighbors/atom: 2000, page size: 100000
  master list distance cutoff = 3.8
  ghost atom cutoff = 3.8
  binsize = 1.9, bins = 8 8 8
  4 neighbor lists, perpetual/occasional/extra = 1 3 0
  (1) pair lj/cut, perpetual
      attributes: half, newton on
      pair build: half/bin/atomonly/newton
      stencil: half/bin/3d
      bin: standard
  (2) compute orientorder/atom, occasional
      attributes: full, newton on
      pair build: full/bin/atomonly
      stencil: full/bin/3d
      bin: standard
  (3) compute coord/atom, occasional
      attributes: full, newton on
      pair build: full/bin/atomonly
      stencil: full/bin/3d
      bin: standard
  (4) compute cluster/atom, occasional
      attributes: full, newton on
      pair build: full/bin/atomonly
      stencil: full/bin/3d
      bin: standard
Per MPI rank memory allocation (min/avg/max) = 9.847 | 9.853 | 9.859 Mbytes
Step Temp PotEng c_msd[4] v_twopoint v_fit v_max_n 
   12000    1.2220026    -6.434853            0            0 8.3333333e+20            2 
   13000    1.2385439   -6.4906104   0.49189552 0.0031531763  0.039765124            2 
   14000    1.2514147   -6.4601962   0.97110301 0.0057803749  0.039830947            5 
   15000    1.2360742   -6.4526805    1.4192019 0.0078844546  0.039009069            4 
   16000    1.2435094   -6.4798356    1.8987784 0.0098894707  0.038653666            3 
   17000    1.2689451   -6.4665834    2.3631602  0.011584118  0.038873626            2 
   18000    1.2530122   -6.4690942     2.804863  0.012985477  0.038628736            4 
   19000    1.2623432   -6.4941509    3.3276067  0.014594766  0.038874835            1 
   20000     1.254796   -6.5016689    3.8517954  0.016049147  0.039319349            6 
   21000    1.2590277   -6.4698386    4.3138591  0.017118488  0.039749974            1 
   22000    1.2834532   -6.4484247    4.8350177  0.018314461  0.039904176            3 
   23000    1.2367571   -6.5201897    5.3185308  0.019270039  0.040130584            3 
   24000    1.2546232   -6.5282782    5.8660244   0.02036814  0.040390662            4 
   25000    1.2383876   -6.5271592    6.3829318  0.021276439  0.040692303            3 
   26000    1.2334994   -6.4859566    6.8499857  0.021955082  0.040855875            2 
   27000    1.2355875   -6.5235747     7.279629   0.02246799  0.040849025            8 
   28000    1.2222627   -6.4546672    7.7552575  0.023081123  0.040811045            2 
   29000    1.2175688   -6.4537531    8.2498536  0.023706475  0.040734618            2 
   30000    1.2333575   -6.4338551    8.7539713  0.024316587  0.040684358            5 
   31000    1.2268681   -6.5109423    9.2698537  0.024918961  0.040677406            3 
   32000    1.2329653   -6.4833138    9.6757524  0.025197272  0.040665685            3 
   33000    1.2327593    -6.414153    10.162102  0.025661872  0.040597232            2 
   34000    1.2369268   -6.4609567    10.568377  0.025902885  0.040515782            2 
   35000    1.2469216   -6.5067333    10.878852  0.025902028  0.040357227            1 
   36000    1.2516872   -6.4828077    11.275147  0.026099877  0.040126014            2 
   37000    1.2247383   -6.5247396    11.737595  0.026436025  0.039882107            5 
   38000    1.2229142   -6.5298267    12.064263  0.026456718  0.039609498            2 
   39000     1.265173   -6.4715109    12.633975  0.026995674  0.039384018            3 
   40000    1.2461204   -6.5028043    13.099506  0.027290638  0.039248143            2 
   41000    1.2353827   -6.5019025    13.612783  0.027668258  0.039130405            4 
   42000    1.2514929   -6.5036826    14.083628  0.027943706  0.039058769            4 
   43000    1.2450392   -6.5109228    14.496088  0.028093193   0.03900464            2 
   44000    1.2290271   -6.5268556    14.818415   0.02806518  0.038903378            2 
   45000     1.260627   -6.5235756    15.186973  0.028124024  0.038772849            5 
   46000    1.2323124   -6.4429852    15.832362  0.028681815  0.038686871            2 
   47000    1.2434951   -6.5020599    16.143601  0.028623406  0.038604467            2 
   48000    1.2261059   -6.5382485    16.550258  0.028733086  0.038492049            6 
   49000     1.235185   -6.5276472    16.876558  0.028701629  0.038365179            1 
   50000    1.2438336   -6.4941169    17.333543  0.028889237  0.038240046            1 
   51000    1.2321241   -6.4681528     17.69104  0.028906927  0.038108435            2 
   52000    1.2197809   -6.5769417    17.944797  0.028757687  0.037944177            6 
   53000    1.2813797    -6.500034    18.520786  0.029120733   0.03780603            2 
   54000    1.2335232   -6.4643573    19.020288  0.029352296  0.037700281            2 
   55000    1.2467828   -6.5246469    19.400775  0.029395113  0.037600173            6 
   56000      1.22798   -6.5462151     19.75016  0.029390119  0.037498253            1 
   57000    1.2247988   -6.5458696    20.243803  0.029596202  0.037398707            2 
   58000    1.2335536   -6.5132401    20.668852  0.029696626  0.037312406            2 
   59000    1.2597996   -6.4959781    21.094156  0.029794006  0.037240994            2 
   60000    1.2393766   -6.5211867    21.484291  0.029839293  0.037175094            3 
   61000    1.2269373   -6.5306764    21.943136  0.029976961  0.037117563            4 
   62000     1.247286   -6.5166288    22.452813  0.030178512  0.037060901            3 
   63000    1.2271356   -6.5198588    22.949272   0.03035618  0.037009832            4 
   64000    1.2019321   -6.5003561    23.382581  0.030446069  0.036983872            3 
   65000    1.2207703   -6.5070373    23.925277  0.030673432  0.036968981            2 
   66000    1.2359168   -6.4831502    24.389727   0.03079511  0.036963036            2 
   67000     1.211841   -6.5375461    24.842196  0.030898254  0.036963763            5 
   68000    1.2410113   -6.4915609    25.545515  0.031305778  0.036980942            4 
   69000    1.2343497   -6.5127353    25.942597  0.031331639  0.037001434            2 
   70000    1.1971251   -6.5602501    26.356168  0.031376391   0.03702315            2 
   71000    1.2158382   -6.5334436    26.852179  0.031516642  0.037052316            2 
   72000    1.2292105   -6.5718835    27.267657  0.031559788  0.037077836            5 
   73000    1.2350866   -6.5215286     27.85203  0.031794554  0.037108042            2 
   74000    1.2315323   -6.5197446    28.207355  0.031765039  0.037134677            2 
   75000    1.2142367   -6.5158857    28.731837  0.031924263  0.037156949            1 
   76000    1.2124659   -6.5153113    29.308041  0.032136009  0.037190447            2 
   77000    1.2298533   -6.5777956    29.625888  0.032062649  0.037225904            6 
   78000    1.2052412   -6.5368362    30.176717  0.032240082  0.037252533            1 
   79000    1.2153912   -6.5947288    30.316404  0.031979329  0.037268727            3 
   80000    1.2176144   -6.5429935     30.92573  0.032214302  0.037275206            3 
   81000    1.2346223   -6.5233975     31.40854  0.032313313  0.037285726            2 
   82000    1.2318483    -6.509495    31.706034  0.032221579  0.037291684            1 
   83000    1.2185242   -6.5376372    32.178959  0.032308191  0.037300702            2 
   84000    1.2082761   -6.5068996    32.563761  0.032305319  0.037303068            1 
   85000    1.2028734   -6.5201381    32.971037  0.032324546  0.037299366            1 
   86000    1.2175545   -6.5364625    33.360805  0.032326361  0.037290356            4 
   87000     1.229502   -6.5453957    33.858421  0.032431437  0.037289255            2 
   88000     1.219444   -6.5482384    34.176653  0.032364254  0.037287887            5 
   89000    1.2042188   -6.5568621    35.050632  0.032818943   0.03729672            4 
   90000    1.1988199   -6.4853651    35.492908  0.032863804  0.037313994            1 
   91000    1.2235341   -6.5368631    35.829011   0.03281045  0.037325815            2 
   92000    1.2023078   -6.5319691    36.180843  0.032772503  0.037326917            5 
   93000    1.2200499    -6.531982    36.495715  0.032702254   0.03731982            2 
   94000    1.2189487   -6.4744099    37.119613  0.032907458  0.037313488            2 
   95000     1.205637   -6.5554205    37.515426  0.032908268  0.037313381            2 
   96000     1.216812   -6.6281084    37.779401  0.032794619  0.037312594            3 
   97000    1.2113625   -6.5232663    38.527207  0.033098975  0.037312576            4 
   98000    1.2262349   -6.5875584    38.705041   0.03291245  0.037312333            2 
   99000    1.2193472   -6.5585488    39.242138  0.033032102  0.037311831            1 
  100000     1.206985   -6.5326366    39.721326  0.033101105  0.037298575            3 
  101000    1.2044623    -6.533522    40.172789  0.033145865   0.03729712            5 
  102000    1.2298651   -6.5613029    40.639077   0.03320186  0.037300524            4 
  103000    1.2199051   -6.5279284    41.018136  0.033186194  0.037300217            1 
  104000    1.2017312   -6.5056523    41.498293  0.033251837  0.037295713            1 
  105000    1.1747422   -6.5849243    41.925917  0.033274537  0.037293546            1 
  106000    1.2263208   -6.5865137    42.425201  0.033353145  0.037288798            2 
  107000    1.2114024   -6.5526949    42.781435  0.033318874  0.037279668            1 
  108000    1.1963096   -6.5699374    43.039871  0.033209777  0.037266689            2 
  109000      1.20826   -6.5572095    43.633419  0.033358883  0.037253446            3 
  110000    1.1855107   -6.5815693    43.932021  0.033281834  0.037243372            2 
  111000    1.2239612   -6.5331871    44.366108  0.033307889  0.037229736            3 
  112000    1.1989218   -6.5475875    44.979435  0.033466841  0.037220983            2 
  113000    1.2107872   -6.5646275    45.121399  0.033275368  0.037207074            1 
  114000    1.2139351    -6.572191    45.380878  0.033173156  0.037188364            2 
  115000    1.2090705   -6.5898194    45.827216  0.033208127  0.037166218            2 
  116000    1.2319788   -6.5747884     46.18023  0.033175453  0.037143149            3 
  117000    1.2082934    -6.576788    46.568861  0.033168704  0.037119889            2 
  118000    1.2066547   -6.5614542    46.960389  0.033164117  0.037098146            4 
  119000    1.1973172   -6.5533054    47.486621  0.033253936  0.037069381            6 
  120000      1.19893   -6.5831472    47.881949  0.033251353  0.037045631            3 
  121000    1.2420881   -6.5809616    48.275734   0.03324775  0.037026422            3 
  122000    1.2406969   -6.5919405    48.776983  0.033317611  0.037007155            5 
  123000    1.2120573   -6.6095292    49.301752  0.033402271  0.036992145            3 
  124000    1.2020945   -6.5601063    49.795276  0.033464567  0.036977615            5 
  125000    1.1980086   -6.5666433    50.450877  0.033633918  0.036964744            1 
  126000    1.1888217   -6.5520749    51.009827  0.033736658  0.036956306            3 
  127000    1.1924825   -6.5676409    51.055114  0.033500731  0.036943212            4 
  128000    1.1785135   -6.5883632    51.352337  0.033432511  0.036924225            4 
  129000    1.2043829   -6.5936267    51.739834  0.033423665  0.036900427            6 
  130000    1.1945143   -6.5885435    52.335896  0.033548651  0.036877584            1 
  131000    1.1987825   -6.5360271    52.419496  0.033345735   0.03685141            3 
  132000    1.2052562   -6.6110526      52.8029  0.033335164  0.036825333            4 
  133000    1.2047107    -6.593452    53.150462  0.033302295  0.036798274            3 
  134000    1.2115654   -6.5915037    53.792225  0.033452876  0.036770698            2 
  135000    1.1836797   -6.6099578    53.788568   0.03320282  0.036743743            2 
  136000    1.2180009   -6.5876412    54.676632  0.033502838  0.036717793            3 
  137000    1.1743098   -6.5514048    55.150972   0.03354682  0.036694644            1 
  138000    1.1923593   -6.6071259    55.370157  0.033436085  0.036672873            5 
  139000    1.2135012   -6.5885758    55.739347  0.033416875  0.036647703            3 
  140000    1.2081833   -6.6263266    56.105997  0.033396426  0.036622883            3 
  141000    1.1856555   -6.5693821    56.433392  0.033353068  0.036594435            4 
  142000     1.192975   -6.5814018     56.76284  0.033311526  0.036566547            2 
  143000    1.1884704   -6.6104124    56.905737  0.033161851  0.036536579            3 
  144000    1.2098227   -6.6054099    57.311082  0.033166135  0.036501064            2 
  145000    1.1879434   -6.6164292    57.723843  0.033174623   0.03646738            3 
  146000    1.2301252   -6.6030096    57.835997  0.033011414  0.036429265            1 
  147000    1.2025037   -6.6416574    58.300686  0.033050275  0.036390579            2 
  148000    1.1918106    -6.605185    58.789578   0.03310224  0.036354337            4 
  149000    1.1945436   -6.6163535    59.087193  0.033046529  0.036318195            3 
  150000    1.2047454     -6.58384    59.569729  0.033094294  0.036280058            3 
  151000    1.1973707   -6.5944423    59.958767  0.033089827  0.036241751            1 
  152000    1.2108919   -6.6030636    60.054007  0.032924346  0.036204498            3 
  153000    1.1842212   -6.6419494    60.321147  0.032854655  0.036163814            4 
  154000    1.2042271   -6.5973466    60.926095  0.032968666  0.036120798            3 
  155000    1.2048523   -6.5787187    61.252996  0.032931718  0.036079804            4 
  156000    1.1975872   -6.6238268    61.617141  0.032915139   0.03603817            1 
  157000    1.2224479   -6.6284279    61.938655  0.032876144  0.035999501            4 
  158000    1.1887891   -6.6309991    62.488957   0.03295831  0.035961591            3 
  159000     1.190812    -6.620244    63.045727  0.033042834  0.035927083            3 
  160000    1.2123239   -6.5821064    63.540208  0.033093858  0.035892747            2 
  161000    1.1962787   -6.6414264    63.843568  0.033045325  0.035859266            2 
  162000    1.1840152    -6.671835    64.033283  0.032938931  0.035827696            3 
  163000    1.1873662   -6.6298984    64.564989  0.033008686  0.035796225            2 
  164000    1.1955201   -6.6546656    64.843126  0.032948743  0.035763662            4 
  165000    1.1908574   -6.5929485    65.668994  0.033166159  0.035738584            4 
  166000    1.2076951   -6.5586257    66.305888  0.033286088  0.035712169            2 
  167000    1.1825259   -6.5979286    66.402909  0.033135184  0.035687349            3 
  168000    1.2079692   -6.5732783    66.866021  0.033167669  0.035661297            2 
  169000    1.1865837   -6.6334211    67.252182  0.033161825  0.035637671            2 
  170000    1.1992429   -6.6531018    67.497443  0.033086982  0.035615911            2 
  171000    1.1721664   -6.6241568    68.238675  0.033254715  0.035595266            2 
  172000    1.2140664   -6.6037203    68.697293  0.033283572  0.035576463            2 
  173000     1.177167   -6.6552929    68.899215  0.033188447  0.035557098            4 
  174000    1.2064737   -6.6717037    69.157193  0.033121261  0.035536105            2 
  175000    1.1623882   -6.5964051     69.92935   0.03329969  0.035515876            3 
  176000    1.1923468   -6.6578559    70.047159  0.033166268   0.03549647            4 
  177000    1.1819465   -6.5936189    70.517171  0.033200175  0.035474426            1 
  178000    1.2061235   -6.6290981    70.787959   0.03314043  0.035455491            2 
  179000     1.190543   -6.6714929    71.047987  0.033076344  0.035434074            4 
  180000    1.1971065   -6.6448226    71.505628  0.033104457  0.035412853            4 
  181000    1.2063417   -6.6709849    71.678471  0.033001138  0.035390298            2 
  182000    1.1792459     -6.65263     72.34306  0.033124112  0.035368275            3 
  183000    1.1753284    -6.645359    72.833301  0.033166348  0.035346872            2 
  184000     1.204898   -6.6507014     72.99238  0.033058143  0.035322481            4 
  185000    1.1774036   -6.6359129    73.620488  0.033162382  0.035296708            3 
  186000    1.1787018   -6.6652711    73.463597  0.032913798  0.035270171            4 
  187000    1.1803777   -6.6552028    73.722515  0.032853171  0.035240109            2 
  188000     1.186486   -6.6400003    74.156718  0.032870885  0.035209945            4 
  189000    1.1529187   -6.6469205    74.566215   0.03287752  0.035180995            5 
  190000    1.2062751   -6.6098083     75.12682   0.03295036  0.035152984            3 
  191000    1.1601238   -6.6790415    74.953231  0.032702108  0.035125281            4 
  192000    1.1693287   -6.6230883     75.63773  0.032828876  0.035093939            2 
  193000     1.171341   -6.6453445    76.040897  0.032832857   0.03506758            4 
  194000    1.1814842   -6.6043984    76.233452  0.032746328  0.035040721            3 
  195000    1.1726739   -6.6582647    76.410441  0.032654035  0.035012354            4 
  196000    1.1770202    -6.642865    77.095867  0.032778855  0.034982113            3 
  197000    1.1970518   -6.6506496    77.157827  0.032638675   0.03495087            4 
  198000    1.1578372   -6.6127748    77.855576  0.032767498   0.03491862            4 
  199000     1.185024   -6.6495664    78.004753  0.032665307  0.034888207            3 
  200000    1.1480583     -6.66033    78.150356  0.032562648  0.034854811            3 
  201000    1.1781087   -6.6220175    78.885204  0.032705308  0.034824719            2 
  202000    1.1855442    -6.651111    78.895934  0.032547827  0.034795035            5 
  203000    1.1826492   -6.6175918      79.3917   0.03259101  0.034764926            3 
  204000    1.1633735   -6.6328196    79.460132  0.032459204  0.034733734            5 
  205000    1.1645807   -6.6771574    79.950228  0.032500093  0.034700358            3 
  206000    1.1672194   -6.6447203    80.076947  0.032393587  0.034666969            2 
  207000    1.1903667   -6.6797034    80.183664  0.032280058  0.034632309            2 
  208000    1.1643352   -6.6973696    80.809579  0.032375632  0.034598969            2 
  209000    1.1701417   -6.6699837    81.414211  0.032461807  0.034569345            3 
  210000    1.1722113    -6.616079    82.122304  0.032588216  0.034541428            3 
  211000    1.1528677   -6.6576098     81.95492  0.032367662  0.034513827            2 
  212000    1.1681986   -6.6851861    82.484243  0.032423052  0.034484642            3 
  213000    1.1558208   -6.6889186    82.739145  0.032370557  0.034456432            3 
  214000    1.1785937   -6.6732169    83.260972  0.032422497  0.034427824            3 
  215000    1.1655746   -6.6690426    83.737181  0.032456272  0.034399786            3 
  216000    1.1643282   -6.6402075    84.430811  0.032573615  0.034373736            9 
  217000     1.184515   -6.7700668    84.071718  0.032285606  0.034346703            3 
  218000    1.1898504   -6.6610329    84.751724  0.032397448  0.034318992            2 
  219000    1.1558426   -6.6809523    85.325605  0.032467886  0.034294971            2 
  220000    1.1822214   -6.6835802    85.873734   0.03252793  0.034272341            6 
  221000    1.1597604   -6.6526266    86.110935  0.032470186  0.034249291            2 
  222000    1.1544401   -6.7085695    86.368962  0.032420782   0.03422598            3 
  223000    1.1650867   -6.6690266    87.027707  0.032521564  0.034203263            4 
  224000    1.1525836   -6.6922585    87.188583  0.032436229  0.034179563            2 
  225000    1.1640064   -6.7309951    87.719884  0.032488846  0.034156487            5 
  226000    1.1785184   -6.7158181    88.169323  0.032510812  0.034135606            3 
  227000    1.1584269     -6.68022    88.252026  0.032397954  0.034115191            3 
  228000    1.1783675   -6.7351313    88.604405  0.032384651  0.034092614            5 
  229000    1.1691236   -6.6810429    89.195568  0.032458358  0.034069598            3 
  230000    1.1642822   -6.7262725     89.36571   0.03237888  0.034048006            2 
  231000    1.1497044   -6.6958318    89.601541  0.032323788  0.034025643            1 
  232000    1.1418913   -6.6545695    90.386377  0.032466371   0.03400263            1 
  233000    1.1708241   -6.6889005    90.320927  0.032303622  0.033981218            4 
  234000    1.1881839   -6.6857832    90.626807  0.032274504  0.033957686            2 
  235000    1.1474878   -6.6850656    91.139537  0.032318985  0.033937009            5 
  236000    1.1625112   -6.6803349     91.75899  0.032400773   0.03391574            2 
  237000    1.1547976    -6.698111    92.284994  0.032449013   0.03389657            3 
  238000    1.1707027   -6.7059977    92.101183  0.032248313  0.033875438            3 
  239000    1.1508845   -6.7172713    92.416681   0.03222339  0.033852399            3 
  240000    1.1659351   -6.6968479    92.959651  0.032277656  0.033830266            5 
  241000    1.1642716   -6.7105141    92.969657  0.032147184  0.033806467            2 
  242000    1.1487295   -6.7164746    92.726467  0.031930601  0.033780739            4 
  243000    1.1683803   -6.6113118    93.826218  0.032176343  0.033754365            2 
  244000    1.1555938   -6.7157763    93.779789  0.032028616  0.033727121            3 
  245000    1.1788851   -6.7227948    94.041545   0.03198692  0.033701568            4 
  246000    1.1682689   -6.7037446    94.515059  0.032017296   0.03367569            3 
  247000     1.156544   -6.7660525    94.685481  0.031945169   0.03364932            7 
  248000    1.1565631   -6.6685607    95.374941  0.032048031   0.03362398            1 
  249000    1.1551706   -6.6983067    95.432814  0.031938693  0.033600015            4 
  250000    1.1472636   -6.7065987    95.957349  0.031985783  0.033574963            4 
  251000    1.2031668   -6.7022726    96.405149  0.032007021   0.03355097            4 
  252000    1.1547054   -6.6675208    97.182735  0.032137148  0.033529049            2 
  253000    1.1461042   -6.7217011    96.864641  0.031905349  0.033505985            2 
  254000    1.1612984   -6.6594341    98.023547  0.032159956  0.033482885            7 
  255000    1.1742616   -6.7257553    97.696588   0.03192699  0.033461171            3 
  256000    1.1568077   -6.7446356    97.845057  0.031850604  0.033438372            2 
  257000    1.1377398   -6.7156025    98.455366  0.031924567  0.033413719            2 
  258000    1.1607603   -6.6828799    99.034042  0.031987739  0.033389815            4 
  259000     1.151504   -6.7409215    98.986467  0.031848928  0.033366199            3 
  260000    1.1458857   -6.6999041    99.746791  0.031970125  0.033341814            1 
  261000    1.1605813   -6.7474319    99.642126  0.031814217  0.033318999            2 
  262000    1.1528314   -6.7159927    100.32172  0.031908945  0.033296522            4 
  263000    1.1533393   -6.7262548    100.26111  0.031768414  0.033273892            3 
  264000    1.1662607   -6.7317007     100.9462  0.031864331  0.033252498            2 
  265000    1.1502555   -6.7163225     101.1765   0.03181651  0.033229285            2 
  266000    1.1385345   -6.7504862    101.58524   0.03182495  0.033207958            4 
  267000    1.1651972   -6.7534681    101.61521   0.03171511  0.033186814            3 
  268000    1.1630028   -6.6586636     102.4251    0.0318486   0.03316513            3 
  269000    1.1405063   -6.7412366    102.40483  0.031723926  0.033142376            1 
  270000    1.1423174   -6.7467706    102.88008  0.031753112  0.033119893            2 
  271000    1.1556287   -6.7029545    103.43159  0.031805532  0.033096839            3 
  272000    1.1733693   -6.7289408    103.26004  0.031636043  0.033073792            3 
  273000    1.1757812   -6.6935599    103.97004  0.031736887  0.033049742            3 
  274000    1.1371914   -6.7064616    104.30188  0.031721982  0.033027765            3 
  275000    1.1309932   -6.7454742    104.47394   0.03165877  0.033005239            2 
  276000    1.1283312   -6.7612794    104.42276  0.031528611  0.032980897            4 
  277000    1.1196335    -6.723289    105.19867  0.031648217  0.032958824            2 
  278000     1.111961   -6.7065081    105.34178  0.031577273  0.032936045            2 
  279000    1.1272949   -6.6574193    105.83859  0.031612481  0.032912538            3 
  280000    1.1452071   -6.7517007    105.98756  0.031543918  0.032888212            2 
  281000    1.1534712   -6.7652717    105.86224  0.031394497   0.03286401            4 
  282000    1.1306107   -6.7671267    106.00597   0.03132564  0.032839068            5 
  283000    1.1599342   -6.7267969    106.62297  0.031396634  0.032813693            3 
  284000    1.1076492   -6.7501057    107.20836  0.031457853   0.03278861            3 
  285000     1.119287   -6.7358747    107.22177  0.031351394   0.03276276            4 
  286000    1.1817979   -6.7162382    107.85964  0.031427633   0.03273726            2 
  287000    1.1374044   -6.6924627    108.09619  0.031386815  0.032711277            4 
  288000    1.1619154   -6.7496817    108.03735  0.031260808  0.032685496            2 
  289000    1.1545107   -6.7226215    108.70178  0.031344226  0.032659108            2 
  290000    1.1384209   -6.7816438    108.73659  0.031246147  0.032632894            2 
  291000    1.1604589   -6.7350679    109.18278  0.031266547  0.032606004            4 
  292000    1.1594375   -6.7229894    109.24979  0.031178594  0.032579245            3 
  293000     1.118465   -6.7396602    109.65859  0.031188451  0.032554013            4 
  294000    1.1235837   -6.7605207    109.72922  0.031102386  0.032527958            3 
  295000    1.1173796   -6.7223495    110.11451  0.031105794  0.032500025            1 
  296000    1.1086222   -6.7689129    110.48294  0.031104431  0.032470985            4 
  297000    1.1244566   -6.8046731    109.75157  0.030794492  0.032442615            5 
  298000     1.151734   -6.7492306    110.58282  0.030923607  0.032415199            3 
  299000    1.1515594   -6.7312836    110.97578  0.030929704  0.032387318            4 
  300000    1.1261823    -6.778704    111.40707  0.030946408  0.032358761            3 
  301000    1.1432019   -6.7343348    111.87683  0.030973651  0.032330798            9 
  302000    1.1503454   -6.7582564    111.87436  0.030870408  0.032302239            4 
  303000    1.1186538   -6.7768695    112.08857   0.03082744  0.032274945            5 
  304000      1.11362   -6.7261168    113.08168  0.030998268  0.032248475            4 
  305000    1.1379599   -6.7538216    113.08576  0.030897748   0.03222254            2 
  306000    1.1226632   -6.7647974    113.79927  0.030991088  0.032197254            2 
  307000    1.1451257   -6.7964419    113.92794  0.030925066  0.032172837            2 
  308000    1.1148451   -6.7679878    114.31053  0.030928174  0.032147701            3 
  309000     1.139369    -6.787767    114.36222  0.030842023  0.032122024            3 
  310000    1.1324235   -6.7442715    114.56337  0.030796606  0.032095407            5 
  311000    1.1099341   -6.7708442      115.026  0.030821543  0.032070823            3 
  312000    1.1404136   -6.7729749    115.65554  0.030890904  0.032046535            2 
  313000     1.147846   -6.7770878    115.79538  0.030829441  0.032021717            5 
  314000    1.1236436   -6.7400508    116.46715   0.03090954  0.031998226            3 
  315000    1.1309722   -6.7795765    116.44193  0.030804744  0.031973367            4 
  316000    1.1226955   -6.7863927    116.83725  0.030811511  0.031949526            3 
  317000      1.11864    -6.742367     117.0914  0.030781126  0.031926008            2 
  318000     1.131928   -6.7614384    117.59223  0.030815573  0.031903045            3 
  319000    1.1174964   -6.8191398      117.515  0.030698799  0.031878552            3 
  320000    1.1348128   -6.7805074    118.28099  0.030802341  0.031854422            5 
  321000    1.0955298   -6.7989982    118.08417  0.030655289  0.031830077            4 
  322000    1.1175155   -6.8079205    118.59304  0.030691779  0.031805967            3 
  323000     1.157139   -6.7769766    119.10375  0.030728523  0.031782787            2 
  324000    1.1532707   -6.8279866    119.42687  0.030716788  0.031759524            4 
  325000    1.1138525   -6.7959744    119.72824   0.03069955  0.031737981            2 
  326000    1.1312015   -6.7874489    120.25106  0.030739024  0.031716662            2 
  327000    1.1044337   -6.8439487     119.8479  0.030542278  0.031694717            3 
  328000     1.130992   -6.8277522    120.58629   0.03063676  0.031671931            8 
  329000    1.1296113   -6.8079111    120.76165  0.030588056  0.031650156            3 
  330000    1.1271787   -6.8048779    121.59569  0.030705982  0.031627859            4 
  331000    1.1083406   -6.8400416    121.25913  0.030528482  0.031605531            1 
  332000    1.1289643   -6.8170155    121.67896  0.030541907  0.031582519            4 
  333000     1.123763   -6.8181916    121.51141   0.03040826  0.031557271            5 
  334000    1.1401784   -6.8233017    121.41135  0.030292252  0.031533231            5 
  335000    1.1156926   -6.8098743     122.0247  0.030354404  0.031508503            5 
  336000    1.1098816   -6.8369375     121.6469  0.030170363  0.031483027            3 
  337000    1.1090283   -6.8185069    122.27003  0.030234924  0.031457196            7 
  338000    1.1189701   -6.7974118    122.51382  0.030205578  0.031430795            2 
  339000    1.1017646   -6.7575678    123.56072  0.030373824  0.031405458            4 
  340000    1.1478157   -6.8125765    123.69003  0.030316184  0.031380367            5 
  341000    1.1226449   -6.8178333    123.61361  0.030208605  0.031355677            7 
  342000    1.1115175   -6.7920777    124.33632  0.030296374  0.031331112            2 
  343000    1.0945699   -6.8013146    124.35828  0.030213381  0.031307102            3 
  344000     1.104134   -6.8145327    124.38629  0.030132337  0.031282664            4 
  345000    1.1110052   -6.8417427    124.84207   0.03015509  0.031258399            3 
  346000    1.1342844   -6.7914716    125.35527  0.030191539  0.031233525            3 
  347000    1.1222478   -6.8650898    125.19268  0.030065486  0.031208681            3 
  348000    1.0967651   -6.7984141    125.58801  0.030073757  0.031183573            3 
  349000    1.1119609   -6.8017536    126.18549  0.030130252  0.031158752            3 
  350000    1.0934587   -6.7889112    126.25229  0.030060069  0.031133552            2 
  351000    1.0980342   -6.8245859    126.19297  0.029960344   0.03110706            4 
  352000    1.1310063   -6.8107236    126.24462  0.029887458   0.03108063            3 
  353000     1.089961   -6.7716223    127.13702  0.030013461    0.0310547            3 
  354000    1.0974934   -6.7888135    127.05873  0.029910247  0.031028575            3 
  355000    1.1396342   -6.8510077    127.50293  0.029930265  0.031003243            2 
  356000    1.1046527   -6.8514626    127.25653  0.029788512  0.030976684            3 
  357000    1.1083152   -6.7970438    127.91387  0.029858513  0.030951141            2 
  358000    1.1084858   -6.8050429    128.66684  0.029950383  0.030925594            3 
  359000    1.1128952   -6.8185984    128.86813  0.029913679  0.030899691           10 
  360000    1.1051828   -6.8319173    128.47974  0.029740681   0.03087398            2 
  361000    1.1034848   -6.8310599    129.03354  0.029786136   0.03084792            2 
  362000    1.0858224   -6.8508501    129.44864  0.029799411  0.030823309            2 
  363000    1.1283238   -6.8315988    129.66383  0.029766719  0.030799146            7 
  364000    1.1137538   -6.8159178    130.43733  0.029862026  0.030775386            7 
  365000    1.1186164    -6.859731    130.67651  0.029834821  0.030751864            3 
  366000    1.1103205   -6.8367095    130.63369  0.029743554   0.03072816            2 
  367000    1.1248967   -6.8352134     130.8437  0.029710195  0.030703287            5 
  368000    1.1066296   -6.8006405    131.10761  0.029689224  0.030677985            3 
  369000    1.1200072   -6.8244741     130.4926  0.029469874  0.030651108            2 
  370000    1.1058765   -6.8086539    131.46267   0.02960871  0.030624524            4 
  371000    1.0822428   -6.8161953    131.36796  0.029507627  0.030598602            3 
  372000    1.1113821    -6.839835    131.96124   0.02956121  0.030572862            3 
  373000    1.1060628   -6.8539635    132.30089   0.02955784   0.03054749            3 
  374000    1.1100494   -6.8058628    132.90124  0.029612576  0.030522877            2 
  375000    1.1036462   -6.8739246    133.15756  0.029590569  0.030498963            7 
  376000    1.1296677   -6.8531552    133.19382  0.029519906  0.030475377            4 
  377000    1.1103003   -6.8417902    133.65925  0.029544484  0.030451227            2 
  378000    1.1094173   -6.8678272    133.61836   0.02945731  0.030426199            5 
  379000    1.0956058   -6.8300861    134.05179  0.029474888  0.030400183            8 
  380000    1.0998331   -6.8242523     134.2431  0.029439276  0.030374306            4 
  381000    1.1234361   -6.8125937    134.42083  0.029400881  0.030348473            4 
  382000    1.0805124   -6.8466122    134.39018  0.029317229  0.030322418            4 
  383000    1.1119235    -6.812165     135.0839  0.029391623  0.030296436            2 
  384000    1.1184331   -6.8334955    134.50677  0.029189838  0.030270575            3 
  385000    1.0994468   -6.8627443    134.55119  0.029123635  0.030244097            3 
  386000     1.104877   -6.7832407    135.66896  0.029289499  0.030218104            4 
  387000    1.1032961   -6.8644939     135.6708  0.029214212  0.030192519            3 
  388000    1.1255348   -6.8463399    136.22768  0.029258522   0.03016673            4 
  389000    1.0912985   -6.8408795    136.06002  0.029147391  0.030140904            6 
  390000    1.0921887   -6.8572665    136.44323  0.029154537  0.030115243            3 
  391000    1.0834519   -6.8700513    136.25413  0.029039669  0.030089487            3 
  392000    1.0874874    -6.839004    137.24804   0.02917688  0.030063777            3 
  393000     1.095114   -6.8595503    136.55777  0.028956269  0.030037685            3 
  394000    1.1035516   -6.8896109    137.18968  0.029016429  0.030011579            2 
  395000    1.1030909   -6.8906855    137.13702  0.028931861  0.029986036            2 
  396000    1.1372107    -6.878193    137.94402  0.029028623   0.02996123            3 
  397000    1.1092709   -6.8629899    137.98283  0.028963651  0.029936181            2 
  398000    1.0967582   -6.8570739     138.2875  0.028954669  0.029910138            2 
  399000    1.0994224   -6.8235179      139.015  0.029034043  0.029885481            3 
  400000    1.0978626    -6.846756    139.30388  0.029021642  0.029861049            5 
  401000      1.08049   -6.8797532    139.16723   0.02892087  0.029835837            1 
  402000    1.0749758    -6.888143    139.28862  0.028874091  0.029810314            4 
  403000    1.0988356   -6.8698824    139.37088  0.028819453  0.029784747            2 
  404000    1.0816333    -6.901006    139.76468  0.028829347   0.02975915            4 
  405000    1.0807358   -6.8510467    140.32966  0.028874416  0.029733719            3 
  406000    1.0940612   -6.8762015    140.10526  0.028757238  0.029709387            3 
  407000    1.0976066   -6.8818227    140.94037  0.028857569  0.029684317            1 
  408000     1.105666   -6.8277846    141.00402   0.02879984  0.029659412            2 
  409000    1.0983756   -6.9150413    140.96174   0.02872081  0.029635144            3 
  410000    1.1139885   -6.8352541    142.14181  0.028890612  0.029610916            5 
  411000    1.0809684   -6.8744917    142.25509  0.028843286  0.029587062            6 
  412000    1.1047261   -6.8602744    142.67663  0.028858542  0.029563318            2 
  413000    1.0918619   -6.8558546    143.17503  0.028889232  0.029539881            4 
  414000     1.097702   -6.8934418    142.59438  0.028702573   0.02951661            6 
  415000     1.074339   -6.8970105    143.04556  0.028724009  0.029492519            3 
  416000    1.0780015    -6.912704    143.34571  0.028715085  0.029469176            5 
  417000    1.0779579   -6.8767362    143.70577  0.028718179  0.029445726            3 
  418000    1.1018712   -6.9037694    143.39369  0.028587258  0.029421946            4 
  419000    1.0969211   -6.9107959    143.51761  0.028543678  0.029397579            4 
  420000    1.0601714   -6.8451371     144.3753  0.028645893  0.029373546            5 
  421000    1.0972721   -6.8733903     144.9325  0.028688144  0.029350196            3 
  422000     1.066067   -6.8991362    144.55379  0.028545377  0.029327112            3 
  423000    1.0914427   -6.9085506    145.21797  0.028608741  0.029303196            2 
  424000    1.0872497   -6.8779972    145.41898  0.028580774  0.029279792            5 
  425000    1.1018234   -6.8691823     146.2013  0.028666921  0.029256692            3 
  426000     1.085054   -6.9208188    145.91006  0.028542657  0.029234138            7 
  427000    1.0946385   -6.9188001    145.72745  0.028440173  0.029211205            3 
  428000    1.1134623   -6.9147547    146.56213  0.028536241  0.029187914            5 
  429000    1.1035204   -6.9072714     146.4646  0.028450778  0.029165146            5 
  430000    1.0768546   -6.9325507    146.88557  0.028466196  0.029142367            6 
  431000    1.0651287   -6.9150043    147.46211  0.028511621  0.029120323            5 
  432000    1.0762827   -6.9127777    147.37991  0.028429766  0.029098018            4 
  433000      1.06292   -6.9072181    148.08048  0.028498937  0.029076187            4 
  434000    1.0702321   -6.8674976    148.20226  0.028456654   0.02905416            6 
  435000    1.1086276   -6.9017169    147.98259  0.028349155  0.029031733            4 
  436000     1.106654   -6.9230922    148.53642  0.028389988  0.029009045            5 
  437000    1.0852333   -6.9416709    148.45148  0.028308826  0.028985733            3 
  438000    1.0699533   -6.8478864      149.408  0.028426179  0.028962978            2 
  439000    1.0891897   -6.9221621    148.97208  0.028278679  0.028940853            4 
  440000    1.1002609   -6.9119299    149.12271  0.028242938  0.028918004            3 
  441000    1.0643475   -6.9181235    149.38526  0.028228508  0.028894643            5 
  442000    1.0894599   -6.8902082    149.82178  0.028246942  0.028872095            7 
  443000    1.0639835   -6.9222051    149.88639  0.028195332  0.028850114            3 
  444000    1.0994949   -6.8867706    150.51812  0.028250397  0.028827695            5 
  445000    1.0999236   -6.9326508    150.25083   0.02813686  0.028805222            3 
  446000    1.1111307   -6.9072771    151.19155  0.028249543  0.028783226            5 
  447000    1.0749863   -6.9109342    151.17252  0.028182796  0.028761025            3 
  448000    1.0511308   -6.9301904    151.32723  0.028148667   0.02873879            6 
  449000    1.0708466   -6.8824138    151.27565  0.028076402  0.028715965            6 
  450000     1.076367   -6.9355433    151.20379  0.028000702  0.028693237            4 
  451000    1.0605343    -6.912497    151.90178  0.028067587  0.028670804            3 
  452000    1.0809404   -6.9472304    151.99484  0.028022648   0.02864887            1 
  453000     1.094167     -6.89959     152.9399  0.028134639  0.028626665            3 
  454000    1.0599087   -6.9487856    152.72209  0.028032688  0.028604716            2 
  455000     1.072058   -6.9315073    152.62731   0.02795372  0.028582045            3 
  456000    1.0912571   -6.9121833    153.23712   0.02800386  0.028559306            5 
  457000    1.0903521   -6.9107608    153.50412  0.027991269  0.028536719            8 
  458000    1.0556464   -6.9546928    153.20283  0.027875333  0.028513917            5 
  459000    1.0630274    -6.956745    153.50519  0.027869497  0.028491515            6 
  460000    1.0873495   -6.9228614    153.80115  0.027862527   0.02846843            6 
  461000     1.076549   -6.8876168    154.17359  0.027869412  0.028445111            5 
  462000    1.0568409   -6.9244163    154.38018  0.027846352  0.028422403            4 
  463000    1.0589253   -6.9183653    154.58176  0.027822491  0.028399409            5 
  464000    1.0662304   -6.9289123    154.64497   0.02777388  0.028376182            2 
  465000     1.068881   -6.9511824    155.08639   0.02779326  0.028353845            3 
  466000    1.0757926   -6.9701041    154.85173  0.027691655  0.028331289            3 
  467000    1.0619082   -6.9039899    155.76026  0.027794479  0.028309168            1 
  468000    1.0593387   -6.9375404    155.35692   0.02766327  0.028286906            3 
  469000    1.0616474   -6.9032611    155.99664  0.027717953  0.028264284            9 
  470000    1.0762822   -6.9634911    155.49426  0.027569904  0.028241997            3 
  471000    1.0578204   -6.9340976    156.39643  0.027670988  0.028219551            3 
  472000    1.0661131   -6.9541492    156.59235  0.027646954  0.028196972            6 
  473000    1.0488658   -6.9716331    156.39141  0.027553102  0.028174347            4 
  474000    1.0368564   -6.9564667     157.0515  0.027611024  0.028151663            4 
  475000    1.0749222   -6.9374687    157.21531  0.027581633  0.028129612            5 
  476000    1.0553559   -6.9580007     157.3739  0.027551454  0.028107677            5 
  477000    1.0820419   -6.9371693    157.40612  0.027499321  0.028085858            6 
  478000    1.0599702   -6.9340673    157.75952  0.027503402   0.02806348            3 
  479000    1.0810564   -6.9547675    157.93697  0.027476856  0.028040807            5 
  480000    1.0453041    -6.953349    158.12895  0.027452943  0.028018442            3 
  481000    1.0616915   -6.9633952     158.5532  0.027469369  0.027995897            3 
  482000    1.0800045   -6.9632239    158.66595  0.027431873  0.027973538            5 
  483000    1.0504958    -6.955398    159.09116   0.02744844  0.027951308            3 
  484000    1.0553158   -6.9721109    159.36802  0.027439397  0.027930016            9 
  485000    1.0594763     -6.94703     159.6433  0.027430121  0.027908101            2 
  486000    1.0774891   -6.9580426    160.30934  0.027487884  0.027886803            2 
  487000    1.0836857   -6.9398873    160.48329  0.027461206  0.027865319            2 
  488000     1.071868   -6.9418885    160.73228  0.027447452  0.027844438            3 
  489000    1.0887695      -6.9834    160.14761  0.027291686  0.027823773            3 
  490000    1.0649963   -6.9757876    160.93283   0.02736953  0.027802553            4 
  491000     1.063107   -6.9447356    161.11588  0.027344854  0.027781105            3 
  492000    1.0405969   -6.9615535    161.09192  0.027285218   0.02776041            5 
  493000    1.0442386   -6.9784308    161.39356  0.027280859   0.02773949            3 
  494000    1.0694061    -6.964812    161.97522  0.027323755  0.027718897            3 
  495000    1.0641809   -6.9358328    162.54107  0.027363816   0.02769836            4 
  496000    1.0303302   -6.9702217    162.30167  0.027268426  0.027677415            3 
  497000    1.0441159    -6.964316    162.40296  0.027230544   0.02765642            2 
  498000    1.0625686   -6.9936612    162.65637  0.027218268  0.027635504            8 
  499000    1.0636903   -7.0516365    162.45409  0.027129942  0.027613781            8 
  500000    1.0642688   -6.9618857     163.4509  0.027241817  0.027592322            3 
  501000     1.039118   -6.9755427    162.96811  0.027107138  0.027571069            6 
  502000    1.0569876   -6.9442306    163.48852  0.027139529  0.027550141           10 
  503000    1.0770028   -6.9768583    163.45387  0.027079832  0.027528767            4 
  504000    1.0414821   -6.9770556    163.50857  0.027035147  0.027507643            3 
  505000    1.0424991   -6.9225186     164.5515  0.027153713  0.027486713            2 
  506000    1.0505592   -6.9695128    164.37907  0.027071652  0.027466015            3 
  507000    1.0518091   -6.9742453    164.26989   0.02700031  0.027444705            6 
  508000    1.0504957   -6.9706698    164.84569  0.027041615  0.027423197            5 
  509000    1.0345148   -6.9853092    164.58023  0.026945028  0.027402012            5 
  510000    1.0427095   -6.9485496    165.40376  0.027026758  0.027380935            9 
  511000     1.039814   -6.9729178    165.70076  0.027022302  0.027360519            3 
  512000    1.0433998    -7.001192    165.32662   0.02690863  0.027339212            6 
  513000    1.0424574   -6.9867636    165.62287    0.0269043  0.027317754            4 
  514000    1.0605088   -6.9552483    165.83986  0.026887137  0.027296737            3 
  515000    1.0547938   -7.0216852    165.82317  0.026832229   0.02727546            3 
  516000    1.0418251   -6.9899951     166.3085  0.026858608   0.02725404            4 
  517000    1.0401461   -7.0429064     166.0998  0.026773017  0.027232251            5 
  518000    1.0441712   -7.0236014    166.80773  0.026835221  0.027210309            3 
  519000     1.071531   -7.0093515     166.3104  0.026703661  0.027188603            5 
  520000    1.0465362   -7.0427349    166.94005  0.026753213  0.027167297            3 
  521000    1.0501516   -6.9600877    167.49857  0.026791198  0.027146296            6 
  522000    1.0611204   -7.0443266    167.58032  0.026752925  0.027125642            2 
  523000    1.0394582    -7.030818    167.47259  0.026684606  0.027104645            4 
  524000    1.0285325   -7.0012054    168.25806  0.026758597  0.027083687            4 
  525000    1.0532183   -7.0357408    168.07714  0.026678912  0.027062945            4 
  526000    1.0415794   -6.9762756    168.20797  0.026648918  0.027041975            2 
  527000    1.0298934   -6.9880785    168.95344   0.02671623  0.027021004            5 
  528000    1.0507743   -6.9817103    168.56881  0.026604925  0.026999827            5 
  529000    1.0273486   -7.0291275    168.65184  0.026567713  0.026978436            4 
  530000    1.0205032   -6.9814835    169.54297  0.026657699  0.026957514            3 
  531000    1.0498693   -7.0563421    169.16147  0.026547625  0.026937178            3 
  532000    1.0641321   -7.0228757    169.50245  0.026551135  0.026916343            3 
  533000    1.0458589   -7.0029132    170.23049  0.026615148  0.026895997            6 
  534000    1.0315735   -6.9943123    170.05386  0.026537743  0.026875732           10 
  535000      1.04409   -7.0087245    170.08887  0.026493594   0.02685541            6 
  536000    1.0327783   -7.0186671    170.69639  0.026538618  0.026834917            2 
  537000    1.0343717   -7.0426148    171.04157  0.026542763  0.026814636            5 
  538000    1.0461752   -6.9878263    170.88847  0.026469713  0.026794047            5 
  539000    1.0544717   -7.0336579    171.48019  0.026512089  0.026773795            5 
  540000    1.0377652   -7.0165583    171.39314  0.026449559  0.026753286            4 
  541000    1.0654471   -7.0145538    171.66464   0.02644249  0.026732743            3 
  542000    1.0402742   -7.0025612    171.79929  0.026414404  0.026712788            1 
  543000    1.0616031   -7.0186937    172.11207  0.026413761  0.026692525            2 
  544000    1.0271307   -6.9996754    172.70782  0.026456468  0.026672971            2 
  545000    1.0562799   -6.9482622    173.30279  0.026498897  0.026653844           10 
  546000     1.030727   -7.0305752    172.87981  0.026385807  0.026634721            4 
  547000    1.0280561   -7.0058832    173.44955  0.026424368  0.026615468            6 
  548000    1.0310989   -7.0233784    172.96534  0.026302515  0.026595591            4 
  549000    1.0488133   -7.0204901    173.07609  0.026271416  0.026575275            6 
  550000    1.0455043   -7.0206651    174.22324   0.02639746  0.026555267            4 
  551000    1.0047359   -7.0176819    173.81777  0.026288229  0.026535394            2 
  552000    1.0409343   -7.0495499    173.62988   0.02621224  0.026514943            2 
  553000    1.0279737   -7.0682929    173.92071  0.026208666  0.026494373            7 
  554000   0.98826143   -6.9926893     173.9381  0.026163974  0.026474145            3 
  555000    1.0260776   -7.0477267     173.2362  0.026011441  0.026453203            4 
  556000     1.036214   -7.0336361     174.0091  0.026080501  0.026432336            2 
  557000    1.0352544   -7.0489921    174.15961  0.026056196  0.026411628            4 
  558000    1.0215819   -7.0052607    174.70682  0.026091222  0.026391255           11 
  559000    1.0178986   -7.0909024    174.91706  0.026075888   0.02637117            5 
  560000    1.0179081   -7.0397112    175.27443  0.026082504  0.026350999            3 
  561000    1.0414519   -7.0546241    175.31355  0.026041823  0.026330761            7 
  562000    1.0277129   -7.0684721    175.41169  0.026010038   0.02631016            3 
  563000    1.0138593    -7.102711    175.16294  0.025927019  0.026289167            5 
  564000    1.0250139    -7.022721    175.66461  0.025955173  0.026268344            7 
  565000    1.0357859   -7.0380436    176.39694  0.026017247  0.026247617            4 
  566000     1.026128   -7.0815939     175.6718  0.025864517  0.026226626            4 
  567000    1.0160589   -7.0391735    176.28351  0.025908805   0.02620558            8 
  568000     1.049767   -7.0917511    176.01188  0.025823339  0.026184788            6 
  569000    1.0437581   -7.0823311    176.52135  0.025852571  0.026164013            5 
  570000    1.0132584   -7.0841353    176.43162  0.025794096  0.026143237            7 
  571000    1.0436566   -7.0488409    176.74558  0.025794744  0.026121888            7 
  572000    1.0180893   -7.0478243     177.1695  0.025811407  0.026100903            3 
  573000    1.0433017   -7.0680936    176.91445  0.025729269  0.026079874            4 
  574000    1.0135734   -7.0525461    177.80724  0.025814059   0.02605928            4 
  575000    1.0210296   -7.0776515    177.97822  0.025793944    0.0260393            4 
  576000    1.0293555   -7.0651403    178.13985  0.025772548  0.026019248            6 
  577000    1.0353878    -7.080611    177.67375  0.025660565  0.025999016            8 
  578000    1.0137546    -7.048829    178.79494  0.025777817  0.025978382            5 
  579000    1.0108149   -7.0888306    178.60741  0.025706305  0.025957946            2 
  580000    1.0332229   -7.0873655    178.78978  0.025688187  0.025937372            3 
  581000    1.0371762   -7.0789579     178.9321  0.025664387  0.025916837            4 
  582000    1.0497624    -7.107628    178.75413  0.025594807  0.025896409            2 
  583000     1.024766   -7.0523741    179.48324  0.025655124  0.025876011            7 
  584000    1.0329423   -7.0542402    180.07528  0.025695673    0.0258563            4 
  585000    1.0247677   -7.1132189    179.30283  0.025541714  0.025836313            6 
  586000    1.0078341   -7.0671203    179.94114  0.025588899  0.025816715            4 
  587000   0.99890199   -7.1123416    179.86722  0.025534813  0.025797192            6 
  588000    1.0045384   -7.1227876    179.83669   0.02548706  0.025777717            6 
  589000     1.005302   -7.1040912    181.45205  0.025672333  0.025757912            3 
  590000    1.0025111    -7.093656     180.7423  0.025528573  0.025738097            5 
  591000    1.0282451    -7.125111    180.35327  0.025430523  0.025718301            4 
  592000    1.0319111   -7.0946541    180.96335  0.025473444  0.025698242            3 
  593000    1.0250883   -7.0797547    181.43697  0.025497045  0.025678193            7 
  594000    1.0300194   -7.0526735    181.89373    0.0255182  0.025658534            8 
  595000    1.0232255   -7.0882537     181.3455   0.02539853  0.025638981            5 
  596000    1.0288774   -7.1174898        181.7  0.025405481  0.025619264            3 
  597000    1.0167557   -7.0296733    182.45315  0.025468055  0.025599607            5 
  598000    1.0230633   -7.0608367    182.59445  0.025445157  0.025579872            6 
  599000    1.0289364    -7.094012    182.24492  0.025354052  0.025560094            6 
  600000   0.99781611   -7.0490348    182.77454  0.025385353  0.025540195            6 
  601000    1.0308374   -7.0886447    182.56165  0.025313595  0.025520612            3 
  602000    1.0038958   -7.1105392    182.74498  0.025296924  0.025501015            5 
  603000    1.0266217   -7.0843164    183.04377  0.025296265  0.025481063            5 
  604000   0.99075857   -7.0506606    182.99897  0.025248203  0.025460933            2 
  605000   0.98822053   -7.1269428    182.81157  0.025180657  0.025441207            3 
  606000    1.0085346   -7.1189426     183.2393  0.025197924  0.025421121            3 
  607000    1.0307103   -7.1003837    183.65613  0.025213637  0.025400901            5 
  608000   0.99854299   -7.0768933    183.63745  0.025169606  0.025380883            3 
  609000   0.99258928   -7.0945001    184.08157  0.025189049  0.025361104            6 
  610000    1.0372973   -7.0972701    184.31235  0.025179283  0.025341249            7 
  611000   0.98963275    -7.103864    184.06407   0.02510421  0.025321435           11 
  612000   0.98778714   -7.1071954    184.37307  0.025105266   0.02530156            5 
  613000    1.0300973   -7.1265769     183.9859  0.025011677  0.025281507            3 
  614000    1.0126313   -7.1075026    184.24258  0.025005778  0.025261565            4 
  615000    1.0214469   -7.1487738    184.87909  0.025051367  0.025241849            5 
  616000    1.0186709   -7.1144236    184.71615  0.024988657  0.025222061            2 
  617000    1.0260443   -7.0970592    186.01413  0.025123464  0.025202161            8 
  618000    1.0160207   -7.1017703    185.74709  0.025046803  0.025182629            3 
  619000    1.0078848    -7.117367    185.49552  0.024972471  0.025162765            3 
  620000    1.0051781   -7.1185985    185.22665  0.024896055  0.025142703            7 
  621000    1.0148739   -7.1081034    185.81225  0.024934547  0.025123017            3 
  622000   0.99293384   -7.1177422    185.93757   0.02491125   0.02510302            5 
  623000    1.0058769   -7.1379811     186.2373  0.024911357  0.025083392            9 
  624000    1.0081441   -7.1505496    186.30013  0.024879825  0.025063697            7 
  625000   0.99923889   -7.1047241    186.38219  0.024850958  0.025044118            3 
  626000   0.98693878   -7.1619718    186.09973  0.024773659  0.025024563            4 
  627000    1.0168376   -7.1143231    186.67306  0.024810349  0.025004878            3 
  628000   0.99113141   -7.1406815    186.71755  0.024776745  0.024985268            3 
  629000   0.97613541   -7.1005221    187.18133  0.024798799  0.024965777            4 
  630000   0.99370651   -7.1255892    186.90031  0.024722263  0.024946425           13 
  631000    1.0151187   -7.1311375    186.98107  0.024693749   0.02492654            7 
  632000    1.0083163   -7.1232824     187.4622  0.024718118  0.024906471            8 
  633000    1.0015138   -7.1451816    187.48046  0.024681472  0.024886492            4 
  634000   0.99967147   -7.1449719    187.85567   0.02469186  0.024866476            3 
  635000   0.97955371   -7.1209518    188.41703  0.024726645  0.024846941            2 
  636000    1.0214323   -7.1062483    188.58874  0.024710265  0.024827532            3 
  637000   0.98398619   -7.1264617     188.8382  0.024704108  0.024808208            4 
  638000    1.0051626   -7.1180728    189.26765  0.024721479  0.024789025            8 
  639000     0.984199   -7.1515614    188.47241  0.024579084  0.024769817            7 
  640000    1.0160698   -7.1301286    189.28364  0.024646308  0.024750715            3 
  641000   0.99788291   -7.1552668    189.39027   0.02462172   0.02473142           11 
  642000    1.0154922   -7.1190268    189.66052  0.024618447  0.024712173            9 
  643000    1.0021874   -7.1521627    189.48449  0.024557347  0.024692951            5 
  644000   0.98803531    -7.131148    190.58184  0.024661211  0.024673659            4 
  645000    1.0045708   -7.1259006    190.01715  0.024550019  0.024654657            4 
  646000   0.99973807   -7.1495903    190.42103  0.024564116  0.024635749            4 
  647000    0.9702374   -7.1756197    190.00813  0.024472968  0.024616924            3 
  648000   0.99246754   -7.1529993    190.32832  0.024476379  0.024597981            4 
  649000   0.99987465   -7.1369657    191.00273   0.02452526  0.024578995            2 
  650000     1.018697   -7.1960382    191.64937  0.024570432  0.024560469            7 
  651000   0.98635223   -7.1826812    191.29987   0.02448795  0.024541989            5 
  652000   0.99698975   -7.1521148    191.16501  0.024433156  0.024523044            2 
  653000   0.99340842   -7.1672039    191.43198  0.024429808  0.024504121            5 
  654000   0.98596239   -7.1541143    191.52282  0.024404028   0.02448528            6 
  655000   0.99539877   -7.1211158    191.78325  0.024399904  0.024466572            6 
  656000    0.9912153   -7.1539784    192.32742  0.024431837  0.024447621            4 
  657000   0.98303991   -7.1393676    192.47205  0.024412995  0.024428831            4 
  658000    1.0114625   -7.1409651      192.189  0.024340046  0.024409948            6 
  659000   0.97508046   -7.1635975    192.31226  0.024318698  0.024391325            4 
  660000   0.99427041    -7.231037    191.83914  0.024222113  0.024372379            3 
  661000    1.0002435   -7.1634631    192.71303  0.024295641  0.024352976            7 
  662000   0.99687427    -7.160235    192.35315  0.024213639  0.024333617            4 
  663000   0.99147877   -7.1737809    192.82432   0.02423634  0.024314221            5 
  664000    0.9852118   -7.1798188    192.15095   0.02411533  0.024295067            5 
  665000    1.0012576   -7.1308824    193.52523  0.024251282  0.024276043           11 
  666000    1.0017531   -7.1341061    193.20401  0.024174676  0.024256959            2 
  667000   0.99170983   -7.1364295    193.29277  0.024149521   0.02423767            4 
  668000   0.98193698   -7.1569871      193.605  0.024152321  0.024218628            4 
  669000    1.0153134   -7.1743176    193.40298  0.024091054  0.024199447            2 
  670000   0.97812722   -7.1382096    193.16366  0.024025331  0.024180038            2 
  671000   0.97222531   -7.1485797    193.93122  0.024084851  0.024160817            3 
  672000   0.97637343   -7.1767191    193.99423  0.024056824  0.024141869            3 
  673000   0.99759423   -7.1124198    194.97515   0.02414254  0.024123274            3 
  674000   0.99368129   -7.1596273    194.80896  0.024086172  0.024105039            5 
  675000    0.9540895   -7.1902947    194.21248  0.023976849  0.024086221            3 
  676000   0.98675575   -7.1733271    195.20612  0.024063871   0.02406748            6 
  677000    1.0049695   -7.1808926     195.1871  0.024025985  0.024049151            6 
  678000    0.9979509   -7.1769711    195.84513  0.024071427  0.024030985            3 
  679000   0.97332832   -7.1806434    196.04273  0.024060227  0.024012881            3 
  680000   0.97246897    -7.136823     196.0822  0.024029682  0.023995079            6 
  681000   0.98196812   -7.1806132    196.14183  0.024001693   0.02397732            3 
  682000   0.96149652   -7.1703421    196.94008  0.024064037  0.023959469            4 
  683000   0.97118903   -7.2134115    196.68539   0.02399773  0.023941793            8 
  684000   0.99005043    -7.157665     197.1858  0.024023612  0.023924214            2 
  685000   0.97986476   -7.1794314     197.2568  0.023997177  0.023906549            4 
  686000   0.98819235   -7.1790229    197.73479  0.024020262  0.023888953            3 
  687000   0.96572165   -7.1879141    197.63321  0.023972975  0.023871569            3 
  688000   0.98660017   -7.1935756    197.77126  0.023954853  0.023853848            5 
  689000   0.97226037   -7.1735192    197.68218   0.02390931  0.023836232            3 
  690000      0.96693     -7.17225    198.07606  0.023922229  0.023818699            6 
  691000   0.95510628   -7.1526793    198.76902   0.02397118  0.023801532            5 
  692000   0.97243415   -7.1471999    199.20711  0.023989296  0.023784315            5 
  693000   0.96086459   -7.1853986    198.89652  0.023917331  0.023767224            4 
  694000   0.97635166   -7.1847514    199.18094   0.02391702  0.023750112            3 
  695000   0.97130774   -7.1874914    198.95221  0.023855181  0.023732877            5 
  696000   0.94630849   -7.1927583    198.89353  0.023813881  0.023715786            4 
  697000   0.97479392   -7.2393236    199.55622  0.023858946  0.023698819           10 
  698000   0.97550554   -7.2207357    199.58024  0.023827631  0.023681645            5 
  699000   0.96067302   -7.2416187    199.21263  0.023749717  0.023664227            7 
  700000   0.97198322   -7.2493684    199.65983  0.023769027  0.023647031            8 
  701000   0.97326629   -7.2421091     199.2871  0.023690811  0.023629603            6 
  702000   0.96986248   -7.2235574    200.11768  0.023755661  0.023612165            9 
  703000   0.96459742   -7.2069789     200.3952  0.023754765  0.023594881            5 
  704000   0.97278057   -7.1946131    200.07423  0.023683029  0.023577725            5 
  705000   0.95876365   -7.1962335    200.49406  0.023699062  0.023560543            6 
  706000   0.98508748   -7.2201747    200.41001  0.023655573  0.023543404            4 
  707000    0.9856192   -7.2067458    200.08136  0.023583375  0.023525992            7 
  708000   0.98240374   -7.1953786    200.87967  0.023644029  0.023508629            9 
  709000   0.96195436   -7.2307525    200.61686   0.02357979  0.023491325            8 
  710000   0.97492289   -7.2113673    200.44534  0.023526449  0.023473899           11 
  711000   0.96082116   -7.2366309     200.7008  0.023523301  0.023456375            4 
  712000   0.96240574   -7.2232449    200.89427  0.023512906  0.023438737            5 
  713000   0.97228439   -7.2356151    201.03583  0.023496474  0.023421007            4 
  714000   0.95527522   -7.2124887    200.95695  0.023454359  0.023403242            6 
  715000   0.96122186   -7.2347668    201.34092  0.023466307   0.02338556            3 
  716000   0.96801821   -7.2684319    201.11034  0.023406697  0.023367723            5 
  717000   0.96326139   -7.2118835    202.37968  0.023521581  0.023350016            6 
  718000   0.97200073   -7.2039544    202.48222  0.023500721  0.023332348            6 
  719000   0.96265119   -7.2214477    201.83435  0.023392947  0.023314667            9 
  720000   0.96568804   -7.2064703    202.17126  0.023399451  0.023297169            3 
  721000   0.95964752   -7.2014823    202.28106  0.023379688  0.023279606            5 
  722000   0.97101405   -7.2265486    202.63263  0.023387885  0.023261953            4 
  723000   0.95472636   -7.2371667    202.66341  0.023359084  0.023244264           13 
  724000   0.95006777   -7.2611268     201.5057  0.023193565  0.023226479            6 
  725000   0.96590136   -7.2348102    202.41864   0.02326651  0.023208333            6 
  726000   0.97610393   -7.2153715    202.10606  0.023198583  0.023190195            2 
  727000   0.95044855   -7.2164818    203.02626  0.023272152  0.023172241            4 
  728000   0.98799294   -7.2296272    202.52057    0.0231823  0.023154215            5 
  729000   0.98613744   -7.2454574    202.80223  0.023182696  0.023136036            4 
  730000   0.97611867    -7.241724     203.1727  0.023193231  0.023118184            2 
  731000   0.98740098    -7.188363    204.01761  0.023257822  0.023100433            2 
  732000   0.96400474   -7.2117348    203.87068  0.023209321  0.023082766           16 
  733000   0.95020695    -7.225859    203.30643  0.023113509  0.023064885            3 
  734000   0.96431206   -7.2553714    202.84147  0.023029231  0.023046752            4 
  735000   0.97892827   -7.2577484    202.89086  0.023003498   0.02302851            5 
  736000   0.97600561   -7.2294245    203.27755  0.023016027  0.023010284            4 
  737000   0.95194652   -7.2312849    203.68158  0.023030481   0.02299226            4 
  738000   0.95034057   -7.2460151     203.9108  0.023025158  0.022974346            3 
  739000   0.98327484   -7.2511808    204.13771  0.023019588  0.022956278            4 
  740000   0.93890745   -7.2409403    203.94204  0.022966446  0.022938128            3 
  741000    0.9662149   -7.2059526     204.7233  0.023023313  0.022920281            5 
  742000   0.94482068   -7.2415907    204.63725   0.02298262  0.022902449            6 
  743000   0.95110484    -7.222284    204.64867  0.022952969  0.022884568            5 
  744000   0.95823624   -7.2290695    204.94364  0.022955157  0.022866893            3 
  745000   0.97221263   -7.2903716    204.95352   0.02292545  0.022848982            7 
  746000    0.9531656   -7.2530036    204.33182   0.02282527  0.022830937            5 
  747000   0.95112121   -7.2517967    205.49325  0.022924281  0.022812881            7 
  748000    0.9518444   -7.2685718    204.55806  0.022789446  0.022794863           11 
  749000   0.95467229   -7.2158453    205.08047  0.022817142  0.022777014            5 
  750000   0.95991508   -7.2664461    205.13364  0.022792626  0.022759001            8 
  751000   0.93964374   -7.2727021    205.84695  0.022841428  0.022740952            7 
  752000   0.97933664   -7.2747149    205.18275   0.02273745  0.022723178            4 
  753000   0.97265877   -7.2336886    205.73149  0.022767982  0.022705389            8 
  754000   0.93791816   -7.2415437    205.43385  0.022704891  0.022687648            3 
  755000    0.9642114   -7.2480736    205.96886   0.02273387   0.02267002           11 
  756000   0.96455524   -7.2495494     206.5112   0.02276358  0.022652582            4 
  757000   0.95604061   -7.2775316    206.10012  0.022688256  0.022635076            3 
  758000   0.93405827    -7.263834    206.85948  0.022741807  0.022617634            3 
  759000   0.94249059   -7.2799337    206.40098  0.022661504  0.022600004            8 
  760000    0.9621601   -7.2896757    207.02014  0.022699576   0.02258218            6 
  761000   0.94428515   -7.2589125    206.37174  0.022598745  0.022564296            3 
  762000   0.94910801   -7.2518838    207.21043  0.022660808  0.022546528            6 
  763000   0.96979708   -7.3073688    206.01061  0.022500067  0.022528734            8 
  764000   0.96131711   -7.2719282    207.09507  0.022588903  0.022510817            4 
  765000   0.94581494   -7.2440795    207.24686   0.02257591  0.022492931           12 
  766000   0.94628059     -7.29691     207.0852  0.022528851  0.022475089            7 
  767000   0.96344808   -7.2792043    206.83224  0.022471995  0.022457272            8 
  768000   0.94994102    -7.267642    207.54468  0.022520039  0.022439467            5 
  769000   0.96446589   -7.2849894    206.94764  0.022426056  0.022421696            3 
  770000   0.93952676   -7.2824568    207.02681  0.022405498  0.022403977           10 
  771000   0.96116719   -7.2338375    207.65694  0.022444546  0.022386175            5 
  772000    0.9375401   -7.2782641     208.0821  0.022461366  0.022368387            4 
  773000   0.92192567   -7.2493788    207.99719  0.022423155  0.022350569           13 
  774000   0.94095032   -7.2946459    207.94218  0.022388263  0.022332869            4 
  775000   0.95315637   -7.2934503    208.46704  0.022415811  0.022314989            6 
  776000   0.94023848   -7.2803173     208.0132  0.022338188  0.022297018            5 
  777000   0.95286272   -7.2765081    208.67682  0.022380611  0.022279271            4 
  778000   0.94862041   -7.3145294    208.47606  0.022330341  0.022261509            7 
  779000   0.93714523    -7.305518    208.47295  0.022301342  0.022243694            4 
  780000   0.95885909   -7.2949268    208.89517   0.02231786   0.02222569            5 
  781000   0.92543862   -7.2679925    208.63603  0.022261633    0.0222079            7 
  782000   0.92321048   -7.3195025    208.26377  0.022193496   0.02218988            5 
  783000   0.95787507   -7.2907444    208.99513   0.02224299  0.022172059            5 
  784000   0.94330768   -7.2689351     209.0669  0.022222247  0.022154251            2 
  785000   0.93504188   -7.2936194    208.71885   0.02215699  0.022136493            6 
  786000    0.9383775   -7.2600286    209.30861  0.022191328  0.022118735            8 
  787000   0.96460244   -7.2564084    209.37289  0.022169938  0.022101006            4 
  788000   0.92064111   -7.3079951     209.3391  0.022138229  0.022083122            2 
  789000   0.94083313   -7.2849482    209.21201  0.022096748  0.022065256            8 
  790000   0.94616464   -7.2876457     209.5578  0.022105253  0.022047359            5 
  791000   0.92657309   -7.3271404    208.97492    0.0220159  0.022029185           10 
  792000   0.94188554   -7.3439808    209.02433  0.021993301  0.022010983            8 
  793000   0.92187932   -7.3287267    209.39878  0.022004916  0.021992587            5 
  794000   0.94058765   -7.3319003    209.76353  0.022015484  0.021974253            7 
  795000   0.92101733   -7.3312666    209.88154  0.022000162  0.021955857            7 
  796000   0.93075544   -7.3533165    208.94105  0.021874063  0.021937282            4 
  797000   0.91995238   -7.3584676    209.28855  0.021882952  0.021918635            6 
  798000   0.93198335   -7.3421692    210.12441  0.021942817  0.021900304            4 
  799000   0.95381141   -7.3171852     210.0755  0.021910253  0.021881933            2 
  800000   0.92467736   -7.3428142    210.27986  0.021904152  0.021863501            5 
  801000   0.92739769   -7.3510549    209.95329   0.02184283  0.021844892           10 
  802000   0.93368581   -7.3459059    210.32515  0.021854234  0.021826294            8 
  803000   0.94673678     -7.30842    210.52026  0.021847267  0.021808016            7 
  804000   0.94099282   -7.3086534    211.11381  0.021881614  0.021789916            9 
  805000   0.94479881   -7.3292099    211.15007  0.021858185  0.021771926            8 
  806000   0.92740012   -7.3076488    211.13144   0.02182914  0.021753944            7 
  807000   0.92817836   -7.3531809     210.9748  0.021785915  0.021735944            5 
  808000   0.92852358   -7.3185767    211.00411  0.021761975  0.021717836            7 
  809000   0.93147839   -7.3390921    211.06315  0.021741156  0.021699627           11 
  810000   0.93566071   -7.3695576    211.05783  0.021713769  0.021681633            3 
  811000   0.92719224   -7.3527491    211.28577  0.021710416   0.02166371            6 
  812000   0.94390259   -7.3111094    211.30932  0.021686096  0.021645727           13 
  813000   0.92439144   -7.3531302     210.7913  0.021606324   0.02162752            4 
  814000   0.91985724   -7.3461214    211.30332  0.021632199  0.021609549            6 
  815000   0.92201962   -7.3335239    211.47459  0.021623168  0.021591479            4 
  816000   0.91464429   -7.3458221    211.00822  0.021549042  0.021573315            2 
  817000   0.92561873   -7.3556839    211.53354  0.021576248  0.021555011            5 
  818000   0.94110057   -7.3247525    212.01208  0.021598623  0.021536708            3 
  819000   0.94111522   -7.2928125    212.28172  0.021599686  0.021518674            4 
  820000   0.91076983   -7.3529263    212.49378  0.021594896  0.021500678            6 
  821000   0.91148294   -7.3488404    211.95401  0.021513805  0.021482648            2 
  822000   0.91375961   -7.3697307    212.17516  0.021510053  0.021464734           12 
  823000   0.93372594   -7.3410689    211.84174  0.021450156  0.021446819            6 
  824000   0.95075048   -7.3346543     212.9926  0.021540514  0.021428864            6 
  825000   0.92763958   -7.3675881    211.85776  0.021399774  0.021410811           14 
  826000   0.91470767   -7.3438682    212.38513  0.021427071  0.021392428           10 
  827000   0.92724828   -7.3273362    212.11454  0.021373895  0.021374121            8 
  828000   0.91498717   -7.3552639    212.41196  0.021378015  0.021356134            3 
  829000   0.91429719   -7.3601432    212.48817  0.021359888  0.021338193            9 
  830000   0.93659365   -7.3465446    213.60807  0.021446593  0.021320106            6 
  831000   0.92393612   -7.3778217    212.34012  0.021293634  0.021301879            6 
  832000    0.9278375   -7.3952711    212.72054  0.021306144  0.021283639           16 
  833000   0.91731993   -7.3275006     213.5804  0.021366587    0.0212654            9 
  834000    0.9321289   -7.3498471    213.16909   0.02129987  0.021247344            4 
  835000   0.92316461   -7.3469027    212.85476   0.02124299  0.021229046            6 
  836000   0.93093889   -7.3938498     212.4603   0.02117826  0.021210736            9 
  837000   0.90817497   -7.3762054    213.36457  0.021242988   0.02119242           10 
  838000   0.91253616   -7.3900119    213.16477  0.021197769  0.021174051            6 
  839000   0.91026563   -7.3749524    213.45001  0.021200835  0.021155804            6 
  840000   0.90363738   -7.3597342    213.91016  0.021221246   0.02113791            8 
  841000   0.90697045   -7.3439493    213.81784  0.021186864  0.021120092            7 
  842000   0.91096534   -7.3791062    213.70477  0.021150512  0.021102124            4 
  843000   0.92536158   -7.3603803    214.18986  0.021173375   0.02108441            5 
  844000   0.93675937   -7.3522142    214.92946  0.021221314  0.021066748            3 
  845000   0.91905938   -7.3572088    214.21533  0.021125772  0.021049126            5 
  846000    0.9185699   -7.3762281    214.36769  0.021115809  0.021031523           10 
  847000   0.92170143   -7.3833803    214.73341  0.021126861  0.021013831            5 
  848000   0.91852891   -7.3977894    214.77412  0.021105948  0.020996227            9 
  849000   0.91912034   -7.4136269    214.01101  0.021006185  0.020978364            9 
  850000   0.92298258   -7.3864793    214.71165  0.021050162  0.020960666            4 
  851000   0.94893481   -7.3918569    214.38602  0.020993539  0.020942806            6 
  852000   0.89376276   -7.3609874    215.17073   0.02104565  0.020925217           12 
  853000   0.89049636   -7.3938494    215.15065  0.021019016  0.020907703            6 
  854000    0.9193323   -7.3948068    214.66121  0.020946644  0.020890144            5 
  855000   0.90248498   -7.3733143    215.33605  0.020987919  0.020872514            5 
  856000   0.91724143   -7.4012161    215.27045  0.020957015   0.02085496            4 
  857000   0.92456882   -7.3855154    215.62785  0.020967313  0.020837544            6 
  858000   0.91399764   -7.3839096    215.68279  0.020948212  0.020820173           13 
  859000   0.91546484   -7.3679543     216.2978  0.020983488  0.020802925            9 
  860000   0.91948021   -7.3666521    216.05372  0.020935438  0.020785729            6 
  861000   0.91965322     -7.39619    216.10709  0.020916288  0.020768489            7 
  862000   0.90854914   -7.3338505    216.85659   0.02096448  0.020751396           10 
  863000   0.90360445   -7.3914463    216.52528  0.020908196  0.020734241           20 
  864000   0.91028824   -7.3731281     216.9211  0.020922174  0.020717028            4 
  865000   0.92273217   -7.3656079    217.41794  0.020945852  0.020699936            4 
  866000   0.91787398   -7.4032968    216.82016  0.020864142   0.02068281           11 
  867000   0.91836029   -7.3958112    217.13723  0.020870553  0.020665729           15 
  868000   0.91545115   -7.4192171    216.84928  0.020818863  0.020648598            5 
  869000   0.88433812   -7.4425455    216.64938  0.020775737  0.020631371            4 
  870000    0.8973088   -7.3981488    217.37827  0.020821673   0.02061421           16 
  871000   0.91754121   -7.3437546    218.64813  0.020919263  0.020597244            5 
  872000   0.90945675   -7.4021998    217.50456  0.020785986  0.020580224            4 
  873000   0.89644369   -7.3831173    217.54564  0.020766098   0.02056325           17 
  874000   0.89324139    -7.328474     218.3008   0.02081434  0.020546345            6 
  875000   0.90078015   -7.3850767     218.1112  0.020772496   0.02052953            4 
  876000   0.91584124   -7.3924936    217.89982  0.020728674   0.02051256            6 
  877000   0.90596501   -7.3524031    217.75552  0.020691326  0.020495759            6 
  878000   0.90487274   -7.3933992     218.0975  0.020700218  0.020478876            7 
  879000   0.88899555   -7.4059133    217.75373  0.020644077  0.020462019           13 
  880000   0.89429139   -7.3795308    218.24972  0.020667587  0.020445245            5 
  881000   0.90026387   -7.4180071    218.24717  0.020643887  0.020428414            7 
  882000   0.91312393   -7.4470423    218.09838  0.020606423  0.020411621            4 
  883000   0.92039878   -7.4163998    218.25383  0.020597757  0.020394731            9 
  884000   0.91454478   -7.4354686    218.32057  0.020580748  0.020377832            4 
  885000   0.88903144   -7.4427707    218.47195  0.020571747  0.020360882           20 
  886000   0.90479399   -7.4103974    219.53133  0.020648169  0.020344065            6 
  887000   0.88431845   -7.4474802    219.23115  0.020596688  0.020327375            9 
  888000   0.90049173   -7.4212242    219.10147  0.020561324  0.020310668            5 
  889000   0.88123548   -7.4546276    219.54476  0.020579749  0.020293996           16 
  890000   0.89694697   -7.4774467    219.47582   0.02055017  0.020277492            9 
  891000   0.89353185   -7.4469668    219.67674  0.020545898  0.020260959            7 
  892000   0.89035114   -7.4374891    219.47136  0.020503677  0.020244384            3 
  893000   0.90885572   -7.3796062    220.27108  0.020555346  0.020227987           10 
  894000   0.88782486   -7.4138417    220.07586  0.020514156  0.020211505            5 
  895000   0.90216591   -7.4395401    220.35383  0.020517117  0.020195284            5 
  896000   0.88071461   -7.4447188    219.99213  0.020460577  0.020178982            7 
  897000   0.90551431   -7.4159812    220.25236  0.020461944  0.020162626            9 
  898000   0.91904237   -7.3928784    219.96402    0.0204124  0.020146406            8 
  899000    0.8783064   -7.4248254    220.69636  0.020457579  0.020130213           16 
  900000   0.89921228    -7.429665     220.2462  0.020393167  0.020113933            6 
  901000   0.90061487   -7.4233688    220.17189   0.02036366  0.020097555            7 
  902000   0.88256738     -7.45762    220.45186  0.020366949  0.020081248           17 
  903000   0.89690105   -7.4628332    220.31604  0.020331861  0.020064911            6 
  904000   0.89915622   -7.4503091    220.40991  0.020318023  0.020048548           10 
  905000   0.90312869   -7.4513379    220.42516  0.020296976  0.020032078            9 
  906000   0.89542667   -7.4519791    220.41735  0.020273855  0.020015709           11 
  907000   0.88797079   -7.4500783    220.53312  0.020262139  0.019999183            5 
  908000   0.89125592   -7.4810474    220.46875  0.020233916  0.019982492            5 
  909000   0.88306072   -7.5087984    219.63177  0.020134926  0.019965834            7 
  910000   0.87529808   -7.4756607    220.15416  0.020160637  0.019949072           10 
  911000   0.88968315   -7.4693491    221.07304  0.020222561  0.019932471            4 
  912000   0.88315711   -7.4926168    220.54815  0.020152426  0.019915805            7 
  913000   0.88209259   -7.4653622    220.08174  0.020087782  0.019899023            7 
  914000   0.89413986   -7.4390565    220.88743  0.020139263  0.019882334            5 
  915000   0.89177866   -7.4623567    220.54663  0.020086214  0.019865614           12 
  916000   0.86686117   -7.4673288    220.92292  0.020098519   0.01984886            4 
  917000   0.89955366   -7.5098709    220.58545  0.020045934  0.019832013            8 
  918000   0.89416288   -7.4912446    220.39568   0.02000687   0.01981517           13 
  919000    0.8945929   -7.4850699     220.6268  0.020006057  0.019798425           14 
  920000   0.89765138   -7.4446808    221.05377  0.020022986    0.0197817            6 
  921000   0.87164575   -7.4699596    220.96905   0.01999358  0.019764843            7 
  922000   0.89608058   -7.4656564    221.08494   0.01998237   0.01974799           25 
  923000   0.88656739   -7.4712435    220.98492   0.01995169  0.019731247            7 
  924000   0.87947149   -7.5087193    220.74575  0.019908527  0.019714419            4 
  925000   0.89075546   -7.5170902    220.50872   0.01986565  0.019697537           20 
  926000   0.90278058   -7.4469995    221.47096  0.019930792  0.019680599            4 
  927000    0.8939582   -7.4531273    221.61308  0.019922067   0.01966389            6 
  928000   0.88474341   -7.5017867    220.62283  0.019811677  0.019647025            4 
  929000   0.90022045   -7.5026695    221.05687  0.019829285  0.019630228           11 
  930000   0.88054493   -7.4584148    221.46208  0.019844272  0.019613505           13 
  931000   0.89666157   -7.5045767    221.48452  0.019824966  0.019596866            8 
  932000   0.89412854   -7.4614847    222.05786  0.019854959  0.019580241           10 
  933000   0.87970458   -7.4981053    221.35336  0.019770754  0.019563628           10 
  934000   0.88069877   -7.4465197      222.393  0.019842345  0.019547075           17 
  935000    0.8867983   -7.4786456    221.91754  0.019778747  0.019530451            6 
  936000    0.8792036   -7.4801634    222.06274  0.019770543  0.019513853            6 
  937000   0.89737613     -7.46924    222.26159  0.019767128  0.019497251            7 
  938000   0.88033453   -7.4538952    222.61905  0.019777812  0.019480817            6 
  939000   0.87252218   -7.4566618    222.39592  0.019736947  0.019464385            4 
  940000   0.87861976   -7.4903643    222.39124  0.019715535  0.019447765            9 
  941000   0.87702449   -7.4885525    222.10059  0.019668845  0.019431165            4 
  942000   0.85999573   -7.4749515    222.17455  0.019654508   0.01941456            5 
  943000   0.87123105   -7.4925126    222.19609  0.019635568  0.019397944           12 
  944000   0.87655674   -7.4979156    222.57137  0.019647897  0.019381431            7 
  945000   0.87679335   -7.4726644     222.5346  0.019623863  0.019364908           14 
  946000   0.87225567   -7.4787447    222.52892  0.019602618  0.019348313            4 
  947000   0.87684013   -7.5155432     222.3394  0.019565241  0.019331746            6 
  948000   0.89098629   -7.4872855    223.05488  0.019607497   0.01931503           18 
  949000   0.89229751   -7.5169708    222.86005  0.019569727  0.019298408            7 
  950000   0.87545688   -7.4968341    222.47753  0.019515573   0.01928178            8 
  951000   0.85585643   -7.4869523    222.71958  0.019516262   0.01926521           11 
  952000   0.88676057   -7.5315631    222.67701  0.019492035  0.019248591           13 
  953000   0.87699838   -7.5074088     222.2264  0.019432179  0.019231877            8 
  954000   0.88047548   -7.5310766    222.49075  0.019434901  0.019215173            4 
  955000   0.87820233   -7.5304167    222.91046  0.019451174  0.019198347            8 
  956000   0.88994078   -7.5018676    222.88457  0.019428571  0.019181574            8 
  957000   0.85824738   -7.4879436    223.17756  0.019433783  0.019164886            8 
  958000   0.86380722   -7.4998759     222.9318  0.019392119   0.01914812            6 
  959000    0.8660302   -7.5298202    223.04351  0.019381605  0.019131352            9 
  960000   0.88291423   -7.5335516    223.00705  0.019358251  0.019114633            5 
  961000   0.85077362    -7.521915    223.66358  0.019395038  0.019097956           13 
  962000   0.86985532   -7.4997513    223.34187  0.019347009  0.019081511            8 
  963000   0.88546832   -7.5360241    223.08435  0.019304634  0.019065021            9 
  964000    0.8416359   -7.5608811    223.24827  0.019298779  0.019048381           11 
  965000   0.87837177   -7.5321129    222.83109  0.019242754  0.019031713           13 
  966000   0.88881629   -7.5373072    223.49793   0.01928036  0.019015043           10 
  967000   0.88557679   -7.5362826     223.4801  0.019258885  0.018998438            7 
  968000   0.86373806   -7.4884856    223.89411   0.01927463  0.018981961            5 
  969000   0.85108398   -7.5683577    223.17324  0.019192745  0.018965541            9 
  970000   0.84662101   -7.5221245    223.83721  0.019230001  0.018949079            5 
  971000   0.86919946   -7.5036318    224.62218  0.019277564  0.018932635            7 
  972000   0.86006782   -7.5501499    223.58794  0.019169062  0.018916242            6 
  973000   0.85475028    -7.529117    224.26829  0.019207631  0.018899799            6 
  974000   0.85542301   -7.5081149    224.59215  0.019215618   0.01888334           10 
  975000   0.86108795     -7.51585    224.58008  0.019194878   0.01886698            8 
  976000    0.8635679   -7.5508319     223.7013  0.019100179  0.018850532           10 
  977000    0.8750591   -7.5702229    223.84464  0.019092856  0.018833999            5 
  978000   0.85753953   -7.5528501    224.13941   0.01909845   0.01881756            8 
  979000   0.86117488   -7.5739391    224.25904  0.019089125  0.018801137            7 
  980000    0.8625526     -7.58441    223.75551  0.019026829   0.01878474            6 
  981000   0.85846949   -7.5607349    224.35111  0.019058028   0.01876838            9 
  982000   0.88075608   -7.5572726    225.03819  0.019096927  0.018752176            4 
  983000   0.85689705   -7.5779174    224.58754  0.019039297  0.018735969            9 
  984000   0.86640911   -7.5662112    224.78713   0.01903685  0.018719783            8 
  985000   0.85854244   -7.5415331    225.20621  0.019052979  0.018703635            5 
  986000   0.87555983    -7.564608    224.42797  0.018967881  0.018687528            5 
  987000   0.85244761   -7.5264584    225.12082  0.019007161  0.018671306           10 
  988000   0.85126245   -7.5321892    225.09802  0.018986001  0.018655029           10 
  989000   0.84215795   -7.5388362    225.55608    0.0190054  0.018638797            4 
  990000   0.85191911   -7.5219935    225.27491  0.018962534  0.018622773            6 
  991000   0.85496883   -7.5419014    225.34553  0.018949338  0.018606743           10 
  992000   0.85435561   -7.5574364    225.24143  0.018921491  0.018590701           10 
  993000   0.85913194   -7.5771072    225.13264  0.018893306  0.018574631           14 
  994000   0.84270705   -7.5729309    224.70443  0.018838399  0.018558528           16 
  995000   0.84445598    -7.565896    225.35638  0.018874069  0.018542395           20 
  996000   0.86974601   -7.5873683     225.8157  0.018893549  0.018526302           18 
  997000   0.85316579   -7.5922634    225.39544  0.018839472  0.018510034           10 
  998000   0.85830511    -7.561355    225.15857  0.018800815  0.018493947           19 
  999000   0.84487465   -7.6138182    225.26009  0.018790465  0.018477837           20 
 1000000    0.8461245   -7.5896941    225.01095  0.018750913  0.018461787           12 
 1001000   0.85430372   -7.5853985    225.57668  0.018779277    0.0184457            7 
 1002000   0.85715302   -7.6063129    225.59241  0.018761844  0.018429555           11 
 1003000   0.85328564   -7.5947023    225.66616  0.018749266  0.018413429            8 
 1004000   0.84403193   -7.6288297     224.9458    0.0186708  0.018397242           11 
 1005000   0.84555079   -7.5985634     225.8019  0.018723209  0.018381197            8 
 1006000    0.8529667    -7.645605    225.58963  0.018687014  0.018365111            9 
 1007000   0.83108942   -7.5996576     225.5599  0.018665996   0.01834892            8 
 1008000   0.88745092   -7.6136634    226.45897  0.018721806  0.018332813           14 
 1009000   0.83612483   -7.5835083    226.19791  0.018681691  0.018316753           14 
 1010000   0.83689107   -7.6083778    225.82824  0.018632693  0.018300715            9 
 1011000   0.85117619   -7.6382992    225.20707  0.018563062    0.0182846            5 
 1012000   0.86519307   -7.6147236    225.92173  0.018603568  0.018268429            9 
 1013000   0.88750516   -7.5835086    226.14924  0.018603919   0.01825244           20 
 1014000   0.84915706   -7.5886424    226.35801  0.018602729  0.018236467            7 
 1015000   0.83194954   -7.6109699    225.98827  0.018554045  0.018220458            5 
 1016000   0.85185007   -7.5844273    226.28703  0.018560288  0.018204493            9 
 1017000   0.83519792   -7.6023187    225.32696  0.018463369  0.018188425            6 
 1018000   0.84155751   -7.5546899    226.67819  0.018555844   0.01817243           12 
 1019000   0.85161139    -7.593487    226.36681  0.018512169  0.018156427           14 
 1020000   0.85429709    -7.626846    225.75537  0.018444066    0.0181405            7 
 1021000   0.84015451   -7.5902913    226.45498  0.018483103  0.018124633            6 
 1022000   0.84831555   -7.6066634    226.30101  0.018452463  0.018108723            9 
 1023000   0.86304701   -7.5654054    226.22751  0.018428438   0.01809285            6 
 1024000   0.85431875    -7.586297    227.39733  0.018505642  0.018076964            7 
 1025000    0.8463968   -7.5994326    227.02129  0.018457015  0.018061142           13 
 1026000    0.8452877   -7.6034826    226.56857  0.018402255  0.018045189            5 
 1027000   0.85656712   -7.6013596      226.031  0.018340717  0.018029329            9 
 1028000   0.84058058   -7.5960234     226.7428  0.018380577  0.018013447            9 
 1029000    0.8444897   -7.6200421    226.44134  0.018338301  0.017997631           19 
 1030000   0.83724111   -7.6193463    226.91785  0.018359049  0.017981852            5 
 1031000   0.85129956   -7.5932932    226.63767  0.018318596  0.017966038            6 
 1032000   0.86525169   -7.5803308    227.35189  0.018358519  0.017950259            7 
 1033000   0.84869921   -7.6064825    227.14169  0.018323789  0.017934468            7 
 1034000   0.84310348   -7.6341904    226.32443  0.018240202  0.017918635            7 
 1035000   0.85150862   -7.6325804    226.91126  0.018269827  0.017902748            8 
 1036000   0.84835718   -7.6300714    226.78331  0.018241901  0.017886949           10 
 1037000   0.83595275    -7.595066    227.63066  0.018292403  0.017871364            6 
 1038000    0.8524109   -7.5811898    227.69465  0.018279917  0.017855733           19 
 1039000   0.83362219   -7.6225548    227.16343  0.018219717  0.017840089           12 
 1040000   0.83705507   -7.6231314    227.55149  0.018233292  0.017824451            7 
 1041000   0.83288025   -7.6249198    227.07299  0.018177473   0.01780879           15 
 1042000   0.84442832   -7.6400114    227.53995  0.018197373  0.017793003           18 
 1043000   0.83877712   -7.6651809     226.9941  0.018136314  0.017777225           15 
 1044000   0.83004687    -7.585567      228.068  0.018204662   0.01776155           10 
 1045000   0.84508951   -7.6289892    227.93289  0.018176466  0.017745905           22 
 1046000   0.83574412   -7.6104968    227.81249  0.018149497  0.017730271            6 
 1047000    0.8358985   -7.6139184    227.74133  0.018126499  0.017714563            7 
 1048000   0.83026297   -7.6091143     227.8049  0.018114257  0.017698991           17 
 1049000   0.83276202   -7.6470469    227.13136  0.018043482  0.017683345           10 
 1050000   0.82332381   -7.6415883    227.76432  0.018076533  0.017667675           21 
 1051000   0.84479367   -7.6716461     227.0436  0.018002188  0.017651954            8 
 1052000   0.84566563   -7.6484144    227.72385  0.018038962  0.017636322           15 
 1053000   0.84616872   -7.6479113    227.80051  0.018027897  0.017620733           18 
 1054000   0.84782503   -7.6586902    228.03917  0.018029662  0.017605139           25 
 1055000   0.82848529   -7.6066973    228.02264  0.018011267  0.017589577           13 
 1056000   0.81465426   -7.6527953    227.75015  0.017972708  0.017573996           21 
 1057000   0.85761685   -7.6477187    227.84891   0.01796349  0.017558416           14 
 1058000   0.82913994   -7.6501707    228.52227  0.017999549  0.017542815            5 
 1059000   0.82383832   -7.6844237    227.70423   0.01791818   0.01752718            6 
 1060000   0.82723941   -7.6642365    227.45892   0.01788199  0.017511396           10 
 1061000   0.83117537   -7.6330731    227.75416  0.017888325  0.017495653            8 
 1062000   0.83038739   -7.6877992    227.99187  0.017890134  0.017479903           31 
 1063000   0.83134458   -7.6699591    227.95829  0.017870672  0.017464208           19 
 1064000   0.84820957   -7.6583431    228.29309  0.017880098  0.017448672           17 
 1065000   0.81716131   -7.6647094    227.89954  0.017832515  0.017433171           11 
 1066000    0.8259037   -7.6548216    228.86271  0.017891081  0.017417733            9 
 1067000   0.84345576   -7.6556633    228.37746  0.017836415  0.017402199            6 
 1068000   0.84323359   -7.6953939    227.94586  0.017786038  0.017386716           11 
 1069000   0.83890219    -7.639937    228.63865  0.017823406  0.017371245            8 
 1070000   0.83488058   -7.6648295    228.43119  0.017790591  0.017355759            6 
 1071000   0.82814502   -7.6629051     228.1761  0.017754132  0.017340245           17 
 1072000   0.84570231   -7.6415998    228.97751  0.017799868  0.017324857           27 
 1073000   0.83201757   -7.6935603    227.89079  0.017698881  0.017309444           12 
 1074000   0.82750336   -7.6213157    229.00091  0.017768538  0.017293955           14 
 1075000   0.83044439   -7.6358753    229.03566  0.017754702  0.017278557           10 
 1076000    0.8203958   -7.6954222    227.73785   0.01763769  0.017263065           16 
 1077000   0.81754072   -7.6633551    229.18109  0.017732984  0.017247581            7 
 1078000   0.81970432   -7.6873026     228.2151   0.01764186  0.017232068            6 
 1079000   0.80634044   -7.6598497    228.26805  0.017629599  0.017216616           10 
 1080000   0.81178423   -7.6836533    228.23041  0.017610371  0.017201158           16 
 1081000   0.83065896   -7.6860037    228.96291  0.017650548  0.017185655           29 
 1082000   0.82806505   -7.7015511    228.80625   0.01762217  0.017170212           10 
 1083000   0.82392455    -7.654447    229.11067  0.017629322  0.017154838            4 
 1084000   0.82291332   -7.7247714     228.3266  0.017552783   0.01713949            9 
 1085000   0.81826959   -7.6981416    228.87601  0.017578803  0.017124119           17 
 1086000   0.82042661   -7.7258392    228.63851  0.017544391  0.017108751           17 
 1087000   0.82228823   -7.6987935    228.75851  0.017537451   0.01709336            6 
 1088000    0.8190574   -7.6671576    229.50159  0.017578247  0.017078048           10 
 1089000   0.81510957   -7.7145157    228.95996  0.017520658  0.017062818            6 
 1090000   0.81285679   -7.6863131    229.11755  0.017516632   0.01704748           16 
 1091000   0.81726011   -7.7064905    228.55548  0.017457645  0.017032342           18 
 1092000   0.82524972   -7.7051023    228.97415  0.017473607  0.017017067            7 
 1093000   0.83068852   -7.7166945    229.00751  0.017460164  0.017001872            9 
 1094000   0.79710407   -7.6967194    228.96952   0.01744131  0.016986667           12 
 1095000   0.84442413   -7.7030068    229.13686  0.017438117  0.016971407           16 
 1096000    0.8191189   -7.7215427    228.74393  0.017392331  0.016956137           13 
 1097000   0.82107984   -7.7019238    229.33262  0.017421196   0.01694087           13 
 1098000   0.81347342   -7.6956776    229.20977  0.017396006  0.016925669           22 
 1099000   0.81638606   -7.7143555    229.30546  0.017387432  0.016910413           18 
 1100000   0.80973856   -7.7158221    229.07058  0.017353832  0.016895132           17 
 1101000   0.81502374   -7.6907956    228.64823  0.017306103  0.016879922           33 
 1102000   0.81984047   -7.6890453    229.03157  0.017319386  0.016864743           13 
 1103000   0.82441139   -7.7142159    229.31447  0.017325058  0.016849666           20 
 1104000    0.8040422   -7.7294474    228.89723  0.017277871  0.016834554           58 
 1105000   0.80840527   -7.6683483    229.40363  0.017300425  0.016819449           10 
 1106000   0.80331881   -7.6925434    229.73644  0.017309858  0.016804425           18 
 1107000   0.81997113   -7.7094614    229.39399  0.017268442  0.016789397           23 
 1108000   0.81673006   -7.7071606    229.51145  0.017261691  0.016774274           45 
 1109000   0.80636459   -7.7258607    229.95493   0.01727945  0.016759253           18 
 1110000   0.79045966   -7.7537979    229.22901  0.017209385  0.016744088           37 
 1111000   0.79532796   -7.7203528    229.02295  0.017178439  0.016729013           17 
 1112000   0.80077613   -7.7323861    229.19822  0.017176126  0.016713982           28 
 1113000   0.81886286   -7.7190433    229.79403  0.017205303  0.016698973           31 
 1114000   0.81267332   -7.7421129    229.55078  0.017171663   0.01668396           27 
 1115000   0.78628514   -7.7101369    229.78852   0.01717403  0.016668967           38 
 1116000   0.81356759   -7.7382405    230.17608  0.017187581  0.016654004           62 
 1117000    0.8085078   -7.7869535    229.00554  0.017084865  0.016638986           49 
 1118000   0.78729518   -7.7666153    229.66569   0.01711879  0.016623941           54 
 1119000   0.81717749    -7.762111    229.71684  0.017107301   0.01660896           69 
 1120000    0.8096705   -7.7561956    229.24981  0.017057277  0.016593978           71 
 1121000   0.80244914   -7.7651228    229.17197  0.017036275  0.016578923           50 
 1122000   0.80879043   -7.7883178     229.3927  0.017037485  0.016563867           39 
 1123000   0.82650785   -7.7579209    229.85248  0.017056433  0.016548864           38 
 1124000   0.81034772   -7.7217865    230.02947  0.017054379  0.016533879           49 
 1125000   0.79357713   -7.7569113    230.01454  0.017038114  0.016518902           62 
 1126000   0.80822429   -7.7614677    229.88701  0.017013544  0.016504003           61 
 1127000   0.79515848   -7.7656359    229.59494  0.016976851  0.016488999           45 
 1128000   0.79327898   -7.7947391    229.40527  0.016947789  0.016473984           59 
 1129000   0.80653643     -7.75627    229.07039   0.01690806  0.016459004           50 
 1130000   0.81530088    -7.778469    229.24791  0.016906188  0.016443971           75 
 1131000   0.80636099    -7.754126    229.87195   0.01693722  0.016429019           92 
 1132000   0.80440361   -7.7772973      229.769  0.016914679  0.016414012           67 
 1133000   0.80608692   -7.7997001    229.65937  0.016891687  0.016398965           72 
 1134000   0.78740461    -7.791957    229.45882  0.016862053  0.016383862           81 
 1135000   0.81034649    -7.808024    229.58528  0.016856482  0.016368908           96 
 1136000   0.80173532   -7.8171568    228.97056  0.016796549  0.016353937          120 
 1137000   0.80683414   -7.7617898    230.20229  0.016872053  0.016338984           45 
 1138000   0.78533937   -7.7743258    229.91047  0.016835857  0.016324074           68 
 1139000   0.80133291   -7.7691554    230.06437  0.016832336  0.016309229           88 
 1140000   0.79175346   -7.7500605    230.25052  0.016831178  0.016294424           78 
 1141000   0.82426749   -7.7881568    229.97236  0.016796112  0.016279575           69 
 1142000   0.76573872   -7.7734824    229.43956  0.016742525  0.016264762           60 
 1143000   0.78750797   -7.7429852     230.0534  0.016772631  0.016249877           82 
 1144000   0.81682647    -7.773627    229.64723  0.016728382  0.016235045           76 
 1145000   0.79875489   -7.7742267     229.2704  0.016686346  0.016220073           91 
 1146000   0.78844255   -7.7864666    230.19569   0.01673907   0.01620512           87 
 1147000   0.80695974   -7.8061061    229.58719  0.016680267  0.016190276           75 
 1148000   0.79111322   -7.7780252    230.38107  0.016723364  0.016175363          112 
 1149000   0.78349945   -7.7753646    230.14026  0.016691345  0.016160512           71 
 1150000   0.80326369   -7.8039171    229.13005  0.016603627  0.016145541           89 
 1151000   0.79206555   -7.8190407    229.56072  0.016620382  0.016130507           94 
 1152000   0.80242437   -7.8196142    229.41187  0.016595187   0.01611554           91 
 1153000   0.79757868   -7.7796482    230.05812  0.016627502  0.016100682          105 
 1154000   0.79350937   -7.7878363    229.81679  0.016595667  0.016085789           60 
 1155000    0.7761189   -7.8267987    229.21776  0.016538078  0.016070923           76 
 1156000   0.79243509   -7.8310324    230.24324  0.016597696  0.016056107           63 
 1157000   0.79655897   -7.7938253    229.63261   0.01653937  0.016041351           47 
 1158000   0.79861151    -7.837147    229.60543  0.016523131  0.016026523          100 
 1159000   0.78670555   -7.8241024     229.8947  0.016529673  0.016011677           75 
 1160000   0.79307587   -7.8095498    230.22739  0.016539324  0.015996888           73 
 1161000   0.79496516    -7.817952    229.57831  0.016478489  0.015982077          105 
 1162000   0.78102069   -7.8346235    229.73945  0.016475864  0.015967298          103 
 1163000   0.79346794   -7.8373441    230.21224  0.016495575   0.01595253           91 
 1164000   0.79178486   -7.7932575    229.81541  0.016452993  0.015937743          113 
 1165000   0.79302266   -7.8290065    229.83571  0.016440323  0.015922949           97 
 1166000   0.80149078   -7.8147147    230.15272   0.01644888  0.015908195           89 
 1167000   0.79533864   -7.8398842    229.81489  0.016410661  0.015893447           91 
 1168000   0.77774638   -7.8230897     230.3984  0.016438242  0.015878718          119 
 1169000    0.7884872   -7.8349585    230.06497  0.016400411  0.015864037          140 
 1170000   0.79170663   -7.8279452    230.09938  0.016388845  0.015849382          112 
 1171000    0.7855067   -7.8237396    230.03991  0.016370617  0.015834673          159 
 1172000    0.7863292   -7.8242527    230.49432  0.016388959  0.015820126          146 
 1173000   0.78643507   -7.8237707    230.42827  0.016370295  0.015805531          158 
 1174000    0.7822802   -7.7970519    230.90746  0.016390365  0.015791011          173 
 1175000   0.79185384   -7.8022741    230.77717  0.016367175  0.015776545          178 
 1176000   0.78542262   -7.8180204    230.26651  0.016317072  0.015762059          172 
 1177000   0.78830288   -7.8278452    230.30328  0.016305811   0.01574755          169 
 1178000   0.78165706    -7.842622    230.56045  0.016310162  0.015732988          115 
 1179000   0.77395733   -7.8488733    230.21039  0.016271585  0.015718437          148 
 1180000    0.7835873   -7.8245985     231.1859  0.016326688   0.01570395          138 
 1181000   0.77972302    -7.826078     230.2939  0.016249922  0.015689472          162 
 1182000   0.78555788   -7.8325163    231.04056  0.016288816  0.015674967          160 
 1183000   0.77950107   -7.7957488    231.27168  0.016291327  0.015660592          160 
 1184000   0.78387856   -7.8310473     230.8152  0.016245439  0.015646201          164 
 1185000    0.7792607   -7.8587723     230.7216  0.016225148  0.015631764          149 
 1186000   0.79596855    -7.852509    230.46908  0.016193724  0.015617299          174 
 1187000   0.78604496     -7.84365    230.66275  0.016193678   0.01560283          142 
 1188000   0.78602889   -7.8381737    230.30546  0.016154984  0.015588293          152 
 1189000   0.76585876   -7.8620774    230.13264  0.016129285  0.015573815          170 
 1190000   0.76633438   -7.8386719    230.29131  0.016126842  0.015559339          160 
 1191000   0.77280154   -7.8553713    230.51786  0.016129153   0.01554487          163 
 1192000   0.77225484    -7.848252    230.40342  0.016107621  0.015530405          169 
 1193000    0.7712785   -7.8765579    229.65734  0.016042005  0.015515882          143 
 1194000   0.78011491   -7.8617407    230.02053  0.016053917  0.015501341          177 
 1195000   0.79623659   -7.8636725     230.4649  0.016071471  0.015486817          179 
 1196000   0.78515423   -7.8805069    230.04558  0.016028817  0.015472302          211 
 1197000   0.77091856    -7.889967     230.5017  0.016047181    0.0154578          147 
 1198000   0.76860639   -7.8496237    230.40579  0.016027114  0.015443299          146 
 1199000   0.77674255   -7.8895164    229.64815  0.015961089  0.015428787          177 
 1200000   0.78162366   -7.8499006    230.81214  0.016028621  0.015414358          156 
 1201000    0.7589956   -7.8493732    230.32452   0.01598144  0.015399934          201 
 1202000   0.77077267   -7.8732717    229.46724  0.015908711  0.015385491          187 
 1203000    0.7638357   -7.8583979    230.50243  0.015967195  0.015371046          125 
 1204000   0.78107571    -7.854394    230.76059  0.015971801  0.015356631          134 
 1205000   0.77596668   -7.8845738    230.52475  0.015942237  0.015342244          139 
 1206000   0.77815009   -7.8623136    230.14667  0.015902893  0.015327903          155 
 1207000    0.7911877   -7.8628845    231.18307  0.015961273  0.015313636          171 
 1208000   0.77213496    -7.857952    230.80087  0.015921693  0.015299335          163 
 1209000    0.7713263   -7.8432374     230.5551  0.015891584   0.01528506          162 
 1210000    0.7895584   -7.8700168    230.26625  0.015858557  0.015270759          205 
 1211000   0.76547546    -7.875577    230.67492  0.015873584  0.015256476          169 
 1212000   0.78058566   -7.8859003    230.72872  0.015864186  0.015242161          159 
 1213000   0.77434406   -7.8956727    230.18773  0.015813941  0.015227932          222 
 1214000   0.77553541   -7.8755384    230.19732  0.015801573   0.01521359          150 
 1215000   0.76720957   -7.8977296    230.34674  0.015798816  0.015199279          148 
 1216000    0.7537566   -7.8954592    230.12061  0.015770327  0.015184945          210 
 1217000   0.77219168   -7.9073518    230.21727  0.015763987  0.015170546          195 
 1218000   0.76892862   -7.9149849    229.98773   0.01573534  0.015156154          143 
 1219000   0.75644859   -7.9062558    230.37458  0.015748877  0.015141815          176 
 1220000   0.77969448   -7.9099268    229.80664  0.015697175  0.015127465          206 
 1221000   0.75740007   -7.9179651    229.92685  0.015692523  0.015113161          183 
 1222000   0.74932714   -7.9164729    229.83639  0.015673513  0.015098875          205 
 1223000   0.75209999   -7.9126452     230.1849  0.015684444    0.0150846          208 
 1224000    0.7679858    -7.920316    229.99223  0.015658513    0.0150703          202 
 1225000   0.77556735   -7.9238038    230.58527  0.015686073  0.015056016          211 
 1226000   0.75671075    -7.905166    230.14759  0.015643528   0.01504172          200 
 1227000   0.77248967   -7.9202396    230.12446  0.015629208  0.015027481          254 
 1228000   0.75977956   -7.9412416    230.42813  0.015637088  0.015013293          205 
 1229000   0.75379244   -7.9071393    230.73884  0.015645432  0.014999117          236 
 1230000   0.75734757   -7.9005437    230.57892  0.015621878  0.014984928          260 
 1231000   0.76791667     -7.91799    230.72188  0.015618865  0.014970751          257 
 1232000   0.76178353   -7.9189118    230.22158  0.015572347  0.014956574          235 
 1233000   0.74834899   -7.9435077    230.78663  0.015597907  0.014942459          261 
 1234000   0.76680617   -7.8983537    230.76459  0.015583778   0.01492842          273 
 1235000   0.76016902   -7.9225544    230.15424  0.015529976  0.014914368          245 
 1236000   0.74870835   -7.8975702    230.48253  0.015539545  0.014900219          286 
 1237000   0.75476557   -7.9422669    230.47492   0.01552647  0.014886091          241 
 1238000   0.74381888   -7.9065775    230.41916  0.015510175  0.014872046          258 
 1239000   0.75640715   -7.9240863    230.65337   0.01551341  0.014857997          248 
 1240000   0.76477152   -7.9315812    230.46738  0.015488399  0.014843979          311 
 1241000   0.75510214   -7.9176408    229.98964  0.015443838  0.014829925          271 
 1242000   0.75293766    -7.925518    230.39168  0.015458379  0.014815867          298 
 1243000   0.75858362   -7.9115322    230.43279  0.015448699  0.014801807          370 
 1244000    0.7402101   -7.9527094    230.22185   0.01542215  0.014787726          358 
 1245000   0.74071969   -7.9829466     229.6331  0.015370355  0.014773655          372 
 1246000   0.75398884   -7.9236387    230.27301  0.015400816  0.014759556          367 
 1247000   0.76019994   -7.9522553      230.021  0.015371625  0.014745496          332 
 1248000   0.74567168   -7.9411654    230.14554  0.015367624  0.014731373          359 
 1249000   0.77878496   -7.9650907    229.99231  0.015345097  0.014717295          356 
 1250000   0.74853085   -7.9693997    229.91957  0.015327971  0.014703158          388 
 1251000   0.75915755   -7.9694482    229.96215  0.015318555  0.014689096          423 
 1252000   0.75237111   -7.9669022    229.34827   0.01526546  0.014675032          382 
 1253000   0.75690083    -7.975193    229.50844  0.015263929  0.014660904          367 
 1254000   0.75320807   -7.9569837    230.06223  0.015288559  0.014646785          358 
 1255000   0.76371973   -7.9759842    229.73672  0.015254762  0.014632679          408 
 1256000   0.73894968   -7.9539462    229.85512  0.015250472   0.01461863          374 
 1257000    0.7579128   -7.9469108     229.7525  0.015231537  0.014604591          398 
 1258000   0.76128543     -7.98231    229.47184  0.015200838  0.014590564          415 
 1259000   0.74908945   -7.9862807    229.67994  0.015202538  0.014576558          453 
 1260000   0.74705196   -7.9541373    230.16894  0.015222813   0.01456254          381 
 1261000   0.74973993   -7.9781876    229.84267   0.01518918  0.014548502          385 
 1262000   0.74973569   -7.9846024    230.34439  0.015210274  0.014534472          389 
 1263000   0.73899325   -7.9827523    229.96134  0.015172957  0.014520453          398 
 1264000   0.74225359   -7.9627872    229.47935  0.015129176  0.014506502          421 
 1265000   0.75638162   -8.0003823    229.30719  0.015105875   0.01449253          453 
 1266000    0.7373488   -8.0278125    229.52579  0.015108333  0.014478531          504 
 1267000   0.75324385   -8.0056818    229.95441    0.0151246  0.014464558          422 
 1268000    0.7577956   -7.9668178    229.93224  0.015111215  0.014450564          456 
 1269000   0.74239506   -8.0024872    229.81913  0.015091879  0.014436602          425 
 1270000   0.74903765   -7.9780013    230.10748  0.015098916  0.014422663          392 
 1271000   0.74461021   -8.0019089    230.17103  0.015091203   0.01440876          443 
 1272000   0.73242118   -7.9799817    229.66441  0.015046149  0.014394879          435 
 1273000   0.75472551   -7.9926838     230.0362  0.015058667  0.014381004          397 
 1274000   0.74362924   -7.9642364    229.80791  0.015031914  0.014367151          420 
 1275000   0.75743678   -7.9963146    229.73741  0.015015517  0.014353314          441 
 1276000   0.72545168   -8.0010364    229.82868   0.01500971  0.014339508          455 
 1277000   0.74491495   -7.9953632    230.25989  0.015026096  0.014325698          491 
 1278000   0.75887972   -7.9739681    229.78748  0.014983534  0.014311893          499 
 1279000   0.74920551   -8.0290788    229.76785   0.01497054  0.014298084          477 
 1280000   0.73639924   -8.0050022    230.22603  0.014988674  0.014284292          504 
 1281000   0.74978341   -8.0051206    230.14848  0.014971928  0.014270509          422 
 1282000   0.73688065   -8.0065041    230.03858  0.014953106  0.014256703          535 
 1283000   0.74919502   -8.0425873    230.05849  0.014942744    0.0142429          492 
 1284000   0.72006663   -8.0499695      229.351   0.01488519  0.014229086          496 
 1285000   0.74308159   -8.0080103    229.54119   0.01488594  0.014215305          474 
 1286000   0.73469285   -8.0279408    229.50916  0.014872289  0.014201553          565 
 1287000   0.73179497   -8.0258113    229.97731  0.014891046  0.014187777          574 
 1288000    0.7568846   -8.0195378    229.60251  0.014855235  0.014174033          532 
 1289000   0.73500785   -8.0146345    229.77421   0.01485481  0.014160321          508 
 1290000   0.74020498   -8.0539325    229.77541  0.014843373  0.014146586          570 
 1291000   0.72797002   -8.0309678    229.85731  0.014837162  0.014132883          554 
 1292000    0.7360471   -8.0447282    229.69086  0.014814942  0.014119217          538 
 1293000   0.72742617   -8.0260522    229.43655  0.014787094  0.014105513          536 
 1294000   0.72991035   -8.0327606    229.23687  0.014762807  0.014091797          582 
 1295000   0.74510001   -8.0252629    229.48581  0.014767427   0.01407805          604 
 1296000   0.76698336   -8.0476864    229.77548  0.014774658  0.014064379          533 
 1297000   0.73756298   -8.0638604     229.5713  0.014750148  0.014050728          674 
 1298000   0.74236524   -8.0368362    229.40148  0.014727881  0.014037089          595 
 1299000   0.73011354   -8.0475001    229.81391  0.014743002  0.014023446          609 
 1300000    0.7312068   -8.0360959    228.94918   0.01467623   0.01400977          634 
 1301000   0.73291003   -8.0163649    229.57189  0.014704835  0.013996148          586 
 1302000   0.72998205   -8.0380354      229.084  0.014662314   0.01398253          579 
 1303000   0.72753888   -8.0601939    229.51551  0.014678659  0.013968895          701 
 1304000   0.72785972   -8.0557143     229.1484  0.014643942  0.013955251          636 
 1305000   0.73715772   -8.0658668    229.16721  0.014633922  0.013941629          695 
 1306000   0.73135385   -8.0417187    229.23721  0.014627183  0.013928012          672 
 1307000   0.72676726   -8.0643614    229.52841  0.014634558   0.01391441          658 
 1308000   0.72548891   -8.0476328    229.47651  0.014620063  0.013900765          615 
 1309000   0.72883557   -8.0665522    229.61603  0.014617776  0.013887187          692 
 1310000   0.73091938   -8.0790016    229.12976  0.014575684  0.013873639          711 
 1311000   0.74366165   -8.0597678    229.73581   0.01460309  0.013860136          707 
 1312000    0.7108565   -8.0846932    229.11945   0.01455281  0.013846618          699 
 1313000   0.72611109   -8.0761364    229.68388   0.01457755  0.013833096          672 
 1314000   0.73693476   -8.0534945    229.49258  0.014554324  0.013819606          779 
 1315000   0.73308351   -8.0609392    229.92627  0.014570739  0.013806146          823 
 1316000   0.73634663   -8.0602928    229.48414   0.01453167   0.01379267          634 
 1317000   0.71800517   -8.0841176    229.38847  0.014514583  0.013779219          729 
 1318000   0.73405792   -8.0687441    229.39121  0.014503744  0.013765742          789 
 1319000     0.744377   -8.0898925    229.14819  0.014477394  0.013752249          824 
 1320000   0.73485476   -8.0569661    229.55234  0.014491941  0.013738786          743 
 1321000    0.7207916   -8.0527821    229.73141  0.014492267  0.013725311          701 
 1322000   0.73146711   -8.0758339    229.18831  0.014447069  0.013711884          711 
 1323000   0.71809101   -8.0468153    229.75247  0.014471685  0.013698443          858 
 1324000   0.72749027   -8.0741552    229.19529  0.014425685  0.013685023          881 
 1325000   0.73156756    -8.068371    229.28206  0.014420255  0.013671606          868 
 1326000   0.72121975    -8.095717    229.26392   0.01440824  0.013658142          879 
 1327000   0.72279721   -8.0644728    228.81779  0.014369367  0.013644705          953 
 1328000   0.73885664   -8.0964638    228.57319  0.014343197  0.013631288         1015 
 1329000   0.72312597   -8.0825715    228.91089   0.01435358  0.013617846          967 
 1330000   0.73228834   -8.1294146    228.62289  0.014324743  0.013604432          930 
 1331000   0.72065568   -8.0921757    228.90722  0.014331782  0.013591024          939 
 1332000   0.71978561   -8.0981029     229.4085  0.014352384  0.013577636         1071 
 1333000   0.72799565   -8.1161944    229.37612  0.014339592  0.013564238         1058 
 1334000   0.70832852    -8.112589    228.89392   0.01429872  0.013550868         1065 
 1335000   0.71978981    -8.118271    228.52746  0.014265135  0.013537515         1066 
 1336000   0.72320175   -8.1016547    228.59537  0.014258693   0.01352415         1064 
 1337000   0.72139223   -8.0878534    229.19547  0.014285432    0.0135108         1047 
 1338000   0.73621264   -8.0738692    229.25305  0.014278341  0.013497512          965 
 1339000    0.7090047   -8.1077318     228.7911  0.014238928   0.01348421         1017 
 1340000   0.72024379   -8.1355005     228.6272  0.014218109   0.01347089         1080 
 1341000   0.72031672   -8.1314322    228.91569  0.014225435  0.013457577         1117 
 1342000   0.72273973    -8.121803    228.70449  0.014201719  0.013444307         1082 
 1343000    0.7174182   -8.1116484    228.94169  0.014205863  0.013431025         1153 
 1344000   0.71175972   -8.1513827    228.70892  0.014180861  0.013417748         1178 
 1345000   0.73205917   -8.1354993    228.51839  0.014158512  0.013404482         1177 
 1346000   0.71273677   -8.1354299    228.74845  0.014162237  0.013391224         1180 
 1347000   0.72067491   -8.1346094    228.80833  0.014155427  0.013378005         1096 
 1348000   0.72068695   -8.1113582    228.98496  0.014155845   0.01336482         1157 
 1349000   0.72474231   -8.1597284    228.80892  0.014134477  0.013351639         1281 
 1350000   0.72024647   -8.1421522    228.48679  0.014104123   0.01333845         1309 
 1351000   0.71844585   -8.1369493    228.68976  0.014106203  0.013325312         1301 
 1352000   0.71391909   -8.1778536    228.33211  0.014073725  0.013312139         1229 
 1353000   0.72460008   -8.1465279    229.09434   0.01411027  0.013298982         1191 
 1354000   0.71352898   -8.1384444    228.75574  0.014079009  0.013285815         1229 
 1355000   0.70510817    -8.147369    229.05037  0.014086739  0.013272644         1221 
 1356000   0.71508923   -8.1444943    228.54227  0.014045125  0.013259496         1281 
 1357000   0.70719993   -8.1585792    228.76866  0.014048677  0.013246368         1257 
 1358000   0.72263726   -8.1667071    228.41008  0.014016328  0.013233287         1251 
 1359000   0.71065301   -8.1543715    228.26025  0.013996827  0.013220165         1233 
 1360000   0.71602909   -8.1554353    228.52621  0.014002831  0.013207026         1284 
 1361000   0.70314102   -8.1632911    229.10066  0.014027716    0.0131939         1335 
 1362000   0.71517332   -8.1390445    228.63517  0.013988936  0.013180789         1355 
 1363000   0.71175327   -8.1607146    228.38384  0.013963306    0.0131677         1299 
 1364000   0.71791194   -8.2080998    228.11516  0.013936654  0.013154604         1355 
 1365000   0.71630093   -8.1682108    228.52157  0.013951256  0.013141541         1420 
 1366000   0.71957988   -8.1761528    228.12813  0.013917041  0.013128489         1477 
 1367000   0.70674849   -8.1663596    228.34674  0.013920187  0.013115445         1432 
 1368000    0.7131055   -8.1670017    228.43336  0.013915288  0.013102405         1440 
 1369000   0.71754293   -8.1930875      228.426  0.013904675  0.013089366         1362 
 1370000   0.70971331   -8.1951237    228.05459  0.013871933  0.013076342         1373 
 1371000   0.69484415   -8.1758472    227.52755  0.013829781  0.013063299         1426 
 1372000   0.69861093   -8.1981927    228.08284  0.013853428   0.01305026         1418 
 1373000   0.71163097   -8.2119695    228.06143  0.013842039  0.013037231         1456 
 1374000    0.7160757    -8.217524    228.05189  0.013831386  0.013024204         1463 
 1375000   0.71968615   -8.2108747     227.7864  0.013805236  0.013011184         1502 
 1376000   0.70909748   -8.2132802    227.85443  0.013799323  0.012998191         1446 
 1377000   0.70438288   -8.1951979    228.26485   0.01381414  0.012985224         1480 
 1378000   0.68502488   -8.1862507    228.46065  0.013815956   0.01297227         1561 
 1379000   0.71057857   -8.1949865    227.89125  0.013771528  0.012959338         1466 
 1380000   0.70481822   -8.2286932    228.17613  0.013778752  0.012946413         1513 
 1381000   0.69469901   -8.1970266    228.39252  0.013781832  0.012933478         1457 
 1382000   0.69368367   -8.2124793    227.98159  0.013747081  0.012920585         1546 
 1383000    0.7011574   -8.1922228    227.98425  0.013737301  0.012907701         1471 
 1384000   0.69617244   -8.2213957    227.89024  0.013721715  0.012894805         1566 
 1385000   0.68551787   -8.2138391    228.19822  0.013730338  0.012881941         1567 
 1386000    0.6879844   -8.2021364    228.17982  0.013719326  0.012869066         1555 
 1387000   0.69260209   -8.2084221    227.93175  0.013694529  0.012856216         1648 
 1388000   0.70467163   -8.2158944    228.27394  0.013705208  0.012843377         1628 
 1389000   0.69479006   -8.2263219    228.42731  0.013704542   0.01283056         1648 
 1390000   0.70306822   -8.2034737    227.99579  0.013668812  0.012817777         1690 
 1391000   0.69993522   -8.2229911    228.52799  0.013690869  0.012805002         1693 
 1392000   0.70354225   -8.2324828    227.90517  0.013643748  0.012792245         1769 
 1393000   0.70755454   -8.2316442    228.15106  0.013648663  0.012779481         1755 
 1394000   0.69121185   -8.1955027    228.11793  0.013636892  0.012766743         1630 
 1395000   0.69659528   -8.2376798    227.53735  0.013592434  0.012753976         1681 
 1396000   0.70943157   -8.1985319    227.94744  0.013607177  0.012741248         1710 
 1397000     0.691329   -8.2321508    227.86292  0.013592396  0.012728534         1610 
 1398000   0.69875456    -8.228976    228.44064   0.01361711  0.012715844         1576 
 1399000   0.70887805   -8.2068889     227.9745  0.013579611   0.01270316         1632 
 1400000   0.70252314   -8.2378458    228.13406  0.013579409  0.012690481         1627 
 1401000   0.69762382   -8.2501419    227.75483  0.013547158  0.012677787         1674 
 1402000   0.70371666   -8.2510428    227.60043  0.013528318  0.012665091         1734 
 1403000   0.69501594   -8.2454809    228.06767  0.013546429   0.01265241         1578 
 1404000   0.68607395   -8.2457004    227.59967  0.013509003  0.012639743         1629 
 1405000   0.71423369   -8.2596729    227.78092  0.013510137   0.01262709         1606 
 1406000   0.67590604   -8.2400293    227.34453  0.013474664  0.012614468         1576 
 1407000   0.69445905   -8.2666092    227.56271  0.013478009  0.012601838         1749 
 1408000   0.67481092   -8.2469067    227.38619   0.01345799  0.012589228         1609 
 1409000   0.68085824    -8.248015    227.30531  0.013443655  0.012576626         1684 
 1410000   0.70307327   -8.2657383    228.01584  0.013476113  0.012564034         1653 
 1411000   0.69251516   -8.2564976     227.1632  0.013416206  0.012551438         1581 
 1412000   0.68008638   -8.2552466    227.37502  0.013419205  0.012538864         1737 
 1413000   0.69888218    -8.251993    227.14285  0.013396016  0.012526313         1627 
 1414000   0.68415215   -8.2646061     227.6957  0.013419124  0.012513769         1625 
 1415000   0.69054101   -8.2612651    227.83064  0.013417588   0.01250122         1700 
 1416000    0.6893026   -8.2688745    227.58877  0.013393878  0.012488711         1700 
 1417000    0.6962972   -8.2579105    227.62827  0.013386749  0.012476176         1719 
 1418000   0.68407054   -8.2285522     227.7836  0.013386436  0.012463679         1654 
 1419000   0.67497196   -8.2606275    227.53824  0.013362594  0.012451208         1623 
 1420000   0.67833232   -8.2681213    227.42434  0.013346499  0.012438735         1745 
 1421000   0.68477371   -8.2551187    227.48461  0.013340641  0.012426254         1731 
 1422000   0.66946257   -8.2439123    227.63642  0.013340156   0.01241381         1707 
 1423000   0.67405661   -8.2597599    227.36674  0.013314988  0.012401367         1656 
 1424000   0.68193317   -8.2531671    227.42348  0.013308958  0.012388956         1690 
 1425000   0.69585052   -8.2524543    227.52609  0.013305619  0.012376557         1723 
 1426000   0.68781233   -8.2587695    227.79248  0.013311856   0.01236418         1695 
 1427000    0.6850409   -8.2808804    227.67474  0.013295652  0.012351786         1765 
 1428000   0.68708445   -8.2763907    227.38169   0.01326924  0.012339433         1771 
 1429000   0.68935739   -8.2785815    227.16126  0.013247099  0.012327084         1674 
 1430000   0.69923843   -8.2741035    226.85364  0.013219909  0.012314752         1799 
 1431000    0.6809782   -8.2727466    227.37747  0.013241176   0.01230243         1766 
 1432000   0.66910959   -8.2522376     227.2632  0.013225279  0.012290102         1851 
 1433000   0.67429328   -8.2674129    227.56602   0.01323366  0.012277798         1748 
 1434000    0.6773308   -8.2533497    227.62688  0.013227968   0.01226552         1793 
 1435000   0.67182187   -8.2687655     227.5499   0.01321428  0.012253254         1769 
 1436000   0.68931002   -8.2989636    227.22072  0.013185975  0.012240998         1919 
 1437000   0.67532008    -8.290398    227.40841  0.013187683  0.012228765         1771 
 1438000   0.66600204   -8.2706256    227.18368  0.013165489  0.012216552         1833 
 1439000   0.67832502   -8.2601225    227.00969  0.013146264   0.01220437         1807 
 1440000   0.67121772   -8.2687248    227.75761  0.013180417  0.012192197         1726 
 1441000   0.70382411   -8.2731265    227.39758   0.01315045  0.012180031         1871 
 1442000   0.68099498   -8.2925844    227.23153  0.013131735  0.012167881         1877 
 1443000   0.68689027   -8.2727866    227.50243  0.013138279  0.012155744         1778 
 1444000   0.67758386   -8.2818137    227.76666  0.013144428  0.012143654         1783 
 1445000   0.66330332   -8.2786543    227.37528  0.013112761  0.012131537         1948 
 1446000   0.67197256   -8.2478499    227.20025  0.013093606  0.012119438         1746 
 1447000   0.67701912   -8.2861404    227.12205  0.013080054  0.012107399         1811 
 1448000   0.68716674   -8.2838517    227.25825  0.013078859  0.012095349         1825 
 1449000   0.66099252   -8.3137667     227.2893  0.013071618  0.012083316         1898 
 1450000   0.66297441   -8.3020414    227.70446  0.013086463  0.012071287         1788 
 1451000   0.66897315   -8.2829559    227.58002  0.013070298  0.012059291         1816 
 1452000   0.67660009   -8.2781529    227.65938  0.013065851  0.012047291         1905 
 1453000   0.66699646   -8.2985643    227.62667  0.013054982  0.012035329         1850 
 1454000   0.67608125   -8.3020989    227.19998  0.013021549  0.012023362         1897 
 1455000    0.6833763   -8.2979625    227.31832  0.013019377  0.012011382         1923 
 1456000   0.67121172   -8.2750963    227.47625  0.013019474  0.011999437         1944 
 1457000   0.67760102   -8.3041506    227.39999  0.013006177  0.011987503         1940 
 1458000   0.66833245   -8.2985293    227.35593  0.012994737  0.011975573         1901 
 1459000   0.67263728   -8.3123099    226.96735  0.012963637  0.011963659         1945 
 1460000   0.66769084   -8.3035018    227.37452  0.012977998  0.011951759         1913 
 1461000   0.67499022    -8.294515    227.40349  0.012970767  0.011939874         1948 
 1462000   0.67590309   -8.3024873    227.29744  0.012955851  0.011928009         1937 
 1463000   0.67057321   -8.2979009    227.20133   0.01294152  0.011916162         1941 
 1464000    0.6672568   -8.3263294    226.95244  0.012918513  0.011904311         2039 
 1465000   0.67383878   -8.2970779    226.97763  0.012911128  0.011892476         1999 
 1466000    0.6548049   -8.3147973    227.32607  0.012922128  0.011880652         2047 
 1467000   0.65266047   -8.3073416    226.64747  0.012874771   0.01186883         1993 
 1468000   0.67595308   -8.3014721    227.48885  0.012913763  0.011857029         2034 
 1469000   0.66059083   -8.3208424    226.75072    0.0128631  0.011845226         2099 
 1470000   0.67607275   -8.3049125    227.56146   0.01290031   0.01183346         2082 
 1471000   0.67280793   -8.3350211     227.0134  0.012860491  0.011821694         2128 
 1472000   0.66086079   -8.3333141    226.78226  0.012838669  0.011809928         2063 
 1473000   0.66627193   -8.3372384    227.18498  0.012852737  0.011798158         2113 
 1474000   0.65922723   -8.3331066    226.71892  0.012817668  0.011786425         2112 
 1475000   0.68439085    -8.309341    227.14871  0.012833261  0.011774708         2120 
 1476000   0.66247517   -8.3306249    226.80631  0.012805234  0.011762987         2250 
 1477000   0.66887121   -8.3177445    226.97479   0.01280607  0.011751283         2197 
 1478000   0.66647327   -8.3390795    227.14797   0.01280717  0.011739586         2185 
 1479000   0.65084031   -8.3531951    227.05664  0.012793365  0.011727899         2190 
 1480000   0.66039791   -8.3193066    227.57404  0.012813853  0.011716218         2143 
 1481000   0.65997589   -8.3311795    226.95574  0.012770411  0.011704545         2126 
 1482000   0.65513322   -8.3468288    226.74728  0.012750072  0.011692892         2267 
 1483000   0.66765569   -8.3386458    227.20542  0.012767219  0.011681272         2079 
 1484000   0.65925221   -8.3310309    226.82529  0.012737269  0.011669652         2212 
 1485000   0.66809524   -8.3528428    226.81294  0.012727999  0.011658033         2193 
 1486000   0.65276216    -8.368227    226.65813  0.012710752  0.011646419         2253 
 1487000   0.63381501   -8.3505168    226.45332  0.012690726  0.011634811         2274 
 1488000   0.64343464   -8.3705446    226.56064  0.012688208  0.011623224         2318 
 1489000   0.65637163   -8.3520497    227.11947  0.012710962  0.011611656         2274 
 1490000   0.65150155   -8.3473774    226.82694   0.01268607   0.01160009         2287 
 1491000   0.64190131    -8.340018     226.7478  0.012673139  0.011588538         2317 
 1492000   0.66207732   -8.3588086    227.06756  0.012682504  0.011576994         2283 
 1493000   0.65366542   -8.3710136    226.43212  0.012638542  0.011565455         2233 
 1494000   0.65355815   -8.3528794    226.53928   0.01263606  0.011553926         2306 
 1495000   0.64532835   -8.3492079    226.87512  0.012646328  0.011542403         2377 
 1496000   0.65854068   -8.3804857    226.70944  0.012628645  0.011530895         2363 
 1497000   0.65358022    -8.371881    226.75286  0.012622626  0.011519418         2390 
 1498000   0.66742806   -8.3625219    227.02807   0.01262951  0.011507935         2320 
 1499000   0.65073584   -8.3851446    226.45935  0.012589468  0.011496459         2390 
 1500000   0.66022368   -8.3530974    226.54903  0.012586057  0.011485007         2416 
 1501000   0.65310922   -8.3653301    226.89792  0.012597042  0.011473569         2394 
 1502000   0.66227436   -8.3947167    225.78183  0.012526733  0.011462133         2383 
 1503000    0.6587236   -8.3846246    226.52337  0.012559513  0.011450727         2478 
 1504000   0.63425254   -8.3625827    227.05509  0.012580623  0.011439312         2353 
 1505000   0.65608536   -8.3632885    226.62607  0.012548509  0.011427926         2405 
 1506000   0.65684315     -8.37579    226.20821  0.012517054  0.011416534         2400 
 1507000   0.65866525   -8.3767439    226.51415  0.012525666  0.011405168         2390 
 1508000   0.65642079   -8.3823321    226.72844  0.012529202  0.011393805         2382 
 1509000   0.64527193   -8.3860574    226.46982  0.012506617  0.011382466         2362 
 1510000   0.66163582   -8.3589712    226.13652  0.012479941  0.011371133         2312 
 1511000   0.65434043   -8.3881736    226.57269  0.012495736  0.011359814         2432 
 1512000   0.64386474    -8.387918    226.37541  0.012476599  0.011348516         2391 
 1513000   0.63692787   -8.4068812    226.38954  0.012469131  0.011337201         2488 
 1514000   0.64957241   -8.3986718    226.34013  0.012458175  0.011325922         2436 
 1515000   0.65730518   -8.3945077    226.39655  0.012453055  0.011314657         2493 
 1516000   0.64559412   -8.3821466    226.48697  0.012449811  0.011303399         2476 
 1517000    0.6408638   -8.3712121    226.47465  0.012440928  0.011292149         2395 
 1518000   0.64772204    -8.387219    226.13576  0.012414128  0.011280898         2383 
 1519000   0.66522672   -8.3812534    226.56988  0.012429772  0.011269667         2472 
 1520000   0.63915391   -8.3930051    226.39145  0.012411812   0.01125846         2433 
 1521000   0.64382743   -8.3775203    226.33489  0.012400553  0.011247266         2421 
 1522000   0.63949386   -8.3916626    226.30069  0.012390533  0.011236071         2402 
 1523000   0.63752619   -8.4033511    226.09683  0.012371243  0.011224878         2486 
 1524000    0.6441371   -8.3862118    226.20289  0.012368924  0.011213697         2406 
 1525000   0.65003893   -8.3972108    226.16938  0.012358982  0.011202535         2460 
 1526000   0.65096411   -8.3694541    226.42998  0.012365115  0.011191389         2473 
 1527000   0.62612333   -8.4013842    225.77213  0.012321116  0.011180254         2558 
 1528000   0.63095201    -8.380848     226.6878  0.012362991  0.011169126         2492 
 1529000   0.64814779   -8.4005804    225.81404  0.012307284  0.011158027         2457 
 1530000   0.64667122   -8.4203178    225.98717  0.012308669  0.011146929         2506 
 1531000    0.6461495   -8.4103484    226.16038  0.012310058  0.011135849         2528 
 1532000   0.64206755   -8.4142846    226.17575  0.012302858  0.011124771         2518 
 1533000   0.63917706   -8.4163703    225.56789   0.01226179  0.011113714         2587 
 1534000   0.63583386   -8.4191104    226.09776  0.012282582  0.011102671         2567 
 1535000   0.62209415   -8.4038905    226.14556  0.012277175  0.011091628         2588 
 1536000   0.63067975   -8.3963762    226.30723  0.012277953  0.011080595         2498 
 1537000   0.63545261   -8.4330789    225.99165  0.012252854  0.011069598         2437 
 1538000   0.62799439   -8.4123687    226.61987  0.012278926  0.011058604         2463 
 1539000   0.64246085   -8.3992332    226.06393  0.012240845  0.011047635         2479 
 1540000    0.6245393   -8.3914247    225.97763  0.012228227  0.011036675         2446 
 1541000   0.62582604   -8.4182334    226.10826  0.012227355   0.01102572         2523 
 1542000   0.63390473    -8.416909     225.8008   0.01220281  0.011014804         2532 
 1543000   0.63307351   -8.3953698    226.39827  0.012227169  0.011003878         2506 
 1544000   0.63364413   -8.4165412    226.23861  0.012210633   0.01099298         2565 
 1545000   0.64016473    -8.392712     226.2415  0.012202886  0.010982084         2519 
 1546000   0.64560711   -8.4226775    225.60431  0.012160647  0.010971191         2671 
 1547000   0.64034981   -8.4143996    225.60585  0.012152868  0.010960304         2554 
 1548000    0.6305094   -8.4210325    226.10279   0.01217177  0.010949428         2639 
 1549000   0.65031973   -8.4145208    226.16037  0.012167009  0.010938567         2557 
 1550000   0.61989891    -8.415276    225.69552  0.012134168   0.01092771         2584 
 1551000   0.62264555   -8.4284806      225.904  0.012137545  0.010916871         2650 
 1552000   0.63409882   -8.4342484    225.76147  0.012122072  0.010906039         2628 
 1553000   0.63606319     -8.44155    225.90815  0.012122137  0.010895216         2713 
 1554000    0.6429154   -8.4328863    225.40404  0.012087304  0.010884393         2698 
 1555000   0.62868957   -8.4492089    225.60371  0.012090231  0.010873583         2751 
 1556000   0.64137384   -8.4284295    225.53485  0.012078773  0.010862768         2749 
 1557000   0.63858293   -8.4517335    225.34786  0.012061007  0.010851968         2765 
 1558000   0.62902035   -8.4530302     225.8107  0.012078022  0.010841194         2794 
 1559000   0.62463152    -8.454733    225.62531  0.012060365  0.010830409         2825 
 1560000   0.64237101   -8.4568433    225.53951  0.012048051  0.010819651         2738 
 1561000   0.62671755   -8.4491086    225.75565  0.012051871  0.010808892         2863 
 1562000   0.62603098   -8.4464493    225.51114  0.012031111  0.010798149         2796 
 1563000    0.6153218   -8.4456291    226.11873  0.012055808  0.010787424         2772 
 1564000   0.62583193   -8.4626077    225.83376  0.012032916  0.010776709         2761 
 1565000   0.62697192    -8.463664     225.4346  0.012003972  0.010765997         2758 
 1566000   0.63335702    -8.435859    225.71757  0.012011365  0.010755302         2800 
 1567000   0.62032382   -8.4502663    225.50998   0.01199266  0.010744632         2812 
 1568000   0.63962709   -8.4627212    225.68034  0.011994066  0.010733962         2744 
 1569000   0.62602498    -8.466429    225.74234  0.011989714  0.010723309         2744 
 1570000   0.63694468   -8.4470137    225.81151  0.011985749  0.010712666         2789 
 1571000   0.61840633   -8.4533488    226.07873  0.011992294  0.010702062         2744 
 1572000   0.62936936   -8.4309053    225.99226  0.011980081  0.010691469         2773 
 1573000   0.63035578   -8.4625122    225.87964  0.011966499  0.010680885         2840 
 1574000   0.62051317   -8.4415401    225.59793  0.011943982  0.010670294         2777 
 1575000   0.61847693   -8.4758308      225.433  0.011927672   0.01065972         2784 
 1576000   0.62112396   -8.4696846    225.33122  0.011914722  0.010649157         2810 
 1577000   0.63242216   -8.4689109    225.49242  0.011915685  0.010638612         2845 
 1578000   0.62980192   -8.4549753    225.76112  0.011922324  0.010628081         2817 
 1579000   0.62542008   -8.4561849    225.29712  0.011890285  0.010617558         2852 
 1580000   0.62320574   -8.4750993       225.28  0.011881856   0.01060706         2811 
 1581000   0.61558014   -8.4697357    225.74509  0.011898856  0.010596569         2765 
 1582000   0.61414585   -8.4450413    225.43871  0.011875196  0.010586093         2797 
 1583000   0.61704497   -8.4805716    225.01415  0.011845344  0.010575612         2784 
 1584000   0.61177042   -8.4736098    225.13194  0.011844062   0.01056516         2849 
 1585000   0.63515525    -8.462395    225.38503  0.011849896   0.01055472         2913 
 1586000   0.62729247   -8.4539316    225.42492  0.011844521  0.010544279         2928 
 1587000   0.61427306   -8.4724525    225.55258  0.011843761  0.010533851         2933 
 1588000   0.61717098   -8.4628753    225.60398     0.011839  0.010523434         2823 
 1589000   0.61837451   -8.4665564    225.08485  0.011804324  0.010513016         2867 
 1590000   0.60892381   -8.4769612    225.21733  0.011803843  0.010502632         2954 
 1591000   0.61233271   -8.4787749     225.3051  0.011801021  0.010492259         2841 
 1592000   0.61279598   -8.4620017    225.38304  0.011797688  0.010481891         2828 
 1593000   0.62191903   -8.4844653    225.10489  0.011775732  0.010471537         2871 
 1594000   0.61240845   -8.4853729    225.12832  0.011769569   0.01046119         2879 
 1595000   0.61756761   -8.4878655    225.59856  0.011786759  0.010450854         2855 
 1596000   0.61516539   -8.4761558    225.64565  0.011781832  0.010440543         2825 
 1597000   0.61439446   -8.4837688    225.34022  0.011758517   0.01043024         2951 
 1598000   0.61341678   -8.4891469    225.20872  0.011744301  0.010419946         2886 
 1599000   0.62053884   -8.4679705    225.57962  0.011756286  0.010409663         2856 
 1600000   0.62829448   -8.4664644    225.05127   0.01172142  0.010399402         2839 
 1601000    0.6135792   -8.4974881    225.25592  0.011724751  0.010389146         2837 
 1602000   0.62349832   -8.4941895    224.91342  0.011699616  0.010378909         2834 
 1603000   0.60462291   -8.4858329    225.20285  0.011707364   0.01036868         2888 
 1604000   0.62139908   -8.4967115    225.34744  0.011707577  0.010358458         2884 
 1605000   0.60867268   -8.5152757    225.06309  0.011685519  0.010348256         2836 
 1606000    0.6285181   -8.4956412    225.17285  0.011683938  0.010338069         2921 
 1607000   0.61445403   -8.4833316     225.4191  0.011689437  0.010327892         2958 
 1608000   0.60732894   -8.4815853    225.16111  0.011668797   0.01031773         2951 
 1609000   0.60416374   -8.5053513    225.19902  0.011663508  0.010307572         2979 
 1610000   0.60717592   -8.4846069     225.3452   0.01166383   0.01029743         2912 
 1611000   0.60676983   -8.4655376    225.73347  0.011676675  0.010287306         2870 
 1612000   0.61186308   -8.5061822    225.55341  0.011660123  0.010277194         2961 
 1613000   0.60265712   -8.4993379     225.5171  0.011651018  0.010267088         2975 
 1614000   0.61148106   -8.4929949    225.09543  0.011622027     0.010257         2887 
 1615000   0.60384147   -8.4841194    225.10714  0.011615435  0.010246917         2969 
 1616000   0.62564435   -8.5185802    225.11705  0.011608759  0.010236851         2996 
 1617000   0.60687287   -8.5044341    224.90701  0.011590755  0.010226778         3017 
 1618000    0.6156763   -8.5088303    225.52791   0.01161557  0.010216736         3063 
 1619000   0.62028829   -8.4925979    225.24783  0.011593979  0.010206686         3024 
 1620000   0.61089705   -8.5047181    224.90637  0.011569258  0.010196656         2936 
 1621000   0.60305461   -8.4890046    225.41261  0.011588145  0.010186637         3037 
 1622000   0.60988809   -8.4986019    224.85656  0.011552433  0.010176648         2955 
 1623000   0.60090681   -8.4949256    225.04413  0.011554946   0.01016665         2983 
 1624000   0.60469892   -8.5103241    224.80053  0.011535331  0.010156676         3040 
 1625000   0.60913683   -8.5099605    225.17691  0.011547534  0.010146709         3019 
 1626000   0.61768893   -8.4989829     224.7039   0.01151619  0.010136751         2992 
 1627000    0.5940834   -8.5190947    224.73699  0.011510807  0.010126805         2924 
 1628000    0.6020501    -8.505853    224.82136  0.011508055  0.010116865         2935 
 1629000   0.60523352   -8.5170256    225.34555  0.011527806  0.010106934         3029 
 1630000   0.60018766   -8.5069682    225.13859  0.011510153  0.010097003         3020 
 1631000   0.60310862   -8.5241049    225.04009  0.011498063  0.010087086         3076 
 1632000   0.60253808   -8.5266707    224.65733  0.011471473  0.010077182         3067 
 1633000   0.60697324   -8.5224176    225.06639  0.011485323  0.010067308         3040 
 1634000   0.60080573    -8.527191    224.85284  0.011467403  0.010057435         3121 
 1635000   0.60207047   -8.4999629     225.0957  0.011472768  0.010047571         3123 
 1636000   0.59131548   -8.5262339    224.79184  0.011450277  0.010037717         3128 
 1637000   0.60406348   -8.5236852    224.86356  0.011446934  0.010027872         3110 
 1638000   0.59656336   -8.5213505     224.9024  0.011441921  0.010018026         3041 
 1639000   0.61410525   -8.5205699    224.99701   0.01143975  0.010008201         3128 
 1640000   0.59445535   -8.5247434    224.91059  0.011428384 0.0099983764         3095 
 1641000   0.59407932   -8.5433257    224.60858  0.011406083 0.0099885654         3117 
 1642000   0.59386357   -8.5437334    225.01183  0.011419602 0.0099787668         3144 
 1643000   0.59693822     -8.52055    224.81191  0.011402511 0.0099689768         3130 
 1644000   0.60735087   -8.5331394    224.68071  0.011388925  0.009959201         3148 
 1645000   0.61392843   -8.5291401    224.79615  0.011387849 0.0099494433         3076 
 1646000   0.59474781    -8.520902    224.81342  0.011381806 0.0099396947         3126 
 1647000   0.59145785   -8.5163246    224.93421  0.011381006 0.0099299414         3115 
 1648000   0.59700644   -8.5496723    224.10911  0.011332378 0.0099202144         3172 
 1649000   0.60544012   -8.5302548    224.80508  0.011360677 0.0099104801         3133 
 1650000   0.58213883   -8.5302955    224.30832  0.011328703 0.0099007561         3151 
 1651000   0.59228232   -8.5361246    225.05184   0.01135937 0.0098910467         3184 
 1652000   0.58644931   -8.5205398    224.46567  0.011322925 0.0098813461         3195 
 1653000   0.57819298   -8.5422887    224.73376  0.011329591 0.0098716697         3184 
 1654000   0.60041452   -8.5373781     225.0151  0.011336916 0.0098619974         3103 
 1655000   0.58941016   -8.5322412    224.51984  0.011305128 0.0098523434         3122 
 1656000   0.59943654   -8.5453623    224.33178  0.011288837 0.0098426991         3119 
 1657000   0.58721467   -8.5549542    224.68592  0.011299835 0.0098330643         3137 
 1658000   0.59967172   -8.5386551    224.62195  0.011289804 0.0098234443         3150 
 1659000   0.58448909   -8.5507479    224.85773  0.011294843 0.0098138388         3124 
 1660000   0.58750211   -8.5445582    224.74973  0.011282617 0.0098042427         3156 
 1661000   0.59031982   -8.5434829    224.48895  0.011262741 0.0097946444         3158 
 1662000   0.59975812    -8.576388    224.07941   0.01123543 0.0097850754         3225 
 1663000   0.57591332    -8.521594    224.92005  0.011270798 0.0097755092         3119 
 1664000   0.58506384   -8.5368458      224.486  0.011242287 0.0097659574         3214 
 1665000   0.57922638   -8.5581453    224.45939  0.011234204 0.0097564239         3261 
 1666000   0.59534536    -8.564545     224.4605  0.011227516 0.0097468941         3161 
 1667000   0.59699121    -8.557575    224.84568  0.011240036 0.0097373907         3183 
 1668000   0.58501704   -8.5376428     224.7332  0.011227678 0.0097278888         3132 
 1669000   0.58321479   -8.5482311    224.77845   0.01122321  0.009718396         3197 
 1670000   0.58979198   -8.5526257    224.34701  0.011194961 0.0097089103         3135 
 1671000   0.58361473   -8.5631797    224.43243  0.011192521 0.0096994427         3182 
 1672000   0.58016158   -8.5465407    224.79038  0.011203667 0.0096899772         3124 
 1673000   0.57526879   -8.5460058    224.40082  0.011177566 0.0096805193         3134 
 1674000   0.58471106   -8.5578487    224.54958  0.011178294 0.0096710864         3137 
 1675000   0.59736326   -8.5568043    224.25893  0.011157161 0.0096616626         3164 
 1676000   0.57818494    -8.558116    224.17457  0.011146309 0.0096522523         3186 
 1677000   0.58665126   -8.5425214    224.23109  0.011142471 0.0096428628         3159 
 1678000   0.57136381   -8.5472032    224.60259   0.01115428   0.00963347         3151 
 1679000    0.5834548   -8.5778308    224.77315  0.011156103 0.0096240941         3211 
 1680000   0.58570936    -8.571118     224.3269  0.011127326 0.0096147346         3166 
 1681000    0.5717057   -8.5523265      224.704  0.011139401 0.0096053774         3155 
 1682000   0.57812177   -8.5626128    224.42662  0.011119036 0.0095960333         3119 
 1683000   0.58454972   -8.5543392    224.28876  0.011105603 0.0095866944         3087 
 1684000   0.58287786   -8.5503966    224.38154    0.0111036 0.0095773738         3113 
 1685000   0.57975742   -8.5557154    224.46254  0.011101016 0.0095680627         3148 
 1686000   0.56713725   -8.5728643    224.41501  0.011092082 0.0095587722         3150 
 1687000   0.56941814   -8.5520572    224.50129  0.011089769 0.0095494939         3136 
 1688000   0.57802369   -8.5634056    224.34741  0.011075603 0.0095402326         3141 
 1689000   0.58441314   -8.5553793    224.34599  0.011068975 0.0095309744         3145 
 1690000   0.58093615   -8.5764895    224.48046  0.011069056 0.0095217222         3150 
 1691000   0.56934467   -8.5674671    224.47945  0.011062461 0.0095124925         3180 
 1692000   0.56963651    -8.568188    224.41166  0.011052584 0.0095032743         3133 
 1693000   0.58430747    -8.562593    224.62839  0.011056723  0.009494057         3183 
 1694000    0.5776217   -8.5812694    224.36446  0.011037213 0.0094848674         3190 
 1695000   0.57351869   -8.5686161    224.28176  0.011026635 0.0094756853         3234 
 1696000   0.57851225   -8.5795172    223.89591  0.011001175 0.0094665106         3194 
 1697000   0.56480795    -8.562316    224.33548  0.011016278 0.0094573537         3184 
 1698000   0.57750216   -8.5816965    224.40417  0.011013161  0.009448191         3178 
 1699000   0.57379865   -8.5596747    224.34226  0.011003642 0.0094390555         3123 
 1700000   0.56615373   -8.5848396    224.17776  0.010989106 0.0094299241         3119 
 1701000   0.56649358   -8.5879509    224.51044  0.010998944 0.0094208032         3184 
 1702000   0.57408276   -8.5917468    224.27783  0.010981092 0.0094116994         3182 
 1703000    0.5896839    -8.560979    224.19519    0.0109706 0.0094025959         3169 
 1704000   0.56970102   -8.5652828    223.96924  0.010953112  0.009393504         3172 
 1705000   0.56460392   -8.5710875    224.26032  0.010960915 0.0093844242         3186 
 1706000   0.58064165   -8.5812255    224.45309  0.010963906 0.0093753492         3190 
 1707000   0.56915575   -8.5752151    224.18001  0.010944152 0.0093662903         3211 
 1708000   0.57618593   -8.5887864    224.11163  0.010934408 0.0093572417         3188 
 1709000   0.57465757   -8.5845142    223.96594  0.010920906  0.009348204         3192 
 1710000   0.57595527   -8.5737321    223.72018  0.010902543 0.0093391697         3225 
 1711000   0.58245814      -8.5947    224.14415   0.01091682  0.009330143         3168 
 1712000    0.5710573   -8.5786851    224.05978  0.010906337 0.0093211428         3197 
 1713000   0.57387594   -8.5793774    224.30491  0.010911895 0.0093121537         3182 
 1714000   0.57892035   -8.5713523     223.8955  0.010885623 0.0093031676         3206 
 1715000   0.56669557    -8.590165    224.28482  0.010898193 0.0092942027         3227 
 1716000   0.57132011   -8.5700208    224.12058  0.010883866 0.0092852332         3218 
 1717000   0.57415597   -8.5822739    223.96218   0.01086984 0.0092762731         3222 
 1718000   0.57327593    -8.582189    224.18314  0.010874231 0.0092673348         3208 
 1719000   0.57452037   -8.5813035    224.10432  0.010864084 0.0092584169         3165 
 1720000   0.56793569   -8.5623661    224.06342  0.010855786  0.009249504         3204 
 1721000   0.56933295   -8.5853122     223.7558  0.010834583 0.0092406036         3200 
 1722000   0.55476888   -8.5817112    224.40995  0.010859947 0.0092317051         3220 
 1723000   0.56047655     -8.59194    223.94794  0.010831299 0.0092228153         3228 
 1724000   0.56908862   -8.5964887    223.83335  0.010819477 0.0092139399         3229 
 1725000   0.56158241   -8.5970251    223.87052  0.010815001 0.0092050829         3175 
 1726000   0.56465237   -8.5868427    224.07058  0.010818394 0.0091962375         3200 
 1727000    0.5596453   -8.5922506     223.6274  0.010790745 0.0091873922         3169 
 1728000   0.56549693   -8.5854198    224.34095  0.010818912   0.00917856         3192 
 1729000   0.56555058   -8.5864782    223.82944  0.010788001 0.0091697389         3182 
 1730000   0.56495407    -8.613488    223.84599  0.010782562 0.0091609345         3173 
 1731000    0.5622352   -8.5932076    224.20414  0.010793575 0.0091521403         3119 
 1732000   0.55805261   -8.6126417    223.71741  0.010763925 0.0091433528         3137 
 1733000   0.55992253   -8.5942603    223.34336  0.010739727 0.0091345746         3216 
 1734000    0.5524203   -8.5987744     223.9753  0.010763903 0.0091258048         3191 
 1735000   0.56436517   -8.5987869    223.63605  0.010741405 0.0091170507         3258 
 1736000   0.55833844   -8.6018313    223.46432  0.010726974 0.0091083053         3252 
 1737000   0.55792349    -8.601827    224.10851  0.010751704 0.0090995754         3210 
 1738000   0.56187683   -8.5842008    224.00094  0.010740359 0.0090908491         3154 
 1739000   0.55535801   -8.6089953    223.94353  0.010731432 0.0090821432         3137 
 1740000   0.55416281   -8.5818513    224.36488  0.010745445 0.0090734426         3227 
 1741000   0.54957594   -8.5912879    224.29545  0.010735949 0.0090647468         3179 
 1742000   0.56316411   -8.6004061    223.96749  0.010714098 0.0090560739         3182 
 1743000   0.56875432   -8.6151556    223.80312  0.010700092 0.0090474097         3151 
 1744000   0.54806671   -8.6111996    223.59377  0.010683953 0.0090387486         3238 
 1745000   0.54941772   -8.6036595    223.98917  0.010696713 0.0090301001         3191 
 1746000   0.54296224   -8.5947803    223.66836  0.010675275 0.0090214585         3212 
 1747000   0.55186617   -8.6100392    223.78751  0.010674848 0.0090128303         3221 
 1748000   0.54818295   -8.6113157    223.55329  0.010657575 0.0090042111         3220 
 1749000   0.55435684   -8.6185541    223.27567  0.010638254 0.0089956002         3190 
 1750000   0.55088561   -8.6332306    223.61855  0.010648502 0.0089869945         3169 
 1751000    0.5695413   -8.5959899    223.63099  0.010643013 0.0089784082         3174 
 1752000    0.5497841   -8.6218572    224.10343   0.01065941 0.0089698316         3221 
 1753000   0.54895762   -8.6181918    223.76074  0.010637039 0.0089612655         3231 
 1754000   0.55385142   -8.5816919    223.54029    0.0106205   0.00895271         3188 
 1755000   0.56328133   -8.6121298    223.92028  0.010632492 0.0089441603         3206 
 1756000   0.54923686   -8.6242656     223.7519  0.010618446  0.008935633         3179 
 1757000   0.56322314   -8.6317191    223.84982  0.010617047 0.0089271007         3192 
 1758000   0.54528272   -8.6129649    223.76799  0.010607129  0.008918591         3204 
 1759000   0.54268861   -8.6080735    223.58743  0.010592545 0.0089100908         3179 
 1760000   0.54069818   -8.6065219    223.80304  0.010596735 0.0089016029         3233 
 1761000   0.55369879   -8.6368682    223.72009  0.010586792 0.0088931234         3171 
 1762000   0.55535253   -8.6107315     223.8245  0.010585722 0.0088846481         3191 
 1763000   0.54056125   -8.6074622      223.833  0.010580119 0.0088761896         3189 
 1764000   0.54634473    -8.612166    223.81479  0.010573261  0.008867737         3132 
 1765000   0.53639275   -8.5984753     224.2675  0.010588645 0.0088592916         3215 
 1766000   0.55321701    -8.615911    223.83328   0.01056216  0.008850861         3225 
 1767000   0.55339735    -8.604954    223.71429   0.01055057 0.0088424374         3191 
 1768000    0.5491574   -8.6334629    223.56828  0.010537721 0.0088340284         3244 
 1769000   0.53586051   -8.6187501    223.77449  0.010541478 0.0088256203         3207 
 1770000   0.53834086   -8.6223129    223.93948   0.01054329 0.0088172361         3178 
 1771000   0.53362566    -8.621203    223.71624  0.010526832 0.0088088604         3251 
 1772000    0.5560076   -8.6350216    223.60152  0.010515497  0.008800486         3237 
 1773000   0.54176952   -8.6222967    223.61174  0.010510046 0.0087921363         3210 
 1774000   0.53702077   -8.6325421    223.93027  0.010519084 0.0087837875         3212 
 1775000   0.54462187   -8.6286281    223.72555  0.010503547 0.0087754505         3179 
 1776000   0.54630935    -8.622716    223.69401  0.010496153 0.0087671261         3158 
 1777000   0.55164714   -8.6231227    223.52956  0.010482534 0.0087588039         3230 
 1778000   0.54030606   -8.6220126    223.44419  0.010472637 0.0087505014         3238 
 1779000   0.54053918   -8.6146076    223.74111  0.010480659 0.0087422022         3171 
 1780000    0.5402198   -8.6417119    223.71291  0.010473451 0.0087339113         3174 
 1781000   0.53943817   -8.6442397    223.57773  0.010461245 0.0087256334         3217 
 1782000   0.54437082   -8.6135419    223.88878   0.01046992 0.0087173677         3236 
 1783000   0.54123004     -8.62486     223.2229  0.010432927 0.0087091136         3182 
 1784000   0.54096589   -8.6330639    223.54178  0.010441974 0.0087008647         3204 
 1785000   0.54328508    -8.615095    223.78761  0.010447601 0.0086926295         3204 
 1786000   0.54475104   -8.6165186     223.8513  0.010444723 0.0086844089         3151 
 1787000   0.53317508   -8.6297694    223.70827  0.010432208 0.0086761929         3230 
 1788000   0.53598696   -8.6382287     223.3628  0.010410272 0.0086679893         3209 
 1789000   0.53270034   -8.6287063    223.37332  0.010404943  0.008659795         3229 
 1790000   0.54973089   -8.6484992    223.17234  0.010389774 0.0086516142         3219 
 1791000   0.53671114   -8.6496025    223.14166  0.010382545 0.0086434348         3199 
 1792000   0.54876062   -8.6228145    223.58434  0.010397337 0.0086352691         3206 
 1793000   0.54126205   -8.6296963    223.29522  0.010378101  0.008627105         3255 
 1794000   0.52227533   -8.6432209    223.65323  0.010388946 0.0086189593         3247 
 1795000   0.53083857   -8.6239103    223.46455  0.010374399 0.0086108216         3212 
 1796000   0.53792137   -8.6441161    223.14778  0.010353925 0.0086026983         3249 
 1797000   0.54445008   -8.6360067    223.64473  0.010371208 0.0085945953         3222 
 1798000   0.54313394    -8.614364    223.35918  0.010352205 0.0085864963         3148 
 1799000   0.54134037   -8.6425437    223.28932  0.010343215 0.0085784076         3196 
 1800000   0.54145813   -8.6253156    223.70145  0.010356549 0.0085703242         3281 
 1801000   0.53805045   -8.6328473    223.52744  0.010342747 0.0085622536         3162 
 1802000   0.52589173   -8.6327985    223.82077  0.010350572 0.0085541915         3227 
 1803000   0.52652193   -8.6329836    223.57063   0.01033327   0.00854613         3226 
 1804000   0.54090764   -8.6406099     223.4828  0.010323485 0.0085380845         3279 
 1805000   0.52438964   -8.6399614    223.57574  0.010322056 0.0085300478         3212 
 1806000   0.53087441    -8.628166    223.30078  0.010303654 0.0085220164         3293 
 1807000   0.53207907   -8.6572319    223.38988  0.010302061 0.0085139922         3198 
 1808000   0.53283856   -8.6461127    223.64278  0.010308019 0.0085059912         3180 
 1809000   0.52187259   -8.6336435    223.27988  0.010285604 0.0084979933         3275 
 1810000    0.5151522   -8.6540601    223.49238  0.010289705  0.008490002         3250 
 1811000   0.52238865   -8.6420123    223.72641  0.010294792 0.0084820288         3240 
 1812000   0.53351138   -8.6353423    223.31117  0.010270013 0.0084740681         3221 
 1813000   0.51867306   -8.6337292    223.52552  0.010274201 0.0084661177         3251 
 1814000   0.53051907   -8.6443081    223.25096  0.010255924 0.0084581785         3215 
 1815000   0.51595631    -8.649147    223.30484  0.010252748 0.0084502446         3217 
 1816000   0.52299385   -8.6783675    223.37604  0.010250369 0.0084423093         3204 
 1817000   0.51968608   -8.6527247    223.34696  0.010243394 0.0084343877         3170 
 1818000   0.51841849   -8.6372979    223.79689  0.010258383 0.0084264788         3226 
 1819000   0.53341313   -8.6494872    223.38924  0.010234068  0.008418582         3256 
 1820000   0.53285031   -8.6656454    223.19993  0.010219777 0.0084106891         3182 
 1821000    0.5405167   -8.6608953    223.06725  0.010208093 0.0084028099         3220 
 1822000   0.53268154   -8.6452169    223.63269  0.010228352 0.0083949447         3210 
 1823000   0.52457967   -8.6432703    223.22942  0.010204307 0.0083870926         3229 
 1824000   0.52162242   -8.6416058    223.51779  0.010211887 0.0083792434         3240 
 1825000   0.52221519   -8.6580412    223.15567  0.010189756 0.0083713965         3219 
 1826000   0.52237992   -8.6382116     223.4975  0.010199776  0.008363565         3216 
 1827000   0.52723834   -8.6475034    223.43026  0.010191127 0.0083557477         3260 
 1828000   0.53142369    -8.646031    223.56815  0.010191837 0.0083479337         3257 
 1829000    0.5321639   -8.6448132    223.07076  0.010163603 0.0083401308         3190 
 1830000   0.52091453   -8.6537772    222.96084  0.010153044 0.0083323395         3211 
 1831000   0.51164441   -8.6501552    223.53829   0.01017378 0.0083245565         3262 
 1832000   0.51658356   -8.6562837    222.96307  0.010142061 0.0083167802         3206 
 1833000    0.5260619   -8.6567528    223.00945  0.010138637  0.008309017         3257 
 1834000    0.5186893   -8.6508197    223.18708   0.01014118  0.008301259         3248 
 1835000   0.51624598   -8.6481664    223.13747    0.0101334 0.0082935098         3283 
 1836000   0.51583989   -8.6574324    223.48528  0.010143668 0.0082857761         3293 
 1837000   0.51036349   -8.6620588    223.16748  0.010123729 0.0082780476         3246 
 1838000   0.50780632   -8.6458526    223.34136  0.010126105 0.0082703311         3251 
 1839000   0.52324684   -8.6616958    223.08333  0.010108906 0.0082626232         3237 
 1840000   0.50889916   -8.6716799    222.98837  0.010099111 0.0082549219         3232 
 1841000   0.51046487   -8.6566732    223.20023  0.010103215 0.0082472297         3291 
 1842000   0.52048042   -8.6537619    223.05245  0.010091045 0.0082395589         3220 
 1843000   0.51653337   -8.6708006     223.0737   0.01008653 0.0082318903         3213 
 1844000   0.51796249    -8.666517    223.03161  0.010079158 0.0082242375         3252 
 1845000   0.52663731   -8.6642775     223.2905  0.010085388 0.0082165856         3223 
 1846000   0.51146169   -8.6731563    223.16521  0.010074269 0.0082089456         3232 
 1847000   0.50952389   -8.6802325    222.90725  0.010057176 0.0082013141         3221 
 1848000   0.51811794   -8.6574095    222.83693  0.010048563 0.0081936839         3207 
 1849000   0.51707169   -8.6716889     223.2407  0.010061326 0.0081860642         3239 
 1850000   0.52205459   -8.6714949    222.99519  0.010044828 0.0081784538         3254 
 1851000   0.50982742   -8.6626473    223.32655   0.01005432 0.0081708588         3240 
 1852000   0.51763419   -8.6726272    222.82247  0.010026209 0.0081632725         3201 
 1853000   0.51030281    -8.664843    222.99299  0.010028467 0.0081557027         3223 
 1854000   0.52403623   -8.6731318    222.97623  0.010022304  0.008148131         3227 
 1855000   0.51157922   -8.6693402    223.20915  0.010027365 0.0081405687         3252 
 1856000   0.50693419    -8.678363    222.84319  0.010005531 0.0081330157         3273 
 1857000   0.51902377   -8.6864445    222.89619  0.010002522 0.0081254713         3264 
 1858000    0.5089921   -8.6739685    222.82018 0.0099937288 0.0081179401         3248 
 1859000   0.49869416   -8.6839517    223.16598  0.010003854 0.0081104131         3228 
 1860000   0.52181831    -8.678914     222.7692 0.0099806991 0.0081028941         3243 
 1861000   0.50059163   -8.6674302    223.08063 0.0099892811 0.0080953942         3248 
 1862000   0.51309435   -8.6766114    222.82969 0.0099726859 0.0080879028         3304 
 1863000   0.50776584   -8.6779854     222.6181 0.0099578681 0.0080804213         3311 
 1864000   0.50407794   -8.6840395    223.00608 0.0099698713 0.0080729476         3220 
 1865000   0.51004893   -8.6863386    222.90007 0.0099597886 0.0080654786         3318 
 1866000   0.51422799   -8.6815359    222.99792 0.0099588212 0.0080580143         3246 
 1867000   0.49720924   -8.6812805    223.04869  0.009955753 0.0080505611         3222 
 1868000   0.51386052   -8.6834294    222.65541 0.0099328789 0.0080431197         3249 
 1869000   0.51179897   -8.6735104     222.9568 0.0099410021 0.0080356853         3231 
 1870000   0.50266935   -8.6883136    223.08363 0.0099413382 0.0080282589         3323 
 1871000   0.50268006   -8.6749489     223.0666 0.0099352662 0.0080208395         3241 
 1872000   0.50410935   -8.6813246    222.94594 0.0099245877 0.0080134382         3256 
 1873000   0.50263709   -8.6844334    222.76268 0.0099111352 0.0080060375         3261 
 1874000    0.4927412   -8.6986671    222.81805 0.0099083087 0.0079986511         3212 
 1875000   0.51207864   -8.6934449    222.73892 0.0098995078 0.0079912685         3247 
 1876000   0.49680437   -8.6903445    222.98989 0.0099053791 0.0079838996         3249 
 1877000   0.51209754   -8.6949381    222.54284 0.0098802542 0.0079765413         3225 
 1878000   0.51244409    -8.692923    222.78515 0.0098857451 0.0079691912         3227 
 1879000   0.50178842   -8.6903971    222.81135  0.009881646 0.0079618441         3211 
 1880000   0.49486472   -8.6955758    222.49334 0.0098622935  0.007954508         3260 
 1881000   0.51070828   -8.6888419     222.8999  0.009875062 0.0079471783         3202 
 1882000   0.49378698   -8.6901994    222.86766 0.0098683873 0.0079398606         3209 
 1883000   0.49571228   -8.6815969    222.83449 0.0098616785 0.0079325525         3249 
 1884000   0.50105673   -8.6870757    222.92969 0.0098606549 0.0079252553         3249 
 1885000   0.48648107   -8.6700332    222.71292 0.0098458409 0.0079179608         3237 
 1886000   0.50480555   -8.6995189    222.79776 0.0098443691 0.0079106852         3238 
 1887000   0.50396359   -8.6838155    222.81764   0.00984003 0.0079034216         3230 
 1888000   0.50407973   -8.6943985    222.83098 0.0098354071 0.0078961543         3232 
 1889000   0.48422262   -8.7142706     222.7963 0.0098286705 0.0078888935         3241 
 1890000   0.50649671   -8.6784822    223.18689  0.009840692 0.0078816524         3249 
 1891000   0.50122522      -8.7011    222.91783  0.009823631 0.0078744161         3239 
 1892000   0.49769659   -8.7002942     222.7811 0.0098124162 0.0078671927         3271 
 1893000    0.4910045    -8.692284    222.76908 0.0098067037 0.0078599697         3254 
 1894000   0.48637142   -8.6801286    222.67397  0.009797341 0.0078527636         3210 
 1895000   0.50153985   -8.6956308    222.48566 0.0097838901 0.0078455571         3249 
 1896000   0.48312749   -8.6933968    222.62311 0.0097847711 0.0078383622         3241 
 1897000   0.49358054   -8.6844163    222.73273 0.0097844285 0.0078311714         3229 
 1898000   0.49679186   -8.6995695     222.8284 0.0097834739 0.0078239964         3250 
 1899000    0.5011112   -8.6953563    222.60916 0.0097687012 0.0078168252         3260 
 1900000   0.50536724   -8.6853004    222.64783 0.0097652559 0.0078096664         3246 
 1901000   0.49807935   -8.6884662    222.38118 0.0097484297   0.00780252         3207 
 1902000   0.49619272   -8.6889186    222.78295 0.0097609075 0.0077953754         3241 
 1903000   0.49300699   -8.7077976    222.68583 0.0097515254 0.0077882392         3262 
 1904000   0.49945533   -8.6891885    222.81181 0.0097519174 0.0077811181         3226 
 1905000    0.4973429   -8.7111971    222.63143 0.0097389078 0.0077740015         3246 
 1906000   0.49153055   -8.6897914    222.54292 0.0097299282 0.0077668936         3274 
 1907000   0.48443846   -8.7001756    222.84471 0.0097380139 0.0077597867         3290 
 1908000   0.48429815   -8.6912245    222.71972 0.0097274512 0.0077526944         3215 
 1909000   0.48910592   -8.7108975    222.86065 0.0097285077 0.0077456144         3266 
 1910000   0.48727907   -8.6989318    222.87205 0.0097239112 0.0077385417         3235 
 1911000   0.48789717   -8.7011766    223.02792 0.0097256199 0.0077314739         3225 
 1912000   0.48864515   -8.7063172     222.6665 0.0097047812 0.0077244208         3230 
 1913000   0.49778391   -8.7048944    222.86637 0.0097084146 0.0077173703         3233 
 1914000   0.49428538   -8.7109326    222.91189 0.0097053245 0.0077103356         3247 
 1915000   0.48588545   -8.7015813    222.81627 0.0096960952 0.0077033066         3269 
 1916000   0.49508511   -8.7109587    222.63941 0.0096833425 0.0076962804         3280 
 1917000   0.48593387   -8.7094829    222.28737 0.0096629879 0.0076892613         3270 
 1918000   0.48644605   -8.7131407    222.56492 0.0096700087 0.0076822545         3257 
 1919000   0.48155594   -8.6969419    222.53821 0.0096638098 0.0076752588         3241 
 1920000   0.47729637   -8.6987012    222.67705 0.0096648024 0.0076682712         3265 
 1921000   0.49158143   -8.7196927    222.46716 0.0096506664 0.0076612963         3214 
 1922000   0.48497864    -8.705633    222.61734 0.0096521566 0.0076543213         3284 
 1923000   0.49051492   -8.7165941    222.67826 0.0096497774 0.0076473551         3219 
 1924000    0.4836889   -8.7143174    222.40385 0.0096328765 0.0076404044         3245 
 1925000   0.49092123   -8.7065835    222.52433 0.0096330879 0.0076334575         3283 
 1926000   0.48582677   -8.7164742     222.4517 0.0096249436  0.007626518         3235 
 1927000   0.48489672   -8.7083532    222.42483 0.0096187872 0.0076195859         3281 
 1928000   0.49949264    -8.725643    222.71068 0.0096261533 0.0076126642         3263 
 1929000   0.48479767   -8.7190356    222.50231 0.0096121612 0.0076057488         3247 
 1930000   0.48237603   -8.7225917    222.52927 0.0096083449 0.0075988373         3286 
 1931000   0.47598633   -8.7242312      222.523 0.0096030986 0.0075919409         3223 
 1932000   0.48672184    -8.709017    222.73577 0.0096073056 0.0075850517         3271 
 1933000   0.48446232   -8.7132861    222.58856 0.0095959891 0.0075781681         3269 
 1934000   0.49027137   -8.7244161    222.46832 0.0095858464 0.0075712997         3301 
 1935000   0.47545276   -8.7160184    222.45494 0.0095803163 0.0075644379         3251 
 1936000   0.47717578   -8.7121732    221.99029 0.0095553671 0.0075575892         3269 
 1937000   0.48166058   -8.7240061    222.47333 0.0095712154 0.0075507426         3313 
 1938000   0.49295252   -8.7178734    222.58528 0.0095710905 0.0075438978         3224 
 1939000   0.49213388   -8.7123212    222.66958 0.0095697773 0.0075370728         3280 
 1940000    0.4774598   -8.7262615    222.74534 0.0095680986 0.0075302528         3268 
 1941000   0.48543017   -8.7257331    222.42121 0.0095492534 0.0075234394         3314 
 1942000    0.4813251   -8.7204164    222.49751 0.0095476102 0.0075166332         3294 
 1943000   0.47522003   -8.7345618    222.62339 0.0095480952 0.0075098326         3214 
 1944000   0.47927425   -8.7208838    222.65304 0.0095444546  0.007503046         3220 
 1945000   0.45625599   -8.7203378    222.34016 0.0095261424 0.0074962675         3280 
 1946000   0.49617465   -8.7175539    222.55196  0.009530317 0.0074894969         3269 
 1947000   0.48303737   -8.7133914    222.38288 0.0095181851  0.007482729         3249 
 1948000   0.49280876   -8.7207077    222.24668 0.0095074728  0.007475972         3255 
 1949000   0.47192879   -8.7329686    222.38673 0.0095085825 0.0074692227         3267 
 1950000   0.46443971   -8.7295508    222.12006 0.0094923101 0.0074624815         3314 
 1951000   0.47964222   -8.7237984    222.18602  0.009490262 0.0074557511         3298 
 1952000   0.46440676   -8.7342777    222.35617 0.0094926642  0.007449024         3278 
 1953000   0.47479827   -8.7317404    222.24556  0.009483084 0.0074423088         3322 
 1954000   0.46793478   -8.7294578     222.3745 0.0094837299 0.0074355975         3291 
 1955000   0.47892105   -8.7280817    222.45391 0.0094822637 0.0074288921         3286 
 1956000   0.47544177   -8.7299889    222.34451 0.0094727551 0.0074222009         3288 
 1957000   0.46678225   -8.7573532    222.32083 0.0094669065 0.0074155157         3316 
 1958000     0.480367   -8.7340437     222.3708  0.009464198 0.0074088395         3247 
 1959000   0.47483376   -8.7225913    222.45489  0.009462944  0.007402172         3325 
 1960000   0.47077645   -8.7332924     222.2213 0.0094481846 0.0073955114         3267 
 1961000   0.47388716   -8.7260041    222.59222 0.0094591288 0.0073888598         3258 
 1962000    0.4777828   -8.7250877    222.46771 0.0094490192 0.0073822155         3256 
 1963000   0.46592086   -8.7141113    222.17261 0.0094316779 0.0073755795         3267 
 1964000     0.473203   -8.7235907    221.96224 0.0094179497   0.00736895         3296 
 1965000     0.464199   -8.7324138    222.18223 0.0094224864 0.0073623266         3248 
 1966000   0.46698723   -8.7385921     222.1124 0.0094147338 0.0073557102         3259 
 1967000    0.4603395   -8.7391344    222.10728 0.0094097305 0.0073491063         3272 
 1968000   0.46752256    -8.734982    221.98053 0.0093995819 0.0073425054         3234 
 1969000   0.46683964     -8.74012    222.48008 0.0094159504 0.0073359132         3268 
 1970000   0.46724217    -8.727333     222.2276 0.0094004908 0.0073293296         3286 
 1971000   0.46680604   -8.7359364     222.1564 0.0093927111 0.0073227483         3286 
 1972000   0.46925867   -8.7289823    222.31406 0.0093946103  0.007316178         3282 
 1973000   0.46150918   -8.7436941    222.36413 0.0093919638 0.0073096202         3303 
 1974000   0.47171984   -8.7363039    222.53949 0.0093946087 0.0073030734         3272 
 1975000   0.46126198   -8.7545537    222.17378 0.0093744213 0.0072965245         3276 
 1976000   0.46905691   -8.7377284    222.48185 0.0093826689 0.0072899888         3291 
 1977000    0.4613469   -8.7551538     222.2819 0.0093694949 0.0072834591         3287 
 1978000    0.4659824   -8.7462812     222.3062 0.0093657818 0.0072769304         3310 
 1979000   0.47420372   -8.7246601    222.14313 0.0093541826 0.0072704146         3272 
 1980000   0.47763734   -8.7445568    222.51008 0.0093649024 0.0072639097         3246 
 1981000   0.45458797   -8.7437527    222.03563 0.0093402168 0.0072574117         3258 
 1982000   0.45954271   -8.7525887    222.00489 0.0093342116 0.0072509212         3333 
 1983000   0.46507184   -8.7474708    222.04428 0.0093311597 0.0072444381         3271 
 1984000   0.45816339   -8.7427555    221.88631 0.0093198214 0.0072379621         3285 
 1985000   0.46578212    -8.745573    221.90396 0.0093158673 0.0072314911         3295 
 1986000   0.46517148    -8.732665    222.04267 0.0093169971 0.0072250328         3263 
 1987000   0.45625031   -8.7363315     221.9841 0.0093098513 0.0072185805         3250 
 1988000   0.46278121   -8.7369901    221.95651 0.0093040118 0.0072121364         3257 
 1989000   0.45418006   -8.7407274    221.95433  0.009299243 0.0072056942         3305 
 1990000   0.46194507   -8.7652653    221.77088 0.0092868877 0.0071992599         3271 
 1991000    0.4635293   -8.7410329    222.07582 0.0092949868 0.0071928349         3224 
 1992000   0.45654312   -8.7626932    221.96173 0.0092855476 0.0071864146         3266 
 1993000   0.45524794   -8.7364974    222.30473 0.0092952306 0.0071800108         3277 
 1994000   0.45393673   -8.7608048    222.30557 0.0092906038 0.0071736098         3251 
 1995000   0.45916688   -8.7523983      222.109 0.0092777359 0.0071672157         3301 
 1996000   0.45960214   -8.7485805    222.06803 0.0092713774  0.007160833         3313 
 1997000   0.45906994   -8.7469502    222.10065 0.0092680957 0.0071544518         3297 
 1998000    0.4550246   -8.7432616    221.85051 0.0092530242 0.0071480812         3257 
 1999000    0.4524559   -8.7536929    221.73016 0.0092433782 0.0071417178         3321 
 2000000   0.45671634   -8.7449196    222.30378 0.0092626574 0.0071353609         3302 
 2001000   0.46054144   -8.7486081    222.29223 0.0092575473 0.0071290151         3284 
 2002000   0.45796572   -8.7600004    222.18088 0.0092482883 0.0071226758         3285 
 2003000    0.4531962    -8.761404    222.04068 0.0092378381 0.0071163412         3315 
 2004000   0.45365295   -8.7479603    221.56003 0.0092132413 0.0071100162         3309 
 2005000   0.44953795   -8.7579396     221.9604 0.0092252869 0.0071037044         3221 
 2006000    0.4518958   -8.7574068    222.04043 0.0092240127 0.0070973957         3251 
 2007000   0.45970125   -8.7659558    222.03683 0.0092192669  0.007091099         3253 
 2008000   0.45894108   -8.7486586    222.01593 0.0092138087 0.0070848046         3294 
 2009000   0.44905105   -8.7619572    222.24798 0.0092188476 0.0070785174         3261 
 2010000   0.45141055   -8.7685394     222.1351 0.0092095813 0.0070722387         3267 
 2011000   0.45424752   -8.7703161    221.93843  0.009196852 0.0070659647         3270 
 2012000   0.44420996   -8.7506481    221.62768 0.0091794103 0.0070597024         3280 
Loop time of 5295.14 on 48 procs for 2000000 steps with 4000 atoms

Performance: 65267.406 tau/day, 377.705 timesteps/s
99.4% CPU use with 48 MPI tasks x no OpenMP threads

MPI task timing breakdown:
Section |  min time  |  avg time  |  max time  |%varavg| %total
---------------------------------------------------------------
Pair    | 372.21     | 424.48     | 472.04     | 112.8 |  8.02
Neigh   | 37.228     | 38.762     | 40.864     |  13.2 |  0.73
Comm    | 325.17     | 375.08     | 428.91     | 117.5 |  7.08
Output  | 5.676      | 5.6782     | 5.7261     |   0.3 |  0.11
Modify  | 4385.1     | 4403.1     | 4416.7     |  10.3 | 83.15
Other   |            | 48.04      |            |       |  0.91

Nlocal:        83.3333 ave          89 max          76 min
Histogram: 1 3 0 7 9 5 13 4 1 5
Nghost:        2451.00 ave        2469 max        2435 min
Histogram: 6 2 7 3 5 9 5 7 1 3
Neighs:        17056.4 ave       19531 max       14513 min
Histogram: 3 4 6 5 4 7 5 7 3 4
FullNghs:      34112.2 ave       36650 max       31198 min
Histogram: 2 1 5 9 5 5 8 7 3 3

Total # of neighbors = 1637386
Ave neighs/atom = 409.34650
Neighbor list builds = 106488
Dangerous builds = 0

#clear
#
#next RN
#
#jump SELF
Total wall time: 1:28:18
