
units lj                  # Use reduced LJ style units
atom_style atomic         # Uncharged point particles
atom_modify map hash      # Needed for indexing of clusters etc
                          # Used to be able to find where atoms are in relation to each other.

lattice fcc 1.0 spacing 1 1 1
Lattice spacing in x,y,z = 1.5874011 1.5874011 1.5874011
region box block 0 10 0 10 0 10 units lattice
create_box 2 box
Created orthogonal box = (0.0000000 0.0000000 0.0000000) to (15.874011 15.874011 15.874011)
  3 by 4 by 4 MPI processor grid
create_atoms 1 box
Created 4000 atoms
  using lattice units in orthogonal box = (0.0000000 0.0000000 0.0000000) to (15.874011 15.874011 15.874011)
  create_atoms CPU = 0.003 seconds
set type 1 type/fraction 2 0.82 78393
Setting atom values ...
  3266 settings made for type/fraction
mass 1 1.0
mass 2 1.0
pair_style lj/cut  3.5
pair_modify tail  yes
pair_coeff 1  1  1.0  1.0   # Intearaction between 1 and 1 set with epsilon = 1 and sigma = 1
pair_coeff 1  2  1.5  0.8
pair_coeff 2  2  0.5  0.88

write_data data.0
System init for write_data ...
Neighbor list info ...
  update every 1 steps, delay 10 steps, check yes
  max neighbors/atom: 2000, page size: 100000
  master list distance cutoff = 3.8
  ghost atom cutoff = 3.8
  binsize = 1.9, bins = 9 9 9
  1 neighbor lists, perpetual/occasional/extra = 1 0 0
  (1) pair lj/cut, perpetual
      attributes: half, newton on
      pair build: half/bin/atomonly/newton
      stencil: half/bin/3d
      bin: standard
WARNING: Not all mixed pair coeffs generated from mixing. Use write_data with 'pair ij' option to store all pair coeffs. (../write_data.cpp:312)


#############################
#   M E L T   S Y S T E M   #
#############################

velocity all create 2.4 6229865 mom yes dist gaussian # Assign velocities
                                                    # Temperature 2.4, random number seed, zero linear momentum
                                                                                # Gaussian distribution

timestep 0.002   # simulation timestep
thermo 1000       # output thermodynamic data every 1000 steps bf 100

# Define a fix  in this case with index 1 applied to all
# particles in the simulation. This fix is for simulations
# in the anisotropic NPT ensemble. Note that we use the MTK
# correction.
fix 1 all npt temp 2.4 2.4 0.1 iso 5.68 5.68 0.5 mtk yes tchain 5 pchain 5 # Use NPT ensemble
                                                                         # Set temperature and pressure and damping
                                                                         # Numbers of thermostats in chain and in barostat
run 10000          # run for 10000 steps
Per MPI rank memory allocation (min/avg/max) = 3.642 | 3.644 | 3.648 Mbytes
Step Temp E_pair E_mol TotEng Press Volume 
       0          2.4    -3.598932            0 0.00016796869   -3.1561227         4000 
    1000    2.4252053   -2.8910969            0   0.74580154    5.7864045    3823.3383 
    2000    2.4293187   -2.9086869            0   0.73438008    5.9357038    3812.0546 
    3000    2.4551573   -2.8667026            0   0.81511271    5.9934767    3810.8998 
    4000    2.4192776   -2.8731328            0   0.75487637    5.7636073    3844.1449 
    5000     2.413223   -2.8880999            0   0.73082962     5.673119    3837.3189 
    6000    2.4288336   -2.8922705            0   0.75006908    5.7040858     3824.277 
    7000    2.3814468   -2.8794636            0   0.69181359    5.5482718    3866.7538 
    8000    2.3768939   -2.9470116            0   0.61743793    5.6234498    3807.2228 
    9000    2.4438298   -2.9070146            0   0.75781368    5.6345546     3826.218 
   10000    2.3766185   -2.8529871            0   0.71104937    5.9793015     3821.899 
Loop time of 2.56177 on 48 procs for 10000 steps with 4000 atoms

Performance: 674532.472 tau/day, 3903.544 timesteps/s
99.6% CPU use with 48 MPI tasks x no OpenMP threads

MPI task timing breakdown:
Section |  min time  |  avg time  |  max time  |%varavg| %total
---------------------------------------------------------------
Pair    | 1.134      | 1.2013     | 1.2946     |   2.9 | 46.89
Neigh   | 0.211      | 0.21972    | 0.23189    |   0.9 |  8.58
Comm    | 0.78447    | 0.88392    | 0.95862    |   3.7 | 34.50
Output  | 0.00024502 | 0.0002489  | 0.0003116  |   0.0 |  0.01
Modify  | 0.21954    | 0.24145    | 0.27224    |   2.8 |  9.43
Other   |            | 0.01512    |            |       |  0.59

Nlocal:        83.3333 ave          95 max          75 min
Histogram: 4 5 5 6 6 9 8 2 2 1
Nghost:        1693.40 ave        1735 max        1658 min
Histogram: 3 4 4 10 7 8 3 5 2 2
Neighs:        9989.81 ave       12102 max        8541 min
Histogram: 2 7 7 8 8 8 6 0 1 1

Total # of neighbors = 479511
Ave neighs/atom = 119.87775
Neighbor list builds = 910
Dangerous builds = 220

# Equilibrate just above the melting temperature to avoid step fn in T

fix 1 all npt temp 1.25 1.25 0.1 iso 5.68 5.68 0.5 mtk yes tchain 5 pchain 5
run 2000
Per MPI rank memory allocation (min/avg/max) = 3.643 | 3.645 | 3.649 Mbytes
Step Temp E_pair E_mol TotEng Press Volume 
   10000    2.3766185   -2.8529871            0   0.71104937    5.9793015     3821.899 
   11000    1.2641614   -4.3021161            0   -2.4063481    5.6885799    2938.7333 
   12000    1.2708606   -4.3029784            0    -2.397164    5.4676981    2951.9796 
Loop time of 0.623806 on 48 procs for 2000 steps with 4000 atoms

Performance: 554018.310 tau/day, 3206.124 timesteps/s
99.6% CPU use with 48 MPI tasks x no OpenMP threads

MPI task timing breakdown:
Section |  min time  |  avg time  |  max time  |%varavg| %total
---------------------------------------------------------------
Pair    | 0.28023    | 0.30476    | 0.32837    |   1.9 | 48.85
Neigh   | 0.039695   | 0.042612   | 0.045013   |   0.5 |  6.83
Comm    | 0.19994    | 0.22708    | 0.25696    |   2.5 | 36.40
Output  | 5.2653e-05 | 5.3657e-05 | 6.9177e-05 |   0.0 |  0.01
Modify  | 0.041387   | 0.044527   | 0.047455   |   0.8 |  7.14
Other   |            | 0.004774   |            |       |  0.77

Nlocal:        83.3333 ave          94 max          74 min
Histogram: 1 0 7 7 15 5 5 5 1 2
Nghost:        2018.35 ave        2045 max        1992 min
Histogram: 3 1 2 8 10 9 9 4 0 2
Neighs:        12957.7 ave       15474 max       11189 min
Histogram: 1 4 8 13 10 5 3 3 0 1

Total # of neighbors = 621968
Ave neighs/atom = 155.49200
Neighbor list builds = 144
Dangerous builds = 13

#############################
# L I N E A R  Q U E N C H  #
#############################

# Define solid atoms. This closely follows ten Wolde  Ruiz-Montero and Frenkel  Faraday Discuss  1996  104  93-110
# Compute components of the per-atom q6 vector
compute q6 all orientorder/atom degrees 1 6 components 6 nnn NULL cutoff 1.3 # compute the Q6 parameter.
                                                                             # Use all neighbours within 1.3 unit cell.

# get number of connections
compute coord_number all coord/atom orientorder q6 0.5

# An atom is solid if it has 8 or more connections (of a possible 14)
variable is_solid atom c_coord_number>=8
group solid dynamic all var is_solid    # Must be dynamic to update
dynamic group solid defined

# do clustering
compute cluster solid cluster/atom 1.3 # Create a cluster where all atoms within are solid and max 1.3 units from another member

# define chunks one chunk per cluster
compute clus_chunks solid chunk/atom c_cluster nchunk every compress yes  # Says which atoms are in which chunk

# count the size of each chunk
compute size_chunks solid property/chunk clus_chunks count


# Find the maximum entry in the vector of chunk sizes
variable max_n equal max(c_size_chunks)


# Thermo style which includes this variable
# thermo_style custom step temp pe vol v_max_n

thermo ${N}  # Print the thermo information every 100 steps
thermo 1000  

# Reset the npt fix at a lower temperature (below freezing)
fix 1  all npt temp  ${temp} ${temp}  0.1  iso  5.68  5.68  0.5  mtk yes tchain  5  pchain  5
fix 1  all npt temp  0.45 ${temp}  0.1  iso  5.68  5.68  0.5  mtk yes tchain  5  pchain  5
fix 1  all npt temp  0.45 0.45  0.1  iso  5.68  5.68  0.5  mtk yes tchain  5  pchain  5

dump dmp2 all dcd ${N} traj.dcd
dump dmp2 all dcd 1000 traj.dcd


compute msd all msd com yes
variable twopoint equal c_msd[4]/6/(step*dt+1.0e-6)
fix 9 all vector 10 c_msd[4]
variable fit equal slope(f_9)/6/(10*dt)
thermo_style custom step temp pe c_msd[4] v_twopoint v_fit v_max_n

fix 1 all npt temp 1.25 ${temp} 0.1 iso 5.68 5.68 0.5 mtk yes tchain 5 pchain 5
fix 1 all npt temp 1.25 0.45 0.1 iso 5.68 5.68 0.5 mtk yes tchain 5 pchain 5
run 5000000 # 5000000  # Run for this many steps
Neighbor list info ...
  update every 1 steps, delay 10 steps, check yes
  max neighbors/atom: 2000, page size: 100000
  master list distance cutoff = 3.8
  ghost atom cutoff = 3.8
  binsize = 1.9, bins = 8 8 8
  4 neighbor lists, perpetual/occasional/extra = 1 3 0
  (1) pair lj/cut, perpetual
      attributes: half, newton on
      pair build: half/bin/atomonly/newton
      stencil: half/bin/3d
      bin: standard
  (2) compute orientorder/atom, occasional
      attributes: full, newton on
      pair build: full/bin/atomonly
      stencil: full/bin/3d
      bin: standard
  (3) compute coord/atom, occasional
      attributes: full, newton on
      pair build: full/bin/atomonly
      stencil: full/bin/3d
      bin: standard
  (4) compute cluster/atom, occasional
      attributes: full, newton on
      pair build: full/bin/atomonly
      stencil: full/bin/3d
      bin: standard
Per MPI rank memory allocation (min/avg/max) = 9.830 | 9.838 | 9.843 Mbytes
Step Temp PotEng c_msd[4] v_twopoint v_fit v_max_n 
   12000    1.2708606   -4.3029784 1.8392292e-30 1.2772424e-32 8.3333333e+20            3 
   13000    1.2416871   -4.2902567   0.84441157 0.0054128945  0.070868119            2 
   14000    1.2594043    -4.291922    1.7470071  0.010398852   0.07278275            1 
   15000    1.2613004   -4.2896728    2.6719904  0.014844391  0.074920757            2 
   16000    1.2200957   -4.2680188    3.5367222  0.018420427  0.075007777            5 
   17000    1.2513864   -4.3168799    4.3376527  0.021263003  0.073958927            2 
   18000    1.2465772    -4.337256     5.144996  0.023819425  0.072447849            3 
   19000     1.260406   -4.2616746    6.1199604  0.026841931  0.072411634            2 
   20000    1.2724751    -4.330794    6.9089513  0.028787296  0.072403884            4 
   21000    1.2610258   -4.3152066    7.8582382  0.031183484  0.072443519            4 
   22000    1.2462063   -4.3131258    8.8375542  0.033475583  0.072687563            1 
   23000    1.2830245   -4.2964671    9.7370864  0.035279298  0.073137599            4 
   24000    1.2446462   -4.3039813    10.558227   0.03666051  0.073473395            1 
   25000    1.2614218   -4.3179635    11.477123  0.038257076  0.073528338            3 
   26000    1.2502808   -4.3070472    12.218042  0.039160389  0.073442407            3 
   27000    1.2432044   -4.2659626    13.094272  0.040414419  0.073274946            1 
   28000    1.2364533   -4.3165418    14.044078  0.041797849  0.073219255            2 
   29000    1.2256522   -4.3209466    14.838027  0.042638009  0.073179454            3 
   30000    1.2573965   -4.3020734    15.768524  0.043801456  0.073112758            4 
   31000    1.2175425   -4.2889839    16.568578  0.044539186  0.073117613            2 
   32000    1.2415813   -4.3156888    17.296896  0.045043999  0.072896785            3 
   33000    1.2536971   -4.2822531    18.227782  0.046029751  0.072713556            2 
   34000    1.2452007   -4.2762034    19.010959  0.046595486  0.072555888            3 
   35000    1.2380117   -4.3300099     19.74037   0.04700088  0.072356698            2 
   36000    1.2714942   -4.2902281    20.734156  0.047995732  0.072200777            2 
   37000    1.2488971   -4.3363949    21.748929  0.048984073  0.072189559            9 
   38000    1.2378166    -4.313758    22.638602  0.049646057  0.072281727            3 
   39000    1.2528967   -4.2665281    23.623106  0.050476722  0.072311861            5 
   40000    1.2440429   -4.3123875     24.32905   0.05068552  0.072316957            3 
   41000     1.252347   -4.3086892    25.095843  0.051007811  0.072330216            2 
   42000    1.2496421   -4.2963875    26.170866  0.051926321  0.072365445            1 
   43000    1.2189751   -4.3091625    27.064993  0.052451537  0.072443856            1 
   44000    1.2336466   -4.3251045    27.833286  0.052714557  0.072486536            2 
   45000    1.2188474    -4.332498    28.401281  0.052594964  0.072433108            2 
   46000    1.2354808   -4.3282843    29.429212   0.05331379  0.072341637            3 
   47000    1.2254302   -4.3131819    30.351882  0.053815392  0.072293556            3 
   48000    1.2187714   -4.3072531    31.390842  0.054497989   0.07231662            1 
   49000    1.2458198   -4.2634867    32.251534  0.054849548  0.072329479            1 
   50000    1.2295194   -4.3466547    32.762291  0.054603817  0.072312839            2 
   51000    1.2409851   -4.3160195    33.754641  0.055154641  0.072278903            1 
   52000    1.2253423    -4.283067    34.806229  0.055779213  0.072287171            3 
   53000     1.229435   -4.3252138    35.680533  0.056101467  0.072294142            2 
   54000    1.2541035   -4.2945617     36.55615  0.056413811  0.072325748            2 
   55000    1.2571564   -4.2862355    37.581844  0.056942187   0.07236499            3 
   56000    1.2599551   -4.2660924    38.719981  0.057619019  0.072409791            2 
   57000    1.2426425   -4.2848058     39.42226  0.057634882  0.072479707            2 
   58000    1.2539522   -4.3918665    40.066176  0.057566345  0.072515534            2 
   59000    1.2240048    -4.294484    41.231849  0.058237075  0.072552597            2 
   60000    1.2320267   -4.3434229    42.031774  0.058377463  0.072621353            2 
   61000    1.2465421   -4.2974376    43.419347  0.059316047  0.072720109            3 
   62000    1.2301227   -4.3182347    44.121491  0.059303079  0.072811099            2 
   63000    1.2404798   -4.3110963    44.759761  0.059206033  0.072880192            3 
   64000    1.2110023   -4.3138611     45.72203  0.059533893  0.072928315            2 
   65000    1.2413776   -4.3071386    46.552718  0.059682972  0.072977456            3 
   66000    1.2327952    -4.297734    47.426733  0.059882238  0.073001911            2 
   67000     1.238267   -4.3738853    48.391485  0.060188414  0.073036374            2 
   68000    1.2599575   -4.3354229    49.172895    0.0602609  0.073073436            2 
   69000    1.2502866     -4.32369    50.096242  0.060502708  0.073082746            2 
   70000    1.2289256   -4.3477937     50.92816  0.060628762  0.073120715            1 
   71000    1.2402351   -4.3078027    52.176634  0.061240181  0.073179342            1 
   72000    1.2516409   -4.2902819    53.504156  0.061926106  0.073288466            1 
   73000    1.2364634   -4.3422569     54.35992  0.062054703  0.073403542            1 
   74000    1.2444613   -4.2786607    55.253502  0.062222411   0.07350708            1 
   75000    1.2651368   -4.3300261    55.927892  0.062142101  0.073599237            2 
   76000    1.2481381    -4.332755    56.907822  0.062398927  0.073664183            3 
   77000    1.2562006   -4.3476057    57.204658  0.061909802  0.073714987            2 
   78000    1.2520117   -4.3168716    58.282152  0.062267256  0.073744841            5 
   79000    1.2507395   -4.3092364    59.185285  0.062431735  0.073777082            3 
   80000    1.2571728   -4.2898979    60.454217  0.062973142  0.073800541            2 
   81000     1.236972   -4.3234814    61.062541  0.062821544  0.073833662            2 
   82000    1.2362376   -4.3581697     61.64761   0.06265001  0.073878795            2 
   83000    1.2412803   -4.3327835    62.885504  0.063138056  0.073896712            2 
   84000    1.2083651   -4.3114043    64.153093  0.063643941  0.073922285            2 
   85000    1.2529755   -4.3097299    64.630669  0.063363401  0.073963174            3 
   86000    1.2221571   -4.3410976    65.974049  0.063928342   0.07400126            2 
   87000    1.2334897   -4.3334596    66.524453   0.06372074  0.074018634            2 
   88000    1.2266737   -4.3306412    67.336574  0.063765695  0.074027354            2 
   89000    1.2134356   -4.3076897    68.188232  0.063846659  0.074040097            4 
   90000     1.240435   -4.3363744    70.069228  0.064878914  0.074091646            5 
   91000     1.237132   -4.3723938    70.303826  0.064380793  0.074153407            3 
   92000     1.240773   -4.3292464    71.365077   0.06464228  0.074210266            3 
   93000    1.2330392   -4.3043378    72.328447  0.064810436  0.074252473            1 
   94000    1.2364389   -4.3285688    73.033483  0.064745996  0.074296924            5 
   95000    1.2521643    -4.323415    74.417454  0.065278468  0.074330285            2 
   96000    1.2395005     -4.34204    74.787937  0.064920084  0.074374501            1 
   97000    1.2390177   -4.2953482    76.027289   0.06531554  0.074410841            3 
   98000    1.2322982   -4.3135441    76.876588  0.065371248  0.074449628            1 
   99000    1.2279588   -4.3053967    77.744931  0.065441861  0.074479125            1 
  100000    1.2587766   -4.3158878    78.329349  0.065274457  0.074509396            2 
  101000    1.2153959   -4.3316212    79.356444  0.065475614   0.07453795            1 
  102000    1.2311016   -4.3212852     80.39222  0.065679918  0.074566041            3 
  103000    1.2074855   -4.3153148    81.696001  0.066097088  0.074597526            3 
  104000     1.233097   -4.3054438    82.486788  0.066095182  0.074622602            4 
  105000    1.2233715   -4.3436424    82.936611  0.065822707  0.074648517            2 
  106000    1.2464147   -4.3693501    84.265095  0.066246144  0.074682874            3 
  107000    1.2542812   -4.3024273    85.587803  0.066657167  0.074719924            2 
  108000    1.2196177   -4.3281964    86.354117  0.066631263   0.07475691            2 
  109000    1.2068469   -4.3201096    87.343677  0.066776512  0.074791429            1 
  110000    1.2244564    -4.328613    87.723462  0.066457168  0.074819177            3 
  111000    1.2151777   -4.3200468    88.591207  0.066509915  0.074832759            2 
  112000    1.2197689   -4.3437961    89.416665  0.066530256  0.074837569            1 
  113000    1.2171322   -4.3198447    89.754836  0.066190882  0.074832566            2 
  114000    1.2276695   -4.2973104    90.922079  0.066463508  0.074820592            3 
  115000    1.2175701   -4.3194421    91.412372  0.066240849  0.074803477            1 
  116000    1.2418375   -4.3498753    92.201417   0.06623665  0.074791198            2 
  117000    1.2361968   -4.3435569    93.219627  0.066395746  0.074777599            3 
  118000    1.2480695   -4.2726109    94.792045  0.066943535  0.074765698            3 
  119000    1.2226691   -4.3503519    94.795248  0.066383227  0.074762211            2 
  120000    1.2028039   -4.3438702    96.133083  0.066759085  0.074761619            4 
  121000    1.2207481   -4.3217457    97.580246  0.067204026  0.074765665            3 
  122000    1.2452964   -4.3397976    98.125161  0.067025383  0.074766939            3 
  123000    1.2400302   -4.3372195     99.31225  0.067284722  0.074766282            4 
  124000    1.2469981   -4.3632496     99.75273  0.067038125   0.07477251            1 
  125000    1.2136982    -4.292983    100.95735  0.067304902  0.074768501            1 
  126000    1.2215778   -4.3252885    101.35823  0.067035869  0.074758503            2 
  127000    1.2156173   -4.3328864    101.87154  0.066844842  0.074741628            1 
  128000    1.2188019     -4.33527    102.36948  0.066646797  0.074716582            3 
  129000    1.2305929   -4.3101142    104.00216  0.067184858  0.074706111            1 
  130000     1.215358   -4.3235016     105.5293  0.067646987  0.074702558            3 
  131000    1.2458207    -4.312107     106.1459  0.067522839  0.074694399            2 
  132000    1.2317784   -4.2989057    106.49497  0.067231675  0.074679541            1 
  133000    1.2485322   -4.3211902     107.2505  0.067199559  0.074665827            1 
  134000    1.2330285   -4.3367509    108.27562  0.067335585  0.074653223            3 
  135000    1.2379122   -4.3073667    109.46023  0.067568046  0.074638777            2 
  136000    1.2118669   -4.3441843    110.11648  0.067473332  0.074624842            4 
  137000    1.2289763   -4.3004003    111.14734  0.067607871  0.074621348            2 
  138000    1.2154716   -4.3426887    111.94355  0.067598764      0.07461            2 
  139000    1.2090939   -4.3114682    113.06641  0.067785615   0.07459839            1 
  140000    1.2113839   -4.3434757    113.84139  0.067762734  0.074583595            2 
  141000    1.2214095   -4.3500082    114.98033  0.067955278  0.074576181            2 
  142000    1.2318129   -4.2993904      115.988  0.068068075  0.074578451            1 
  143000    1.2218963   -4.2779087    116.94071  0.068147269  0.074588416            1 
  144000    1.2067297   -4.3435472    117.77735  0.068158189  0.074595497            3 
  145000    1.2286585    -4.301354    118.83331  0.068295005  0.074603931            1 
  146000    1.2322637   -4.3134239    119.55254  0.068237751  0.074601038            3 
  147000    1.2253502   -4.3628703    120.04021  0.068050007  0.074597702            4 
  148000    1.2383362   -4.2898048    121.11978  0.068198075   0.07459312            1 
  149000    1.2221478   -4.3648558    122.01459  0.068240823  0.074586685            2 
  150000    1.2209846    -4.359098    122.62867  0.068127039  0.074576721            2 
  151000    1.2448214   -4.3159724    123.09295  0.067932092   0.07456418            2 
  152000    1.1978577   -4.3276291    123.58474  0.067754794  0.074539565            3 
  153000    1.2589904   -4.3183606    125.07032  0.068121089  0.074518072            3 
  154000    1.2301259   -4.3621051    124.94734  0.067612196  0.074493158            1 
  155000    1.2518479   -4.3411809    126.45669  0.067987467  0.074469085            1 
  156000    1.2432475   -4.3328024    127.23718  0.067968581  0.074444226            2 
  157000     1.211755    -4.344123    127.22755  0.067530544  0.074418337            1 
  158000    1.2336899   -4.2989099    128.58362  0.067818362  0.074384833            2 
  159000    1.2481164   -4.3271678    129.16824  0.067698239  0.074351757            3 
  160000     1.230609   -4.3522486     130.2242  0.067825103  0.074323837            2 
  161000     1.239429   -4.3607348    131.27609  0.067948288  0.074291245            2 
  162000    1.2154593    -4.360517    131.79511   0.06779584  0.074262786            3 
  163000    1.2011951   -4.3460096    133.47001  0.068236202  0.074237072            1 
  164000    1.2141648   -4.3585713    133.63743  0.067905199  0.074208079            6 
  165000    1.2152008   -4.3487025    134.67179  0.068016055  0.074176598            1 
  166000    1.2155726   -4.3245914    134.93397  0.067737935  0.074150033            2 
  167000    1.2237543   -4.3254964    136.62584  0.068176566  0.074123365            2 
  168000    1.2060284   -4.3172128    137.21636  0.068063668  0.074097752            3 
  169000    1.2289078   -4.3407099    138.36526  0.068227445  0.074070456            3 
  170000    1.2068111   -4.3276887     139.3485  0.068308089  0.074050457            2 
  171000    1.2203698   -4.2797236    140.18577  0.068316654  0.074030167            3 
  172000    1.2289777   -4.3509401    140.06545  0.067861167  0.074005359            2 
  173000    1.2485012   -4.3278902    141.69231  0.068252558  0.073981989            2 
  174000    1.2486038   -4.3263394    142.02165  0.068018032  0.073954701            3 
  175000    1.2045976   -4.3365781    142.68575  0.067945596  0.073921994            2 
  176000    1.2504292   -4.3635286    143.14527  0.067777117  0.073888964            2 
  177000    1.2229776   -4.3544015    143.87693  0.067738668  0.073852945            1 
  178000     1.227559   -4.3315433    144.74773  0.067765791  0.073806824            1 
  179000    1.2030836   -4.3817504    144.51901  0.067280732   0.07375595            1 
  180000    1.2327358   -4.3158222     146.2474  0.067707131  0.073707825            5 
  181000    1.1597425   -4.3749498    146.31718  0.067365186  0.073656272            2 
  182000    1.2293323   -4.3254621    147.90803  0.067723457  0.073609388            1 
  183000    1.1873216   -4.3539354    148.32166  0.067541738  0.073563253            1 
  184000    1.2211025   -4.3836277    148.73213  0.067360567  0.073520165            1 
  185000     1.235851   -4.3372123    150.48551  0.067786265  0.073478126            1 
  186000    1.1985933   -4.3440727    151.14986  0.067719471  0.073444996            2 
  187000    1.2140925   -4.3527129    151.67981  0.067593497   0.07340738            2 
  188000     1.238494   -4.3233502    153.50821  0.068044419  0.073372195            1 
  189000    1.2194054   -4.3554021    153.46087  0.067663524  0.073335447            4 
  190000    1.2312965   -4.3195282    154.84018  0.067912358  0.073303906            1 
  191000     1.233615   -4.3802968    154.97684  0.067616424  0.073268222            3 
  192000    1.2380147    -4.323141    156.09971  0.067751608  0.073230006            1 
  193000    1.1896275    -4.357477    156.11297  0.067406289  0.073189375            7 
  194000    1.2207557   -4.3201642    156.91678  0.067404116  0.073145582            2 
  195000    1.2280638   -4.3509941    158.33815  0.067665876  0.073108444            3 
  196000    1.2152027   -4.3459852    159.15348  0.067667297  0.073071641            1 
  197000    1.2014572   -4.3591433    159.73983   0.06757184  0.073034056            1 
  198000    1.2330894   -4.3408955    159.85623  0.067279558  0.072994854            1 
  199000     1.255013    -4.339568     161.7787  0.067746524  0.072955828            2 
  200000    1.2073089   -4.3641801    163.42439  0.068093497  0.072926309            3 
  201000      1.21788   -4.3217654    164.36787  0.068145883  0.072895831            4 
  202000    1.2180181   -4.3652722    164.24535  0.067757983  0.072866858            5 
  203000    1.2166871   -4.3455835     165.4572  0.067921675  0.072836735            5 
  204000    1.2093005   -4.3527023    166.39669  0.067972504  0.072806317            2 
  205000    1.2259369   -4.3332502    167.60288  0.068131252  0.072783091            2 
  206000     1.209075    -4.336749     167.9192  0.067928478  0.072757734            2 
  207000    1.2475229   -4.3740435    168.12901  0.067684785  0.072729985            1 
  208000    1.2149683   -4.3409722    169.37526  0.067858677  0.072697652            2 
  209000    1.1980034   -4.3466829     170.2146  0.067868661  0.072669595            2 
  210000    1.2173288   -4.3600878    171.15055  0.067916886  0.072641982            1 
  211000    1.2310882    -4.353414    172.04474  0.067948161  0.072612254            5 
  212000    1.2259855   -4.3784989    172.13287   0.06766229  0.072587864            2 
  213000     1.229647   -4.3433639    172.67508   0.06755676  0.072557231            3 
  214000    1.2041723   -4.3337032    174.10346  0.067797299  0.072522816            3 
  215000    1.2379966   -4.3492846    175.42654  0.067994783  0.072488381            2 
  216000    1.2347252   -4.3396964    176.34898   0.06803587  0.072458795            4 
  217000    1.2329566   -4.3602928    176.55724  0.067802321  0.072428296            2 
  218000    1.2186193   -4.3362981    177.78096  0.067959083   0.07239958            3 
  219000    1.1782581   -4.3526565    178.02638  0.067742154  0.072373219            2 
  220000    1.1986649   -4.3604206    178.75088  0.067708665  0.072343913            1 
  221000    1.1862978   -4.3571894    179.68921  0.067756112  0.072315493            4 
  222000    1.2083531     -4.39937    179.97209  0.067557091   0.07228653            5 
  223000     1.212976   -4.3786295    180.95987  0.067623271  0.072256958            3 
  224000    1.2405587   -4.3724711    181.27925  0.067440196  0.072226774            3 
  225000    1.2402955   -4.3111012    182.76498  0.067690733  0.072197969            1 
  226000    1.2119976   -4.3596955     183.9342  0.067822344  0.072166742            1 
  227000    1.2341867   -4.3459265    183.91269  0.067515673  0.072134573            2 
  228000    1.2235557   -4.3540102    185.51953  0.067806847  0.072105315            1 
  229000    1.2340674   -4.3123838    186.51733  0.067873846  0.072069684            4 
  230000    1.2265984   -4.3892994    185.17552  0.067092578  0.072031566            3 
  231000    1.2148954   -4.3540351    186.45272  0.067262888  0.071992036            3 
  232000     1.206567   -4.3419746    187.92849  0.067503048  0.071955565            2 
  233000    1.2204934   -4.3769186    187.95341   0.06722225  0.071918348            5 
  234000     1.244104    -4.368105    188.75996  0.067222209  0.071880966            2 
  235000    1.2170485   -4.3352035    190.99282   0.06772795  0.071847179            1 
  236000    1.2110151    -4.336395    189.91261  0.067059538  0.071810883            5 
  237000    1.2222517   -4.3281717     191.8221  0.067447994  0.071769217            2 
  238000    1.2035249   -4.3515132    192.02674  0.067236254  0.071726886            1 
  239000    1.1729758   -4.3546933    192.31336  0.067054867  0.071685768            1 
  240000    1.2477458   -4.3719501    193.02895  0.067023942  0.071643947            3 
  241000    1.2674919   -4.3557843    194.75333  0.067342092  0.071604116            2 
  242000    1.2083412   -4.3364127    195.63447  0.067367243  0.071565124            2 
  243000    1.2148157   -4.3712048    195.97525  0.067206877  0.071526414            2 
  244000    1.2188841   -4.3885937    197.08137  0.067309211  0.071491173            2 
  245000    1.1955486   -4.3285069    199.32627   0.06779805  0.071462797            2 
  246000    1.2136727   -4.3513568    199.97864  0.067743443  0.071435818            2 
  247000    1.2134166   -4.3541543    199.91709  0.067448411   0.07140909            4 
  248000    1.2136185   -4.3512464    200.79104  0.067470107  0.071381086            2 
  249000    1.2230973   -4.3445944    202.22357  0.067678572  0.071355275            4 
  250000    1.2176736   -4.3743246    202.74064  0.067580214  0.071330941            2 
  251000    1.2249016   -4.3913845    203.65316   0.06761393  0.071308683            3 
  252000    1.2069224    -4.361814    204.86048  0.067744869  0.071285912            1 
  253000    1.1997264   -4.3321923    205.72853   0.06776302  0.071262041            2 
  254000    1.2139966   -4.3438257    205.94887  0.067568526  0.071239043            3 
  255000    1.2019411   -4.3286478     206.6929  0.067546699  0.071215147            2 
  256000    1.2096596   -4.3416377    207.48453  0.067540536  0.071189808            2 
  257000    1.1951064   -4.3602821    207.79984  0.067379974   0.07115972            1 
  258000    1.2276896   -4.4229816    208.38717  0.067308516  0.071131106            1 
  259000    1.2051575   -4.3557406    209.09816    0.0672774  0.071099928            2 
  260000     1.227247   -4.3557518    210.01338  0.067311979  0.071070119            2 
  261000    1.2139793   -4.3511228    210.93775  0.067349218  0.071038521            1 
  262000    1.1691066   -4.3386176    211.65043   0.06731884  0.071007228            3 
  263000    1.2152952   -4.3882366    211.89979  0.067141885  0.070974832            1 
  264000    1.2072619   -4.3730236    212.10729   0.06695306  0.070944057            2 
  265000    1.2032854   -4.3612647    213.80304  0.067233659  0.070917368            2 
  266000    1.2136473   -4.3508312    215.79087  0.067603655  0.070891837            4 
  267000    1.2259935     -4.35211    216.59804  0.067602385  0.070868206            3 
  268000    1.2180147   -4.3619623    216.42509  0.067296359  0.070838222            2 
  269000    1.2517848   -4.3729104    216.71334  0.067135484  0.070809939            1 
  270000    1.2043638   -4.3395047    217.60449   0.06716188  0.070780119            2 
  271000    1.1997693   -4.3499175    218.03286  0.067045776  0.070750648            2 
  272000    1.1912509   -4.3960316    218.51164  0.066945969  0.070718874            2 
  273000    1.1940484    -4.354138    220.25812  0.067233859  0.070688663            3 
  274000    1.1977833   -4.3107673    221.07698  0.067237525  0.070662576            1 
  275000    1.2142171   -4.3759772    221.64317  0.067164598  0.070637383            2 
  276000    1.2134738   -4.3888584    222.47707  0.067173028  0.070613254            2 
  277000    1.2054716   -4.3338898    223.69009  0.067295454  0.070584663            2 
  278000    1.2009591    -4.367262    223.71803  0.067061758  0.070555094            2 
  279000    1.2259536   -4.3867674    224.24439  0.066978612  0.070527022            1 
  280000    1.2289625   -4.3995329    225.40651  0.067085271  0.070496577            2 
  281000    1.2067313   -4.3413947    226.74037  0.067242102  0.070469361            1 
  282000    1.1948257   -4.3620565    226.22795  0.066852231  0.070441671            3 
  283000    1.1983037   -4.3504891    227.27104  0.066923157  0.070411435            2 
  284000    1.2216596   -4.3583889    227.92591  0.066879669  0.070380087            2 
  285000    1.2190857   -4.4025709    228.72327   0.06687815  0.070351824            2 
  286000    1.2171351    -4.367858    229.68743   0.06692524  0.070325398            3 
  287000    1.1942923   -4.3557842     231.3475  0.067174071  0.070301001            2 
  288000    1.1957196   -4.3617632    231.19603  0.066896998  0.070274181            3 
  289000    1.2197388   -4.3391575    234.07007  0.067494252  0.070249777            2 
  290000    1.2158659   -4.3457556    234.51018  0.067387982  0.070228528            3 
  291000    1.1967512   -4.3470023    233.98907  0.067007178  0.070205998            1 
  292000    1.2112824   -4.3846726    234.83877  0.067020197  0.070179878            4 
  293000    1.2033831    -4.357944    235.26516  0.066912731    0.0701546            2 
  294000    1.1896077   -4.4085072    235.17677  0.066660081  0.070126962            2 
  295000    1.1973713   -4.3749205    235.34787  0.066482449  0.070096127            2 
  296000    1.2002812   -4.3967131    236.74894  0.066652291  0.070064433            2 
  297000    1.2173905   -4.3467206    238.40929  0.066893741  0.070032269            1 
  298000    1.1936255   -4.3742612    238.21935   0.06661615  0.070004151            2 
  299000    1.2139664    -4.367673    239.18751  0.066663187  0.069971761            2 
  300000    1.2115418   -4.4040361    239.91477   0.06664299  0.069939995            1 
  301000    1.2206703   -4.3666186    240.79807  0.066666131  0.069907939            2 
  302000    1.2308045   -4.3915494    240.14125  0.066264141  0.069873706            3 
  303000    1.1793606   -4.3629118    241.96497   0.06654702   0.06983754            3 
  304000    1.2070194   -4.4149055    242.16413  0.066382712    0.0697985            3 
  305000    1.2208934   -4.3522988    243.66914  0.066576268  0.069760046            2 
  306000    1.1642327   -4.3709571    243.20385  0.066231984  0.069723589            5 
  307000    1.2302095   -4.3902814    244.13824   0.06626988  0.069688526            4 
  308000    1.1978388   -4.3546687    244.98817  0.066284679  0.069652443            7 
  309000    1.1892524   -4.3607624    246.63367  0.066513936   0.06961899            1 
  310000    1.1804769   -4.3175125    248.27931  0.066741751   0.06958554            2 
  311000    1.1812972   -4.3677573     248.1271   0.06648636  0.069553964            3 
  312000    1.1578339   -4.3613038    248.66187  0.066416098  0.069523802            3 
  313000    1.1973535   -4.3477909    249.19961  0.066347074  0.069496187            1 
  314000    1.2048066    -4.372329    250.42086  0.066459887  0.069466571            1 
  315000    1.2039214   -4.3751615    251.63895  0.066571151  0.069439708            3 
  316000    1.1850629   -4.3171367    253.42395  0.066831211  0.069411568            3 
  317000    1.2422972   -4.3965283    252.40506   0.06635254  0.069386156            1 
  318000      1.16564    -4.375956    254.12157  0.066593703  0.069361313            1 
  319000    1.1930441   -4.3863371    254.90468   0.06658952  0.069335413            3 
  320000    1.2098055   -4.3946799     256.6225  0.066828775  0.069316065            2 
  321000    1.1791055   -4.4104526    256.36412  0.066553508  0.069292964            2 
  322000     1.206982   -4.4220713     257.3797  0.066609653  0.069269019            2 
  323000    1.1784007   -4.3889838    258.49715  0.066691732  0.069244117            1 
  324000    1.1972302   -4.3785859    258.76653  0.066555176  0.069220956            2 
  325000    1.1876516   -4.3541468      260.866  0.066888718  0.069196749            2 
  326000    1.2083061   -4.3596726    260.33991  0.066549058  0.069173955            2 
  327000    1.2046392   -4.3536909    261.10069  0.066539421  0.069147804            4 
  328000    1.1931473   -4.3880673    261.13988  0.066346515  0.069122253            1 
  329000    1.1912844   -4.3538204    263.06712  0.066633008  0.069097166            2 
  330000    1.2076562   -4.3944606    262.68502    0.0663346   0.06907007            5 
  331000    1.2040016   -4.3819891    264.21697  0.066519881  0.069043332            2 
  332000    1.2126712   -4.4088254    263.17658  0.066058378  0.069015148            4 
  333000    1.2052609   -4.3412685    265.85895  0.066531268   0.06898717            3 
  334000    1.1870962   -4.4084298    265.13313  0.066150981  0.068959078            4 
  335000    1.1931067     -4.39495    266.06321  0.066184878  0.068933491            3 
  336000    1.1861646   -4.3449077     267.9651  0.066459598  0.068908169            1 
  337000    1.1794696   -4.4058947     268.7522  0.066457023  0.068885499            2 
  338000    1.2106975   -4.4067882    268.54921  0.066210357  0.068863961            4 
  339000    1.1684388   -4.3893866     269.9814  0.066367109  0.068842349            3 
  340000    1.1945911   -4.3579275    271.43676  0.066528618   0.06882082            3 
  341000    1.1926815   -4.3427591    274.37612  0.067051837   0.06880262            2 
  342000    1.2076788   -4.3670624     273.5063  0.066643836  0.068783848            2 
  343000    1.1837203   -4.3889801     273.7158  0.066500437  0.068765159            1 
  344000    1.2014161   -4.3754578     275.2437  0.066677253   0.06874703            3 
  345000    1.1865856   -4.4003043    275.15143  0.066461698  0.068728236            3 
  346000    1.1785487   -4.3983992    275.74862  0.066413445  0.068709999            3 
  347000    1.1905352   -4.3932594    278.00164  0.066763122  0.068690727            5 
  348000    1.2192206   -4.3816871    277.41285   0.06643028  0.068672952            2 
  349000    1.1939825    -4.360247     278.4105  0.066478152  0.068654489            1 
  350000    1.1916486   -4.3841142    278.48018  0.066304805   0.06863505            3 
  351000    1.2039742   -4.3823427    280.33571  0.066556436  0.068617375            2 
  352000     1.192607   -4.3958229    280.83761  0.066486176  0.068600524            3 
  353000    1.1864169   -4.3854213    281.84344  0.066535279  0.068583245            2 
  354000    1.1989043   -4.3936083     281.8181   0.06634136  0.068568584            3 
  355000    1.1961932   -4.3752186    283.98491  0.066663123  0.068552149            2 
  356000    1.2263804   -4.3934942    285.42627  0.066813265  0.068535992            2 
  357000    1.1730067   -4.3880448    283.91851  0.066274163  0.068519828            1 
  358000    1.2108885   -4.3975676    285.55974  0.066471076  0.068503309            3 
  359000    1.2017672   -4.3836374    285.88092  0.066360472  0.068487444            2 
  360000     1.180728   -4.3904193    286.98088  0.066430758  0.068468434            1 
  361000    1.1978841   -4.3430134    288.55106    0.0666092  0.068452829            3 
  362000    1.1742701    -4.364346    288.95281  0.066517683  0.068438153            1 
  363000    1.1959928   -4.4001105    289.57698  0.066477727  0.068423062            1 
  364000    1.1645302   -4.3954861    290.77604  0.066569606  0.068409272            1 
  365000    1.2209118   -4.3883343    290.80236  0.066393232  0.068392954            2 
  366000    1.2045095    -4.379585    290.91564  0.066237623  0.068376511            2 
  367000     1.193741    -4.369012    291.22688  0.066127811  0.068358546            3 
  368000    1.1729673   -4.3781888    292.45926  0.066227189  0.068340817            2 
  369000    1.1619192   -4.3938554    293.25661  0.066227779  0.068320488            2 
  370000     1.199727   -4.3851093    293.29312  0.066057008  0.068299776            4 
  371000    1.1875647   -4.4127047    293.68552  0.065967099  0.068277666            2 
  372000    1.1962128   -4.4225665    294.07348  0.065876675  0.068256937            3 
  373000    1.1746317    -4.385641    296.23042  0.066181953  0.068236538            2 
  374000    1.1760825   -4.4012985    295.62451  0.065869989  0.068215343            2 
  375000    1.1739712   -4.3527422    298.81595  0.066403544  0.068192715            1 
  376000    1.1738868   -4.3952989    297.91116   0.06602641  0.068173676            2 
  377000    1.2147362   -4.3938845    300.05776  0.066325765  0.068156216            2 
  378000     1.177939   -4.3844107    300.67982  0.066287437  0.068138807            2 
  379000    1.1741582   -4.4214123    300.51495  0.066076287  0.068120147            2 
  380000    1.1763141   -4.3953584    300.14378  0.065821003  0.068101868            2 
  381000    1.1823009   -4.4372332    302.27825  0.066115103  0.068083354            3 
  382000    1.1906606   -4.4061584    302.55885  0.066003239  0.068066288            2 
  383000    1.1873445    -4.408171    303.21289  0.065973213  0.068048227            3 
  384000    1.1998502   -4.4212027    304.47248  0.066074756  0.068031832            3 
  385000    1.2024315    -4.433434    304.58018  0.065926447  0.068014434            2 
  386000    1.2069622   -4.4126893    305.37631  0.065927527  0.067996729            3 
  387000    1.1717481    -4.396419    307.07273  0.066122465  0.067980106            2 
  388000    1.1646788   -4.3883336    308.66116  0.066293204  0.067963631            1 
  389000    1.1821286   -4.4337186     308.5295   0.06609458   0.06794718            3 
  390000    1.1983213   -4.3894375    309.62349  0.066158866  0.067929564            1 
  391000    1.1946511   -4.4226456    309.43815   0.06595016  0.067913393            2 
  392000    1.1819751   -4.4081952    309.79013  0.065856745  0.067896752            4 
  393000    1.1905906    -4.414716    311.65172   0.06608391  0.067879315            3 
  394000    1.2045513   -4.4356783     311.1951  0.065819607  0.067863414            2 
  395000    1.1964719    -4.413065    312.28691  0.065883315  0.067846606            2 
  396000    1.1766942   -4.3982149    314.38509  0.066158479  0.067830742            3 
  397000    1.1957366   -4.3868879     315.6309  0.066253337  0.067815891            3 
  398000    1.1929905   -4.4258325    314.18946  0.065785063  0.067799925            2 
  399000    1.1517558   -4.3654262    316.30698  0.066062444  0.067781255            2 
  400000    1.1792261   -4.3585477    317.52044  0.066150091  0.067764555            2 
  401000    1.2313472    -4.417859    318.34055  0.066155559  0.067749353            4 
  402000    1.2048718   -4.3746329    318.69221  0.066063891  0.067733188            3 
  403000    1.1962516   -4.4026352    318.55342  0.065871261   0.06771844            2 
  404000    1.1658969   -4.4238942    320.03581  0.066013988  0.067703487            2 
  405000    1.2057494   -4.3958067    320.30766  0.065906926  0.067687916            2 
  406000    1.1906608   -4.4105528    322.09903   0.06611228  0.067672735            4 
  407000    1.1914986   -4.4384413    322.39585  0.066010616  0.067657652            2 
  408000    1.1964662   -4.3986444     323.5912  0.066092974  0.067643091            2 
  409000    1.1964235   -4.3548489    325.40545  0.066301028  0.067630434            4 
  410000    1.1815924   -4.3846516    324.29657  0.065913937  0.067618159            5 
  411000    1.1797538   -4.4375162    326.33324  0.066166512  0.067603253            6 
  412000    1.1829541   -4.4131224    324.85158  0.065706226  0.067587839            2 
  413000    1.1691995   -4.4083004    325.41771  0.065661363  0.067571975            3 
  414000    1.1797194   -4.4020268    324.75242  0.065368845  0.067554407            3 
  415000    1.1868068   -4.4150534    325.86134  0.065434005  0.067534204            3 
  416000    1.1901806   -4.3820322    326.66121  0.065436942  0.067513789            3 
  417000     1.185975    -4.404875    329.18134  0.065783642  0.067493332            2 
  418000    1.1966982   -4.4167682    328.95981  0.065582099  0.067474292            3 
  419000    1.1896722    -4.388605    330.08072  0.065648513  0.067455548            3 
  420000    1.1630486   -4.4028972    330.53821  0.065582978   0.06743755            2 
  421000    1.1768088   -4.4420298    329.42116  0.065206089  0.067417766            3 
  422000    1.1578491   -4.4073755    332.90781  0.065740089   0.06739846            2 
  423000    1.1678007   -4.4032562    332.84594  0.065572486  0.067379118            3 
  424000    1.1776502   -4.4054627    335.49188  0.065937869      0.06736            2 
  425000    1.1887598   -4.3677838    334.77587  0.065642327  0.067340855            3 
  426000    1.1709913   -4.3910424    336.47181  0.065819993  0.067321616            2 
  427000     1.200301   -4.4315242    334.84762  0.065348873   0.06730387            4 
  428000    1.1903661   -4.4091982    337.75032  0.065761355  0.067284921            1 
  429000    1.1594017   -4.3957845    338.36597  0.065727655  0.067269586            2 
  430000    1.1776166   -4.3745495    339.89829  0.065871761  0.067255276            2 
  431000     1.190667   -4.3896218    340.74755   0.06588313  0.067240933            2 
  432000    1.1584536   -4.3838896      341.077  0.065794175   0.06722819            2 
  433000    1.1946351   -4.4111704    342.47001  0.065910318  0.067216967            2 
  434000    1.1823863   -4.3904148    344.49891  0.066148025  0.067205328            1 
  435000    1.1783883   -4.4352792    342.68076  0.065647655  0.067193021            3 
  436000    1.1722071   -4.4045981    344.20079  0.065787613  0.067179587            1 
  437000    1.1791337   -4.3999921    345.12513  0.065813335   0.06716718            5 
  438000     1.181484   -4.3830014    346.53741  0.065931775  0.067154504            2 
  439000    1.1828821    -4.434261     346.4288  0.065760971  0.067140751            3 
  440000    1.1640423   -4.3608376    347.12573   0.06574351  0.067126753            2 
  441000    1.1749225   -4.4351524    346.39399  0.065456158  0.067113395            2 
  442000    1.1578602   -4.4555086    348.28582  0.065664747  0.067099291            1 
  443000    1.2132046    -4.400476    350.49199  0.065931526  0.067087253            2 
  444000    1.1874797   -4.4241706    349.66042  0.065626956  0.067074602            4 
  445000    1.1947552    -4.392703     353.5998  0.066217191     0.067064            2 
  446000    1.1785636   -4.4075654    352.37064  0.065839058  0.067053196            2 
  447000    1.1878792   -4.4541202    352.75842  0.065764061  0.067041797            2 
  448000    1.1819939   -4.4097378    353.97786  0.065844096  0.067030228            1 
  449000    1.1942467   -4.3794877    356.82031  0.066225001  0.067020359            2 
  450000    1.1914393   -4.4325369     356.6716  0.066050296  0.067010774            4 
  451000    1.1686404   -4.4040978    356.78365  0.065924548   0.06700223            4 
  452000    1.1763049   -4.4400564    358.70649  0.066133202  0.066992546            3 
  453000    1.1831558   -4.4258901     358.2234  0.065898344  0.066983899            1 
  454000    1.2000332   -4.4274033     358.5946  0.065821329  0.066976141            3 
  455000    1.2005784   -4.4063364    361.15627  0.066145837  0.066968516            2 
  456000    1.1758035   -4.4114321    362.60853  0.066266179  0.066961306            3 
  457000    1.1437636   -4.3811854    362.65264   0.06612922  0.066953249            3 
  458000    1.2055013   -4.3825352    364.43235  0.066308652  0.066946296            3 
  459000    1.2089413   -4.4680387    362.86913   0.06588038  0.066940211            1 
  460000    1.1966277   -4.4142384    363.69162  0.065886164  0.066933117            1 
  461000     1.159961   -4.4421128    363.74544  0.065752972  0.066925939            3 
  462000    1.1703014   -4.4038425    365.58493  0.065942447  0.066917556            3 
  463000    1.1688134   -4.3852629    367.96427   0.06622827   0.06690944            1 
  464000    1.1703546   -4.3939544    366.41707  0.065807664  0.066902622            2 
  465000    1.1727719   -4.3970983    369.16886  0.066159293  0.066895921            3 
  466000    1.1933456   -4.4198198    368.31094  0.065863901  0.066886366            2 
  467000    1.1618444   -4.4283804    369.48032  0.065931534    0.0668768            1 
  468000    1.1751623    -4.436563    372.03623  0.066245767  0.066869025            2 
  469000    1.1561204   -4.3815895    371.23624  0.065962374  0.066862707            3 
  470000     1.168255   -4.4213804    371.62252  0.065890517  0.066854367            1 
  471000    1.1859497   -4.4254456    372.71977  0.065944757  0.066847699            2 
  472000     1.154422   -4.3912841    374.73676  0.066161151  0.066839988            3 
  473000    1.1770588   -4.4193198     374.3866  0.065959585  0.066831953            2 
  474000    1.1936258   -4.3968559    377.01093   0.06628181  0.066825332            3 
  475000    1.1615901   -4.4135084    376.91153   0.06612483  0.066818251            4 
  476000    1.1563195   -4.4133723     378.0142  0.066178956  0.066812765            2 
  477000    1.1942754   -4.4073143    378.07748  0.066051271  0.066806031            2 
  478000    1.1650007   -4.4240086    377.67712  0.065843291   0.06679901            1 
  479000    1.1457896   -4.4450238    379.08799  0.065951286  0.066790504            2 
  480000    1.1669968    -4.394796    380.58249  0.066073349  0.066781856            2 
  481000    1.1508841      -4.4189    380.22135  0.065873415  0.066773718            1 
  482000    1.1665023   -4.4030333    381.59644  0.065974488  0.066766093            1 
  483000    1.1665024   -4.4072566    380.54573  0.065656612    0.0667582            2 
  484000    1.1727522   -4.4520976    380.25205  0.065470394  0.066748945            2 
  485000    1.1541052   -4.4379834    382.24733  0.065678235  0.066738711            2 
  486000    1.1678853   -4.4360757    383.55473  0.065767272  0.066728835            2 
  487000    1.1904193   -4.4098378    382.73953  0.065492733  0.066718475            2 
  488000    1.1854867   -4.4390229    384.19308  0.065606743  0.066706865            6 
  489000     1.163579   -4.3955981    383.94773  0.065430765  0.066696423            3 
  490000    1.1702258    -4.414876    384.61796  0.065411218  0.066684687            1 
  491000    1.1608604    -4.411841    386.38444  0.065577808  0.066671418            6 
  492000    1.1913934   -4.4020156    387.98111  0.065714957  0.066660273            2 
  493000    1.1580693   -4.4428772       387.58   0.06551386  0.066649131            2 
  494000    1.2058688   -4.4345454     388.8066  0.065588157  0.066637473            2 
  495000    1.1666258   -4.4617084    389.00455  0.065488982  0.066625391            2 
  496000    1.1559544   -4.4562173    389.91863  0.065510523  0.066611788            2 
  497000    1.1765731   -4.4091573    390.06026  0.065402459   0.06660052            2 
  498000    1.1888126   -4.4010206     391.2514  0.065470448  0.066587599            3 
  499000    1.1695962   -4.3957668    391.39689  0.065363541  0.066574253            3 
  500000     1.175173   -4.4250188    392.44274  0.065407123  0.066559112            4 
  501000    1.1686699   -4.4253845    391.25409  0.065078858  0.066544464            2 
  502000     1.161426   -4.4486335     393.1151  0.065258151  0.066530107            1 
  503000     1.160542   -4.4325966    392.65283  0.065051827  0.066515037            2 
  504000    1.1699207   -4.4410956    393.77354  0.065108059  0.066499412            2 
  505000    1.1515455   -4.4392146    392.83159  0.064823695   0.06648384            3 
  506000    1.1858421   -4.4121884     394.5678  0.064981521  0.066467718            2 
  507000    1.1835352   -4.4348815    396.23868  0.065127989  0.066453458            2 
  508000    1.1816779   -4.4220278    395.83762  0.064933992  0.066439557            2 
  509000    1.1811969   -4.4451084    398.24478   0.06520052  0.066424136            4 
  510000    1.1829726   -4.4303079     398.5765  0.065126879  0.066410277            2 
  511000    1.1663605   -4.4233463    399.15123  0.065093155  0.066396351            2 
  512000    1.1751372   -4.4264506    400.83121  0.065239454  0.066382723            2 
  513000    1.1894886   -4.4385728    401.23054  0.065177151  0.066369539            2 
  514000    1.1436166   -4.4288793    400.91933  0.064999892  0.066355422            2 
  515000    1.1966512   -4.4427107    403.01983  0.065213565  0.066340495            3 
  516000    1.1731079   -4.4020175    404.29373  0.065292914  0.066327666            4 
  517000    1.1597411   -4.4138915    403.13373  0.064979646  0.066314437            2 
  518000    1.1559054   -4.4549322    404.46086  0.065067706  0.066300683            2 
  519000    1.1702315   -4.4168492    405.97331  0.065185182  0.066286767            2 
  520000     1.171493   -4.3849498    406.86346  0.065202477  0.066272223            1 
  521000    1.1858242   -4.4386711    406.29568  0.064986513  0.066257721            1 
  522000    1.1628495   -4.4071401    408.21456  0.065168352  0.066243988            2 
  523000    1.1806727   -4.3765952    409.64055  0.065270961  0.066229985            2 
  524000    1.1686095   -4.4084383    409.17072   0.06507168  0.066216504            1 
  525000     1.147707   -4.4122101    410.11869  0.065098205  0.066202707            3 
  526000    1.1698019   -4.4274139     410.2065  0.064988355  0.066188013            2 
  527000    1.1782555   -4.4264137    409.36272  0.064731613  0.066172585            2 
  528000     1.180199   -4.4520326    411.13956  0.064889451  0.066157201            5 
  529000    1.1677951   -4.4274896    412.73258  0.065017734  0.066144675            3 
  530000     1.161674   -4.4066554    414.59529  0.065187938  0.066132199            3 
  531000     1.151286   -4.4306977    414.47539  0.065046358   0.06611837            3 
  532000    1.1818164   -4.4288697    414.25238  0.064889157  0.066105013            3 
  533000    1.1492448   -4.4154103     415.0966  0.064899405  0.066090787            3 
  534000    1.1432072   -4.4572154    412.72565  0.064407873  0.066075972            4 
  535000     1.165716   -4.4414448    417.63187  0.065051694  0.066061136            3 
  536000      1.16321   -4.4447588    418.02147  0.064990901   0.06604724            3 
  537000    1.1522989   -4.4537252    416.21057  0.064588854  0.066031784            1 
  538000     1.186766   -4.4817767    416.67307  0.064540438  0.066016103            5 
  539000     1.187291   -4.4151479    418.17463  0.064652849  0.066000302            1 
  540000    1.1822885   -4.4255923    419.42196  0.064725612  0.065984528            2 
  541000    1.1464066   -4.4306192    419.97205  0.064690704  0.065970201            1 
  542000    1.1879667    -4.444709    419.56906  0.064509388  0.065954226            1 
  543000    1.1554762   -4.4386927    421.17205  0.064636594  0.065939992            2 
  544000    1.1921987   -4.4383219    422.67709  0.064748329  0.065926233            2 
  545000    1.1664958   -4.4563724    422.51261  0.064604374  0.065912703            4 
  546000    1.1363817   -4.4366583    423.63707  0.064657672  0.065899657            4 
  547000    1.1703816   -4.4147775    425.01485  0.064749368  0.065885937            2 
  548000    1.1871121   -4.4670752    423.97946  0.064473762  0.065871601            3 
  549000    1.1692365   -4.4106574    427.49079  0.064889312  0.065857778            4 
  550000    1.1690481   -4.4353178    426.21016  0.064577297  0.065844689            2 
  551000     1.167741   -4.4447135    428.52409  0.064810056  0.065832229           10 
  552000    1.1182864    -4.424192    429.90598  0.064901264  0.065819996            1 
  553000    1.1772369   -4.4227362    432.25616  0.065138059  0.065807705            2 
  554000     1.182677   -4.4665495    429.74026  0.064642036   0.06579506            2 
  555000    1.1666291   -4.4298185    429.97606   0.06456097  0.065780789            2 
  556000    1.1890532   -4.4609871    430.21233  0.064480265  0.065766039            4 
  557000    1.1576012      -4.4107    431.18585   0.06451015  0.065752137            3 
  558000    1.1604294   -4.4053371    432.30467  0.064561629  0.065737692            3 
  559000    1.1463966   -4.3964998    432.85052  0.064527508  0.065723456            4 
  560000     1.147529   -4.4340434    432.87558  0.064416009  0.065707563            2 
  561000    1.1227064    -4.465193    432.27265  0.064211623  0.065691155            1 
  562000    1.1654931    -4.473036    434.84699  0.064479091  0.065674405            3 
  563000    1.1868498   -4.4044632    433.68936  0.064193214  0.065657903            2 
  564000    1.1555305   -4.4521721    435.60614  0.064362609  0.065641739            2 
  565000    1.1545931   -4.4476312    436.80027  0.064424818  0.065625889            2 
  566000     1.205853   -4.4403664    438.31529  0.064534053  0.065610571            2 
  567000    1.1890869   -4.3805365    439.59092  0.064607719  0.065596251            1 
  568000    1.1705338   -4.4605666    435.76495   0.06393265  0.065581921            1 
  569000    1.1734199    -4.457757    438.43796   0.06421177  0.065565556            2 
  570000    1.1774597   -4.4261234    439.65609  0.064277206  0.065548272            1 
  571000    1.1670191   -4.4222866    439.10525  0.064084245  0.065530446            3 
  572000    1.1698992   -4.4521547    440.16157  0.064126103  0.065513691            4 
  573000    1.1542497   -4.4490893    439.66236  0.063941589  0.065495634            1 
  574000    1.1746749   -4.4258208    441.76868  0.064135987  0.065477852            3 
  575000    1.1470272   -4.4163446    443.87718  0.064330026  0.065460869            6 
  576000    1.1528193   -4.4290527    442.67659  0.064044645  0.065443959            3 
  577000    1.1824464   -4.4554235    443.05848  0.063988805  0.065427801            3 
  578000    1.1482984   -4.4633755    444.68723  0.064112922  0.065411171            2 
  579000     1.142222   -4.4729574    444.14193  0.063923709  0.065393733            2 
  580000    1.1606303   -4.3947562    446.80174  0.064195653  0.065376708            1 
  581000    1.1751483   -4.4343281    444.34667  0.063733028  0.065359205            2 
  582000    1.1561967   -4.4573968    445.25863  0.063754099  0.065342186            2 
  583000    1.1550376   -4.4574127    445.78487  0.063719965  0.065323909            2 
  584000    1.1367306   -4.4586634    447.04032      0.06379  0.065305449            5 
  585000    1.1433347    -4.459123    447.74419  0.063781223  0.065286221            3 
  586000    1.1692703    -4.450037    449.02416  0.063854402  0.065267769            4 
  587000    1.1484459   -4.4395233    448.16241  0.063623283  0.065249787            3 
  588000    1.1729296   -4.4465534    450.42927  0.063836348  0.065232681            2 
  589000    1.1416645   -4.4482852    450.02126  0.063670241  0.065215309            2 
  590000    1.1508305    -4.472922    452.91953  0.063971685  0.065197404            2 
  591000    1.1544316   -4.4379668    454.04112  0.064021591  0.065181146            4 
  592000    1.1599816   -4.4318611    455.66053  0.064141403   0.06516482            6 
  593000    1.1578761   -4.4815198    454.56828  0.063879747  0.065148692            2 
  594000    1.1672764    -4.453011    455.61518  0.063919077  0.065133431            3 
  595000    1.1531909     -4.42165    457.63251   0.06409419  0.065116669            2 
  596000    1.1362149    -4.466165    455.53444  0.063693294  0.065100754            2 
  597000    1.1713084   -4.4575648    455.97188  0.063647666  0.065083731            2 
  598000    1.1704352   -4.4591759    456.62511  0.063632262  0.065066777            2 
  599000    1.1500961   -4.4334998    459.66096  0.063948381  0.065049696            3 
  600000    1.1481172   -4.4716875    457.83721  0.063588502  0.065031396            3 
  601000    1.1608535      -4.4616    459.36775  0.063694918  0.065012918            2 
  602000    1.1356737   -4.4005885    461.29793  0.063856303  0.064995369            3 
  603000    1.1542189   -4.4674268    460.76749  0.063677099   0.06497796            1 
  604000    1.1783024   -4.4213729    461.20481   0.06363201  0.064961355            5 
  605000    1.1543313   -4.4796255    461.89363  0.063621712  0.064943502            2 
  606000     1.141162   -4.4305766    464.74798  0.063909238  0.064926048            2 
  607000    1.1553933   -4.5116659    463.66491   0.06365526  0.064909318            2 
  608000    1.1400417   -4.4638558    464.16657  0.063619322  0.064892665            9 
  609000    1.1458224   -4.4451214    464.52435  0.063563814  0.064875915            3 
  610000    1.1649476   -4.4625144    466.43431  0.063720534  0.064859934            2 
  611000    1.1612334   -4.4119118    467.19482  0.063719969  0.064843215            3 
  612000    1.1573062   -4.4893054    466.24852  0.063486999  0.064826906            3 
  613000    1.1708536   -4.4540567    470.06773  0.063902628   0.06481023            5 
  614000    1.1687125   -4.4295046    469.15529  0.063674713  0.064794104            3 
  615000    1.1591188   -4.4626132    468.58343   0.06349369  0.064777265            2 
  616000    1.1721853   -4.4572315    469.32957  0.063491555  0.064761458            1 
  617000    1.1497107   -4.4680747      470.138  0.063497839  0.064745183            2 
  618000    1.1790741   -4.4748367    471.08381  0.063522628  0.064729101            2 
  619000     1.134181   -4.4614249    470.43515   0.06333268  0.064711928            3 
  620000    1.1310346   -4.4665959    474.16765  0.063732211  0.064695305            4 
  621000    1.1483876    -4.431129    475.04543  0.063747374  0.064678695            3 
  622000    1.1680061   -4.4747505    474.29803  0.063544752  0.064661571            1 
  623000    1.1518103    -4.432827    474.06376  0.063411418  0.064645925            1 
  624000    1.1716135   -4.4781821    475.35297  0.063481968  0.064628931            3 
  625000    1.1808875   -4.4686538    474.37445  0.063249926  0.064612399            2 
  626000    1.1572811   -4.4496616    477.51359  0.063566772  0.064594568            1 
  627000    1.1680515   -4.4579531    476.73444  0.063361834  0.064577697            2 
  628000    1.1194271   -4.4778151    474.86704  0.063013142  0.064560522            2 
  629000    1.1271802    -4.459021    478.60692  0.063408442   0.06454302            2 
  630000    1.1621431    -4.489764    478.26189  0.063262155   0.06452432            4 
  631000    1.1546906   -4.4468258    480.97388  0.063520057  0.064507774            3 
  632000    1.1658963   -4.4443292    479.15488  0.063179705  0.064490954            2 
  633000    1.1756594   -4.4741145    479.43871   0.06311726  0.064473028            1 
  634000    1.1651184   -4.4802603    479.97936  0.063088769  0.064455399            1 
  635000    1.1525165   -4.4495452    480.44243  0.063050188  0.064439249            1 
  636000    1.1334377   -4.4464957    482.65059  0.063240381   0.06442314            3 
  637000    1.1267078   -4.4882043    480.69895  0.062885787  0.064406245            3 
  638000     1.143432   -4.4465954    483.72157  0.063182024  0.064389287            1 
  639000    1.1479039   -4.4349516    484.35799  0.063166144  0.064373079            2 
  640000    1.1389397    -4.473149    483.23721  0.062921512  0.064356631            2 
  641000    1.1506913    -4.509338    484.87933  0.063036834  0.064339739            1 
  642000    1.1674984   -4.4492191    486.41481  0.063137955  0.064322961            2 
  643000    1.1326554   -4.4826427    488.16403  0.063266463  0.064306389            3 
  644000    1.1336038   -4.4556023    490.25079  0.063438249  0.064289914            3 
  645000     1.134506   -4.4720812    488.87776  0.063162502  0.064273262            4 
  646000    1.1529659   -4.4508326    491.09824  0.063351166  0.064257528            1 
  647000    1.1561124   -4.4529268    490.47359  0.063172797  0.064242093            2 
  648000    1.1454838   -4.4606935    490.75996  0.063112135  0.064226398            3 
  649000    1.1565007   -4.4616618    491.19204   0.06307037  0.064211689            3 
  650000    1.1554824   -4.4671987    491.96779  0.063072793  0.064196005            3 
  651000    1.1793132   -4.4396248    495.32952  0.063406237  0.064180637            1 
  652000    1.1501295   -4.4213265    494.58531  0.063213868  0.064166248            2 
  653000    1.1323626   -4.4787779    494.49931  0.063106089   0.06415082            4 
  654000    1.1245804    -4.438119    496.25998  0.063233942  0.064135776            2 
  655000    1.1385021   -4.4372484    494.92976  0.062968163   0.06412042            3 
  656000    1.1385198    -4.426472    497.86017  0.063244433  0.064105813            2 
  657000    1.1563576   -4.5156423    495.72388  0.062877204  0.064090552            2 
  658000    1.1095962   -4.4791888    498.20995  0.063096498  0.064075193            2 
  659000    1.1450745   -4.4807092    497.97142  0.062970589  0.064060202            2 
  660000    1.1340547   -4.4707515    500.86064   0.06323998  0.064044079            2 
  661000    1.1517572    -4.477453    500.69044  0.063122849  0.064028946            2 
  662000    1.1576376   -4.4533975    502.18535  0.063215678  0.064013637            3 
  663000    1.1572541   -4.5126261    500.18304  0.062868658  0.063998941            2 
  664000    1.1634753   -4.4908785    501.54132  0.062944443  0.063983633            3 
  665000    1.1284287   -4.4438165    504.35071  0.063201843  0.063968465            3 
  666000    1.1472636   -4.4898842    502.17251  0.062834398  0.063953334            4 
  667000     1.137396   -4.4336511    505.40607  0.063144186  0.063939328            7 
  668000    1.1548755   -4.4933271    505.36533  0.063044577  0.063924617            6 
  669000    1.1520788   -4.4649904    507.20404  0.063179378  0.063909418            2 
  670000    1.1183361   -4.4858301    505.94903  0.062928984  0.063894468            5 
  671000    1.1617513   -4.4652594    507.74355  0.063058066  0.063878667            3 
  672000    1.1445614   -4.4801116    509.56764  0.063190432  0.063864125            2 
  673000    1.1689696   -4.4624072    508.19819  0.062926967  0.063849918            3 
  674000    1.1695259   -4.4557252    508.06046  0.062816575  0.063834457            3 
  675000    1.1341432   -4.4598453    508.73394   0.06280666  0.063819637            2 
  676000     1.126435   -4.4645146    508.93014  0.062737936  0.063804592            1 
  677000    1.1292265   -4.4881624     509.6942  0.062739315  0.063789437            3 
  678000     1.141144    -4.488178    510.74201  0.062775566  0.063775051            2 
  679000    1.1515345    -4.448077    514.17549  0.063104503  0.063761741            1 
  680000    1.1306408   -4.4428765      514.529  0.063055025  0.063749039            2 
  681000    1.1571977   -4.4745518    515.08377   0.06303032  0.063736202            2 
  682000    1.1437928   -4.4340043    516.47445  0.063107826  0.063723264            2 
  683000    1.1402816      -4.4949    517.45625  0.063135218  0.063711297            4 
  684000    1.1261471   -4.4698491    519.16016  0.063250507  0.063699592            3 
  685000    1.1668359   -4.4297254    521.04493   0.06338746  0.063688299            3 
  686000    1.1479192   -4.4619478    520.52669  0.063232105  0.063677417            4 
  687000    1.1540402   -4.5004005    519.12491  0.062970027   0.06366587            2 
  688000    1.1538517   -4.4886496    520.09672  0.062996212  0.063654401            3 
  689000    1.1456089   -4.4725084     521.8151  0.063112615  0.063643292            3 
  690000    1.1615877   -4.4709527    522.15828  0.063062594  0.063632255            2 
  691000     1.123299   -4.4895473    523.13361  0.063088954  0.063620824            3 
  692000    1.1264326   -4.4637671    524.68108  0.063184138   0.06360952            2 
  693000    1.1580276   -4.4530411    523.68387  0.062973048  0.063598285            3 
  694000    1.1381685   -4.4821049    523.26514   0.06283203  0.063586057            3 
  695000    1.1376443   -4.4770886    526.51773  0.063131623  0.063573355            2 
  696000    1.1261991    -4.490281    525.80272  0.062955307  0.063560933            3 
  697000    1.1198037   -4.5079751    524.48379  0.062707291  0.063548472            1 
  698000    1.1655641   -4.5049752    525.79045  0.062773454  0.063534993            4 
  699000    1.1219063   -4.4752733    525.87331  0.062693527  0.063521438            2 
  700000    1.1518448   -4.4812296    526.50389  0.062679034  0.063508281            1 
  701000    1.1158789   -4.4740006    530.13409  0.063021171   0.06349692            3 
  702000    1.1457966   -4.4834085    531.08673  0.063044484   0.06348557            2 
  703000    1.1123006   -4.4748175     530.0807  0.062835549  0.063474137            2 
  704000    1.1328185   -4.4815179    531.66814  0.062934203  0.063462342            3 
  705000    1.1474163   -4.4732639    532.53834  0.062947795  0.063450186            2 
  706000    1.1464185   -4.5178971    531.15684  0.062695567   0.06343794            3 
  707000    1.1286398   -4.4885662    535.88138  0.063163765  0.063426338            2 
  708000    1.1252401     -4.48267    534.15091   0.06287087  0.063415887            2 
  709000    1.1472573   -4.4609549    534.15364  0.062782515  0.063404344            4 
  710000    1.1478382   -4.4739646    538.59446  0.063215312  0.063392957            2 
  711000     1.124718   -4.4652892    536.03527   0.06282645  0.063382291            2 
  712000    1.1373557    -4.474875    536.44992  0.062786741  0.063371355            6 
  713000    1.1300743    -4.482015    539.66778  0.063074775  0.063360494            3 
  714000    1.1585192   -4.4894718    539.03904  0.062913053  0.063350195            3 
  715000     1.142463   -4.4687114    542.42253  0.063219409  0.063340542            3 
  716000    1.1222749   -4.4796905     539.7125  0.062815701  0.063329173            2 
  717000    1.0999876    -4.480599     542.9085  0.063099547  0.063317584            2 
  718000    1.1244226   -4.4981325    542.21778  0.062931497  0.063306384            3 
  719000    1.1317495   -4.4882225    540.97461  0.062699885  0.063295221            2 
  720000    1.1147303   -4.5041207    543.52809  0.062908344  0.063284259            3 
  721000    1.1470017   -4.4663596    544.87301  0.062976539  0.063272297            1 
  722000    1.1136492   -4.5051546    544.21657  0.062813547  0.063260945            1 
  723000    1.1639189   -4.4714176    545.34544  0.062856782  0.063249325            2 
  724000     1.133179   -4.4879064     545.4073  0.062777083  0.063237934            1 
  725000    1.1572298   -4.4731154    547.34838  0.062913606  0.063226301            1 
  726000    1.1272619   -4.4673568    547.92266  0.062892867  0.063215328            3 
  727000    1.1386957   -4.4661095    547.13701  0.062716301  0.063204784            3 
  728000    1.1685256   -4.4778311    546.80801  0.062592492  0.063193495            1 
  729000    1.1446253     -4.48214    548.38523  0.062686926  0.063181891            1 
  730000    1.1080903    -4.491989    547.79141  0.062533266  0.063170105            2 
  731000     1.150191   -4.5184563    549.34806  0.062625178  0.063158109            2 
  732000    1.1536417   -4.4817327    549.83152  0.062594663   0.06314659            2 
  733000    1.1332177   -4.4916896    549.29575  0.062448357  0.063134624            2 
  734000    1.1063746   -4.5051497    547.90251  0.062205098   0.06312265            4 
  735000    1.1383836   -4.5178617    551.02314  0.062474279  0.063109825            3 
  736000    1.1244156   -4.4679021    551.15729  0.062404585  0.063098174            3 
  737000    1.1302134   -4.4804418    550.52306  0.062248197  0.063085179            5 
  738000    1.1286342    -4.496641     553.5502  0.062505668   0.06307272            2 
  739000    1.1326817   -4.4841616    553.08615  0.062368758  0.063059388            3 
  740000    1.1331867   -4.4926376    555.54886  0.062561808  0.063046632            2 
  741000    1.1214317   -4.4760444    555.75165  0.062500186  0.063034316            3 
  742000    1.1176806   -4.5121483    553.75496  0.062191707  0.063021194            3 
  743000    1.1274891   -4.5020215    555.21196  0.062271417  0.063008399            1 
  744000    1.1183988   -4.4743895    558.17602  0.062519715   0.06299569            4 
  745000    1.1509043   -4.5068452    556.55917  0.062254941  0.062982309            3 
  746000    1.1245457   -4.4843286    556.50816   0.06216579  0.062969791            2 
  747000    1.1240377   -4.4818953     558.1882  0.062269991  0.062957264            4 
  748000    1.1178004   -4.4967693    562.01088   0.06261262  0.062944927            3 
  749000    1.1399346   -4.4830924    558.22903  0.062108259  0.062932628            2 
  750000    1.1103897   -4.5046197    562.77026  0.062530028  0.062919608            3 
  751000    1.1458734   -4.4913873    561.70402  0.062328453  0.062908063            3 
  752000    1.1214773   -4.4936529    564.62124  0.062568843  0.062896588            3 
  753000    1.0942387   -4.5081573    563.42979  0.062353894  0.062885187            5 
  754000    1.1558093    -4.495683    566.77512  0.062640929  0.062874601            3 
  755000    1.1265554   -4.4817474    565.71832  0.062441316  0.062863276            6 
  756000    1.1205545    -4.489318    564.82056  0.062259762   0.06285196            4 
  757000    1.1351137   -4.4958552    567.75564   0.06250062  0.062841635            3 
  758000    1.1554474   -4.5149801    568.37774  0.062486558   0.06283072            2 
  759000     1.131481   -4.5210619    565.90663  0.062132919  0.062820321            3 
  760000    1.1301396   -4.5304163     567.0545  0.062177028  0.062808515            3 
  761000    1.1302582   -4.5175504    568.32217  0.062234141  0.062797002            3 
  762000    1.1164818   -4.5055201     572.7758  0.062639523  0.062785614            5 
  763000    1.1259361   -4.5235375    570.53311  0.062312485  0.062774144            4 
  764000    1.1324583    -4.498229    572.59136  0.062455427  0.062761886            1 
  765000    1.0975305    -4.459635    572.27363  0.062339175  0.062751409            2 
  766000    1.0957701   -4.5256143     571.7885  0.062205016  0.062740496            1 
  767000    1.1470725   -4.5053991    574.28111  0.062394731   0.06272981            2 
  768000     1.121424   -4.4774919    576.97272  0.062605547  0.062720086            3 
  769000    1.1327437   -4.4869062     575.1367  0.062325174  0.062710531            3 
  770000    1.1163359   -4.4929784    576.66936  0.062410104  0.062700227            3 
  771000    1.1333142   -4.5294588    574.74558  0.062121225  0.062689706            1 
  772000    1.1356004   -4.4929935    578.72574  0.062470395  0.062678913            2 
  773000    1.1214183    -4.491757    576.87682  0.062190257  0.062668544            6 
  774000    1.1144741   -4.5053839    577.38131  0.062164224  0.062657002            2 
  775000    1.1595955   -4.4942022    579.85708  0.062350224  0.062646047            2 
  776000     1.110758   -4.5422129    578.26174  0.062098554  0.062634479            3 
  777000    1.1266888   -4.5202781    579.58944   0.06216103  0.062623881            3 
  778000     1.130799   -4.5084838    581.73827  0.062311297  0.062613269            3 
  779000    1.1204447   -4.5166904    581.59888  0.062216397  0.062603359            3 
  780000    1.1493857   -4.5156548    582.41659  0.062223995  0.062592783            1 
  781000    1.1189753   -4.4604953    584.65358  0.062383011  0.062582078            2 
  782000    1.1424964   -4.5102253    582.96879  0.062123698  0.062571957            2 
  783000    1.1174864    -4.545991    585.48427  0.062312076  0.062561555            2 
  784000    1.1220851   -4.4665396    584.96876  0.062177802   0.06255105            2 
  785000    1.1424728   -4.4806423    588.15638  0.062436983  0.062540122            6 
  786000    1.1240241   -4.5016248    587.57693  0.062296112  0.062529679            5 
  787000     1.127401   -4.4859938    587.19116  0.062176108  0.062519514            3 
  788000    1.1327174   -4.5154402     586.1441  0.061986474  0.062508903            2 
  789000    1.1120986   -4.5343379      587.865   0.06208967  0.062497898            3 
  790000    1.1123985   -4.5159644    589.88692  0.062224359  0.062486931            2 
  791000    1.1181831   -4.5059885    588.34535  0.061983286  0.062475906            1 
  792000    1.1617666   -4.5147744      589.819   0.06206008  0.062465125            1 
  793000     1.147847   -4.4953385    590.11915  0.062013361  0.062453901            3 
  794000    1.1301363   -4.4892789     593.6736  0.062308312  0.062443037            1 
  795000    1.1609502   -4.5083822    590.87579  0.061936665   0.06243157            3 
  796000    1.1269696   -4.5153007    590.11646  0.061779361  0.062420138            4 
  797000    1.1446749   -4.4900552    592.54514  0.061955787  0.062408773            1 
  798000    1.1192916    -4.452577     595.1927  0.062154626  0.062398288            1 
  799000     1.104547   -4.4609172    594.97097   0.06205371  0.062386277            1 
  800000    1.1265812   -4.5001043    594.06493  0.061881763  0.062375004            2 
  801000    1.1507879   -4.5011324     594.2119  0.061819798  0.062362301            2 
  802000    1.1069698   -4.5238974    596.79382  0.062010995  0.062349939            1 
  803000    1.1103189    -4.512442    597.37026  0.061993592  0.062338004            7 
  804000    1.1180584   -4.5050521    596.07138  0.061781859  0.062326393            3 
  805000    1.1134824   -4.5076175    590.80038   0.06115946  0.062312947            3 
  806000    1.1200531   -4.5181152    592.48095  0.061257336  0.062298575            3 
  807000    1.1367522   -4.4987139    594.52012  0.061391999  0.062284662            3 
  808000    1.0875247   -4.4671427    596.71153   0.06154203   0.06227069            5 
  809000     1.112172   -4.5307905    596.41408  0.061435319  0.062256329            2 
  810000    1.0889074   -4.4696475    600.59522  0.061789632  0.062241909            1 
  811000    1.1142964   -4.5110219    598.22056  0.061469437  0.062227365            4 
  812000    1.1216917   -4.4744114    600.14661  0.061591401   0.06221244            5 
  813000    1.1251239   -4.5280365      596.532  0.061145141  0.062196954            3 
  814000    1.1151077    -4.488523    598.53005  0.061274575   0.06218105            5 
  815000     1.122533   -4.5380819     597.5878  0.061103047  0.062165597            3 
  816000    1.1337269   -4.5299356    597.84529  0.061054461  0.062150678            2 
  817000    1.1325497   -4.5194569    599.14919  0.061112728  0.062136211            5 
  818000     1.115144   -4.4982552    602.79352  0.061409283  0.062120819            3 
  819000    1.1061507   -4.5330133    602.08009  0.061261711  0.062105661            3 
  820000    1.1088082   -4.5350647    601.71681  0.061150082  0.062090282            2 
  821000    1.1231728   -4.5064265    601.90591  0.061094794  0.062075103            3 
  822000     1.130313   -4.4825835    603.53694  0.061185821   0.06205978            2 
  823000    1.1352313   -4.5446677    601.55044  0.060910332  0.062044583            2 
  824000    1.1156596   -4.5074459    602.69432  0.060952096  0.062028946            4 
  825000    1.1396104    -4.486591    603.18883  0.060928164  0.062013732            9 
  826000    1.1540981   -4.5026746    606.97357  0.061236236  0.061998188            2 
  827000    1.1319111   -4.5169489    605.32304  0.060995873  0.061983289            3 
  828000    1.1149341   -4.5431059    607.66384  0.061157794  0.061967718            4 
  829000     1.108537   -4.5302219    608.03489   0.06112132  0.061952314            3 
  830000    1.0894905   -4.5170479    606.76468  0.060920148  0.061937182            2 
  831000    1.1282477    -4.506725    607.95604   0.06096631  0.061922143            2 
  832000    1.0934883   -4.5021984    608.51677  0.060949196  0.061906367            2 
  833000    1.1301447   -4.4548636      613.344  0.061358943  0.061891303            2 
  834000    1.1239808   -4.5302248    610.87045  0.061038215  0.061876731            6 
  835000    1.1235038   -4.5100892    611.15115  0.060993129  0.061860582            3 
  836000     1.114845   -4.5195493    610.57366  0.060862606  0.061844477            2 
  837000    1.1215743    -4.560614    609.79739  0.060712603  0.061829435            3 
  838000     1.107472   -4.4889254    613.00476  0.060959105  0.061814336            2 
  839000    1.1296423   -4.4775103    617.66712  0.061349535  0.061799092            2 
  840000     1.118928   -4.5082747     612.8073  0.060794375  0.061784213            2 
  841000    1.1139763   -4.5353912    616.76258  0.061114009  0.061768566            7 
  842000    1.1061776   -4.4984117    615.10531  0.060877406  0.061752968            2 
  843000    1.1175753   -4.5301958    612.64383  0.060561865  0.061736667            3 
  844000    1.1037192   -4.5535387    614.49666  0.060673051  0.061720689            3 
  845000    1.1159491    -4.564467    612.63333  0.060417488  0.061704075            2 
  846000    1.0929334   -4.5519108    614.25084  0.060505402  0.061687323            2 
  847000    1.0917439   -4.5287642    617.98341  0.060801201  0.061670629            2 
  848000    1.0972406   -4.5381205    617.63413  0.060695178  0.061654699            5 
  849000    1.1196361   -4.5585276    617.78644  0.060638638  0.061639204            3 
  850000    1.1194319   -4.5107578    618.98732  0.060685032  0.061624618            5 
  851000    1.0924712   -4.5056033     622.8416  0.060991147  0.061610725            2 
  852000     1.131038     -4.52853    619.79731  0.060621802  0.061595735            3 
  853000    1.1215372   -4.5180211    622.13491  0.060779104  0.061580149            3 
  854000    1.1169853   -4.5177894     619.0809  0.060409924  0.061563881            2 
  855000     1.115804   -4.5275517     622.6741  0.060689484  0.061547681            3 
  856000    1.1051978   -4.5281316    622.13327  0.060565933  0.061530924            2 
  857000    1.1283506   -4.5412536    622.69333  0.060549721  0.061515176            2 
  858000    1.0974319   -4.5479944    620.22492  0.060239406  0.061498836            6 
  859000    1.1175267   -4.5119937    622.13908  0.060354975  0.061482218            3 
  860000    1.0836324     -4.47108    624.62797  0.060525966  0.061465759            2 
  861000    1.1085613   -4.5422215     622.5121  0.060250881  0.061449439            2 
  862000    1.1441027   -4.5122494    624.14839  0.060339172  0.061432809            3 
  863000    1.1014192   -4.5322186    625.37633  0.060387827  0.061416368            2 
  864000    1.1019504   -4.5464191    626.33659  0.060410551  0.061400273            3 
  865000    1.1054742   -4.5168778    628.72107   0.06057043  0.061384461            4 
  866000    1.1001395   -4.5532397    627.01943  0.060336743  0.061369238            2 
  867000    1.0908685   -4.5379534    629.44002   0.06049981  0.061353597            4 
  868000    1.1317406   -4.4824982    632.75868  0.060748721  0.061338976            1 
  869000    1.1058172   -4.5290208    629.40849  0.060357546  0.061324169            2 
  870000    1.0950899   -4.5304417    629.74713  0.060320607  0.061309193            1 
  871000     1.095031   -4.5405141    630.78664  0.060350807  0.061294225            6 
  872000    1.1018776   -4.5119271    634.72094  0.060657582  0.061279074            4 
  873000    1.1023569   -4.5176483    632.94804  0.060418866  0.061263879            2 
  874000    1.0797123   -4.5096018    633.07516  0.060361858  0.061249094            5 
  875000    1.1273681    -4.538091    635.82056  0.060554339  0.061234177            4 
  876000    1.1069265   -4.5475478    634.39804  0.060349889  0.061218754            3 
  877000    1.1166846   -4.5270036    634.28593  0.060270423  0.061203488            2 
  878000    1.0936095   -4.5165237    637.08511  0.060467455  0.061188005            2 
  879000    1.1304008   -4.5354512    634.79021  0.060181097  0.061173573            2 
  880000    1.1332308   -4.4849392    638.85696  0.060497818   0.06115896            2 
  881000    1.1418337   -4.5164534    638.45954  0.060391557  0.061144868            2 
  882000    1.1138266   -4.5573696    640.85415  0.060549334  0.061131116            3 
  883000     1.131201   -4.5204144    641.66848  0.060557615  0.061117429            4 
  884000     1.089036   -4.5547647    641.24827  0.060449498  0.061103516            1 
  885000    1.0938626   -4.5665625    639.55528  0.060221777  0.061089122            2 
  886000     1.105423   -4.5382555    642.32862  0.060414655  0.061074381            4 
  887000    1.1149179   -4.5579149    641.93491  0.060309556  0.061059648            5 
  888000    1.1088029   -4.5469638    642.65469  0.060309187  0.061045019            6 
  889000    1.1170488   -4.5348531    644.25819  0.060391656  0.061030648            3 
  890000     1.106236   -4.5104949    646.79966  0.060561766   0.06101649            3 
  891000     1.103606   -4.5407273     646.4844   0.06046431   0.06100234            2 
  892000    1.1065065    -4.528775    647.06458  0.060450726  0.060989158            3 
  893000    1.1120153   -4.5372139    645.41959  0.060229525  0.060975929            2 
  894000    1.1271846   -4.5461482    647.09449  0.060318278   0.06096288            2 
  895000    1.1039149   -4.5414834    650.41746  0.060560285  0.060950395            1 
  896000    1.0766239   -4.5487049    650.44044  0.060494833  0.060938219            2 
  897000    1.0886664   -4.5192221    650.24197  0.060408953  0.060925674            2 
  898000    1.1173431   -4.5434716    651.98475   0.06050341  0.060912386            2 
  899000    1.1077074   -4.5393214    649.72325  0.060226478   0.06089932            4 
  900000    1.1291396   -4.5402315    654.16219  0.060570573  0.060886719            4 
  901000    1.0802829   -4.5237857    651.33712  0.060242057  0.060874336            4 
  902000     1.091255   -4.5316647    654.73082  0.060488804  0.060861848            3 
  903000    1.1084649   -4.5497853    655.98538  0.060537595  0.060849878            5 
  904000    1.0622948    -4.551427     654.6881  0.060351042  0.060837926            3 
  905000    1.0979563   -4.5258124    656.68305  0.060468052  0.060826383            2 
  906000    1.1173291   -4.5297919    658.30996  0.060550953   0.06081468            6 
  907000    1.1243388   -4.5453166    658.50725   0.06050232  0.060802643            2 
  908000    1.1133821   -4.5491583    657.87821  0.060377956  0.060790959            3 
  909000    1.1225345   -4.5565397    659.22174  0.060434703  0.060779557            2 
  910000    1.0974026   -4.5524217     660.3597    0.0604725  0.060767896            3 
  911000    1.1143287    -4.576446    660.74214  0.060441103  0.060755931            3 
  912000    1.1153063    -4.534814    660.33238  0.060337388  0.060744166            3 
  913000    1.1088043   -4.5576703    661.24566  0.060354661  0.060732901            2 
  914000    1.0719412   -4.5281351    664.71507  0.060604948  0.060721303            3 
  915000    1.0985497   -4.5583715    661.96218  0.060287994  0.060709287            4 
  916000    1.1014466    -4.540383    662.64839  0.060284606   0.06069755            3 
  917000    1.1053589   -4.5588524    663.73366   0.06031749  0.060686142            3 
  918000     1.073076   -4.5346608    667.12585  0.060559718  0.060674155            4 
  919000    1.0961692   -4.4855385    668.02662    0.0605755  0.060662497            3 
  920000    1.0934077   -4.5407879     664.4325  0.060184103  0.060651227            1 
  921000    1.1099924    -4.528985    668.11299  0.060451772  0.060639066            5 
  922000    1.1082955   -4.5261863    668.98731  0.060465231  0.060627494            5 
  923000    1.1247859   -4.5457847     669.0562  0.060405941  0.060616538            3 
  924000    1.0921804   -4.5293136    667.43421  0.060194283   0.06060518            2 
  925000    1.1130465   -4.5564805    668.51112  0.060226227  0.060593982            3 
  926000    1.0996754   -4.5324002      670.554  0.060345033  0.060582892            1 
  927000    1.0755349   -4.5431193    667.81083  0.060033336  0.060571479            2 
  928000    1.1130765   -4.5627827    666.65917  0.059865227  0.060558726            6 
  929000    1.1190346   -4.5474404    670.94287  0.060185044   0.06054616            6 
  930000     1.094535   -4.5608486    670.01982  0.060037619  0.060533434            3 
  931000    1.1179923   -4.5307348      670.652  0.060029717  0.060520826            2 
  932000    1.1015487   -4.5416614    672.14884  0.060099145  0.060507807            3 
  933000    1.1102686   -4.5552585    673.30617    0.0601381  0.060495362            2 
  934000    1.0903133   -4.5275278    673.82553   0.06012005  0.060483186            1 
  935000    1.1181348   -4.5249969    674.97995   0.06015864  0.060470963            2 
  936000    1.0991289   -4.5624546    674.79229  0.060077661  0.060459401            2 
  937000    1.1153215    -4.527831    678.73863  0.060364517  0.060447918            2 
  938000    1.1143312   -4.5836435    676.34134  0.060087184  0.060436156            3 
  939000    1.1100681   -4.5486983    678.57923  0.060221799  0.060424629            2 
  940000    1.0951601   -4.5461638    678.48564  0.060149436  0.060412989            6 
  941000    1.1049043   -4.5339391    679.14672  0.060144059  0.060401853            4 
  942000     1.122265   -4.5356664    680.74395   0.06022151  0.060390652            4 
  943000    1.0898364   -4.5519773    681.75242  0.060246768  0.060380026            3 
  944000    1.0903046   -4.5699439    683.00666  0.060293667  0.060368576            2 
  945000    1.0944441   -4.5346047    683.52981  0.060275998   0.06035766            4 
  946000    1.1011393   -4.5495942    682.10362  0.060086648  0.060347368            5 
  947000    1.1086586   -4.5453982    685.00406  0.060278429  0.060336691            3 
  948000    1.0913021   -4.5706991    685.18651  0.060230881  0.060326114            2 
  949000    1.1022514    -4.555052     686.5619  0.060288189  0.060316099            3 
  950000    1.1119782   -4.5434323    684.86516  0.060075891  0.060305602            5 
  951000    1.1069918   -4.5643268    685.63181  0.060079899  0.060294908            1 
  952000     1.094788   -4.5326445    687.23463  0.060157093  0.060283989            3 
  953000    1.0998193   -4.5550995    686.47749  0.060027762  0.060272849            3 
  954000    1.0911796   -4.5080673    689.01386  0.060186396  0.060261561            3 
  955000    1.0970905    -4.534961    691.03976  0.060300153   0.06025046            4 
  956000    1.1037018   -4.5743206    688.21214  0.059990598  0.060238823            3 
  957000    1.1043879   -4.5548403    689.79017  0.060065323  0.060227291            3 
  958000    1.1098777   -4.5453971    689.96588  0.060017909  0.060216175            3 
  959000    1.0938798   -4.5548837    691.45538  0.060084757   0.06020502            6 
  960000    1.0913125   -4.5463446     689.6862  0.059868594  0.060193845            2 
  961000     1.095219   -4.5688311    690.57662  0.059883508   0.06018194            7 
  962000    1.0786901   -4.5496056    691.94273  0.059939599  0.060170566            3 
  963000    1.0934479   -4.5498161    693.32278  0.059996779  0.060159062            5 
  964000    1.1149661   -4.5525679    693.87138  0.059981966  0.060147984            2 
  965000    1.1084006   -4.5403684    693.99885  0.059930816  0.060136818            3 
  966000    1.1044279   -4.5585283    695.74486  0.060019398  0.060126003            3 
  967000    1.1182272   -4.5576057    698.65344  0.060207984  0.060115731            2 
  968000    1.1164156   -4.5797996    695.22239  0.059850412  0.060105454            3 
  969000    1.1055636    -4.532208     698.5642  0.060076041  0.060095317            3 
  970000    1.0921265   -4.5375852    699.86791  0.060126109  0.060085106            5 
  971000    1.0941698   -4.5457045    703.00887  0.060333751  0.060074982            2 
  972000    1.1012867   -4.5593829    701.13679  0.060111179  0.060065379            2 
  973000    1.1514329   -4.5639711    702.51629  0.060167548  0.060055485            1 
  974000    1.0864054   -4.5667344    699.54871  0.059851874  0.060045645            2 
  975000    1.0805729   -4.5535389     701.4246   0.05995082   0.06003478            2 
  976000    1.0868602    -4.587468    698.31244  0.059623672  0.060023966            3 
  977000       1.0922    -4.568623    701.95992  0.059873757  0.060013297            4 
  978000    1.1064504   -4.5439407    701.48871  0.059772385  0.060002218            5 
  979000    1.0696099   -4.5338297    704.13293  0.059936409  0.059991505            2 
  980000    1.0902207   -4.5237159    707.88571  0.060194363  0.059981017            5 
  981000     1.097723   -4.5711597     702.0725  0.059639186  0.059969697            3 
  982000    1.0828622   -4.5455282    704.93841  0.059821658  0.059958521            1 
  983000    1.0625255   -4.5766802    706.30093  0.059876308  0.059947723            4 
  984000    1.0838213   -4.5576657    706.91222  0.059867227  0.059936989            4 
  985000     1.079869   -4.5168979    706.18019  0.059744517  0.059926475            3 
  986000    1.0774049   -4.5436368    707.53346  0.059798298  0.059915568            2 
  987000    1.0961323   -4.5613321    705.25508  0.059545346  0.059904456            6 
  988000    1.1122569   -4.5672575    704.89299  0.059454537  0.059892634            1 
  989000     1.091972    -4.573167    704.86924   0.05939242  0.059880736            4 
  990000     1.092363   -4.5375024    707.36009  0.059542095  0.059869519            1 
  991000    1.1136417   -4.5855198    709.77359  0.059684964  0.059858123            2 
  992000    1.0995522   -4.5834512    708.79315  0.059542436  0.059846873            2 
  993000    1.0833379   -4.5285081    713.91281  0.059912119  0.059835948            4 
  994000    1.0920825   -4.5948611    711.46289  0.059646453  0.059824948            4 
  995000    1.0845725   -4.5909984    711.38895  0.059580314  0.059813172            7 
  996000    1.1022099   -4.5687685    711.21912  0.059506285  0.059801131            3 
  997000    1.0926477   -4.5374444    716.16231  0.059859772  0.059789978            4 
  998000    1.0787461   -4.5261586     713.9374  0.059614011   0.05977853            2 
  999000    1.0927418   -4.5624995    713.63518  0.059529127  0.059767424            5 
 1000000     1.075523   -4.5896732    712.80762  0.059400635  0.059756285            2 
 1001000    1.0823676    -4.593716     714.0115  0.059441517  0.059745612            1 
 1002000     1.118656   -4.5538836    715.73956  0.059525912  0.059734234            2 
 1003000    1.1012573   -4.5450754    717.84385  0.059641397  0.059723058            2 
 1004000    1.0740478   -4.5758328    719.18521  0.059693327  0.059712223            3 
 1005000    1.0950291   -4.5541538    720.95577  0.059780744  0.059701591            1 
 1006000    1.0841062   -4.5636069    721.30237  0.059750031  0.059690779            3 
 1007000    1.0974112   -4.5858857     717.7986  0.059400745  0.059679863            3 
 1008000    1.0890528   -4.5766712    719.81021  0.059508119  0.059668585            3 
 1009000    1.0702432   -4.5817459    722.81927   0.05969766  0.059657944            3 
 1010000    1.0683805   -4.5579517    722.50947  0.059612992  0.059647757            3 
 1011000    1.0879274   -4.6042664    722.82354  0.059579916  0.059637353            2 
 1012000    1.0758814   -4.5800846     723.5128    0.0595778  0.059627141            2 
 1013000    1.0979619   -4.5829688     721.9467  0.059390153  0.059616358            1 
 1014000    1.1073655   -4.5567579    726.71991  0.059723858  0.059605798            3 
 1015000    1.0945341   -4.5851474    725.49453  0.059564411  0.059595687            2 
 1016000    1.0975125   -4.5509451    726.40595  0.059580541  0.059585622            3 
 1017000    1.0783707    -4.603108     723.2744  0.059265356   0.05957508            9 
 1018000      1.10961   -4.5781733     727.7616  0.059574459  0.059565019            3 
 1019000    1.1003273   -4.5574685     730.2374  0.059718466  0.059555189            3 
 1020000     1.090655   -4.5610435    730.11573  0.059649978  0.059545933            4 
 1021000    1.0958658   -4.5474691    731.79357  0.059728499  0.059536905            2 
 1022000    1.0939334   -4.5649482    732.83779  0.059755202  0.059527925            1 
 1023000    1.0811763   -4.5619681    729.58544  0.059431854  0.059518586            1 
 1024000    1.1006924   -4.5721253    733.61622  0.059701841  0.059509166            5 
 1025000    1.0971292   -4.5769489    731.55822  0.059476278  0.059499871            2 
 1026000    1.0734554   -4.5519745    734.24513  0.059636544  0.059490574            4 
 1027000    1.0948833   -4.5911534    732.47004   0.05943444   0.05948114            2 
 1028000    1.0768341   -4.6036967    731.99708  0.059338285  0.059471497            3 
 1029000    1.0756107    -4.564129     737.7713  0.059748243  0.059462235            2 
 1030000    1.0815472   -4.5628994    735.03258  0.059468656   0.05945292            1 
 1031000    1.0957949    -4.556278    737.28075  0.059592689  0.059443907            2 
 1032000     1.094727   -4.5740105    739.54981  0.059718169  0.059434381            4 
 1033000     1.083892   -4.5577822    739.74069  0.059675758  0.059425376            2 
 1034000    1.0986515   -4.5764602    741.07889  0.059725894  0.059416127            5 
 1035000    1.0759538   -4.5741496    737.74944  0.059400116  0.059406802            5 
 1036000    1.0847615   -4.5630576     740.8931  0.059595648  0.059398047            1 
 1037000    1.1030858   -4.5335588     740.4641  0.059503705  0.059388486            3 
 1038000    1.1221785   -4.5574116    741.56269  0.059534577  0.059379625            1 
 1039000    1.0869611   -4.5387528    743.25296  0.059612846  0.059369988            4 
 1040000    1.0695444   -4.5889987    741.30155  0.059399162  0.059360742            4 
 1041000    1.1088036   -4.5981445    742.13702  0.059408983  0.059351563            2 
 1042000    1.0874784   -4.5792829    743.64064   0.05947222  0.059341756            1 
 1043000    1.1104953    -4.562825    741.58258  0.059250766  0.059332153            2 
 1044000    1.0833402   -4.5621527    743.57029  0.059352673  0.059322624            5 
 1045000    1.0910722   -4.6094057    746.03485  0.059492413  0.059313328            2 
 1046000    1.0671628   -4.5880068    743.87975  0.059263843  0.059302929            1 
 1047000    1.0855086   -4.5583716    747.44756   0.05949121  0.059293249            5 
 1048000    1.0799948   -4.5963183    746.62982   0.05936942  0.059283349            7 
 1049000    1.0737976   -4.6039421    746.50294  0.059302744  0.059273747            4 
 1050000    1.0703835   -4.5766286    747.54641   0.05932908  0.059263794            4 
 1051000    1.0692692   -4.5633104    748.24035  0.059327652  0.059253724            3 
 1052000    1.0967537   -4.6117329    746.07743  0.059099923  0.059243851            2 
 1053000    1.0688296   -4.5964705     746.7546  0.059097389  0.059233906            2 
 1054000    1.0890512   -4.6007895    749.12543  0.059228766  0.059224025            3 
 1055000    1.0938734   -4.6039717    749.75993  0.059222743  0.059213509            3 
 1056000    1.0693393   -4.5625708    750.69787  0.059240678   0.05920365            3 
 1057000     1.073289   -4.5867737    750.45277  0.059165308  0.059193973            3 
 1058000     1.096528   -4.5841133    749.82328  0.059059804  0.059183992            2 
 1059000    1.0756693   -4.6008379    751.09968  0.059104476  0.059174335            3 
 1060000     1.093505    -4.574334    753.80122  0.059261102  0.059165021            2 
 1061000    1.0934374   -4.6165144     755.1382  0.059310257  0.059156347            3 
 1062000    1.0841946   -4.5916511     755.3875  0.059273972  0.059147754            2 
 1063000    1.0669613   -4.5949496    758.84458  0.059489227  0.059139235            3 
 1064000    1.0793929   -4.5728456      759.449  0.059480655  0.059130916            2 
 1065000    1.0994427   -4.5907068    755.66831  0.059128976  0.059122568            3 
 1066000    1.1146937   -4.6060233    759.37244  0.059363074  0.059113715            3 
 1067000    1.1102187   -4.5866624    760.99341  0.059434037  0.059105062            2 
 1068000    1.0805876   -4.6039567    760.78822  0.059362376  0.059096314            4 
 1069000    1.0869123   -4.5765824     761.8123  0.059386677   0.05908779            4 
 1070000    1.0649438   -4.5728454    760.95317  0.059264265  0.059079008            3 
 1071000    1.0947889   -4.5679058    761.92886  0.059284847  0.059070434            8 
 1072000    1.0697092   -4.5700182    762.56732  0.059279176  0.059061947            2 
 1073000     1.085319    -4.585597    762.71118  0.059235102   0.05905385            4 
 1074000    1.0797437   -4.5455602    766.18042  0.059449132  0.059045973            3 
 1075000    1.1036303   -4.6150419    765.09063  0.059309351  0.059037556            3 
 1076000    1.0668575   -4.5647405    765.70182  0.059301566  0.059029315            5 
 1077000    1.0882792   -4.5799384    767.48261  0.059384293  0.059020592            2 
 1078000    1.0827114   -4.5954688    766.84788  0.059280139   0.05901202            3 
 1079000      1.07549   -4.5923709     768.6332  0.059363083  0.059003094            2 
 1080000    1.0982624   -4.6278225    766.91474   0.05917552  0.058994089            2 
 1081000    1.0596148   -4.5588013    768.22826  0.059222037   0.05898469            3 
 1082000    1.0932525   -4.6482566    763.91255  0.058834916  0.058975711            3 
 1083000    1.0741822   -4.5971045    771.81165  0.059388401   0.05896657            2 
 1084000     1.090125   -4.6092882    767.36659  0.058991896  0.058957894            5 
 1085000    1.1042475   -4.5899914     769.5894  0.059108249  0.058949278            4 
 1086000    1.0482431   -4.5777618    770.89672  0.059154137  0.058940525            1 
 1087000    1.0808408   -4.5965589    770.28755  0.059053016  0.058932015            3 
 1088000    1.0587289   -4.6040196    772.91124  0.059199697  0.058923088            5 
 1089000    1.0948762   -4.5660551    772.95748  0.059148873  0.058914735            3 
 1090000    1.0693845   -4.5774816    773.31478  0.059121925  0.058905973            2 
 1091000     1.068478    -4.564914    775.95313  0.059269259  0.058897161            2 
 1092000    1.0647566   -4.5667369    778.69068  0.059423892  0.058888635            1 
 1093000    1.0736179   -4.6119647    775.43385  0.059121215  0.058879911            3 
 1094000    1.1096583   -4.5816006    775.28322  0.059055699  0.058871195            2 
 1095000    1.0764001   -4.5825948    775.15846  0.058992273  0.058862494            5 
 1096000    1.0875908   -4.5760405    775.12065  0.058935572  0.058853865            2 
 1097000    1.0995481   -4.6064874    777.34206  0.059050597  0.058844892            5 
 1098000    1.0823396   -4.5711267    778.71068  0.059100689  0.058835747            8 
 1099000    1.0681787   -4.5927241    779.18315  0.059082738  0.058826344            6 
 1100000    1.0682831   -4.5874415    775.47767  0.058748308  0.058816781            3 
 1101000    1.0669794   -4.5726831    776.34361  0.058760491   0.05880704            2 
 1102000    1.0673581   -4.5768236    775.89655  0.058673363  0.058797578            3 
 1103000    1.0785021   -4.5337029    781.23432  0.059023445  0.058787907            2 
 1104000     1.069132    -4.600144    781.29934   0.05897489  0.058778493            2 
 1105000    1.0879749   -4.6174766    777.49564  0.058634664  0.058768497            1 
 1106000    1.0719134    -4.627323     780.2435   0.05878869  0.058758241            7 
 1107000    1.0766017    -4.595153      782.862  0.058932701  0.058748414            2 
 1108000    1.0911476   -4.6065111     779.2599  0.058608597  0.058738676            2 
 1109000    1.0617065   -4.5962006    784.95333  0.058983568  0.058728997            3 
 1110000    1.0800954   -4.5735324    788.04912  0.059162847  0.058719001            4 
 1111000      1.06666   -4.5840485    783.93946   0.05880134  0.058709154            1 
 1112000    1.0733789   -4.6044491    784.54945  0.058794174  0.058699269            2 
 1113000    1.0764391   -4.6147155    783.26161  0.058644925  0.058689994            1 
 1114000    1.0830137   -4.5673866    789.34246  0.059047162  0.058680619            3 
 1115000    1.0792979    -4.601439    785.44876  0.058703196  0.058670861            2 
 1116000    1.0640206   -4.6286124    788.49168  0.058877813  0.058661774            9 
 1117000    1.0730505   -4.5831742     789.6805  0.058913795   0.05865212            2 
 1118000    1.0766979   -4.5684114    788.78762  0.058794545  0.058642562            3 
 1119000    1.0652724   -4.5823039    789.02486  0.058759671  0.058633632            2 
 1120000    1.0933312    -4.600642    788.48142  0.058666772  0.058624216            2 
 1121000     1.087674   -4.6144116    789.50466  0.058690504  0.058614837            2 
 1122000    1.0817751    -4.577795    790.00531  0.058675379  0.058604938            1 
 1123000    1.0730998   -4.6125211     788.5207  0.058512964   0.05859521            4 
 1124000    1.0751322   -4.6056137    788.48992  0.058458624  0.058585315            5 
 1125000    1.0754772   -4.6009653    790.67256  0.058568338  0.058575135            2 
 1126000    1.0660916   -4.5965577    790.40488  0.058496513  0.058565195            4 
 1127000    1.0558052   -4.6033726    788.21138  0.058282415  0.058554995            4 
 1128000    1.0943943   -4.5864566    793.22249  0.058600953  0.058545092            7 
 1129000    1.0789893   -4.6038734    793.07917  0.058538469  0.058535037            2 
 1130000    1.0581244   -4.6178042    794.38737   0.05858314  0.058524422            4 
 1131000    1.0822789   -4.6197768    789.96074  0.058205183  0.058513894            2 
 1132000    1.0675281   -4.5980788    792.54307  0.058343865  0.058503723            3 
 1133000    1.0708249   -4.6067933    794.45915    0.0584333  0.058493701            2 
 1134000     1.081573   -4.5981431    795.10156   0.05842898   0.05848306            2 
 1135000    1.0708247   -4.6067016    794.68568  0.058346967  0.058472245            3 
 1136000    1.0714724   -4.5742066    797.47226  0.058500019  0.058462137            2 
 1137000    1.0529163   -4.6238939     795.1961  0.058281743  0.058452364            2 
 1138000    1.0907775   -4.6090358     798.2478  0.058453998   0.05844251            4 
 1139000    1.0779948   -4.6018648    800.44601  0.058563507  0.058432815            3 
 1140000     1.104286   -4.6173908     795.7484  0.058168743  0.058422917            4 
 1141000     1.072873   -4.5665169    804.42757  0.058751648  0.058413295            2 
 1142000    1.0891882   -4.6132946    800.28976   0.05839826  0.058404058            2 
 1143000    1.0714164   -4.5979403    802.43696  0.058503716  0.058394845            8 
 1144000    1.0845695   -4.6375068    801.49626  0.058384052  0.058385771            2 
 1145000     1.081291   -4.6279386    802.63716  0.058416096  0.058376386            7 
 1146000    1.0529585    -4.601655    803.70618  0.058442858  0.058366683            4 
 1147000     1.060139   -4.5980605    804.51321  0.058450539  0.058357275            3 
 1148000    1.0743688   -4.6098699    806.10246  0.058514987  0.058347521            3 
 1149000     1.078852   -4.6287706    805.39844     0.058413  0.058338097            4 
 1150000    1.0925903   -4.6445342    804.09444  0.058267713  0.058328846            3 
 1151000    1.0683687   -4.5879329    807.38109  0.058455046  0.058319301            2 
 1152000    1.0746489   -4.6016196    808.10432   0.05845662    0.0583102            3 
 1153000      1.07912   -4.6325222    806.21204  0.058269156  0.058301159            5 
 1154000    1.0557265   -4.5826655    811.84941  0.058625752  0.058292144            4 
 1155000    1.0727273   -4.6267493    811.31975  0.058536778  0.058282822            5 
 1156000    1.0755307   -4.6086672    811.00212  0.058463244  0.058273623            3 
 1157000    1.0704054   -4.5704876    813.64984  0.058603417  0.058264593            2 
 1158000    1.0805595    -4.602435    810.99566  0.058361806  0.058254803            2 
 1159000    1.0418941   -4.6198333    810.02509  0.058241666  0.058245579            3 
 1160000    1.0385022   -4.5929483    813.08307   0.05841114   0.05823616            4 
 1161000    1.0441926   -4.6211012    812.83976  0.058343365  0.058226706            3 
 1162000    1.0920989   -4.6241267    815.83773  0.058508156  0.058217336            2 
 1163000     1.070728   -4.6186156     812.1598   0.05819431  0.058208129            2 
 1164000    1.0860406   -4.5951933    816.58922  0.058461427  0.058198844            3 
 1165000    1.0807703   -4.5875875    817.51476  0.058477451   0.05818951            2 
 1166000    1.0716455   -4.6359828     815.0273  0.058249521  0.058180454            5 
 1167000    1.0654602   -4.6224382    817.09112  0.058346981  0.058171869            2 
 1168000    1.0852107   -4.6080396     818.7518  0.058415511  0.058162898            5 
 1169000    1.0769902   -4.5661881    819.12921  0.058392444  0.058153667            3 
 1170000    1.0641482   -4.6527881    816.33497  0.058143517   0.05814474            5 
 1171000    1.0871706   -4.6249765    821.24071  0.058442977   0.05813592            2 
 1172000    1.0516148    -4.631793    820.18993  0.058318397  0.058127067            4 
 1173000    1.0701091   -4.6152595     823.4888  0.058503041  0.058118117            2 
 1174000    1.0619294   -4.6367326    820.10217  0.058212818  0.058109238            3 
 1175000    1.0635248   -4.6073994     821.8375  0.058286347  0.058100195            1 
 1176000    1.0382956   -4.6302781    823.79883  0.058375768  0.058091186            3 
 1177000    1.0586771   -4.5870266    821.05513  0.058131912  0.058082477            5 
 1178000    1.0709009   -4.5918122     822.4402  0.058180546  0.058073773            4 
 1179000    1.0673606   -4.6164642    826.64837  0.058428638  0.058064727            4 
 1180000    1.0594249   -4.6253184    823.07755  0.058126945  0.058055566            3 
 1181000    1.0611585   -4.6490305    826.06246  0.058288347  0.058046441            2 
 1182000    1.0643244   -4.6354159    824.47718  0.058127269  0.058037489            4 
 1183000    1.0602254   -4.6202783    827.79245  0.058311669  0.058028679            3 
 1184000    1.0759344   -4.5921677    824.48559  0.058029673  0.058019567            5 
 1185000    1.0623051   -4.6282639    827.92932  0.058222878  0.058011017            2 
 1186000    1.0374257   -4.5942044    830.67835  0.058366944  0.058002331            3 
 1187000    1.0850588   -4.6239385    829.03574  0.058202453  0.057993614            6 
 1188000    1.0627667   -4.6034604     833.1742  0.058443757  0.057985213            3 
 1189000    1.0742097   -4.6143456    835.56119    0.0585619  0.057976803            2 
 1190000    1.0734547   -4.6142784    828.42744  0.058013126  0.057968084            2 
 1191000    1.0672244    -4.573522      834.038  0.058356983  0.057959445            3 
 1192000    1.0684786   -4.6432921    831.44877  0.058127011   0.05795098            8 
 1193000    1.0554327   -4.6221199    835.51922  0.058362617  0.057942467            2 
 1194000     1.059966   -4.6082125    837.65606  0.058462874  0.057934097            1 
 1195000    1.0987797   -4.5944144    836.99033  0.058367527  0.057925902            5 
 1196000    1.0643199   -4.6278288    832.23464  0.057987363  0.057917629            8 
 1197000    1.0676489   -4.6313365    836.36212  0.058226268  0.057909296            2 
 1198000    1.0564276   -4.6001974    835.06008  0.058087095  0.057901323            4 
 1199000    1.0432533   -4.6072369    836.77088  0.058157553   0.05789299            2 
 1200000    1.0381213   -4.5957893    840.09366  0.058339838  0.057884665            3 
 1201000    1.0844618   -4.6267792    837.29831  0.058097302  0.057876687            3 
 1202000    1.0783145   -4.6321589    835.86769  0.057949785  0.057868631            2 
 1203000    1.0556087   -4.6272528    840.53568  0.058224971  0.057860174            7 
 1204000    1.0728128   -4.5846274    840.42606  0.058169024  0.057851977            2 
 1205000    1.0831863   -4.6373959    841.55414  0.058198765  0.057843678            2 
 1206000    1.0610594   -4.6298402    844.81444   0.05837579  0.057835465            2 
 1207000    1.0525973   -4.6519571    842.29014  0.058153144  0.057827396            2 
 1208000    1.0615985   -4.6227043    845.03112  0.058294089  0.057819648            3 
 1209000    1.0670887   -4.6582488    842.52497   0.05807313  0.057811693            5 
 1210000    1.0507329   -4.6320846    842.38391  0.058015421  0.057803447            7 
 1211000    1.0488308   -4.5962793    845.15297  0.058158063  0.057795142            4 
 1212000    1.0756719   -4.6098177    847.82596  0.058293864  0.057787356            5 
 1213000    1.0711808   -4.6276216    846.49587  0.058154429  0.057779338            3 
 1214000    1.0402296   -4.6255371    849.51801  0.058313976  0.057771041            3 
 1215000    1.0808578   -4.6693973    847.61289  0.058135315  0.057763188            4 
 1216000     1.078721   -4.6127982    848.47117  0.058146325   0.05775511            2 
 1217000    1.0427421   -4.6526063     847.9006  0.058059477  0.057747014            3 
 1218000    1.0985384   -4.6129983    849.43634  0.058116881  0.057739048            9 
 1219000    1.0433982   -4.6085838    851.96987  0.058242403  0.057731113            6 
 1220000    1.0282565   -4.6583989    848.03705  0.057926028  0.057723176            2 
 1221000    1.0411424   -4.6186966    850.28026  0.058031686  0.057715081            4 
 1222000    1.0964031   -4.6364947    851.36073  0.058057879  0.057707088            5 
 1223000    1.0432825   -4.6029379    851.84803  0.058043611  0.057699186            5 
 1224000    1.0559625   -4.6393916     852.1264  0.058015142  0.057691204            3 
 1225000    1.0690225   -4.6506641     850.9828  0.057889986  0.057683392            1 
 1226000    1.0479564   -4.6260657    851.07743    0.0578492  0.057675437            7 
 1227000    1.0623882   -4.6275663     854.3034  0.058021149   0.05766721            3 
 1228000     1.061036   -4.6248085    855.08387  0.058026864  0.057658768            3 
 1229000    1.0549981   -4.6483065    854.63658  0.057949321  0.057650841            3 
 1230000    1.0409547    -4.666156    854.08025  0.057864516  0.057641985            3 
 1231000    1.0509734   -4.6639674    853.25231  0.057761461  0.057633553            4 
 1232000     1.065687   -4.6397097    858.36046  0.058060096  0.057624872            2 
 1233000    1.0362256   -4.6506468    855.74774  0.057836425    0.0576161            1 
 1234000    1.0502448   -4.6409077    855.39596  0.057765799  0.057607357            2 
 1235000    1.0688619   -4.6331896    856.15535  0.057770267  0.057598114            2 
 1236000    1.0425733   -4.6203862     858.2272  0.057863215  0.057589847            1 
 1237000    1.0725906   -4.6556346    855.82774  0.057654792  0.057580665            6 
 1238000    1.0605573   -4.6634941    855.13716  0.057561737  0.057571537            3 
 1239000    1.0566752   -4.6627068    857.18309  0.057652884  0.057562168            2 
 1240000    1.0415439   -4.6446596    858.68869  0.057707573  0.057552713            2 
 1241000    1.0513733     -4.61216    860.56247  0.057786897  0.057543705            3 
 1242000    1.0499685   -4.6672076    859.21933   0.05765025    0.0575343            1 
 1243000    1.0743841   -4.6476052    860.49855  0.057689632  0.057525355            4 
 1244000      1.05036   -4.6414101    858.00087  0.057475943  0.057515983            3 
 1245000    1.0382843   -4.6641063    857.67971   0.05740828  0.057506789            3 
 1246000    1.0354512    -4.677465    861.86276  0.057641971  0.057497354            6 
 1247000    1.0333321   -4.6577093    860.66158  0.057515476  0.057487985            5 
 1248000    1.0774157   -4.6434814    863.51578  0.057659975   0.05747848            4 
 1249000    1.0430324    -4.609083    866.05546  0.057783257  0.057469452            5 
 1250000     1.036674    -4.663904    863.27042  0.057551361  0.057460154            2 
 1251000     1.034124   -4.6504626     862.0095  0.057421363  0.057450323            6 
 1252000    1.0541194   -4.6590459    861.03369  0.057310549  0.057440564            2 
 1253000     1.021633   -4.6284911    863.61435  0.057436442  0.057430758            8 
 1254000    1.0650759   -4.6507119     866.8907  0.057608366  0.057421567            4 
 1255000    1.0529386   -4.6325205    866.15807  0.057513816  0.057412138            2 
 1256000    1.0343176   -4.6604433    862.92948  0.057253814  0.057402425            5 
 1257000    1.0358095   -4.6646973     864.1258  0.057287576  0.057392977            2 
 1258000    1.0334436   -4.6136152    870.05529  0.057634823   0.05738359            2 
 1259000     1.040788   -4.6466268    867.09757  0.057393273  0.057374396            2 
 1260000    1.0614594   -4.6229121    873.34109  0.057760654  0.057365217            3 
 1261000    1.0635556   -4.6446112    870.75786  0.057544135  0.057356301            6 
 1262000     1.053654    -4.645823    868.99819  0.057382342  0.057346838            3 
 1263000    1.0598957    -4.611932    869.76114  0.057387249  0.057337512            3 
 1264000    1.0352027   -4.6521704    866.42641  0.057121994  0.057328003            3 
 1265000    1.0339757   -4.6203496    869.79835  0.057298969  0.057318279            1 
 1266000    1.0765668    -4.633252    871.55895  0.057369599  0.057308381            4 
 1267000    1.0548106   -4.6156132    871.25206  0.057304135   0.05729866            5 
 1268000    1.0262258    -4.653935    870.86451  0.057233472  0.057289235            4 
 1269000     1.043955   -4.6106457    875.16545  0.057470807  0.057280168            2 
 1270000    1.0457213   -4.6480725    874.18955  0.057361519   0.05727073            5 
 1271000    1.0632671   -4.6516201    873.76807  0.057288754  0.057261221            4 
 1272000    1.0485851   -4.6619891    873.52597  0.057227854  0.057252053            3 
 1273000     1.085634   -4.6379422    879.72109  0.057588445  0.057242882            4 
 1274000    1.0431912   -4.6265202    877.08449   0.05737078  0.057233782            4 
 1275000    1.0168165   -4.6481035    877.19653  0.057333107   0.05722456            3 
 1276000    1.0440188   -4.6542194    876.49127  0.057242116  0.057215296            3 
 1277000    1.0386785    -4.659315    878.88228   0.05735332  0.057205664            4 
 1278000    1.0597662   -4.6421226    873.84221    0.0569798  0.057196056            5 
 1279000    1.0620676   -4.6506265    878.23171  0.057221247  0.057186639            4 
 1280000    1.0553292      -4.6507    878.47199  0.057192187  0.057176878            5 
 1281000    1.0445013   -4.6743351    877.50566  0.057084678  0.057166947            3 
 1282000    1.0539859   -4.6462057    881.56376  0.057303937  0.057157123            2 
 1283000     1.055907   -4.6029652    881.04838  0.057225797  0.057147182            2 
 1284000    1.0590661   -4.6673294    880.07952  0.057118349   0.05713782            3 
 1285000    1.0375085   -4.6814344    879.23359  0.057019039  0.057127846            2 
 1286000    1.0487624   -4.6455258    882.97589  0.057217204  0.057118107            2 
 1287000    1.0254601   -4.6525894    879.95591  0.056977202  0.057108288            2 
 1288000    1.0317015   -4.6796748    880.18931  0.056948066   0.05709815            7 
 1289000    1.0307201   -4.6342398    882.27162  0.057038506  0.057088241            6 
 1290000    1.0337172   -4.6416448    884.20891  0.057119439  0.057078435            4 
 1291000    1.0564998   -4.6897345    884.78878  0.057112625  0.057068994            5 
 1292000    1.0409216   -4.6351218    886.09136  0.057152435  0.057059701            3 
 1293000    1.0451827   -4.6407205    884.55854  0.057009444  0.057050497            5 
 1294000     1.042676   -4.6274886    887.95886  0.057184368  0.057041349            2 
 1295000    1.0584122   -4.6425522     888.4075   0.05716908    0.0570323            3 
 1296000    1.0447853   -4.6157728    894.33523  0.057506124  0.057023164            2 
 1297000    1.0540124   -4.6275627    890.84553   0.05723757  0.057014541            4 
 1298000    1.0645925   -4.6467608    888.72485  0.057057322  0.057005283            3 
 1299000     1.027138   -4.6567589    891.08016  0.057164496  0.056996208            4 
 1300000    1.0315152   -4.6581756    893.04916  0.057246741  0.056986822            2 
 1301000     1.051115   -4.6939322    892.74835  0.057183471  0.056977174            5 
 1302000    1.0467502   -4.6505253    893.70587  0.057200836  0.056967657            4 
 1303000    1.0215087   -4.6512176    891.85083  0.057038298  0.056958419            7 
 1304000    1.0425173   -4.6546201    893.05515   0.05707152  0.056949159            3 
 1305000    1.0398197   -4.6635113    893.11714  0.057031746  0.056940208            2 
 1306000    1.0251054   -4.6321848    895.09896  0.057114533   0.05693052            3 
 1307000    1.0631806   -4.6698252    892.99839  0.056936903  0.056920983            3 
 1308000    1.0454597   -4.6487883    893.65307  0.056935084  0.056911079            5 
 1309000    1.0253291   -4.6689465    895.18692  0.056989236  0.056901461            3 
 1310000    1.0406476   -4.6794415    894.66655   0.05691263  0.056892298            3 
 1311000    1.0604114   -4.6937154    893.94509  0.056823359  0.056882972            2 
 1312000     1.050425   -4.6442757    895.90979  0.056904839  0.056873544            3 
 1313000    1.0340369   -4.6582445    892.67239  0.056656029  0.056864076            3 
 1314000     1.036401    -4.690105    895.02223  0.056761938  0.056854641            3 
 1315000    1.0581569    -4.689514    897.51599  0.056876805  0.056845308            4 
 1316000    1.0442218   -4.6548409    899.65745   0.05696919  0.056836442            6 
 1317000     1.064917   -4.6298158    904.23857  0.057215804  0.056827448            4 
 1318000    1.0384741   -4.6645137    902.95608  0.057091305  0.056818193            2 
 1319000    1.0523217   -4.6387036     900.5255  0.056894459   0.05680904            4 
 1320000    1.0606107   -4.6340819    900.47566  0.056848211  0.056800138            4 
 1321000    1.0604565   -4.6619025    903.90679  0.057021625  0.056790853            5 
 1322000    1.0570025    -4.680168     902.6175   0.05689722  0.056781889            8 
 1323000    1.0624708   -4.6573149    903.54102  0.056912385  0.056772849            5 
 1324000    1.0535007   -4.6674801    900.97056  0.056707614  0.056763384            1 
 1325000    1.0386679   -4.6667427    905.99285  0.056980682  0.056754289            3 
 1326000    1.0506297   -4.6429304    908.58018  0.057100313  0.056745476            2 
 1327000    1.0356098   -4.6254016    911.10272  0.057215695  0.056736438            3 
 1328000    1.0388588   -4.6619634    908.51277  0.057010089  0.056727668            3 
 1329000    1.0226899   -4.6712709    907.67759  0.056914823  0.056718777            4 
 1330000    1.0537003   -4.6375534    910.33129  0.057038301   0.05670982            5 
 1331000    1.0325313   -4.6161334    914.95474   0.05728492  0.056701145            4 
 1332000    1.0378707   -4.6854278    903.74593  0.056540661  0.056692457            4 
 1333000    1.0297394   -4.6538067     909.6549  0.056867648  0.056683902            2 
 1334000    1.0418444     -4.67166    911.88431  0.056964287  0.056675397            4 
 1335000    1.0358678   -4.6605163    908.35359  0.056701223   0.05666683            4 
 1336000     1.029733   -4.6750472    911.00875  0.056824398  0.056658095            3 
 1337000    1.0118262   -4.6530698    916.33812  0.057114069  0.056649321            6 
 1338000    1.0406601   -4.6355019     913.6108  0.056901519  0.056640572            4 
 1339000    1.0600404   -4.6547884    914.77264  0.056931332   0.05663166            2 
 1340000    1.0606764    -4.655776    914.94143  0.056899343  0.056622776            4 
 1341000    1.0200202    -4.664896    915.66118  0.056901639  0.056613826            2 
 1342000    1.0336531   -4.6702748    914.72403  0.056801045  0.056604941            5 
 1343000    1.0237473   -4.6811472    914.73617  0.056759504  0.056596435            3 
 1344000    1.0447917   -4.6925827    911.55443  0.056519992  0.056587657            4 
 1345000    1.0242125   -4.6573448     915.9787  0.056752088  0.056578655            4 
 1346000    1.0421574   -4.6689266    917.95034  0.056831992  0.056569767            3 
 1347000     1.050895   -4.6940424    919.30208  0.056873427  0.056561141            3 
 1348000    1.0359701   -4.6556292    919.83526  0.056864197  0.056552654            2 
 1349000    1.0556142   -4.6718663     917.0296  0.056648728  0.056544243            2 
 1350000    1.0093102   -4.6969225    918.46236  0.056695207  0.056535416            3 
 1351000    1.0137842   -4.6363288    920.77473  0.056795875   0.05652696            3 
 1352000    1.0346073   -4.6739369    924.98222  0.057013204  0.056518738            3 
 1353000    1.0412898   -4.6528211    920.68339  0.056706294  0.056510146            2 
 1354000     1.050968   -4.6657468     925.4332  0.056956746  0.056501779            2 
 1355000    1.0488533   -4.6445613    925.98306  0.056948528  0.056493401            5 
 1356000     1.017154   -4.6392293    924.43144  0.056811175  0.056484925            5 
 1357000    1.0255814    -4.637704    927.19482  0.056939009  0.056476348            3 
 1358000    1.0315962   -4.6502594    923.57416  0.056674899  0.056468144            3 
 1359000     1.006104   -4.6568194    925.64774  0.056760347  0.056459914            2 
 1360000    1.0361959   -4.6461647    928.45833  0.056890829  0.056451643            6 
 1361000    1.0349518   -4.6402404    926.85034  0.056750572  0.056443182            4 
 1362000     1.058499   -4.6459266     929.2189  0.056853824  0.056434853            4 
 1363000    1.0442942   -4.6366175     929.1617  0.056808615  0.056426512            2 
 1364000    1.0394348   -4.6752959    927.70442  0.056677933  0.056418081            3 
 1365000    1.0384119   -4.6575835    926.58126  0.056567842  0.056409417            3 
 1366000    1.0411738   -4.6946304    925.35367  0.056451542  0.056400566            3 
 1367000    1.0428249   -4.6712173    929.28509  0.056649908  0.056391853            5 
 1368000    1.0483462   -4.6881612    928.31242  0.056549246    0.0563828            1 
 1369000    1.0103203   -4.6846002    929.73886  0.056594769  0.056373532            2 
 1370000    1.0491934   -4.6773806    928.58254  0.056483123  0.056364356            5 
 1371000    1.0163851   -4.6868643    929.82081   0.05651719  0.056355623            4 
 1372000    1.0300493   -4.6858581    927.38112  0.056327814    0.0563464            1 
 1373000    1.0262275   -4.6842461    931.33756  0.056526922  0.056337034            3 
 1374000    1.0384846   -4.6811263    930.95737  0.056462722  0.056328158            2 
 1375000     1.044639   -4.6641126    930.85602  0.056415516  0.056319046            3 
 1376000     1.018956   -4.6816588    932.72833  0.056487908  0.056309971            6 
 1377000    1.0063941   -4.6869201    934.18214  0.056534867  0.056300935            3 
 1378000    1.0399299   -4.6542882    933.13801  0.056430697  0.056291757            4 
 1379000    1.0450524   -4.6778447    933.13065  0.056389331  0.056282358            6 
 1380000    1.0225117   -4.6996287    931.92503  0.056275666  0.056273292            3 
 1381000    1.0436565   -4.6707797    931.76731  0.056225399  0.056263815            5 
 1382000    1.0314211    -4.699109    933.05761  0.056262519  0.056254716            2 
 1383000    1.0585266   -4.6779537    935.25139  0.056354025  0.056245339            3 
 1384000    1.0399047   -4.6461423    935.74171   0.05634283   0.05623603            2 
 1385000    1.0376969   -4.6932776    935.37306  0.056279968  0.056226291            3 
 1386000     1.033991    -4.646739    937.60323   0.05637345  0.056217136            4 
 1387000    1.0358805    -4.681091    934.96382  0.056174226  0.056207632            3 
 1388000    1.0038809   -4.6765074    939.07129  0.056380361  0.056198114            4 
 1389000    1.0315523    -4.677229    935.90963  0.056150086   0.05618838            4 
 1390000    1.0426508   -4.7002651    934.05643  0.055998587  0.056179089            3 
 1391000    1.0253743   -4.6900641    940.66269  0.056354103  0.056169825            6 
 1392000    1.0141529   -4.6412376    942.33887  0.056413965  0.056160803            3 
 1393000    1.0157624   -4.7104113    940.06997  0.056237734  0.056151648           10 
 1394000    1.0246767   -4.6695444    939.44696  0.056160148   0.05614244            4 
 1395000    1.0302762   -4.7000936      939.218  0.056106213  0.056133267            3 
 1396000    1.0134872   -4.7094395    941.99262  0.056231651  0.056124073            3 
 1397000    1.0187373   -4.6801947    942.68085  0.056232454  0.056114949            4 
 1398000    1.0367089   -4.6981841     943.4272  0.056236719  0.056105728            1 
 1399000    1.0448899   -4.6928837    942.23719  0.056125637  0.056096488            3 
 1400000    1.0331153   -4.6589569    944.23451  0.056204435  0.056087592            4 
 1401000     1.042891   -4.6963926    942.81932   0.05608014   0.05607822            5 
 1402000    1.0182006   -4.6636591    946.03255  0.056231131  0.056069189            2 
 1403000    1.0466804    -4.683365      945.954  0.056186386  0.056060188            6 
 1404000    1.0171535   -4.6743211    946.79399  0.056196224  0.056050935            4 
 1405000    1.0218014   -4.6710215    947.85952  0.056219426  0.056041939            3 
 1406000    1.0244825   -4.6513698    949.42253   0.05627208  0.056032971            2 
 1407000     1.013647   -4.6705976    945.69224  0.056011149  0.056023872            3 
 1408000    1.0263848   -4.6658644    947.98869  0.056107285  0.056014541            5 
 1409000    1.0084593   -4.6403449    949.47996  0.056155664   0.05600516            2 
 1410000    1.0295564   -4.6650699    948.00595   0.05602872  0.055995606            2 
 1411000   0.99701209   -4.6808736    950.58674  0.056141433  0.055986074            2 
 1412000    1.0021862   -4.6870756    950.16658  0.056076876  0.055976581            4 
 1413000    1.0284867   -4.7030762    949.85369  0.056018736   0.05596712            5 
 1414000    1.0440399   -4.6860524     950.4577  0.056014716  0.055957634            5 
 1415000    1.0164362   -4.6730657    949.96019   0.05594583  0.055947849            2 
 1416000    1.0138065   -4.6990294    949.87243  0.055901155  0.055938261            4 
 1417000    1.0145257   -4.6674034    952.72305  0.056029349  0.055928716            2 
 1418000    1.0024813   -4.6949277    949.69306  0.055811769  0.055918719            3 
 1419000    1.0173787   -4.6709999    949.52877  0.055762789  0.055908836            5 
 1420000    1.0051943   -4.6793886    951.52546  0.055840696  0.055898826            3 
 1421000    1.0783537   -4.6690739    950.02164  0.055713209  0.055888947            4 
 1422000    1.0305046   -4.6598224    954.32707   0.05592634  0.055878797            3 
 1423000    1.0281244    -4.721888    950.35525  0.055654442  0.055868357            3 
 1424000    1.0018516   -4.7070676      949.256   0.05555103   0.05585821            5 
 1425000    1.0156761    -4.710868    952.51226  0.055702471   0.05584777            3 
 1426000    1.0211006   -4.6789419    953.59538  0.055726705  0.055837466            2 
 1427000   0.99168791   -4.7105602    953.44325  0.055678769  0.055827244            9 
 1428000    1.0302645   -4.6890071    952.26937  0.055571275  0.055816775            2 
 1429000    1.0221263   -4.7002656    956.19162  0.055761116  0.055806637            3 
 1430000    1.0426748   -4.6954914    955.70299  0.055693647  0.055796585            5 
 1431000    1.0108367   -4.6686614    959.02497  0.055848181  0.055786592            3 
 1432000    1.0259101   -4.6847888     954.3649  0.055537995  0.055776559            3 
 1433000    1.0356099   -4.7102893    959.04747  0.055771544  0.055766378            3 
 1434000    1.0248178   -4.7033273    957.24883  0.055628128  0.055756466            4 
 1435000    1.0242387   -4.6973776    961.47322  0.055834682  0.055746297            2 
 1436000    1.0195405   -4.6833769    958.97186  0.055650642  0.055736289            5 
 1437000    1.0223348   -4.6823831    957.97154  0.055553905  0.055725798            5 
 1438000    1.0348418    -4.640792    959.00086  0.055574923  0.055715331            4 
 1439000    1.0180965   -4.6859596    958.51531  0.055508183  0.055704778            3 
 1440000    1.0399948    -4.701304    959.14785  0.055506242  0.055694211            5 
 1441000    1.0468159    -4.689567    960.84098  0.055565636  0.055683669            3 
 1442000    1.0287244   -4.6890024    958.70056  0.055403407  0.055673225            2 
 1443000   0.99504673   -4.6825299    957.38352  0.055288954  0.055662302            2 
 1444000    1.0161506   -4.6651981    962.33119  0.055536195   0.05565167            5 
 1445000    1.0038187   -4.6838944    963.25217  0.055550875  0.055641363            4 
 1446000     1.001735   -4.7114078    958.30833  0.055227543  0.055630795            3 
 1447000    1.0265428   -4.7001322    961.74263  0.055387159  0.055619773            2 
 1448000   0.98435284   -4.6721803    966.01737  0.055594922  0.055608953            3 
 1449000    1.0243242   -4.7037594    961.87133  0.055318112  0.055597931            9 
 1450000     1.007462   -4.6918322    963.53445  0.055375543  0.055586667            4 
 1451000    1.0376882   -4.7076381     961.0645  0.055195526   0.05557554            4 
 1452000    1.0285028   -4.7031672    963.12383  0.055275702  0.055564572            1 
 1453000     1.028527   -4.7158184    961.00845  0.055116337  0.055553673            5 
 1454000    1.0221408   -4.6982426    960.01311  0.055021384  0.055542319            9 
 1455000     1.040237   -4.7092185    962.70085  0.055137506   0.05553108            4 
 1456000    1.0409807   -4.7057566    963.91162  0.055168935  0.055519738            5 
 1457000    1.0383704   -4.6982682     965.9822  0.055249497  0.055508514            2 
 1458000    1.0242763   -4.6890659     960.6461  0.054906613  0.055497302            3 
 1459000    1.0256134   -4.6962039    965.77597  0.055161981  0.055485775            4 
 1460000    1.0106912   -4.6966936    961.73633  0.054893626  0.055474295            2 
 1461000    1.0194551   -4.7313745    964.70878  0.055025598  0.055462575            2 
 1462000    1.0230931   -4.7093242    966.08504  0.055066407  0.055450618            4 
 1463000    1.0081131    -4.691604    965.14996  0.054975504  0.055438739            2 
 1464000     1.010483   -4.7169036    963.80243   0.05486125  0.055426623            4 
 1465000     1.036305   -4.7332775    964.11039  0.054841319  0.055414538            5 
 1466000    1.0133392   -4.7106033    965.66587   0.05489233   0.05540236            2 
 1467000    1.0214558   -4.6716276      965.544  0.054847989  0.055390794            1 
 1468000    1.0269183   -4.6955695    966.16365  0.054845802  0.055378857            3 
 1469000    1.0060887   -4.6889821    966.89099  0.054849727  0.055367191            2 
 1470000     1.035733   -4.7028848    971.34079   0.05506467   0.05535544            5 
 1471000    1.0131909   -4.7132842     969.4851  0.054922111  0.055343637            6 
 1472000     1.007335   -4.7104454    968.77025   0.05484433  0.055331959            4 
 1473000    1.0018882   -4.7461927    967.54504  0.054737782  0.055320202            8 
 1474000    1.0233501   -4.6988928    973.16101  0.055018148  0.055308464            6 
 1475000    1.0334857   -4.6854055    974.11259   0.05503461  0.055297068            3 
 1476000     1.021768   -4.7138905    972.27448  0.054893546  0.055285787            5 
 1477000    1.0129561   -4.7390044    971.52003  0.054813814  0.055274528            3 
 1478000   0.99200759   -4.7068943    972.88545  0.054853713  0.055262488            2 
 1479000      1.00784   -4.6762664    975.20526  0.054947333  0.055251001            4 
 1480000    1.0313613   -4.6941625    973.16736  0.054795459  0.055239439            7 
 1481000    1.0388732   -4.7024834    974.88529  0.054855126  0.055228092            3 
 1482000    1.0156112   -4.6808973    977.44363  0.054961968  0.055216692            3 
 1483000    1.0259235   -4.7109888    971.65504  0.054599631  0.055205172            4 
 1484000    1.0387461   -4.7006308    974.72784  0.054735391  0.055193476            4 
 1485000    1.0285354   -4.7303261    975.54397  0.054744331  0.055182174            5 
 1486000    1.0389533   -4.6820063     977.4335  0.054813453  0.055170713            2 
 1487000    1.0294539   -4.7456189    974.74515  0.054625933  0.055159309            3 
 1488000    1.0329426   -4.7146273    974.51764  0.054576481   0.05514775            3 
 1489000    1.0038177   -4.6950513    979.30825  0.054807939  0.055136096            3 
 1490000    1.0156154   -4.7042986    977.94022  0.054694643  0.055124594            5 
 1491000   0.99994747   -4.7186595     977.7455  0.054647077   0.05511315            4 
 1492000   0.99955178   -4.7194335    981.81416  0.054837699  0.055101894            3 
 1493000    1.0114079   -4.7254609     977.3533  0.054551981  0.055090662            3 
 1494000   0.98873267   -4.7058613    982.92375  0.054826179  0.055079496            6 
 1495000    0.9778712   -4.7207053    981.45534  0.054707656  0.055068259            6 
 1496000    0.9983165   -4.7013845     985.0193  0.054869613  0.055056884            2 
 1497000    1.0003459    -4.689368    982.04008  0.054667116  0.055045716            2 
 1498000   0.99308732   -4.6988464    983.19491  0.054694866  0.055034336            2 
 1499000    1.0157028   -4.7252136    983.34275  0.054666597  0.055023284            3 
 1500000     1.011838   -4.7066308    981.98456  0.054554698  0.055011803            5 
 1501000   0.99122329   -4.7011279    989.03024  0.054909518  0.055000751            6 
 1502000    1.0015032    -4.677341     988.5255  0.054844957  0.054989725            3 
 1503000    1.0197205   -4.7152741    989.07923  0.054839168  0.054978503            3 
 1504000    1.0070863     -4.70139    989.34858  0.054817629  0.054967659            1 
 1505000     1.011529     -4.72374    986.42579  0.054619368  0.054956462            3 
 1506000    1.0358341   -4.7006752    985.10813  0.054510188  0.054945118            2 
 1507000     1.014691   -4.7052148    990.10737  0.054750463  0.054933763            3 
 1508000    1.0255361   -4.7041654    987.40322  0.054564722  0.054922464            3 
 1509000   0.99815757   -4.7326366    986.25173  0.054464973  0.054910958            3 
 1510000    1.0156294   -4.7123961    990.06354  0.054639268  0.054899777            5 
 1511000    1.0133755   -4.7155563    990.10622  0.054605461  0.054888645            3 
 1512000    1.0074634   -4.7244137    990.74258  0.054604419   0.05487771            3 
 1513000   0.99219609   -4.7268896    991.01063  0.054583092  0.054866591            2 
 1514000    1.0197966   -4.7031499     990.0823  0.054495943  0.054855528            2 
 1515000    1.0158647   -4.7539249    989.50111  0.054428004  0.054844199            1 
 1516000    1.0077286   -4.7054307     992.6092   0.05456295  0.054833172            4 
 1517000    1.0250696   -4.7439206    990.85373   0.05443055  0.054822225            2 
 1518000    1.0257306   -4.6918906     997.8116  0.054776658   0.05481131            5 
 1519000    1.0151881   -4.6953863    993.26758  0.054491309  0.054800308            6 
 1520000    1.0031533   -4.7336129    994.77842   0.05453829  0.054789237            3 
 1521000    0.9928475   -4.7195717    999.20194  0.054744792  0.054778568            4 
 1522000    1.0231904   -4.6937443    996.75486  0.054574839  0.054768163            4 
 1523000    1.0086876   -4.7281272    996.23241  0.054510418  0.054757349            3 
 1524000   0.99972941   -4.7140198     996.8921  0.054510723  0.054746464            2 
 1525000   0.99869063   -4.7291004    1000.3212  0.054662362  0.054735978            3 
 1526000    1.0178365   -4.7241282    998.48767  0.054526413  0.054725312            4 
 1527000   0.99312027   -4.6834668    1001.8621  0.054674857  0.054714681            3 
 1528000    1.0026113   -4.7006392    998.65308  0.054464064  0.054704261            6 
 1529000    1.0294949   -4.7153598    1002.6026  0.054643701  0.054693787            2 
 1530000   0.99091215   -4.6990474    1004.8599  0.054730932  0.054683187            4 
 1531000    1.0083164    -4.724936    1000.7437  0.054471136  0.054672366            2 
 1532000   0.98828886   -4.7001107    1000.0079  0.054395558  0.054661704            7 
 1533000     1.010808   -4.6959043    1002.8186  0.054512862  0.054651163            2 
 1534000     1.014297   -4.7300543    1001.9279  0.054428936  0.054640569            2 
 1535000   0.99492265   -4.7481772    1001.2395   0.05435611  0.054629686            2 
 1536000    1.0141407   -4.7095835    1002.3484  0.054380882  0.054618919            6 
 1537000    1.0296351   -4.7312556    1000.3227  0.054235671  0.054608171            5 
 1538000    1.0220366   -4.7163901    1005.9267  0.054504047  0.054597398            2 
 1539000   0.98720448   -4.7209706    1005.1291  0.054425442  0.054586593            6 
 1540000    1.0015683   -4.7261802    1003.8047  0.054318437  0.054575645            7 
 1541000   0.99674456   -4.7407426    1003.8202  0.054284028  0.054564623            3 
 1542000   0.99606691   -4.7326222    1005.6023  0.054345129  0.054553865            3 
 1543000     1.012385   -4.7110504    1006.6793  0.054368076  0.054542921            3 
 1544000    0.9968078   -4.7226022    1004.0624  0.054191623  0.054531674            4 
 1545000    1.0045443    -4.697739    1009.5717  0.054453703  0.054520807            3 
 1546000    1.0014165   -4.6989093    1008.8762  0.054380994  0.054509893            5 
 1547000    1.0183586   -4.7103393    1011.9869   0.05451341  0.054499069            4 
 1548000    1.0004777   -4.7093676    1008.9624  0.054315377  0.054488492            5 
 1549000   0.98947777    -4.710184    1011.5569  0.054419888  0.054477784            4 
 1550000    1.0020427   -4.7320308    1010.0794  0.054305343  0.054467202            4 
 1551000   0.98526967   -4.7302565    1008.8467  0.054204097  0.054456442            2 
 1552000    1.0017189    -4.711158    1008.9139  0.054172784  0.054445475            3 
 1553000    1.0386134   -4.7160422    1013.7027  0.054394864  0.054434496            1 
 1554000   0.99145265   -4.6885439    1010.2219  0.054173203  0.054423819            3 
 1555000   0.99687022   -4.6784917    1013.1603  0.054295834  0.054413044            3 
 1556000    1.0260089    -4.746916    1010.1523  0.054099847  0.054402445            3 
 1557000    1.0006055   -4.7384899    1012.9918  0.054217075  0.054391801            2 
 1558000     1.020164   -4.7435539    1011.5392  0.054104579   0.05438129            3 
 1559000    1.0117995   -4.7344195    1013.5476  0.054177228  0.054370356            4 
 1560000    1.0212581   -4.7330072    1016.8748  0.054320234  0.054359652            6 
 1561000   0.99695676   -4.7134737    1011.9428  0.054022146  0.054349214            4 
 1562000   0.97618944   -4.6755559    1018.4653  0.054335537  0.054338533            3 
 1563000   0.99922552   -4.7366266    1014.3265   0.05408011  0.054327709            4 
 1564000    1.0089276   -4.7078503    1013.2652   0.05398898  0.054317064            2 
 1565000   0.98987226   -4.7216703    1012.8713  0.053933509  0.054306255            4 
 1566000    1.0063612   -4.7360799    1015.6088   0.05404474  0.054295227            2 
 1567000   0.99297018   -4.7169013    1016.5903   0.05406245  0.054284615            2 
 1568000   0.98680342   -4.7402397    1015.4523  0.053967489  0.054273758           12 
 1569000    0.9887731   -4.7276575     1016.926  0.054011364  0.054262798            2 
 1570000    1.0043781   -4.7416161    1017.4915  0.054006981  0.054251818            3 
 1571000   0.98206713   -4.7376042    1021.6566  0.054193541  0.054240739            2 
 1572000   0.96119936    -4.733855    1018.5956  0.053996796  0.054229675            2 
 1573000   0.98418425   -4.7377428    1017.3956  0.053898899  0.054218467            2 
 1574000    1.0035079   -4.7438804    1014.1494  0.053692789  0.054207365            4 
 1575000    1.0172598   -4.7158823    1020.7926  0.054010188  0.054196319            3 
 1576000    0.9866021   -4.7664923    1021.3496  0.054005373  0.054185402            3 
 1577000   0.99268307    -4.701155    1020.3315  0.053917327  0.054174313            7 
 1578000    1.0094618   -4.7230327    1020.6829  0.053901718  0.054163545            2 
 1579000   0.99190742   -4.7409219    1024.7318  0.054081267  0.054152559           11 
 1580000    1.0286843   -4.7067152    1025.5789  0.054091716  0.054142072            2 
 1581000    1.0081607   -4.6830023     1026.469  0.054104416  0.054131744            6 
 1582000    1.0125882   -4.7276504    1025.2265  0.054004769  0.054121315            4 
 1583000   0.99876927   -4.7145076    1021.8132  0.053790965  0.054110697            1 
 1584000    1.0069583   -4.7306718    1022.2504  0.053780006  0.054100181            4 
 1585000    1.0039285   -4.7391237    1025.2074  0.053901546  0.054089451            4 
 1586000   0.99209833   -4.7447434    1025.7218   0.05389459  0.054078898            4 
 1587000    1.0025384   -4.7275255    1028.4837  0.054005653  0.054068333            3 
 1588000   0.97630378   -4.7199319    1027.8338  0.053937541  0.054057545            3 
 1589000    1.0152788   -4.7284063    1028.9479  0.053962026  0.054047037            1 
 1590000   0.99473652    -4.744447    1030.1582  0.053991518  0.054036548            5 
 1591000   0.99495616   -4.7587685    1026.4833  0.053765099  0.054025854            5 
 1592000    1.0026752   -4.7163627    1028.0577   0.05381374  0.054015274            2 
 1593000    1.0269793   -4.7598134    1025.2136  0.053631176  0.054004574            7 
 1594000    1.0333724   -4.7627579    1029.8992   0.05384249  0.053993685            9 
 1595000   0.97290609   -4.6958139    1032.9586  0.053968581  0.053982662            2 
 1596000   0.98137541   -4.7126771    1029.4817  0.053753224   0.05397184            3 
 1597000    1.0011533    -4.746928    1030.2639  0.053760376  0.053961173            3 
 1598000    1.0145658   -4.7629314    1029.6622  0.053695361  0.053950589            7 
 1599000    1.0155521   -4.7277841    1035.5599  0.053969143  0.053939898            3 
 1600000   0.99947668   -4.7456187    1030.3671  0.053664951  0.053929494            6 
 1601000   0.98582585   -4.7175304    1033.7719  0.053808657  0.053918888            3 
 1602000   0.98321406   -4.7470134    1034.3075  0.053802926  0.053908398            3 
 1603000    1.0099656   -4.7595032    1032.2835  0.053664146  0.053897707            2 
 1604000   0.99077623    -4.746556    1029.8557  0.053504557  0.053887223            4 
 1605000   0.98975133    -4.717764    1035.1746  0.053747384  0.053876673            3 
 1606000    0.9958913   -4.7642771    1035.0304  0.053706436  0.053865924            4 
 1607000   0.99250576   -4.7132278    1035.8864  0.053717405  0.053855212            4 
 1608000   0.99002053   -4.7041513    1037.6451  0.053775139  0.053844752            3 
 1609000   0.98073176   -4.7442518    1040.1184  0.053869817  0.053834229            5 
 1610000    1.0002563   -4.7631644    1031.9011  0.053411032  0.053823324            6 
 1611000   0.98895293    -4.742223    1035.6865  0.053573687  0.053812744            1 
 1612000   0.98024551   -4.7545714    1036.3552  0.053575019  0.053802086            4 
 1613000   0.99046667   -4.7435996    1037.6996  0.053611265  0.053791165            3 
 1614000   0.99275484   -4.7433287     1037.335  0.053559223  0.053780052            3 
 1615000   0.99456927   -4.7400181     1039.755  0.053650931  0.053769091            2 
 1616000   0.98821371   -4.7363108    1039.5076   0.05360497  0.053758375            3 
 1617000     0.995888   -4.7382762    1039.0518   0.05354833   0.05374752            3 
 1618000     1.012393    -4.751174     1035.709  0.053343066   0.05373639            4 
 1619000   0.99276467    -4.758583    1038.0152  0.053428825  0.053725228            5 
 1620000   0.99523253   -4.7568662    1036.4693   0.05331632  0.053714495            1 
 1621000   0.98112043   -4.7760035    1038.3876   0.05338205  0.053703376            5 
 1622000    1.0076857    -4.755438    1037.3915  0.053297959  0.053692566            3 
 1623000    1.0003621   -4.7736545    1041.0497  0.053452952  0.053681799            3 
 1624000    1.0040393   -4.7633897    1043.7309  0.053557622  0.053670734            4 
 1625000   0.97443427   -4.7590078     1040.301  0.053348767  0.053660023            8 
 1626000   0.99270534   -4.7187501    1043.5275   0.05348132  0.053649049            2 
 1627000   0.99443821   -4.7516525    1043.4452   0.05344423  0.053638023            2 
 1628000   0.98821573   -4.7599582     1045.891  0.053536599  0.053626962            2 
 1629000   0.97696503   -4.7703098    1041.1645  0.053261943  0.053615906            4 
 1630000    1.0058038   -4.7564766    1041.7791  0.053260691  0.053605107            2 
 1631000    1.0067727     -4.74133    1044.8063  0.053382706  0.053594088            3 
 1632000   0.99533749   -4.7680219    1041.9003  0.053201606  0.053583157            2 
 1633000    1.0029613   -4.7365626    1045.6984  0.053362847  0.053572537            3 
 1634000   0.97989178   -4.7359644     1047.795  0.053437117  0.053561849            4 
 1635000    0.9935213   -4.7086847    1050.8862  0.053561987  0.053551562            7 
 1636000   0.98590007   -4.7508899    1049.2356  0.053445169  0.053541048            3 
 1637000   0.97481482   -4.7647045    1049.8764  0.053445144  0.053530517            3 
 1638000   0.96957886   -4.7719798    1051.5367  0.053496982  0.053520041            8 
 1639000   0.98826415   -4.7376992    1054.3707  0.053608433  0.053509656            2 
 1640000   0.98190857   -4.7412073    1053.1369  0.053513052  0.053499014            4 
 1641000   0.98058144   -4.7495481    1053.7559  0.053511879   0.05348858            2 
 1642000   0.98833916   -4.7634256    1051.8963  0.053384912  0.053478024            3 
 1643000   0.98472738   -4.7415973     1049.694   0.05324072  0.053467891            6 
 1644000    1.0066146   -4.7880954    1049.8423  0.053215851  0.053457512            4 
 1645000   0.98269025   -4.7511948    1054.5501   0.05342199  0.053447115            2 
 1646000   0.99795205   -4.7604513    1050.9306  0.053206287  0.053436706            3 
 1647000   0.96753724   -4.7370997    1055.7808  0.053419389  0.053426141            2 
 1648000   0.99364539   -4.8005972    1049.3212  0.053060335  0.053415405            3 
 1649000   0.99044295   -4.7787132    1052.5934   0.05319352  0.053404399            3 
 1650000   0.98505126   -4.7331021    1051.7126  0.053116796  0.053393382            4 
 1651000    0.9837071   -4.7408942    1058.1224  0.053408157  0.053382647            4 
 1652000   0.99037023    -4.736712    1056.5963  0.053298845  0.053372004            2 
 1653000   0.98047465   -4.7507289    1056.8554  0.053279661  0.053361265            4 
 1654000   0.99372335   -4.7474822    1058.5698  0.053333827  0.053350747            5 
 1655000   0.97036644   -4.7671206    1055.2063  0.053132242  0.053340435            3 
 1656000   0.99472521   -4.7520062    1055.6289  0.053121421  0.053330015            4 
 1657000    1.0028531    -4.750978    1056.9649  0.053156552  0.053319672            3 
 1658000    0.9857991   -4.7495332    1060.4173  0.053298013  0.053309917            3 
 1659000   0.99622233   -4.7332059    1062.9637  0.053393796  0.053299854            5 
 1660000   0.98151077   -4.7350489    1060.2683  0.053226319  0.053289563            4 
 1661000   0.96937628   -4.7482716    1058.5019  0.053105654  0.053279233            6 
 1662000   0.98508647   -4.7650416    1062.0146   0.05324983  0.053268915            4 
 1663000   0.97840319   -4.7376733    1060.8692  0.053160413  0.053258575            3 
 1664000   0.99049992   -4.7405628    1064.0955  0.053290041  0.053248253            4 
 1665000   0.97455793   -4.7411805    1059.8877  0.053047434  0.053237899            2 
 1666000    1.0006835   -4.7538651    1062.1484  0.053128672  0.053227834            2 
 1667000   0.97271616   -4.7686794    1059.4718  0.052962999  0.053217358            7 
 1668000   0.97676492   -4.7729355    1063.9036  0.053152659  0.053206911            4 
 1669000   0.96448827   -4.7607892    1063.3074  0.053091045  0.053196425            4 
 1670000   0.98228125   -4.7801275    1065.0509  0.053146254  0.053186147            4 
 1671000   0.99342294   -4.7668841    1070.5137  0.053386878  0.053176163            2 
 1672000   0.98873106   -4.7520551    1068.0456  0.053231937  0.053166222            3 
 1673000   0.98451557   -4.7523289    1067.8163    0.0531887   0.05315607            3 
 1674000   0.99820717   -4.7613888    1071.9103  0.053360726  0.053146211           16 
 1675000   0.96580976   -4.7426606    1072.5211  0.053359258   0.05313613            3 
 1676000   0.98225456   -4.7797474    1068.1621  0.053110684  0.053126227            3 
 1677000   0.97328228   -4.7870327    1069.3706  0.053139066  0.053116414            3 
 1678000   0.99138051   -4.7508312    1072.4026  0.053257974  0.053106397            3 
 1679000   0.99495585   -4.7338122    1073.4885  0.053280154  0.053096689            3 
 1680000   0.98583088   -4.7346254    1076.1438  0.053380151  0.053087382            3 
 1681000   0.99461738   -4.7862679      1071.53   0.05311967  0.053077708            4 
 1682000   0.97225943   -4.7674008    1071.3843  0.053080871  0.053067786            9 
 1683000   0.99346136   -4.7747719    1070.1575  0.052988589  0.053057782            3 
 1684000   0.97817175   -4.7635823    1068.8277  0.052891318   0.05304781            3 
 1685000   0.99859961   -4.7621198    1072.6313  0.053048036  0.053037663            5 
 1686000   0.97279652   -4.7573369    1070.9091  0.052931451  0.053027996            3 
 1687000   0.98834918    -4.760481    1072.4374   0.05297557  0.053018019            2 
 1688000   0.98533588   -4.7860371    1073.3895  0.052991188  0.053008136            5 
 1689000   0.97675066   -4.7614737    1076.4401  0.053110329  0.052998073            6 
 1690000   0.97625867   -4.7382071    1077.9029  0.053151031  0.052988151            4 
 1691000   0.98946112   -4.8182209    1070.4403  0.052751836  0.052978138            5 
 1692000    0.9798955   -4.7539088    1077.5184  0.053069266  0.052967826            5 
 1693000   0.99393604   -4.7529021    1078.8395  0.053102951  0.052957932            3 
 1694000   0.98331299   -4.7685976     1073.218  0.052795061  0.052948044            1 
 1695000   0.98435555   -4.7158916    1078.9997  0.053048166  0.052937982            3 
 1696000   0.97681543   -4.7806036    1078.2472  0.052979912  0.052927774            9 
 1697000   0.97984842   -4.7919879    1081.0437   0.05308602   0.05291801            4 
 1698000    1.0143411   -4.7608409    1080.5226  0.053029179  0.052908327            2 
 1699000     0.983892   -4.7625659    1079.4921  0.052947427   0.05289864            2 
 1700000   0.97016929    -4.770955    1084.0998  0.053142148   0.05288891            4 
 1701000   0.98982806   -4.7956552    1080.7728  0.052947913  0.052879229            6 
 1702000   0.99466039   -4.7345256    1080.7287  0.052914645  0.052869331            6 
 1703000   0.97492455   -4.7648778    1078.7059  0.052784589  0.052859621            3 
 1704000   0.97025061   -4.7299613    1085.0045  0.053061645  0.052849921            5 
 1705000   0.97885612   -4.7605989    1085.9886  0.053078622  0.052840107            8 
 1706000   0.94792075   -4.7209836    1088.6912  0.053179524  0.052830279            2 
 1707000   0.97398291   -4.7669618    1083.3198  0.052886146  0.052820127            3 
 1708000   0.97469399   -4.7686094    1083.6194  0.052869797  0.052810233            3 
 1709000   0.97163698   -4.7667473    1085.8693  0.052948573  0.052800247            2 
 1710000   0.99304739   -4.7602912    1089.5708  0.053097994  0.052790497            2 
 1711000   0.97347376    -4.771289     1086.385  0.052911794  0.052780676            3 
 1712000   0.99380474     -4.75346    1087.6157  0.052940795  0.052770824            5 
 1713000   0.97427879   -4.7989956    1083.1572  0.052692996  0.052760976            6 
 1714000   0.98647403   -4.7722435    1086.6347  0.052831324  0.052751291            2 
 1715000   0.97347896   -4.7998269    1085.2883  0.052735099  0.052741669            4 
 1716000   0.98066282   -4.7941335    1085.3936  0.052709477  0.052731639           10 
 1717000   0.99607919   -4.7653304    1088.6543  0.052837035  0.052721829            2 
 1718000   0.96006532   -4.7427094    1089.0343  0.052824714  0.052711801            4 
 1719000   0.96996483   -4.7883221    1082.0989  0.052457773  0.052701807            3 
 1720000   0.96264994   -4.7889789    1087.6349  0.052695488  0.052691536            2 
 1721000   0.99547558   -4.7813248    1090.0024  0.052779508   0.05268163            3 
 1722000   0.96593698   -4.7853426    1090.6028  0.052777912  0.052671922            3 
 1723000   0.96563154   -4.7866445     1084.471  0.052450717  0.052662274            7 
 1724000   0.98346155   -4.7592464    1092.7483  0.052820393  0.052652508            2 
 1725000   0.97815169   -4.7677052    1096.9855  0.052994468  0.052642777            5 
 1726000   0.97305959   -4.7765934     1091.802    0.0527135  0.052633195            4 
 1727000   0.97254041   -4.7948129    1092.8782  0.052734908  0.052623711            3 
 1728000   0.98099758   -4.7895129    1093.5743  0.052737957  0.052614046            3 
 1729000   0.97631461    -4.807379     1094.143  0.052734865  0.052604359            2 
 1730000   0.97574912   -4.7527486    1094.6936  0.052730903  0.052594816            2 
 1731000   0.97582634   -4.7652258    1096.9544  0.052809283  0.052585233            3 
 1732000   0.98331327   -4.7894325    1096.7758  0.052770197  0.052575538            6 
 1733000   0.99314127   -4.7778123    1094.0407  0.052608226  0.052565936            4 
 1734000   0.99072271   -4.7715182      1101.83  0.052952232  0.052556418            2 
 1735000   0.99404864    -4.745126     1102.379  0.052948078  0.052546848            4 
 1736000   0.98731882   -4.7664075    1098.6323  0.052737726   0.05253738            2 
 1737000   0.98030822   -4.7564656     1098.578  0.052704759   0.05252771            4 
 1738000   0.97841776   -4.8170834    1097.7602  0.052635222  0.052517944            4 
 1739000   0.97472337   -4.7786137    1097.1295  0.052574732  0.052507982            2 
 1740000   0.98934898   -4.7654562     1099.132  0.052640424  0.052498302            3 
 1741000   0.96652606   -4.7940826    1097.2923  0.052522129  0.052488769            9 
 1742000   0.95851161   -4.7688802    1102.1395  0.052723859  0.052479106            3 
 1743000   0.97162313   -4.7984736     1100.736  0.052626504  0.052469305            4 
 1744000   0.96987404   -4.8108438    1099.5007  0.052537305  0.052459308            7 
 1745000   0.96896948   -4.7986008    1101.3264  0.052594385   0.05244965            5 
 1746000   0.96326208   -4.7598787    1102.4648  0.052618593   0.05243953            4 
 1747000   0.95072464   -4.7820617     1098.685  0.052408176  0.052429908            4 
 1748000   0.97407071   -4.7689995    1105.2847  0.052692825  0.052420525            3 
 1749000   0.97213613   -4.7642076    1104.0941  0.052605972  0.052410983            3 
 1750000   0.99379751   -4.7616004    1104.1952  0.052580724  0.052401451            2 
 1751000   0.97185668   -4.8099171    1103.5693  0.052520906  0.052391796            2 
 1752000   0.95037698   -4.7658303    1106.6634    0.0526381  0.052382003            4 
 1753000   0.97278944   -4.7836382    1105.2476  0.052540768   0.05237226            4 
 1754000   0.96160373    -4.752304    1103.8367  0.052443781  0.052362619            3 
 1755000   0.96041819   -4.8104392    1099.6123   0.05221331  0.052352796            5 
 1756000   0.94696162   -4.7886234    1107.4542  0.052555725  0.052342788            4 
 1757000   0.98356002   -4.7848859    1104.5426  0.052387716  0.052333208            4 
 1758000   0.96956574   -4.7924576    1103.2013  0.052294338  0.052323463            7 
 1759000   0.97517509   -4.7770572    1107.2132  0.052454671  0.052313756            5 
 1760000   0.97744351   -4.7658282    1109.4817  0.052532278  0.052304216            2 
 1761000   0.99331008   -4.7941439     1112.227  0.052632359  0.052294565            2 
 1762000   0.95178486   -4.7830954    1108.6701  0.052434267  0.052284813            3 
 1763000   0.96413366   -4.7867583    1110.2843  0.052480821  0.052275163           11 
 1764000   0.96069894   -4.7756423    1103.5061   0.05213086  0.052265416            4 
 1765000   0.96397098   -4.8052388     1107.632  0.052296129   0.05225546            3 
 1766000   0.97007034   -4.7726242    1110.4189  0.052398025  0.052245718            4 
 1767000   0.94701941   -4.7583244    1114.3778  0.052555073  0.052236199            4 
 1768000   0.96891408   -4.7765881    1115.0563  0.052557331  0.052226641            5 
 1769000   0.96356623   -4.7584291    1115.3413  0.052541043  0.052217106            4 
 1770000    0.9724149   -4.8178919    1105.0196  0.052025403  0.052207773            5 
 1771000   0.97444568   -4.7889833    1109.6885  0.052215721  0.052198177            5 
 1772000   0.95611259   -4.7832179    1112.9558  0.052339908  0.052188703            2 
 1773000   0.98317754   -4.8049917    1115.1314  0.052412643  0.052179492            3 
 1774000   0.96954421   -4.7722044    1116.3127  0.052438588  0.052170171            3 
 1775000   0.94498164   -4.7879592    1118.0767  0.052491862  0.052160954            4 
 1776000   0.98015611   -4.7982937     1115.028  0.052319255  0.052151893            3 
 1777000   0.97556525   -4.7851072    1115.2535  0.052300387  0.052142548            4 
 1778000   0.96677396    -4.798099    1118.7949  0.052436955  0.052133298            7 
 1779000   0.95797459   -4.7777962    1122.1323  0.052563814  0.052124006            5 
 1780000    0.9516404   -4.7705569    1120.5434  0.052459898  0.052114794            3 
 1781000   0.96187952   -4.7439065     1121.865  0.052492281  0.052105549            5 
 1782000   0.95943956   -4.8066215    1115.2186  0.052152013  0.052095948            4 
 1783000   0.94568203   -4.7733212    1116.4592  0.052180743  0.052086355            2 
 1784000    1.0021228   -4.7909548    1119.9479  0.052314457  0.052076972            3 
 1785000   0.95437994   -4.8135678    1117.5213  0.052171864  0.052067472            2 
 1786000   0.96336378   -4.7923293    1120.5047  0.052281856  0.052058004            3 
 1787000   0.95936104   -4.8190655    1119.5341  0.052207335  0.052048401            4 
 1788000    0.9539271   -4.7904233    1123.4824  0.052362153  0.052039145            6 
 1789000   0.95459004    -4.794868    1123.3098  0.052324847   0.05203003            6 
 1790000   0.95775228   -4.7706056    1125.3763  0.052391818  0.052021074            3 
 1791000   0.95884571   -4.7683553    1124.9832  0.052344278  0.052011855            3 
 1792000   0.94564273   -4.8108337    1125.0295   0.05231722   0.05200252            4 
 1793000   0.97247885   -4.8061132    1126.4233  0.052352821  0.051993488            5 
 1794000   0.95601707    -4.804541    1124.1429  0.052217713  0.051984197            4 
 1795000   0.96866349   -4.8067617    1124.4356   0.05220221  0.051974676            4 
 1796000    0.9698893   -4.7562041      1124.69  0.052184949  0.051965007            5 
 1797000   0.96997293   -4.7666442    1127.8017  0.052300209  0.051955713            3 
 1798000   0.96462056   -4.8518674    1119.8408   0.05190215   0.05194622            4 
 1799000   0.99195687   -4.8192465    1122.7979  0.052010281  0.051936768            4 
 1800000    0.9447676   -4.7793098    1126.1316  0.052135724  0.051927122            4 
 1801000   0.98289098   -4.7652146    1128.1483  0.052200088  0.051917482            4 
 1802000   0.94362097   -4.8252257    1124.5701  0.052005645  0.051907935            3 
 1803000   0.96842694   -4.8152263    1124.9812  0.051995804  0.051898456            2 
 1804000   0.95674946   -4.8113172    1125.1361  0.051974138  0.051888894            9 
 1805000    0.9365416   -4.8505421     1122.583  0.051827472  0.051879356            3 
 1806000   0.95541115   -4.8204525    1124.9739  0.051909096  0.051869611            4 
 1807000   0.96944598   -4.8061977      1127.12  0.051979338  0.051860106            4 
 1808000    0.9735975   -4.7881327    1131.1931  0.052138324  0.051850839            4 
 1809000   0.96791304   -4.8145471    1129.1435  0.052015086  0.051841791            2 
 1810000   0.95438359   -4.7745252    1129.1515  0.051986717  0.051832599            3 
 1811000   0.96767919   -4.7917282    1131.2462  0.052054397  0.051823372            6 
 1812000   0.96134154   -4.7848191     1133.867    0.0521462  0.051814274            5 
 1813000   0.98039041   -4.7978975    1132.6651  0.052062195  0.051805196            2 
 1814000   0.97721169   -4.8028248    1131.7586  0.051991851  0.051795985            3 
 1815000   0.93374701   -4.7990373    1135.0986  0.052116557  0.051786832            6 
 1816000   0.95318373   -4.7974811     1137.241  0.052186168  0.051777799            3 
 1817000   0.97338993    -4.793228    1137.2288  0.052156886  0.051768621            4 
 1818000   0.95584712   -4.8360945    1130.6345  0.051825932  0.051759323            4 
 1819000   0.96219845   -4.7880832    1138.9378  0.052177837  0.051750255            2 
 1820000    0.9619317   -4.7901038    1136.3074  0.052028727  0.051741247            6 
 1821000    0.9221772   -4.8082946    1132.9751  0.051847661  0.051732004            6 
 1822000   0.96565407   -4.8046769    1135.8813  0.051952128  0.051722686            4 
 1823000   0.94058392   -4.8111233     1135.207  0.051892803  0.051713371            4 
 1824000   0.97082502   -4.8253011     1138.021  0.051992919  0.051704106            2 
 1825000   0.95755189    -4.792684    1136.4896  0.051894503  0.051695061            3 
 1826000   0.94738988   -4.8058711     1138.244  0.051946149  0.051685984            2 
 1827000    0.9669441   -4.8099587    1137.0919  0.051865165  0.051676824            3 
 1828000   0.96020064    -4.801246    1140.4859  0.051991514  0.051667485            2 
 1829000   0.95082073   -4.7881347    1138.5117  0.051873143  0.051658408            3 
 1830000   0.95004213   -4.7851138    1140.9381  0.051955285  0.051649074            4 
 1831000   0.96138121   -4.8313943    1140.5569   0.05190956  0.051639837            2 
 1832000   0.94774096    -4.808146    1137.5299  0.051743535  0.051630585            3 
 1833000    0.9634568   -4.8193257    1142.1594  0.051925777  0.051621305            5 
 1834000   0.94710451   -4.8440022    1142.4715  0.051911644  0.051612041            3 
 1835000   0.94982634   -4.8232657    1140.3535  0.051787169  0.051602736            4 
 1836000   0.94873032    -4.828172    1140.2001     0.051752   0.05159352            3 
 1837000   0.94795792   -4.7964643    1142.8439  0.051843761  0.051584415            2 
 1838000   0.96468277   -4.8302382    1142.8665  0.051816581  0.051575409            6 
 1839000   0.94176216   -4.7943632    1148.3103  0.052035086  0.051566425            4 
 1840000   0.92483658   -4.8377115    1141.5456  0.051700434  0.051557212            3 
 1841000   0.96471971   -4.7957236    1149.2411  0.052020693  0.051548033            2 
 1842000   0.96264989   -4.7959759    1147.4247  0.051910273  0.051539121            6 
 1843000   0.96490527   -4.7932011     1148.103  0.051912779  0.051530004            4 
 1844000   0.95802162     -4.83509    1145.6094  0.051771937  0.051520961            2 
 1845000   0.92382151   -4.7875612    1149.3305  0.051911946  0.051511857            4 
 1846000   0.94031376   -4.8075818    1143.8116  0.051634685  0.051502657            6 
 1847000   0.96064136   -4.8211709    1145.2383  0.051671103  0.051493192            5 
 1848000   0.94549581   -4.8223912    1147.0626  0.051725404  0.051484019            4 
 1849000    0.9519298   -4.8242588    1149.2486  0.051795953  0.051474998            4 
 1850000    0.9435867   -4.7989948    1149.7055  0.051788538  0.051465826            3 
 1851000     0.952943   -4.7751864    1153.0962  0.051913209    0.0514567            3 
 1852000   0.95659721   -4.8298894    1146.9858  0.051610231  0.051447617            6 
 1853000   0.96259678   -4.8017252    1147.6897  0.051614038  0.051438397            5 
 1854000   0.97376343   -4.8280116    1148.9202  0.051641503  0.051429021            4 
 1855000   0.94979633   -4.8275857    1146.1151  0.051487649  0.051419876            2 
 1856000   0.94706795    -4.806892    1151.7954   0.05171495  0.051410764            2 
 1857000   0.96937421   -4.8229114    1152.3555  0.051712238  0.051401623            3 
 1858000   0.95573116   -4.8094059    1152.9071  0.051709144  0.051392498            2 
 1859000   0.97391553   -4.8180577    1151.9685  0.051639256  0.051383631            4 
 1860000   0.94285287   -4.8447398     1148.868  0.051472579   0.05137453            3 
 1861000    0.9599174   -4.7886329    1154.6712  0.051704782  0.051365452            2 
 1862000   0.94298105   -4.8286983    1150.5496  0.051492552  0.051356224            4 
 1863000   0.94812983   -4.8273346    1156.8444  0.051746485  0.051347075            6 
 1864000   0.95764369   -4.7863876    1156.8306  0.051718106  0.051338075            4 
 1865000   0.95423771   -4.8396641    1155.8062  0.051644602  0.051329169           11 
 1866000   0.95777407   -4.7619131    1159.8501  0.051797522  0.051320398            4 
 1867000   0.95290081   -4.8048525    1158.1746   0.05169499  0.051311564            8 
 1868000   0.95959713   -4.8423038    1154.3383  0.051496178  0.051302681            6 
 1869000   0.95164197   -4.8230464    1157.4723   0.05160836  0.051293504            4 
 1870000   0.95105129   -4.8273464    1161.1535  0.051744808  0.051284632            2 
 1871000   0.94729693   -4.8424333    1157.6942  0.051563076  0.051275504            2 
 1872000   0.96975819   -4.8197856    1155.3321  0.051430383  0.051266323            3 
 1873000   0.96022467   -4.7907644    1157.9919  0.051521264  0.051257031            6 
 1874000   0.95988989    -4.827602    1152.4304  0.051246458  0.051247737            5 
 1875000   0.93010042   -4.7963499    1163.6138  0.051716171  0.051238453            5 
 1876000   0.95163326   -4.8157967    1156.2747  0.051362592  0.051229268            4 
 1877000   0.92868243   -4.8188018     1158.036  0.051413427  0.051220141            3 
 1878000   0.95282794   -4.8088971     1159.357  0.051444667  0.051211041            7 
 1879000    0.9294217   -4.8125872    1160.6019  0.051472498  0.051201919            4 
 1880000   0.92688279   -4.7940107    1165.2272  0.051650144  0.051192875            3 
 1881000   0.97586194   -4.8430117    1161.9318  0.051476689  0.051183864            5 
 1882000   0.94541672    -4.806268    1162.6886  0.051482846  0.051174998            4 
 1883000   0.96774457   -4.8523753    1160.1898  0.051344921  0.051165991            3 
 1884000   0.94210655    -4.843771    1160.8321  0.051346077  0.051156564            2 
 1885000    0.9828526   -4.8112929    1162.7189  0.051402252  0.051147227            3 
 1886000   0.94450501   -4.8490751    1161.6775  0.051328983   0.05113776            7 
 1887000   0.96172715   -4.8411174    1163.9179  0.051400722  0.051128458            2 
 1888000   0.94310496   -4.8360788    1159.6393  0.051184645  0.051119059            9 
 1889000   0.94098961   -4.8468902    1164.3057  0.051363406  0.051109819            3 
 1890000   0.95180183   -4.8187441    1164.5842  0.051348509  0.051100793            3 
 1891000   0.94187829   -4.8174744    1165.0176  0.051340454  0.051091795            3 
 1892000   0.94002744   -4.8204471    1168.0027  0.051444799  0.051082642            1 
 1893000   0.92262129   -4.8669457    1164.1251  0.051246923  0.051073387            9 
 1894000   0.95898186   -4.8161662    1167.1188  0.051351586  0.051063853            5 
 1895000   0.95032185   -4.8349636    1164.8384  0.051224203  0.051054693            7 
 1896000   0.95971477   -4.8372383    1167.0362  0.051293783  0.051045481            7 
 1897000   0.95131635   -4.8425432    1166.3205  0.051235308  0.051036384            3 
 1898000   0.93271441   -4.8525855     1169.503  0.051348042  0.051027195            3 
 1899000   0.98863732   -4.8487708    1167.1391  0.051217268  0.051018124            2 
 1900000    0.9513656   -4.8464132    1167.9007  0.051223717  0.051009062            4 
 1901000   0.96384352   -4.7839253    1174.7277  0.051496039  0.050999944            3 
 1902000   0.96568657   -4.8413606    1170.9632  0.051304029  0.050991028            7 
 1903000   0.94036271   -4.8275555    1171.4954  0.051300377  0.050981937            6 
 1904000   0.94579382   -4.8433028    1168.2036  0.051129357  0.050972735            5 
 1905000   0.94986252    -4.831595    1173.7998  0.051347323   0.05096349            4 
 1906000   0.95115474   -4.8080319    1173.0086  0.051285792   0.05095447            2 
 1907000   0.94582874   -4.8380346    1170.6058  0.051153897  0.050945389            3 
 1908000   0.96072637   -4.8499148     1172.404  0.051205624  0.050936258            9 
 1909000   0.94493826   -4.7916882    1172.8157  0.051196773  0.050927324            3 
 1910000   0.96602429   -4.8591632    1170.0749  0.051050387  0.050918249            3 
 1911000   0.94907481   -4.8700553    1170.9153  0.051060322  0.050908894            8 
 1912000   0.94781689   -4.8234094    1171.2689   0.05104903  0.050899803            2 
 1913000   0.95363825   -4.8473423    1170.5399  0.050990585  0.050890562            3 
 1914000   0.92414335   -4.8459908    1170.2584  0.050951689  0.050881149            4 
 1915000   0.96859151    -4.803262    1172.7902  0.051035256  0.050871727            3 
 1916000    0.9513214   -4.8246906    1173.1841  0.051025754   0.05086231            1 
 1917000   0.94178433   -4.8210465    1175.0603  0.051080696   0.05085297            3 
 1918000   0.93293291   -4.8260184    1177.9879  0.051181262  0.050843754            6 
 1919000   0.93801644   -4.8704201    1172.2996  0.050907575  0.050834541            5 
 1920000   0.94272184   -4.8136559    1180.7926  0.051249679  0.050825046            8 
 1921000   0.95083703   -4.8351012    1174.0054  0.050928569  0.050815869            6 
 1922000   0.95190232   -4.7983358    1181.1033   0.05120982  0.050806658            3 
 1923000    0.9447728   -4.8532529    1175.8569  0.050955836  0.050797236            3 
 1924000   0.94287068   -4.8283359    1176.0839  0.050939185  0.050787786            3 
 1925000   0.93491238   -4.8342407     1175.682  0.050895326   0.05077846            6 
 1926000   0.95086013   -4.8619366    1182.2582  0.051153435  0.050769174            5 
 1927000   0.95128026   -4.8674358     1173.702  0.050756878  0.050759877            5 
 1928000   0.93571307   -4.8600479    1176.9515  0.050871002  0.050750606            4 
 1929000   0.95246579   -4.8263338    1182.2964   0.05107553  0.050741356            2 
 1930000    0.9370809   -4.8250339    1182.2655  0.051047734  0.050732053            7 
 1931000   0.94040702   -4.8625345    1178.4377  0.050856105  0.050722664            5 
 1932000   0.94565449   -4.8400331     1181.327  0.050954407  0.050713249            2 
 1933000   0.93444378    -4.842378    1177.1608  0.050748441  0.050703669            4 
 1934000    0.9507451   -4.8549961    1177.5811   0.05074031  0.050694084            4 
 1935000   0.93800151   -4.8581183    1178.4839  0.050752965  0.050684519            6 
 1936000   0.94432623   -4.8603349    1179.8244  0.050784453  0.050674792            2 
 1937000   0.93285071   -4.8515215    1183.3874  0.050911522   0.05066526            2 
 1938000   0.95770999   -4.8771756    1178.6951  0.050683485  0.050655507            3 
 1939000   0.93837315   -4.8404423    1181.8296  0.050792059  0.050646035            8 
 1940000   0.93371453   -4.8400396    1181.2386   0.05074049   0.05063642            4 
 1941000   0.92828732   -4.8303483    1183.3862  0.050806553  0.050626898            3 
 1942000   0.94347346    -4.808409    1186.5847  0.050917641  0.050617521            6 
 1943000   0.92562964   -4.8115667    1184.7373  0.050812202  0.050608149            4 
 1944000   0.94029373   -4.8232695    1186.1226  0.050845449  0.050598858            7 
 1945000   0.92727165   -4.8376313    1183.2055  0.050694322  0.050589402            5 
 1946000   0.93161925   -4.8081627    1187.0266  0.050831901  0.050579801            5 
 1947000   0.95608954   -4.8651963    1184.5161  0.050698345  0.050570405            2 
 1948000   0.92291454   -4.8460203    1187.5221  0.050800911  0.050561008            2 
 1949000   0.96073073   -4.8396396    1184.4189  0.050642162  0.050551599            3 
 1950000   0.95078051   -4.8280014    1188.2051  0.050777997  0.050542223            3 
 1951000   0.93851368   -4.8408085    1191.1054  0.050875849  0.050532614            2 
 1952000   0.90925866   -4.8146045    1186.6788   0.05066081   0.05052326            4 
 1953000   0.92963725   -4.8697997    1184.4919  0.050541555  0.050513982            3 
 1954000   0.92975778   -4.8573414    1184.9617  0.050535724  0.050504534            2 
 1955000   0.94707224   -4.8443482    1190.5517  0.050748156  0.050495138            4 
 1956000   0.96285285   -4.8506416    1190.6335  0.050725693   0.05048583            6 
 1957000   0.94455576   -4.8341396    1191.8363  0.050750992  0.050476694            3 
 1958000   0.93744127   -4.8553162    1192.0329  0.050733441  0.050467497            2 
 1959000   0.93701659    -4.845358    1191.5706  0.050687877  0.050458538            3 
 1960000   0.95595506   -4.8432384    1192.4307  0.050698583  0.050449351            5 
 1961000   0.93765724   -4.8569669    1196.6203  0.050850769  0.050440177            3 
 1962000   0.93466489    -4.882421      1190.61   0.05056957  0.050430934            5 
 1963000   0.94972068   -4.8469003    1191.2799   0.05057225  0.050421521            3 
 1964000    0.9318502   -4.8500176    1193.7781  0.050652501  0.050412238            7 
 1965000   0.91258802   -4.8531577    1193.9037  0.050632049  0.050403108            7 
 1966000   0.95432599   -4.8691176     1194.278  0.050622161  0.050393929            5 
 1967000   0.90791612   -4.8741996    1199.8226  0.050831326  0.050384724            2 
 1968000   0.93531118     -4.84584    1194.0216  0.050559857  0.050375401            5 
 1969000   0.94972833   -4.8650957    1195.0767  0.050578836  0.050366037            2 
 1970000   0.95031309   -4.8350303    1197.1893  0.050642524   0.05035688            6 
 1971000   0.93518854   -4.8620941    1197.1254  0.050614128  0.050347695            8 
 1972000   0.92555374   -4.8278019    1200.8747  0.050746903  0.050338625            6 
 1973000     0.974037   -4.8567794    1196.4448  0.050534078  0.050329492            4 
 1974000   0.91864639   -4.8482461     1199.936   0.05065586  0.050320475            4 
 1975000   0.93789134   -4.8510363    1197.6517  0.050533825  0.050311335            4 
 1976000   0.95246145   -4.8270631     1203.851  0.050769696   0.05030231            6 
 1977000   0.92217231   -4.8372229    1198.9851  0.050538911  0.050293143            5 
 1978000   0.93351857   -4.8735214    1198.0849  0.050475432  0.050284075            2 
 1979000   0.92106843   -4.8578742    1198.9431  0.050486064  0.050274618            4 
 1980000   0.92960787   -4.8757856    1197.9258  0.050417751  0.050265119            3 
 1981000   0.93661321   -4.8553292    1202.4328  0.050581895  0.050255698            4 
 1982000    0.9255316   -4.8688959    1200.7721  0.050486551  0.050246424            3 
 1983000   0.95720778   -4.8290576     1202.542  0.050535468  0.050237194            2 
 1984000   0.94803383   -4.8306903    1205.0584  0.050615694  0.050228185            2 
 1985000   0.92259456   -4.8675656     1205.995  0.050629515  0.050218978            5 
 1986000   0.95286947   -4.8576267    1201.9323  0.050433547  0.050209697            4 
 1987000   0.94973751   -4.8530446    1201.7313  0.050399736  0.050200381            4 
 1988000   0.93724194   -4.8358246    1207.7452  0.050626476  0.050191192            4 
 1989000   0.91013686   -4.8527585    1208.5175  0.050633381   0.05018221            1 
 1990000   0.95643725   -4.8908758    1203.7597  0.050408697  0.050173143            8 
 1991000    0.9014374   -4.8647412    1204.5041  0.050414537  0.050164087            3 
 1992000   0.91873787   -4.8692904    1207.3828  0.050509657  0.050155076            5 
 1993000    0.9260676    -4.894214    1202.1737  0.050266504  0.050145884            7 
 1994000   0.93485084   -4.8677351      1204.65  0.050344785  0.050136617            5 
 1995000   0.92572175   -4.8635579     1208.428   0.05047736  0.050127467            3 
 1996000   0.91753815   -4.8719781     1206.228  0.050360219   0.05011816            2 
 1997000    0.9351331   -4.8511074    1204.4317  0.050260043  0.050108906            6 
 1998000   0.94732473   -4.8759777    1204.9825  0.050257862  0.050099467            4 
 1999000   0.93497319   -4.8516943    1211.0297  0.050484815  0.050090331            3 
 2000000   0.94113179   -4.8777669    1207.0025  0.050291769   0.05008115            9 
 2001000   0.94304219   -4.8814508    1202.8125  0.050092142  0.050071812            8 
 2002000   0.91458767   -4.8614734    1209.1678  0.050331661  0.050062616            3 
 2003000   0.92953478   -4.8435417    1209.6187  0.050325291  0.050053421            4 
 2004000   0.92510899   -4.8902253    1208.9342  0.050271713  0.050044151            6 
 2005000   0.93706873   -4.8292288    1213.1001   0.05041979  0.050034997            4 
 2006000   0.94533361   -4.8435537    1211.0775  0.050310632  0.050025644            3 
 2007000   0.92436838   -4.8601356    1206.4142  0.050091937  0.050016492            3 
 2008000    0.9383363   -4.8650459    1210.8641  0.050251664   0.05000732            4 
 2009000   0.93183962   -4.8719433    1211.4744  0.050251965  0.049998276            9 
 2010000   0.91491092   -4.8496855    1214.2517  0.050342112  0.049989077            5 
 2011000   0.93400209   -4.8781095    1210.3432  0.050155115  0.049980145            7 
 2012000   0.93269269   -4.8721294      1213.87   0.05027626  0.049970914            5 
 2013000   0.91180089   -4.8692037    1213.4365  0.050233335  0.049961754            2 
 2014000   0.93786797   -4.8885071    1210.7825  0.050098581  0.049952745            5 
 2015000   0.95301068   -4.8421803    1218.8436  0.050407098  0.049943684            3 
 2016000   0.93059934   -4.8519249    1215.9207  0.050261271  0.049934589            2 
 2017000   0.93964983   -4.8817533    1210.8617   0.05002734  0.049925517            4 
 2018000   0.92216046   -4.8607417    1211.2642   0.05001917   0.04991644            2 
 2019000   0.91577053   -4.8789208    1211.1845  0.049991104  0.049907124            2 
 2020000   0.92443211   -4.8940255    1214.9645    0.0501223  0.049897876            5 
 2021000   0.93545437   -4.8641896    1214.7647  0.050089257  0.049888668            2 
 2022000   0.93170854   -4.8736806    1214.2951  0.050045132  0.049879614            6 
 2023000   0.93674164   -4.8415596    1216.3146  0.050103583  0.049870454            3 
 2024000   0.94228835   -4.8454034    1222.1208  0.050317886  0.049861516            3 
 2025000   0.91299603    -4.887379    1217.1189  0.050087196  0.049852562            1 
 2026000   0.93161849   -4.8893187    1215.8523  0.050010376  0.049843543            3 
 2027000   0.92546688   -4.8762009    1220.6994  0.050184976  0.049834543            3 
 2028000   0.91994368   -4.8539675    1219.2351  0.050100061  0.049825572            2 
 2029000   0.91563525    -4.878837    1216.0141  0.049943081  0.049816508            5 
 2030000   0.92279364   -4.8575496    1224.1242  0.050251403  0.049807656            3 
 2031000    0.9223665   -4.8673929     1221.942  0.050137123  0.049798715           11 
 2032000   0.92645446   -4.8573213     1225.923  0.050275713  0.049789958            5 
 2033000   0.93350949   -4.8720374      1222.19  0.050097965  0.049781133            9 
 2034000   0.93314015     -4.86244    1226.5558  0.050252205  0.049772444            4 
 2035000   0.93561119   -4.8775359    1222.0759   0.05004406   0.04976356            6 
 2036000   0.93210651   -4.8565555    1228.3296  0.050275442  0.049754897            3 
 2037000   0.93587213   -4.8514336    1229.9495  0.050317031  0.049746205            4 
 2038000   0.92446508   -4.8563645    1225.9229  0.050127694  0.049737454            6 
 2039000   0.92349193   -4.8581316    1228.5549   0.05021068   0.04972895            2 
 2040000    0.9323473   -4.8755799    1230.2513  0.050255362  0.049720387            3 
 2041000   0.91013913   -4.8536641    1227.9938   0.05013857  0.049711654            3 
 2042000   0.91906055   -4.8755955    1228.7804  0.050146117  0.049702875            5 
 2043000   0.91323906   -4.8483293    1229.0545  0.050132749  0.049694074            3 
 2044000   0.93360324   -4.8828568    1231.6993   0.05021605  0.049685249            3 
 2045000   0.92771125   -4.8996041    1227.9154  0.050037303  0.049676411            5 
 2046000   0.91446814   -4.8606952    1234.1737  0.050267746  0.049667775            6 
 2047000   0.93562597   -4.8855404    1228.4423  0.050009863  0.049658805            7 
 2048000   0.92136308   -4.8641126    1229.6898  0.050036208  0.049650134            4 
 2049000   0.92214328   -4.9015827    1229.9303  0.050021569  0.049641529            4 
 2050000   0.93356433   -4.8765283    1230.5638  0.050022918  0.049632743            4 
 2051000   0.92404292   -4.8928434    1232.0781  0.050060057  0.049624092            2 
 2052000   0.92524062   -4.8723433     1230.975  0.049990862   0.04961526            4 
 2053000   0.91494496   -4.8801328    1229.9963  0.049926784  0.049606606            3 
 2054000   0.90056838   -4.8773488    1232.8863  0.050019731  0.049597967            4 
 2055000   0.93410132   -4.8196228    1239.6321  0.050268941  0.049589649            3 
 2056000   0.92294094   -4.8730165    1234.3911  0.050032063  0.049581247            4 
 2057000   0.90726899   -4.8581252    1236.3551  0.050087307  0.049572726            4 
 2058000   0.93555018   -4.8867057    1234.1337  0.049973022  0.049564325            4 
 2059000   0.94205909   -4.8407759    1236.3934  0.050040206  0.049555952            3 
 2060000   0.90699238   -4.9067479    1238.0507  0.050082955  0.049547252            3 
 2061000   0.93053367   -4.8753489    1238.6132    0.0500814  0.049538713            5 
 2062000   0.91637824   -4.8736651    1235.1383  0.049916678   0.04953006            3 
 2063000   0.90538445   -4.8770007     1236.937  0.049965139  0.049521531            4 
 2064000   0.91331712   -4.8736331    1234.0867  0.049825853  0.049512762            3 
 2065000   0.91258045   -4.8471965    1236.3583  0.049893393  0.049504199            4 
 2066000   0.90324559   -4.8969971     1235.827  0.049847815  0.049495568            5 
 2067000   0.91541131   -4.8629208    1237.2814  0.049882335  0.049486933            3 
 2068000   0.90941011    -4.867683    1238.8693  0.049922201  0.049478249            9 
 2069000   0.92337775   -4.8701689    1237.3702  0.049837691  0.049469593            6 
 2070000   0.91483257   -4.8756349    1239.4899  0.049898948  0.049460952            2 
 2071000    0.9271415   -4.8581297     1240.919  0.049932358  0.049452326            6 
 2072000   0.94053165   -4.8913392    1234.1599  0.049636417  0.049443478            3 
 2073000    0.9112944   -4.8678994    1242.0027  0.049927751  0.049434653            5 
 2074000   0.90666008   -4.8728288    1236.4675  0.049681272  0.049425942            3 
 2075000   0.93082561   -4.8658862     1238.179  0.049726066  0.049417318            4 
 2076000   0.92428522   -4.8830912    1237.8499  0.049688901  0.049408486            2 
 2077000   0.93723206    -4.886889    1242.6176  0.049856267  0.049399658            3 
 2078000   0.91643839   -4.8796552    1241.4703  0.049786264  0.049391046            5 
 2079000   0.91333089   -4.8811823     1242.636  0.049809043  0.049382355            2 
 2080000   0.90526942   -4.8730291    1244.1547  0.049845941  0.049373466            2 
 2081000   0.91246172   -4.8441668     1240.828  0.049688771  0.049364737            8 
 2082000   0.91905012   -4.9115342    1241.6513  0.049697857  0.049356075            3 
 2083000    0.9217217   -4.8730528    1243.6546  0.049754146  0.049347283            3 
 2084000   0.92101871   -4.8945942    1237.0573  0.049466463  0.049338395           11 
 2085000   0.91363603   -4.8785485    1246.5389  0.049821698  0.049329627            2 
 2086000   0.91945685   -4.8728803    1245.0632  0.049738861  0.049320861            4 
 2087000   0.89846971      -4.9096    1240.9545  0.049550969  0.049311945            4 
 2088000   0.93336387   -4.8501038    1245.9422  0.049726301  0.049303205            2 
 2089000   0.91225835   -4.8950478     1244.067  0.049627693  0.049294187            6 
 2090000   0.90018022   -4.8798433    1244.6796  0.049628374  0.049285292            9 
 2091000    0.8972598   -4.8747609    1247.4044  0.049713231  0.049276437            2 
 2092000   0.90180677   -4.9023317    1244.0754  0.049556859  0.049267659            3 
 2093000   0.92142603   -4.8458855    1247.3822  0.049664844  0.049258652            2 
 2094000   0.91633283   -4.8734643    1246.6731  0.049612904  0.049249659            6 
 2095000   0.90811304   -4.8562736    1247.8928  0.049637739  0.049240573            6 
 2096000   0.90075254   -4.8685958     1247.359  0.049592834  0.049231541            3 
 2097000   0.91844413   -4.9032259    1244.6452  0.049461343  0.049222404            3 
 2098000    0.9185163   -4.8786526    1245.3056  0.049463998  0.049213306            2 
 2099000   0.92880413   -4.9224135    1244.2956  0.049400333  0.049204135            4 
 2100000   0.91572974   -4.8558991    1247.8873  0.049519337  0.049194979            6 
 2101000   0.91296261   -4.9029041    1243.9458  0.049339433  0.049185966            7 
 2102000   0.89346029   -4.8891533    1244.7408  0.049347478  0.049176857            7 
 2103000    0.9072028   -4.8778325    1245.9148  0.049370534  0.049167794            2 
 2104000   0.90828821   -4.8774194    1245.1421  0.049316467  0.049158784            3 
 2105000   0.91593121   -4.8842203    1251.5874  0.049548194  0.049149716            7 
 2106000   0.90544717   -4.9033303    1247.1911   0.04935071  0.049140557            4 
 2107000   0.91812005   -4.8850612    1249.4551  0.049416828  0.049131415            2 
 2108000   0.91575185   -4.9092696    1247.8673  0.049330617  0.049122324            5 
 2109000   0.91616481   -4.9102666    1246.2111  0.049241786   0.04911294            8 
 2110000   0.92306149   -4.8707448    1251.3449  0.049421206  0.049103892            3 
 2111000   0.93988104   -4.8797835    1251.7808     0.049415  0.049095005            3 
 2112000   0.91889752   -4.8595152    1255.6228  0.049543198  0.049085773            3 
 2113000   0.90910183   -4.8857892     1246.675  0.049166863  0.049076561            4 
 2114000   0.90438797   -4.9058051    1252.1207  0.049358276  0.049067364            8 
 2115000   0.91037887   -4.8506318    1248.2263  0.049181494  0.049058225            5 
 2116000   0.91700181   -4.8934395    1253.2635  0.049356627  0.049049064            3 
 2117000   0.92712159   -4.8917079    1251.0225  0.049245099  0.049039878            3 
 2118000   0.89943091   -4.9389628    1248.6235  0.049127459  0.049030503            3 
 2119000    0.9345988   -4.9110727    1249.6751   0.04914563  0.049021345            5 
 2120000    0.9196172   -4.8796652    1248.6826  0.049083434  0.049012006            3 
 2121000   0.91839441   -4.8565905    1252.0431  0.049192328  0.049002894            3 
 2122000   0.92272996   -4.9045691    1249.6631  0.049075679  0.048993561            5 
 2123000   0.91312555    -4.903979    1253.0002  0.049183552  0.048984188            2 
 2124000   0.90587864   -4.9064522    1245.9617  0.048884248  0.048974862            1 
 2125000   0.91657756   -4.8995386    1255.5071  0.049235573   0.04896548            6 
 2126000    0.9102386   -4.9069334    1251.1366  0.049041104  0.048956156            7 
 2127000   0.92048389   -4.8924783    1257.0389  0.049249292  0.048946802            3 
 2128000   0.91854831   -4.8899005    1257.0567  0.049226843  0.048937377            9 
 2129000   0.91074161   -4.9086491    1256.8985   0.04919753  0.048928024            4 
 2130000   0.91651118   -4.8948329    1254.5005  0.049080614  0.048918598            4 
 2131000    0.9035294   -4.9040297    1254.3198  0.049050517  0.048909212           10 
 2132000   0.94554102   -4.8930905     1255.388  0.049069262   0.04889964            3 
 2133000   0.93008208   -4.8837897    1255.4975  0.049050537  0.048890247            5 
 2134000   0.90336717     -4.87945    1255.9401  0.049044833  0.048880826            3 
 2135000   0.90492401   -4.8582718     1263.852  0.049330679  0.048871589            2 
 2136000   0.91126833   -4.9134335    1257.7578  0.049069825  0.048862139            3 
 2137000   0.91685162   -4.8937326    1256.9789   0.04901649  0.048852749            2 
 2138000   0.91949273   -4.8923277    1258.7312  0.049061866  0.048843297            3 
 2139000   0.90009049   -4.8906842    1255.4877  0.048912564  0.048834109            7 
 2140000   0.89339762   -4.9094629    1259.9938   0.04906518  0.048824833            2 
 2141000   0.90119453   -4.8875733    1259.4334  0.049020448  0.048815561            2 
 2142000    0.9061897   -4.9132069    1256.9396  0.048900545   0.04880616            2 
 2143000   0.89980477    -4.926149    1258.5981  0.048942218  0.048796754            6 
 2144000   0.91141365   -4.9089924    1254.0651  0.048743204   0.04878731            5 
 2145000   0.89849925   -4.9213469    1258.2088  0.048881461  0.048777871            5 
 2146000    0.9135791   -4.9022513    1256.6881  0.048799632  0.048768537            6 
 2147000   0.90271138   -4.8996507    1259.9046  0.048901746  0.048759221            2 
 2148000   0.90217121   -4.9162454    1260.1889  0.048890012  0.048749939            3 
 2149000   0.91874211   -4.9322355    1259.9917  0.048859613  0.048740569            2 
 2150000   0.93034046   -4.8952744    1261.4679  0.048894106   0.04873114            4 
 2151000   0.91525386   -4.9299909    1262.0953  0.048895681  0.048721803            3 
 2152000   0.91761919   -4.8971503    1261.1279  0.048835499  0.048712682            6 
 2153000   0.89678326   -4.8944327    1261.0623  0.048810278  0.048703481            8 
 2154000   0.90660254   -4.9073527    1263.7509  0.048891633  0.048694117            7 
 2155000   0.90016842   -4.9450995    1260.7692  0.048753644  0.048684769            4 
 2156000   0.91228342    -4.880238    1265.1219  0.048899268   0.04867533            4 
 2157000   0.91583875   -4.9293175    1264.6448  0.048858166  0.048665785            3 
 2158000   0.88949592   -4.9135353    1266.2393  0.048897098  0.048656453            4 
 2159000   0.88823174   -4.8907362    1262.4342  0.048727581  0.048647216            5 
 2160000   0.88880253   -4.9000365    1265.9237   0.04883965  0.048637943            5 
 2161000   0.90541406   -4.9288887    1267.2571  0.048868469  0.048628463            7 
 2162000   0.91623304   -4.9449487    1261.4109  0.048620525  0.048619009            7 
 2163000   0.92279857   -4.9010457    1266.2388  0.048784052   0.04860973           10 
 2164000   0.92696547   -4.9225506    1266.7044  0.048779437  0.048600443            5 
 2165000   0.90308958   -4.9144506    1265.8139  0.048722629  0.048590921            6 
 2166000   0.90058381   -4.9260402    1266.7288  0.048735332  0.048581442            4 
 2167000   0.90587163   -4.9209797    1272.1917  0.048922923  0.048572297            6 
 2168000   0.89561322   -4.9538995    1262.0363  0.048510007   0.04856287            5 
 2169000   0.90262131    -4.896936    1268.4023  0.048732221  0.048553428            3 
 2170000   0.88943214   -4.9393299    1270.4248  0.048787436  0.048544041            3 
 2171000   0.87393079   -4.8940897    1271.7528  0.048815938  0.048534808            4 
 2172000   0.90674488   -4.9053988    1269.1067  0.048691938  0.048525641            5 
 2173000    0.9017609   -4.8916806    1273.5591  0.048840277  0.048516482            6 
 2174000    0.9058453   -4.9235083    1271.9296   0.04875535  0.048507331            3 
 2175000    0.8930753   -4.8962857    1269.2143    0.0486289  0.048498003            5 
 2176000   0.90595026   -4.8999795    1270.7154  0.048664039  0.048488741            4 
 2177000   0.90905434   -4.8896898    1270.0463  0.048616072  0.048479292            6 
 2178000   0.92928224   -4.9039386     1270.545  0.048612833  0.048469741           11 
 2179000   0.91200271   -4.9147782    1269.9453  0.048567588   0.04846042            8 
 2180000   0.91201039   -4.9062726    1267.6675  0.048458236  0.048450948            4 
 2181000   0.89808776   -4.9056366    1272.9042  0.048636107  0.048441439            3 
 2182000    0.9076127    -4.915817    1269.2853  0.048475606  0.048431984            8 
 2183000   0.89277198   -4.8981986    1275.7023  0.048698363   0.04842256            3 
 2184000   0.90127882   -4.9247355    1272.3061   0.04854648  0.048413011            3 
 2185000   0.90993686   -4.9229599    1274.8015  0.048619433  0.048403447            4 
 2186000   0.90174507   -4.9021649    1274.1276  0.048571501   0.04839392            4 
 2187000    0.8924485   -4.9378062    1273.9598  0.048542898  0.048384489            5 
 2188000   0.89691093    -4.924084     1273.264   0.04849421   0.04837511            3 
 2189000   0.90458308   -4.9220505    1272.6528  0.048448789  0.048365675            4 
 2190000   0.91101042   -4.9075511    1276.9155  0.048588868  0.048356442            6 
 2191000   0.91226937   -4.9156252    1279.3695  0.048660031  0.048347099            4 
 2192000   0.90825129   -4.9316005    1275.4028   0.04848703  0.048337807            4 
 2193000   0.89840473   -4.9088819    1278.7594  0.048592467  0.048328548            3 
 2194000   0.92859423   -4.9282106    1276.4783  0.048483677  0.048319205           10 
 2195000   0.88708691   -4.9391475    1275.3591  0.048419099  0.048309911            4 
 2196000   0.91061784   -4.9414557    1280.5727  0.048594897  0.048300589            5 
 2197000   0.90812316   -4.9514877    1271.7295  0.048237351  0.048291177            5 
 2198000    0.9163262   -4.9525211    1278.1664   0.04845945  0.048281614            3 
 2199000    0.8916996   -4.9624427    1274.8653  0.048312313  0.048272309            3 
 2200000   0.91759626   -4.9546302    1277.3853  0.048385806  0.048262768            4 
 2201000   0.90119898   -4.9217849    1278.2438  0.048396326  0.048253433            7 
 2202000    0.8802492   -4.9288067    1278.1734  0.048371686  0.048244034            7 
 2203000   0.87712411   -4.9239488     1280.522   0.04843857  0.048234692            5 
 2204000   0.89898625   -4.9455276    1281.5662  0.048456074  0.048225344            5 
 2205000   0.89552081   -4.9328023    1276.3431  0.048236701  0.048216087            3 
 2206000   0.87366593   -4.9146188    1281.0882  0.048394083  0.048206808            8 
 2207000     0.889098   -4.9624102     1282.165  0.048412814   0.04819744            3 
 2208000   0.88663291   -4.9132001    1281.3996  0.048362001  0.048188069            4 
 2209000   0.88821984   -4.9190307    1280.8717  0.048320194  0.048178685            4 
 2210000   0.89552761   -4.9045344    1280.6963  0.048291715  0.048169351            5 
 2211000   0.88320264   -4.9407705     1283.428  0.048372835  0.048159964           13 
 2212000    0.9132073    -4.935871    1280.4301  0.048238022  0.048150551            4 
 2213000   0.90841695    -4.910296    1283.9745  0.048349697  0.048141369            7 
 2214000   0.91131198   -4.9098772    1283.7154  0.048318106  0.048131935            4 
 2215000   0.90966702   -4.9446034    1283.0763  0.048272248  0.048122485            4 
 2216000   0.90680317   -4.9289169    1283.0121  0.048248048  0.048113139            4 
 2217000   0.90837005   -4.9282607    1287.1852  0.048383145  0.048103795            1 
 2218000   0.89694065   -4.9298872    1283.4771  0.048222014  0.048094361            6 
 2219000    0.8693403   -4.8992129    1287.0159  0.048333179  0.048085086            3 
 2220000   0.90373363   -4.9158921    1287.6622  0.048335668  0.048075891            4 
 2221000   0.91319804   -4.9271298    1284.4263  0.048192491  0.048066634            2 
 2222000   0.90150197   -4.9277612    1287.8705  0.048299973  0.048057339            3 
 2223000   0.90413758   -4.9300759    1288.0769  0.048285984  0.048048109            3 
 2224000   0.89597787   -4.9159498    1290.4335  0.048352574  0.048038799            4 
 2225000   0.89746534   -4.9440364    1283.9687  0.048088714  0.048029483            4 
 2226000   0.89514143   -4.9616746    1283.8798  0.048063785  0.048020152            7 
 2227000   0.89133414    -4.902721    1290.1597  0.048277192  0.048010843            2 
 2228000   0.91196775   -4.9130226    1294.4832  0.048417235  0.048001598            5 
 2229000    0.8983017   -4.9389585    1285.7105  0.048067537  0.047992198            6 
 2230000   0.88888693   -4.9054739    1292.7059  0.048307394  0.047982825            3 
 2231000   0.89850553   -4.9800945    1285.3596   0.04801134  0.047973448            3 
 2232000   0.88968001   -4.9253576    1289.7092  0.048152227  0.047964236            6 
 2233000    0.9017548   -4.9345296    1291.1567  0.048184681  0.047955058            3 
 2234000   0.89610194   -4.9310756    1293.6064  0.048254491  0.047945893            5 
 2235000   0.90397417   -4.9059765    1291.6205  0.048158855  0.047936895            4 
 2236000   0.91072386   -4.9433984    1290.1399  0.048082136  0.047927704           11 
 2237000    0.9120884   -4.9119846     1297.627  0.048339556  0.047918659            5 
 2238000   0.88416043   -4.9411894    1293.9548  0.048181218  0.047909636            4 
 2239000   0.90317521   -4.9664959    1292.1004  0.048090682  0.047900364            4 
 2240000   0.89618186   -4.9480612    1289.2077  0.047961596  0.047891252            6 
 2241000   0.89955542    -4.922028    1293.3139  0.048092885  0.047881975            3 
 2242000   0.90111964   -4.9454246    1289.4742  0.047928718  0.047872754            3 
 2243000   0.88281763   -4.9544309    1294.4695  0.048092939  0.047863471            3 
 2244000    0.8762382   -4.9383151    1298.4776   0.04822035  0.047854313            6 
 2245000   0.91254266   -4.9271826    1292.5455  0.047978675  0.047845105            4 
 2246000   0.89059771    -4.946759    1295.6967  0.048074233  0.047836008            4 
 2247000   0.87419734   -4.9518141    1296.3315  0.048076381  0.047826726            2 
 2248000   0.88472432   -4.9522359    1294.2399  0.047977458  0.047817411            4 
 2249000   0.89241962   -4.9405727     1296.277  0.048031608  0.047808047            9 
 2250000   0.89445516   -4.9688534    1292.1205  0.047856313   0.04779865            3 
 2251000    0.8787523   -4.9483395    1294.7414  0.047932083  0.047789204            8 
 2252000   0.88842555   -4.9373093    1295.7895  0.047949583  0.047779884            6 
 2253000   0.88805477   -4.9581676    1294.5763  0.047883425  0.047770602            3 
 2254000   0.89561632   -4.9553578    1298.7698  0.048017223  0.047761339            4 
 2255000    0.8812365   -4.9609761    1298.4499  0.047984106  0.047752278            5 
 2256000   0.89239621   -4.9430702    1301.7319  0.048084067   0.04774307            4 
 2257000   0.88280947   -4.9598939    1296.6472  0.047875025  0.047733858            7 
 2258000   0.91252284   -4.9419933    1295.8523  0.047824486  0.047724599            4 
 2259000   0.90264792   -4.9410434    1298.1697  0.047888802  0.047715251            8 
 2260000   0.88731541   -4.9274875     1299.099  0.047901879   0.04770581            3 
 2261000   0.87530634   -4.9546449    1295.5809   0.04775103  0.047696437            3 
 2262000   0.88887001   -4.9384204    1301.0441  0.047931186  0.047687172            6 
 2263000   0.89166747   -4.9502951    1297.1233  0.047765625  0.047677965            5 
 2264000   0.90782676   -4.9380015    1306.0035  0.048071391  0.047668811            3 
 2265000   0.88066965   -4.9283857    1304.3042  0.047987647    0.0476598            4 
 2266000   0.88701177   -4.9833378    1298.2155  0.047742554  0.047650716            4 
 2267000    0.8989065   -4.9328384    1303.5263  0.047916713  0.047641571            4 
 2268000   0.88271828   -4.9684127    1304.7267  0.047939694  0.047632467            4 
 2269000   0.88653239    -4.958765    1303.5063  0.047873744  0.047623422            5 
 2270000   0.89856305   -4.9591507    1303.8443  0.047865064  0.047614367            6 
 2271000   0.87123821   -4.9507666    1303.5383  0.047832758  0.047605213            7 
 2272000   0.89403649   -4.9434081    1305.5894  0.047886933    0.0475962            3 
 2273000   0.88480429   -4.9426045    1304.2212  0.047815707  0.047586955            4 
 2274000   0.90882626   -4.9367468    1303.8768  0.047782056   0.04757777            7 
 2275000   0.89488902   -4.9466902    1304.7856  0.047794344  0.047568659            7 
 2276000   0.86378814   -4.9694335    1303.9884  0.047744158  0.047559346            6 
 2277000   0.90445275   -4.9443149    1303.2444  0.047695961    0.0475501            5 
 2278000   0.89271295   -4.9330889    1306.5295  0.047795198  0.047540767            3 
 2279000   0.88609767   -4.9788674    1303.1791  0.047651714   0.04753158            3 
 2280000   0.90050995   -4.9281702    1308.2456  0.047815993  0.047522498            4 
 2281000    0.8862606   -4.9775118    1303.2644   0.04761305  0.047513259            3 
 2282000   0.88919318   -4.9355632    1307.6749  0.047753248  0.047504012            1 
 2283000    0.8859668   -4.9599915    1310.3897  0.047831423  0.047494788            5 
 2284000   0.86912424   -4.9564196    1308.7554  0.047750855   0.04748554            4 
 2285000   0.88961538   -4.9556647    1306.8556  0.047660669  0.047476369            6 
 2286000   0.89514033   -4.9201089    1309.2071  0.047725542  0.047467176            2 
 2287000   0.88780636   -4.9539719    1307.7312  0.047650896  0.047458065            5 
 2288000   0.88293226   -4.9849561     1305.802  0.047559803  0.047448736            5 
 2289000   0.89369998   -4.9478887    1309.2131   0.04766321   0.04743959            4 
 2290000   0.86685641   -4.9468586     1310.756  0.047698543   0.04743048            4 
 2291000   0.87009518   -4.9685423    1310.9922  0.047686316  0.047421266            4 
 2292000   0.88076403   -4.9699943    1309.5866  0.047614403  0.047412184            3 
 2293000   0.88068846   -4.9002596    1315.9857    0.0478262  0.047403183            2 
 2294000   0.88304449   -4.9521989    1313.5663  0.047717462  0.047394114            3 
 2295000   0.89668507   -4.9700062    1309.1465  0.047536184  0.047384948           10 
 2296000   0.89532426   -4.9636932    1313.8514  0.047686245  0.047375774            7 
 2297000   0.88597245   -4.9441055    1310.0256  0.047526687  0.047366696            4 
 2298000   0.87529842   -4.9525014    1314.1846  0.047656826  0.047357544            7 
 2299000   0.86736155   -4.9823984    1314.0923  0.047632748  0.047348302            3 
 2300000   0.89666016   -4.9274745    1317.2015  0.047724692  0.047339291            8 
 2301000   0.87609798   -4.9356123    1315.6924  0.047649299  0.047330328            2 
 2302000   0.88380638   -4.9755325    1314.7528  0.047594583  0.047321339            7 
 2303000   0.88115003    -4.952333    1311.3725  0.047451604  0.047312503            5 
 2304000   0.88325033   -4.9709464    1317.2671   0.04764421  0.047303467            5 
 2305000   0.87770928    -4.959513    1315.9439  0.047575701  0.047294518            4 
 2306000   0.87113092   -4.9693114    1313.3738  0.047462191  0.047285464            4 
 2307000   0.90360542   -4.9838607    1314.5804  0.047485205  0.047276511            2 
 2308000   0.88453356   -4.9460143    1317.3086  0.047563135  0.047267545            5 
 2309000   0.89779668   -4.9700479    1314.9781  0.047458429  0.047258498            5 
 2310000   0.88574076   -4.9361012    1314.7584  0.047429958  0.047249518            3 
 2311000   0.88797683    -4.966447    1315.8066   0.04744723  0.047240449            5 
 2312000   0.87014852   -4.9322127      1317.97  0.047504686  0.047231404            3 
 2313000   0.87786365   -4.9455233    1317.6113  0.047471226  0.047222396            9 
 2314000   0.88594024   -4.9441559    1317.3863  0.047442607  0.047213286            5 
 2315000     0.867568   -4.9525155     1320.512  0.047534628  0.047204305            4 
 2316000   0.89142876   -4.9400436    1324.2339  0.047648026  0.047195358            5 
 2317000   0.89771776   -4.9793003    1315.8011  0.047324166  0.047186304            4 
 2318000   0.88874907   -4.9476238    1318.9011  0.047415196  0.047177244            4 
 2319000    0.8840769   -4.9231823    1324.4124  0.047592799  0.047168292            3 
 2320000   0.88424686   -4.9566789    1319.3454   0.04739028  0.047159332            6 
 2321000   0.86834384   -4.9689129    1321.2602  0.047438613  0.047150581            5 
 2322000   0.89018172   -4.9704343    1318.0243  0.047302049  0.047141533            4 
 2323000   0.88320943   -4.9787748    1322.9791   0.04745943  0.047132591            4 
 2324000   0.89831025   -4.9419305    1324.7328  0.047501895   0.04712349            4 
 2325000   0.88699983   -4.9556235      1321.91  0.047380288  0.047114462            4 
 2326000    0.8756435   -4.9591556    1320.4518  0.047307674  0.047105465            5 
 2327000   0.89788334   -4.9681942    1319.3643    0.0472484  0.047096384            4 
 2328000   0.87861077   -4.9836108    1322.5141  0.047340854  0.047087396            4 
 2329000   0.86652528   -4.9715618    1322.2261  0.047310224  0.047078322            8 
 2330000   0.88000407   -4.9863433    1329.2248  0.047540228  0.047069333            4 
 2331000   0.86324355   -4.9604622    1320.4165  0.047204935  0.047060193            5 
 2332000   0.87288752   -4.9581096    1319.9648  0.047168553  0.047051197            5 
 2333000   0.88221356   -4.9757852    1327.7857  0.047427693  0.047042133            4 
 2334000   0.85858242   -5.0231647    1322.3202  0.047212231  0.047033158            6 
 2335000   0.85495487   -4.9626627    1328.9143   0.04742735  0.047024093            5 
 2336000   0.86322502   -4.9451791    1329.4663  0.047426739  0.047015066            6 
 2337000   0.86559923   -4.9641217    1326.2071  0.047290227  0.047006006            3 
 2338000   0.88493373   -4.9615668    1326.2935  0.047273077  0.046997037           10 
 2339000   0.87838327   -4.9708137    1330.5705  0.047405247  0.046988153            7 
 2340000   0.86651833   -4.9656792       1324.2  0.047158121  0.046979271            4 
 2341000   0.87444493   -4.9966904    1325.7157  0.047191931  0.046970406            6 
 2342000   0.86430168   -4.9577159    1328.0494  0.047254818   0.04696159           10 
 2343000   0.90390207   -4.9602317    1329.0978  0.047271936  0.046952774            5 
 2344000   0.88465515   -4.9464441     1333.229  0.047398642   0.04694401            4 
 2345000   0.85933893    -4.982504    1330.1328  0.047268402  0.046935119            2 
 2346000   0.87427318   -4.9660051    1327.8518  0.047167229  0.046926204            5 
 2347000   0.86274975   -4.9642128    1327.0931  0.047120192  0.046917167            6 
 2348000   0.86276477   -4.9552418    1331.3486  0.047251157   0.04690822            3 
 2349000   0.87300893   -4.9801462    1332.6096  0.047275775   0.04689925            2 
 2350000   0.86731328   -4.9833643     1332.511  0.047252164  0.046890237           10 
 2351000   0.89141203   -4.9524909    1330.4356  0.047158502  0.046881169           10 
 2352000   0.87996825   -4.9640564    1327.3631  0.047029588  0.046871949            5 
 2353000   0.87591336   -4.9868792    1329.5213  0.047086034  0.046862932           18 
 2354000   0.89926832   -4.9879342    1331.1451  0.047123518  0.046853839            4 
 2355000   0.86487204   -4.9587048    1331.1442  0.047103476  0.046844657            5 
 2356000   0.85772271   -4.9903269    1334.4292  0.047199673   0.04683549            5 
 2357000   0.86236151    -4.972232     1328.857  0.046982639  0.046826356            3 
 2358000   0.88234195   -4.9639044    1330.8189  0.047032051  0.046817234            4 
 2359000   0.88955293   -4.9878501    1333.9922  0.047124211  0.046808228            4 
 2360000   0.88262402   -4.9423083    1331.7858  0.047026334  0.046799084            4 
 2361000   0.86323908   -5.0008805    1325.1205  0.046771159  0.046789889            5 
 2362000   0.88854692   -4.9774648    1333.9957  0.047064481  0.046780601            2 
 2363000   0.89184621   -4.9795077    1331.4425  0.046954523  0.046771562            4 
 2364000   0.87445724   -4.9442552     1333.216  0.046997181  0.046762326            6 
 2365000   0.88745581   -5.0034425    1332.1822  0.046940883  0.046753273            6 
 2366000   0.87274784   -5.0151271    1332.8793  0.046945594   0.04674407            5 
 2367000   0.87346562   -4.9438704    1336.1771  0.047041864   0.04673468            3 
 2368000   0.87081591   -4.9797053    1335.1811  0.046986948  0.046725678           10 
 2369000   0.86457766   -4.9612407    1336.7601  0.047022658  0.046716466            5 
 2370000   0.86841753   -4.9486698    1337.2974  0.047021708  0.046707226            2 
 2371000   0.87401448   -4.9722228    1337.6983  0.047015967  0.046698067            8 
 2372000   0.87621929   -4.9930436    1333.7084  0.046855973  0.046688791            2 
 2373000   0.86693692   -4.9987833    1330.7051  0.046730761  0.046679619            6 
 2374000   0.86431589   -4.9845934    1331.7791  0.046748774  0.046670287            3 
 2375000   0.87363273   -4.9924376    1333.6427  0.046794482  0.046660962            3 
 2376000   0.86567937    -4.978805    1337.9142  0.046924601  0.046651552            4 
 2377000   0.87162291   -4.9737335     1339.297  0.046953338  0.046642226            3 
 2378000   0.86638066   -4.9974509     1334.741  0.046773936  0.046632929            5 
 2379000   0.87337003    -4.979968    1331.8679  0.046653634  0.046623657            7 
 2380000   0.84904682   -4.9737958    1338.7628  0.046875447  0.046614187            4 
 2381000   0.88275272   -4.9948326    1335.0066  0.046724298  0.046604839            5 
 2382000   0.87839458   -4.9925425    1335.9482  0.046737622  0.046595357            4 
 2383000   0.87728698   -4.9645728    1338.6856  0.046813735  0.046586036            6 
 2384000   0.87908822   -4.9727691    1337.3219   0.04674643  0.046576855            4 
 2385000   0.87459534   -4.9845722    1338.8775  0.046781183  0.046567516            6 
 2386000   0.87988425   -4.9615105    1339.4394  0.046781203  0.046558268            2 
 2387000   0.86970137   -5.0027556    1336.5301  0.046660037  0.046549082            6 
 2388000    0.8516242   -4.9781247    1337.2455  0.046665464  0.046539823            7 
 2389000   0.84453771   -4.9608396    1337.1071  0.046641102  0.046530395            3 
 2390000   0.87301691   -4.9779981    1343.5415  0.046845937  0.046521139            6 
 2391000   0.88577049   -4.9732837    1339.8318  0.046697053  0.046511944            7 
 2392000   0.86478329   -4.9805804    1341.3315  0.046729776  0.046502784            3 
 2393000   0.87215513   -4.9762237    1338.6868  0.046618151  0.046493467            2 
 2394000   0.85304896   -4.9839571    1339.0622  0.046611743  0.046484028            7 
 2395000   0.88166904   -4.9676218     1344.036  0.046765343   0.04647477            4 
 2396000    0.8656452   -5.0120683    1338.7616  0.046562381  0.046465435            4 
 2397000   0.87136658   -4.9560596    1341.8831  0.046651478  0.046456062            5 
 2398000   0.88291896   -4.9686895    1340.3354  0.046578238  0.046446713            2 
 2399000   0.89035673   -4.9737274    1342.8203  0.046645141  0.046437347            5 
 2400000   0.87354344   -4.9840541    1343.8949  0.046663017  0.046428074            4 
 2401000   0.89599332    -4.970596    1345.2693  0.046691286  0.046418598            6 
 2402000   0.88975019   -4.9799049    1345.7205  0.046687501  0.046409314            3 
 2403000   0.86207461   -5.0090338    1342.0508   0.04654081  0.046399938            3 
 2404000   0.86447224   -4.9723613    1340.6749  0.046473756  0.046390557            5 
 2405000   0.86704997   -4.9612862    1341.1863  0.046472152  0.046381076            2 
 2406000   0.85835234   -5.0037598    1340.3675  0.046424478  0.046371697            4 
 2407000   0.86168734   -4.9848423    1341.0109  0.046427465  0.046362127            8 
 2408000   0.89748231    -4.987165    1344.7839  0.046538758  0.046352415            7 
 2409000   0.86820136   -4.9684614    1343.9214  0.046489601  0.046342824            5 
 2410000   0.84575275   -4.9682238    1342.9656  0.046437262  0.046333301            3 
 2411000   0.85937748   -5.0033246    1337.3418  0.046223619  0.046323635            5 
 2412000   0.87223301   -4.9873208    1340.5032  0.046313683  0.046313971            8 
 2413000   0.86410821   -5.0143047    1343.8939  0.046411586  0.046304505            5 
 2414000   0.89064637   -4.9749264    1347.6273  0.046521241  0.046295168            3 
 2415000   0.87194101   -5.0172425     1345.563  0.046430745  0.046285903            3 
 2416000    0.8676869   -4.9861208    1344.6526  0.046380126  0.046276532            7 
 2417000   0.84525684   -4.9824759    1341.8479  0.046264235  0.046266952            6 
 2418000   0.85229531   -4.9955483    1350.7637  0.046552374  0.046257417            3 
 2419000   0.86887301   -4.9746298    1346.4125  0.046383235  0.046248019            2 
 2420000   0.87087921   -4.9828254    1346.8918  0.046380571  0.046238541            7 
 2421000   0.89005494   -4.9971926    1346.0981  0.046334093  0.046229146            4 
 2422000   0.87454799   -4.9899235    1342.2793   0.04618357  0.046219761            5 
 2423000   0.86829567    -4.998231     1345.203  0.046265063  0.046210383            2 
 2424000   0.84743122   -4.9900533    1346.0044  0.046273528  0.046200975            4 
 2425000   0.86191162   -5.0053784    1350.6417  0.046413805  0.046191544            3 
 2426000   0.85964999   -4.9953401    1345.9959   0.04623509  0.046182151           14 
 2427000   0.85663035   -4.9726898    1349.3264  0.046330394  0.046172756            5 
 2428000   0.85150152   -5.0002654     1350.021  0.046335154  0.046163338            5 
 2429000   0.84167464   -4.9864769    1347.9155  0.046243842  0.046153842            3 
 2430000   0.85676726   -4.9887325    1351.8036  0.046358147  0.046144348            6 
 2431000   0.87164502    -5.033799    1345.0548  0.046107735  0.046134916            4 
 2432000   0.85849193   -4.9917554    1346.2405  0.046129403   0.04612547            3 
 2433000    0.8477241   -4.9834994    1353.2474  0.046350439  0.046116027            3 
 2434000   0.85766483   -5.0192915    1353.3125  0.046333624   0.04610661            4 
 2435000   0.86336021   -5.0160026    1347.6206  0.046119803  0.046097174            5 
 2436000   0.85732879   -4.9882516    1348.1949  0.046120515  0.046087724            4 
 2437000   0.86405798   -5.0133225    1349.6514  0.046151396  0.046078224            6 
 2438000   0.84071409   -5.0056433    1352.3282  0.046223961  0.046068736            5 
 2439000   0.87657836   -4.9945124    1349.1911  0.046097824  0.046059246           12 
 2440000   0.87012394    -4.988197    1350.6678  0.046129366  0.046049724            4 
 2441000   0.86971597   -4.9940908    1355.5104  0.046275789  0.046040213            5 
 2442000   0.85050563   -4.9983774    1353.0064   0.04617139  0.046030494            5 
 2443000   0.87960231   -5.0070688    1350.5156  0.046067527  0.046020935            4 
 2444000   0.87148631   -4.9909078    1351.7689   0.04609141  0.046011474            3 
 2445000   0.84163695   -4.9883077    1352.4623  0.046096194  0.046001857            5 
 2446000   0.87219264   -5.0098946    1351.4727  0.046043634  0.045992275            4 
 2447000   0.85640671    -4.989098    1354.3576  0.046123061  0.045982789            8 
 2448000   0.84372692   -4.9798843    1358.1325  0.046232725  0.045973285            5 
 2449000   0.84563829   -4.9942618    1354.7878  0.046100033  0.045963895            5 
 2450000   0.87589021   -5.0019255    1355.2104  0.046095593  0.045954399            6 
 2451000   0.87765858   -4.9882464    1357.0222  0.046138385  0.045944973            2 
 2452000       0.8773   -5.0053873    1352.2336  0.045956825  0.045935494            4 
 2453000   0.87025474   -5.0190335    1352.9755  0.045963292  0.045925961            5 
 2454000   0.85582018   -4.9876205    1353.1543  0.045950635    0.0459165            2 
 2455000   0.87030878   -5.0330495      1353.09  0.045929736  0.045907022            5 
 2456000   0.85695625   -4.9840082    1356.7728  0.046035995  0.045897619            6 
 2457000   0.83891979   -5.0096706      1354.97  0.045956112  0.045888269           10 
 2458000   0.85866459    -5.020625    1359.5943  0.046094191  0.045878917            5 
 2459000   0.86328618   -4.9843094    1358.4698  0.046037339  0.045869408            5 
 2460000   0.87172022   -5.0122014    1357.2824  0.045978402  0.045859994            3 
 2461000   0.85068121   -5.0119398    1355.1276  0.045886755  0.045850561            5 
 2462000   0.87252607    -5.011324    1358.7494  0.045990707  0.045840961            2 
 2463000   0.84792344   -5.0112601    1359.9445  0.046012468  0.045831493            8 
 2464000    0.8611914   -4.9879992    1357.6396  0.045915841  0.045821977            6 
 2465000   0.83873761    -4.953514    1358.4015   0.04592297  0.045812638            6 
 2466000   0.84377205   -4.9925493    1358.1556   0.04589604  0.045803235           12 
 2467000   0.84195957   -4.9939251    1359.3427  0.045917534  0.045793709            3 
 2468000   0.86200355   -4.9802313    1358.1197  0.045857633  0.045784208            2 
 2469000   0.84286901   -4.9737391    1364.0325  0.046038628  0.045774646            3 
 2470000   0.85751118   -5.0454024    1356.9639  0.045781507  0.045765044            5 
 2471000   0.87094333   -5.0095858    1357.1874  0.045770519  0.045755488            4 
 2472000    0.8645804   -5.0178425    1359.0858  0.045815999  0.045745777            3 
 2473000   0.86301069   -4.9902507    1361.1018  0.045865407  0.045736256           10 
 2474000   0.86746499   -5.0407264    1356.8554  0.045703834  0.045726596            8 
 2475000    0.8554293   -5.0209976       1356.2  0.045663298   0.04571687            4 
 2476000   0.85559156   -5.0211955    1356.2264  0.045645745  0.045707191            2 
 2477000   0.84575947   -5.0099998    1357.3073  0.045663683  0.045697655            5 
 2478000   0.85262971   -5.0083813    1353.3491  0.045512143  0.045688042            7 
 2479000   0.85301153   -5.0319844    1358.4055   0.04566376  0.045678357            4 
 2480000   0.87583876   -5.0155276    1359.2289  0.045673014  0.045668707            5 
 2481000    0.8609507   -5.0157721    1359.6248  0.045667903     0.045659            5 
 2482000   0.85290383   -4.9696386    1367.8416  0.045925384  0.045649488            7 
 2483000   0.84307414   -4.9975751    1364.6933  0.045801224  0.045639991            4 
 2484000   0.85809224   -5.0027921    1359.5311  0.045609605  0.045630401            7 
 2485000   0.84651609   -5.0040952    1364.2856  0.045750689  0.045620752            3 
 2486000   0.85249308    -5.027444    1359.0319  0.045556179  0.045611134            7 
 2487000   0.84228986   -5.0347825    1364.2899  0.045714044  0.045601507           10 
 2488000   0.85186073   -5.0251435    1359.4828  0.045534659  0.045591925            3 
 2489000   0.85671296   -5.0344693    1364.1023   0.04567103  0.045582253            5 
 2490000   0.85858253   -5.0189458    1364.8881  0.045678986  0.045572743            5 
 2491000   0.85732423   -5.0112075    1362.4371  0.045578653  0.045563065            5 
 2492000    0.8576839   -5.0163824    1360.9292  0.045509938  0.045553427            2 
 2493000   0.84931542   -5.0435336    1364.2912  0.045604063  0.045543653            5 
 2494000   0.84195813   -5.0190017    1363.3717  0.045555055   0.04553395            3 
 2495000   0.87742998    -5.014143    1366.2738  0.045633728  0.045524279            6 
 2496000   0.87051552    -5.007567    1369.2699  0.045715473    0.0455147           10 
 2497000   0.85196561   -5.0456191    1365.9805  0.045587389  0.045505183            7 
 2498000   0.84365919   -5.0567182    1363.6335  0.045490843  0.045495633            7 
 2499000   0.84868857   -5.0122617    1365.2109  0.045525239  0.045486058            7 
 2500000   0.86260956   -5.0340697     1366.723  0.045557434   0.04547652            4 
 2501000   0.85634391   -4.9686176    1369.5979  0.045635009  0.045467148            4 
 2502000   0.84824442    -5.044095    1366.3626  0.045509013  0.045457785            3 
 2503000   0.84780834   -5.0185337    1371.8072  0.045672099  0.045448318            6 
 2504000    0.8585048   -5.0317341    1364.8499  0.045422322  0.045438822            5 
 2505000   0.83929302   -5.0188982    1371.8362    0.0456366  0.045429361            4 
 2506000   0.83476954   -5.0011727       1371.3  0.045600558  0.045419988            7 
 2507000   0.84621197   -5.0265205    1367.9982  0.045472616  0.045410648            6 
 2508000   0.84923113   -5.0284147    1369.1871  0.045493991  0.045401246            5 
 2509000   0.85488662   -5.0141462    1375.6558  0.045690707  0.045391827            4 
 2510000   0.84546422   -5.0168973    1368.9694  0.045450513  0.045382464            4 
 2511000    0.8615485   -5.0435797    1375.9947  0.045665563  0.045373171            6 
 2512000   0.83789762   -5.0152948    1376.0207  0.045648244  0.045363831            5 
 2513000   0.83156252    -5.035058    1372.1204  0.045500742  0.045354608            6 
 2514000   0.85977296   -5.0450557    1373.5947  0.045531515   0.04534541            6 
 2515000   0.84288304   -5.0164965    1373.5084   0.04551055  0.045336221            4 
 2516000   0.83641046   -5.0261154    1372.7322  0.045466753  0.045327069            7 
 2517000   0.82749149   -5.0076531    1373.7356  0.045481908   0.04531796            5 
 2518000   0.84534421   -5.0128663    1376.9709  0.045570918   0.04530877            3 
 2519000   0.84727911   -5.0098415    1379.1004  0.045623275  0.045299676            5 
 2520000   0.84296083   -5.0265299    1376.5615  0.045521214   0.04529059            5 
 2521000   0.84407289   -5.0506486     1376.224     0.045492    0.0452815            8 
 2522000   0.86637531   -5.0075852    1376.6227  0.045487137   0.04527239            3 
 2523000   0.85890687   -5.0167322    1378.5872  0.045533993  0.045263285            6 
 2524000   0.87080751   -5.0325854    1377.4226  0.045477502    0.0452541            5 
 2525000   0.84192276   -5.0048888    1378.2929  0.045488213  0.045245054            6 
 2526000    0.8621994   -5.0437441    1377.2671  0.045436365  0.045235894            8 
 2527000   0.84215561    -5.040436    1379.3229  0.045486178  0.045226478            2 
 2528000   0.83232926    -5.056645    1376.5385    0.0453764  0.045217287            2 
 2529000   0.84883952   -5.0258398    1375.8572  0.045336008  0.045208146            4 
 2530000   0.84986158   -5.0427831    1373.8988  0.045253583  0.045198944            9 
 2531000   0.83698294   -5.0307413    1375.8091  0.045298601  0.045189594            5 
 2532000   0.85401595   -5.0148391     1380.477  0.045434339  0.045180239            7 
 2533000   0.84250234   -5.0355744    1380.5031  0.045417261  0.045171038            4 
 2534000   0.85124987   -5.0393354    1382.1811  0.045454521  0.045161693            5 
 2535000   0.85639521   -5.0345011    1382.3687  0.045442759  0.045152498            6 
 2536000   0.85291179   -5.0063841    1377.3572  0.045260161  0.045143305            3 
 2537000   0.85500371   -5.0400857    1382.2508  0.045403063  0.045134116            3 
 2538000   0.84439917   -5.0336828    1380.9889  0.045343737  0.045124853            5 
 2539000   0.83639058    -5.054604    1382.5444  0.045376932  0.045115599            4 
 2540000   0.85023964   -5.0141364    1384.2679  0.045415612  0.045106488            9 
 2541000   0.85467343   -5.0393736    1384.0143  0.045389422  0.045097383            4 
 2542000   0.85166993   -5.0400802     1381.399  0.045285833  0.045088074            2 
 2543000   0.83070744   -5.0316794    1381.2476  0.045263063  0.045078909            4 
 2544000   0.83271275   -5.0170426    1383.7522  0.045327312  0.045069711            4 
 2545000   0.84125874   -5.0511142    1380.0294  0.045187605  0.045060436            7 
 2546000   0.83295238   -5.0022293    1382.5541  0.045252492  0.045051047            5 
 2547000   0.85218484    -5.024148    1387.3154  0.045390505  0.045041838            4 
 2548000   0.83322273   -5.0544033    1379.7673  0.045125829  0.045032587            5 
 2549000   0.84468453   -5.0262961    1387.4618  0.045359677  0.045023262            4 
 2550000   0.82490422   -5.0067427     1389.411  0.045405588  0.045014091            4 
 2551000   0.86070984   -5.0207036     1379.961  0.045079086  0.045004838            7 
 2552000   0.84518027   -5.0402654    1385.8194  0.045252724  0.044995477            5 
 2553000   0.83901557    -5.054473    1381.3327  0.045088547  0.044986171            5 
 2554000   0.83725886    -5.024866    1382.8724  0.045121131  0.044976854            7 
 2555000   0.85258867   -5.0260357    1381.5947  0.045061796  0.044967537            5 
 2556000   0.84519743    -5.055667    1382.0773  0.045059902  0.044958166            3 
 2557000   0.84123647   -5.0416122    1382.3159  0.045050054  0.044948798            5 
 2558000   0.84245464   -5.0395328    1386.4256  0.045166328  0.044939467            6 
 2559000    0.8291823   -5.0458083    1385.2127  0.045109182   0.04493006            6 
 2560000   0.83973914   -5.0279185    1386.1293  0.045121397  0.044920612            6 
 2561000   0.84047425   -5.0553256    1383.8953  0.045031086  0.044911211            7 
 2562000   0.85154417   -5.0350795    1384.1865  0.045022981  0.044901736            8 
 2563000   0.84312764    -5.020598    1384.7296  0.045023071  0.044892366            4 
 2564000   0.82897194   -5.0501509    1385.1872  0.045020386  0.044882977            4 
 2565000   0.84013112   -5.0259675    1383.2869  0.044941094  0.044873632            6 
 2566000   0.85350714   -5.0544769    1385.0934  0.044982248  0.044864277            6 
 2567000   0.84150795   -5.0561077    1382.9488  0.044895106  0.044854894            3 
 2568000   0.84414498   -5.0550434    1389.7202  0.045097359  0.044845585            6 
 2569000   0.83026393   -5.0287879    1387.5371  0.045008989  0.044836268            3 
 2570000   0.84992811   -5.0525973    1384.6014  0.044896285  0.044826868            5 
 2571000   0.82512621    -5.016938    1388.8807  0.045017525  0.044817578            9 
 2572000   0.85186065   -5.0416915    1386.0861  0.044909478  0.044808303            5 
 2573000   0.81801781   -5.0471359    1388.2563  0.044962311  0.044798951            6 
 2574000   0.83359348   -5.0946801    1383.3782  0.044786915  0.044789466            7 
 2575000   0.83006475   -5.0526192     1388.167  0.044924499   0.04478013            8 
 2576000    0.8350493   -5.0369192    1393.2535  0.045071606  0.044770798            6 
 2577000   0.84208526   -5.0328974    1394.4439  0.045092612  0.044761527            5 
 2578000    0.8194934   -5.0365382    1389.4638  0.044914138  0.044752252            6 
 2579000    0.8070217   -5.0121875    1393.0229  0.045011725  0.044742964            5 
 2580000    0.8514177   -5.0450343    1388.4528  0.044846668  0.044733672            7 
 2581000   0.84839042   -5.0245264    1391.1118  0.044915142   0.04472441            4 
 2582000   0.84699301   -5.0476282     1390.536  0.044879164  0.044715147            3 
 2583000    0.8304085   -5.0577848    1387.9525   0.04477844  0.044705817            9 
 2584000   0.83095228   -5.0229466       1390.9  0.044856165  0.044696449            4 
 2585000   0.85050326   -5.0395835    1389.9767  0.044809049  0.044687021            2 
 2586000   0.85613232   -5.0619227    1388.0296  0.044728977  0.044677517            6 
 2587000   0.86308976   -5.0669525    1385.5704  0.044632469  0.044668053            7 
 2588000    0.8430061   -5.0327995    1389.8936   0.04475443  0.044658648            5 
 2589000   0.83596876   -5.0601786    1390.6188  0.044760487  0.044649335            7 
 2590000   0.82347191   -5.0277229    1396.6952  0.044938714  0.044640174            3 
 2591000   0.85049162   -5.0605235     1390.616  0.044725846  0.044630804            6 
 2592000   0.83764629   -5.0466118    1389.5616  0.044674692  0.044621298            7 
 2593000   0.81664187   -5.0041346    1400.3449  0.045004013  0.044611909            4 
 2594000   0.84922207   -5.0521211    1393.3689  0.044762558  0.044602545            9 
 2595000   0.82535005   -5.0278767    1393.6106   0.04475307  0.044593247            9 
 2596000   0.82485754   -5.0482619    1397.5248  0.044861479  0.044583856            6 
 2597000   0.83309755   -5.0269308    1392.8863  0.044695364  0.044574449            5 
 2598000   0.83207524   -5.0549074    1396.1422  0.044782597  0.044565051            2 
 2599000   0.83886042   -5.0632425    1391.1005   0.04460371  0.044555698            5 
 2600000   0.85013021   -5.0382147      1397.37    0.0447875  0.044546278            3 
 2601000   0.83908326   -5.0379045    1393.5461  0.044647768  0.044536862            7 
 2602000   0.82346934   -5.0902119    1392.2303  0.044588467  0.044527418            4 
 2603000   0.81683197   -5.1095423    1387.8203  0.044430156  0.044517815            4 
 2604000   0.82736465   -5.0508796    1394.9149  0.044640133  0.044508315            5 
 2605000   0.84678504   -5.0522166    1399.3267   0.04476413  0.044498888            8 
 2606000   0.83313912   -5.0689372    1394.6905  0.044598699  0.044489563            4 
 2607000   0.83085619    -5.038714    1398.3556  0.044698747   0.04448034            3 
 2608000   0.83294138   -5.0336176     1398.267  0.044678776  0.044471107            8 
 2609000   0.81949884   -5.0707376    1392.3365  0.044472229  0.044461738           17 
 2610000   0.83557793   -5.0647696    1394.0934  0.044511283  0.044452227            6 
 2611000   0.83224511   -5.0667361    1396.7471  0.044578932  0.044442821            4 
 2612000   0.82541388   -5.0436461    1393.7277  0.044465534  0.044433467            8 
 2613000   0.84807612   -5.0283206    1400.6168  0.044668222  0.044424018            8 
 2614000   0.81235008   -5.0591529     1397.561  0.044553718  0.044414585            4 
 2615000   0.82842606   -5.0434654    1393.2473  0.044399213  0.044405312            8 
 2616000   0.82972802   -5.0663399     1399.407  0.044578458  0.044395915            4 
 2617000   0.84780475   -5.0837269    1394.2939  0.044398608  0.044386372            3 
 2618000   0.83337537    -5.056989    1395.4173  0.044417407  0.044376947            5 
 2619000   0.82781399   -5.0334894    1398.7495  0.044506474  0.044367625            8 
 2620000   0.81825787   -5.0659135    1396.5063  0.044418138  0.044358247            3 
 2621000   0.82993745   -5.0523413    1400.4047  0.044525141  0.044348786            8 
 2622000   0.83525036   -5.0546391    1397.0254  0.044400757  0.044339371            5 
 2623000   0.81381444   -5.0706874    1398.0872  0.044417563  0.044329959            5 
 2624000   0.82382734   -5.0768836    1394.8146  0.044296704  0.044320541           18 
 2625000   0.85543466   -5.0517206    1395.1895  0.044291731  0.044311105            5 
 2626000       0.8366   -5.0682226    1400.8858  0.044455628  0.044301639            9 
 2627000   0.82804782   -5.0454409    1400.3263  0.044420958  0.044292247            5 
 2628000   0.82375009   -5.0636555    1398.8017  0.044355712  0.044282816            8 
 2629000   0.81689911   -5.0473515    1406.8988    0.0445955   0.04427337            6 
 2630000   0.82128681   -5.0605562    1402.3488  0.044434374  0.044263874            6 
 2631000   0.84529809   -5.0614264    1398.5856  0.044298291  0.044254396            7 
 2632000   0.82637742    -5.060576    1398.3828  0.044275038  0.044244783            6 
 2633000   0.81994359   -5.0645077    1396.1892  0.044188795  0.044235201            8 
 2634000   0.81947779   -5.0380192    1403.9819  0.044418563   0.04422567            5 
 2635000   0.81925695   -5.0746868     1400.888  0.044303858  0.044216186            9 
 2636000   0.81588906   -5.0500776    1400.7138  0.044281544  0.044206623            7 
 2637000   0.84371992   -5.0788469    1401.8051   0.04429924  0.044197174            2 
 2638000    0.8224958   -5.0672446    1402.8982  0.044316975  0.044187751            8 
 2639000   0.82258906   -5.0477725    1399.0254  0.044177891  0.044178151           10 
 2640000   0.83795266   -5.0635851    1402.9659  0.044285541  0.044168626            4 
 2641000   0.82956153   -5.0722172     1402.329  0.044248675  0.044159026            4 
 2642000   0.83220522   -5.0646758    1397.2941  0.044073118  0.044149357            5 
 2643000    0.8454874   -5.0627503     1403.085  0.044239028  0.044139843            3 
 2644000   0.81753662   -5.0858235    1398.4406  0.044075913   0.04413025            3 
 2645000   0.82687916   -5.0499094     1401.276  0.044148581  0.044120581           12 
 2646000   0.84500532    -5.069866    1401.0363  0.044124348  0.044110974            6 
 2647000   0.82739491   -5.0424059    1407.5578   0.04431299  0.044101455            4 
 2648000   0.83135755   -5.0645619    1402.0408  0.044122634  0.044091861            6 
 2649000   0.83890196   -5.0601681    1400.1193   0.04404553  0.044082249            5 
 2650000   0.83361891   -5.1020375     1398.487   0.04397758  0.044072513            6 
 2651000   0.82523332    -5.084766    1401.1644  0.044045153  0.044062801            2 
 2652000   0.83789579   -5.0470921    1401.0152  0.044023857  0.044053057            2 
 2653000   0.83148908   -5.0769842    1399.3394  0.043954624   0.04404335            3 
 2654000   0.82572726   -5.0583068    1400.7207  0.043981433  0.044033731            2 
 2655000   0.81790686   -5.0704032    1400.8489  0.043968892  0.044024082            7 
 2656000   0.80212706   -5.0622921    1405.2811  0.044091401   0.04401447            4 
 2657000   0.82232686    -5.070941    1410.6956  0.044244624  0.044004899            3 
 2658000   0.81748705   -5.0643792    1404.4496  0.044032154  0.043995418            5 
 2659000   0.82909946   -5.0797543    1403.4959  0.043985707  0.043985694            6 
 2660000    0.8386609   -5.0420232    1409.8025  0.044166744  0.043976007            6 
 2661000   0.81169771   -5.0627513     1403.803  0.043962263  0.043966374           11 
 2662000   0.84020554   -5.0749189    1407.2952  0.044055071  0.043956799            5 
 2663000    0.8143899   -5.0616502    1406.9587  0.044027997  0.043947171            6 
 2664000   0.81622008   -5.0405955    1406.3161   0.04399137  0.043937687            7 
 2665000   0.82278197   -5.0726981     1404.618  0.043921762  0.043927974            5 
 2666000   0.83471488   -5.0525983    1407.9293  0.044008793  0.043918385            3 
 2667000     0.827988   -5.0655907    1402.9181   0.04383571  0.043908777            5 
 2668000   0.81554047   -5.0669117    1411.9662  0.044101892  0.043899017            3 
 2669000     0.825702   -5.0676005    1406.7401  0.043922197  0.043889312            8 
 2670000   0.83299081     -5.07185    1404.2846  0.043829108  0.043879569            3 
 2671000   0.81838754   -5.0632255    1406.6752  0.043887282  0.043869857            6 
 2672000   0.83389821   -5.0889337    1406.1885   0.04385568  0.043860132            5 
 2673000   0.81571676   -5.0663522    1407.1658  0.043869741  0.043850392            7 
 2674000   0.82721519    -5.076586    1405.5537  0.043803095  0.043840769            7 
 2675000   0.83051904   -5.0736952    1403.3739  0.043718813  0.043831144            3 
 2676000   0.82073679    -5.092283      1406.24   0.04379173  0.043821415            4 
 2677000   0.81656351   -5.1091481    1403.8673   0.04370151  0.043811701            5 
 2678000   0.83012891   -5.0657241    1409.3949  0.043857196  0.043801886            5 
 2679000    0.8301065   -5.0794315    1409.5146   0.04384455  0.043792188            7 
 2680000   0.81070442    -5.072404    1408.1195  0.043784809  0.043782527            3 
 2681000   0.82018987   -5.0824585    1409.8366  0.043821852  0.043772898            4 
 2682000    0.7993216   -5.0846053    1403.8174  0.043618486  0.043763098            7 
 2683000   0.81539966   -5.0844836    1408.7377  0.043755054  0.043753456            4 
 2684000   0.82139148   -5.0955549    1406.8717  0.043680816  0.043743753            6 
 2685000   0.83780441   -5.0938994    1409.3847  0.043742541  0.043733939            5 
 2686000   0.81143809   -5.0875069    1413.2101  0.043844939  0.043724179           10 
 2687000   0.83765899   -5.0715416    1410.7094  0.043751067  0.043714426            5 
 2688000   0.81572759   -5.0821071    1411.2428  0.043751325  0.043704693            4 
 2689000   0.82863756   -5.1028617    1409.8187  0.043690924  0.043694994           10 
 2690000   0.82862833   -5.0618328    1411.0271  0.043712117  0.043685339            3 
 2691000   0.82858621   -5.1018546    1410.4489  0.043677966  0.043675574            5 
 2692000   0.82251702   -5.0767033    1412.2576  0.043717732  0.043665849            4 
 2693000   0.81393684   -5.0801252    1416.9905  0.043847954  0.043656154            5 
 2694000   0.82509239   -5.0807307     1417.479  0.043846788  0.043646534            6 
 2695000   0.81855039   -5.0702014    1410.8591  0.043625824  0.043636923            4 
 2696000   0.81711215   -5.0836464    1410.2094   0.04358956  0.043627318            3 
 2697000   0.81427329   -5.0678052    1416.1894  0.043758169  0.043617643            2 
 2698000   0.82517792   -5.0865058    1410.3706  0.043562224  0.043607987           11 
 2699000   0.80142492   -5.0911766    1411.9978  0.043596326  0.043598343            5 
 2700000   0.81634194   -5.0681293    1410.2581  0.043526484   0.04358871            5 
 2701000   0.81485293   -5.0870533    1410.0619  0.043504317  0.043579063            7 
 2702000   0.80612073   -5.0953295    1418.0905  0.043735829  0.043569445            5 
 2703000   0.80526811   -5.0775367    1415.2147  0.043630987  0.043559746            4 
 2704000    0.8239965   -5.0358883    1415.1292  0.043612217  0.043550044            6 
 2705000   0.81794036   -5.0858922    1411.0611  0.043470767  0.043540449            4 
 2706000   0.82545282    -5.082853    1416.9431  0.043635844  0.043530818            4 
 2707000     0.819011   -5.1148469    1413.2777  0.043506886   0.04352107            7 
 2708000   0.83184142    -5.079975    1413.7278  0.043504672  0.043511398            4 
 2709000   0.81708152   -5.1000665     1413.852  0.043492432  0.043501561            7 
 2710000   0.81616391   -5.0986733    1416.1124  0.043545891  0.043491772            4 
 2711000   0.83293515   -5.0852058     1411.339    0.0433831  0.043482039           13 
 2712000   0.81738703   -5.0802166    1414.8236  0.043474178  0.043472342            3 
 2713000   0.81732353    -5.091429    1412.9678  0.043401149  0.043462605            3 
 2714000    0.8111013    -5.093693    1413.2331  0.043393303  0.043452729           14 
 2715000   0.80968691   -5.0692945    1414.2794  0.043409435  0.043442892            8 
 2716000   0.80666445   -5.1148004    1413.1734  0.043359518  0.043433138            6 
 2717000   0.81858027    -5.096989    1415.1149  0.043403105  0.043423333            6 
 2718000   0.82536958   -5.0798852    1416.3876   0.04342616  0.043413533            5 
 2719000   0.80862962   -5.1096915    1412.2853  0.043284457  0.043403692            8 
 2720000   0.80795911   -5.0704205    1414.4074  0.043333561  0.043393958           11 
 2721000   0.82305978    -5.074377    1415.4516  0.043349614  0.043384219            4 
 2722000   0.80341474   -5.1035787    1410.6495  0.043186673  0.043374482            6 
 2723000   0.82402555    -5.105194    1414.5926  0.043291486   0.04336469            8 
 2724000   0.83006323    -5.087593    1415.9869   0.04331825  0.043354934            4 
 2725000   0.79372996   -5.0988615    1416.8717  0.043329409  0.043345121            9 
 2726000   0.80490565   -5.0801143    1417.4747  0.043331947  0.043335211            4 
 2727000   0.80668557   -5.1073647    1413.7122  0.043201081  0.043325257            3 
 2728000   0.82227589   -5.1077006    1411.3894  0.043114289  0.043315343            7 
 2729000    0.8174764   -5.0995626    1419.0245   0.04333164  0.043305481            5 
 2730000   0.81886286   -5.1082722     1414.582  0.043180158  0.043295518            3 
 2731000   0.81129491   -5.0984905     1418.792  0.043292811  0.043285754            5 
 2732000   0.79089898   -5.0884554    1415.7504  0.043184188  0.043275903            3 
 2733000   0.82248116   -5.1029436    1413.7292  0.043106757  0.043266045            3 
 2734000   0.82159137   -5.0813331    1415.9754  0.043159455  0.043256165            4 
 2735000     0.807908   -5.0923714     1416.442  0.043157892  0.043246242            4 
 2736000   0.77551953   -5.0958363    1414.7187  0.043089628  0.043236323            3 
 2737000   0.81947018   -5.1085257    1415.5578  0.043099435  0.043226404            4 
 2738000   0.82149067   -5.1023837    1417.5256  0.043143586  0.043216473            6 
 2739000   0.81496248   -5.1262396    1416.3002  0.043090551  0.043206526            5 
 2740000   0.80927321   -5.1030575    1414.7956  0.043029062   0.04319661            5 
 2741000   0.82897073   -5.1217275    1416.3572  0.043060843  0.043186603            5 
 2742000   0.81617901   -5.1074864    1416.4433  0.043047756  0.043176614            4 
 2743000   0.81527848    -5.078905    1421.4465   0.04318406  0.043166703            5 
 2744000   0.81929579   -5.1305237    1417.2298  0.043040263  0.043156677            8 
 2745000   0.82207372   -5.1027892    1415.3629  0.042967909  0.043146703            4 
 2746000   0.80562799   -5.1210579    1421.3602  0.043134262  0.043136737            3 
 2747000   0.79625555   -5.1196216    1415.0117   0.04292597  0.043126784            7 
 2748000   0.81388721   -5.0864302    1420.2291  0.043068568  0.043116812            3 
 2749000   0.81071681   -5.1071091    1418.4641  0.042999396  0.043106932            4 
 2750000   0.79952281   -5.1249336     1417.313  0.042948878  0.043096937            6 
 2751000   0.80656156   -5.1134157     1419.043  0.042985672  0.043086876            3 
 2752000   0.80099434   -5.0900755    1416.9175   0.04290569  0.043076923            3 
 2753000   0.81480516   -5.0890873    1421.3648  0.043024725  0.043066903            5 
 2754000   0.79615549     -5.08867    1417.2856   0.04288567  0.043056893            3 
 2755000   0.81393627   -5.0934133    1421.7775  0.043005974  0.043046927           10 
 2756000   0.82082351   -5.1067129    1418.7077  0.042897548   0.04303692            6 
 2757000   0.80722236   -5.0991164    1419.9882  0.042920692  0.043026883            3 
 2758000   0.82084653    -5.110397    1415.9533  0.042783216  0.043016814            5 
 2759000   0.81347325   -5.1273429    1417.0207  0.042799948   0.04300658            8 
 2760000   0.79600012   -5.0702404    1421.0458  0.042905973  0.042996448            4 
 2761000   0.79874443   -5.1043744    1417.3595   0.04277917  0.042986455            8 
 2762000   0.79600988   -5.1014889    1421.2158  0.042880032  0.042976425            4 
 2763000    0.7949346   -5.1034821    1420.0779  0.042830192  0.042966317            8 
 2764000   0.81982305    -5.121437     1419.072  0.042784369  0.042956244            5 
 2765000   0.80216883   -5.0839447    1419.0576  0.042768463  0.042946262            3 
 2766000   0.78350765    -5.103703    1418.7354  0.042743294  0.042936284            4 
 2767000    0.8179319   -5.1135555    1420.6581  0.042785752  0.042926143            7 
 2768000   0.82181718   -5.1061768    1422.4246  0.042823478     0.042916            5 
 2769000   0.83126933   -5.1067855    1420.6792  0.042755483  0.042906022            3 
 2770000   0.80985106   -5.1018607    1420.1023  0.042722694  0.042896065           23 
 2771000   0.81771033   -5.0758422    1420.7343  0.042726282  0.042886057            3 
 2772000   0.80384414   -5.0920235    1419.9546  0.042687428  0.042876086            9 
 2773000   0.80942007   -5.1147627    1417.9736  0.042612502  0.042866087            6 
 2774000   0.81744675   -5.1107312    1418.2177  0.042604472  0.042855991            5 
 2775000   0.80365186   -5.1160722    1421.3288  0.042682548  0.042845934            9 
 2776000   0.80238883   -5.1073639    1421.7688   0.04268038  0.042835881           11 
 2777000   0.79664095   -5.1155322    1420.2439  0.042619249  0.042825819            3 
 2778000   0.80671806   -5.1072068    1423.3834  0.042698087  0.042815751            8 
 2779000   0.83048993   -5.1081611    1421.4369  0.042624353  0.042805687            8 
 2780000   0.82138331   -5.1039861    1419.9317  0.042563901  0.042795599            3 
 2781000   0.80373298   -5.1224367    1421.9435   0.04260888  0.042785462            5 
 2782000   0.80709392   -5.1400076    1418.9673  0.042504411  0.042775302            8 
 2783000   0.80368884   -5.0759423    1420.6681  0.042540068  0.042765212            9 
 2784000   0.80590584   -5.1008001    1425.8828  0.042680879  0.042755095            4 
 2785000   0.81139416   -5.1148689    1420.7778  0.042512801  0.042744954            5 
 2786000   0.80744078   -5.1298608    1420.3448  0.042484588  0.042734709            9 
 2787000   0.81424683   -5.1292126    1427.6113  0.042686621  0.042724614            4 
 2788000   0.79883687   -5.1076815    1426.5948  0.042640926  0.042714655            6 
 2789000   0.83345547   -5.1270955    1425.0227  0.042578664  0.042704626            5 
 2790000   0.80926404   -5.1124203    1417.4161  0.042336203  0.042694578            7 
 2791000   0.81139323   -5.1430099    1422.4584  0.042471587  0.042684469            2 
 2792000   0.82581004   -5.1299537    1425.6701  0.042552234  0.042674436            9 
 2793000   0.79780306   -5.1144912    1423.9776  0.042486502   0.04266432            9 
 2794000   0.81189754   -5.1049674    1429.5409  0.042637226   0.04265442            2 
 2795000   0.81338787   -5.1256424    1427.7355  0.042568142  0.042644433            4 
 2796000   0.81129252     -5.10782     1419.859  0.042318161  0.042634333            7 
 2797000   0.80500364   -5.1098073    1421.6863  0.042357476  0.042624283           12 
 2798000   0.80224958   -5.1341811     1424.893  0.042437844  0.042614262           15 
 2799000   0.78766018   -5.1137151    1427.0113  0.042485748  0.042604187            6 
 2800000   0.81355779   -5.1262306    1423.1645  0.042356087  0.042594115            8 
 2801000   0.79507974   -5.1034028    1428.2104  0.042491086  0.042584033            2 
 2802000   0.80676198   -5.1290266    1427.6626   0.04245963  0.042574109            5 
 2803000   0.79850484   -5.1153437    1425.3922  0.042376984  0.042564085            5 
 2804000   0.80945432   -5.1290928    1423.1976  0.042296649  0.042553976            6 
 2805000   0.80495414   -5.1194632    1423.8577  0.042301179  0.042543946            5 
 2806000   0.81270219   -5.1174319    1424.3063  0.042299428  0.042533807            6 
 2807000   0.80448719   -5.1257597    1424.5173  0.042290623  0.042523683           10 
 2808000   0.77276537   -5.1590169    1424.0954  0.042263041  0.042513475            7 
 2809000   0.81055029   -5.1257435     1426.103  0.042307553  0.042503279            5 
 2810000   0.79368105   -5.1091075    1430.0776  0.042410368  0.042493198            4 
 2811000   0.80392012   -5.0905161    1429.8084    0.0423873  0.042483082            5 
 2812000   0.80641415   -5.1352775    1427.2677  0.042296933  0.042473077            5 
 2813000   0.81112796   -5.1238381    1425.7714  0.042237569  0.042462989            5 
 2814000   0.78469602   -5.1224582    1431.5592  0.042393958  0.042452992           10 
 2815000   0.80256498    -5.124106    1428.9168  0.042300674  0.042442962            6 
 2816000   0.79393223   -5.1237025    1427.8157  0.042253069   0.04243291            4 
 2817000   0.82277628   -5.1013589    1434.2408   0.04242814  0.042422871            7 
 2818000   0.78806364   -5.1109952    1436.4368  0.042478021   0.04241287            5 
 2819000   0.79478354    -5.137784    1428.6223  0.042231947  0.042402857           11 
 2820000   0.79300825   -5.0771633    1429.7321  0.042249766   0.04239289            7 
 2821000   0.79769132    -5.126366    1431.4439  0.042285357  0.042382907            4 
 2822000   0.80288334   -5.1083089    1431.6072  0.042275195  0.042372958            6 
 2823000   0.78699654   -5.1351436    1429.6215  0.042201602  0.042362998            4 
 2824000   0.78181215   -5.1378871    1426.2001  0.042085698  0.042352909            4 
 2825000   0.81135081   -5.1306918    1427.7263   0.04211582  0.042342825           13 
 2826000   0.80309121   -5.1560543     1425.908    0.0420473  0.042332873            4 
 2827000    0.8108358   -5.1229635    1432.2523  0.042219439  0.042322856            4 
 2828000   0.78627296   -5.1322097    1429.9586  0.042136921  0.042312816            8 
 2829000   0.81783312   -5.1343264    1433.3711  0.042222549  0.042302707            4 
 2830000    0.7691458   -5.1402751    1431.6597  0.042157236    0.0422926            7 
 2831000   0.79463366   -5.1414507    1429.8052  0.042087754  0.042282547           12 
 2832000   0.80368919   -5.1390522    1429.8683  0.042074749  0.042272561            6 
 2833000   0.81781758   -5.1389856    1431.7381    0.0421149  0.042262594            7 
 2834000   0.80631077   -5.1186016    1431.3363  0.042088224   0.04225264           10 
 2835000   0.80092352   -5.1027623     1437.908  0.042266548  0.042242764            4 
 2836000   0.79047431   -5.1269914    1433.4777  0.042121464  0.042232842           11 
 2837000   0.80084825    -5.108336    1430.7599  0.042026787  0.042222793            5 
 2838000   0.81909336   -5.1372441    1432.3776  0.042059479   0.04221275            8 
 2839000   0.80157125   -5.1011804    1438.0605  0.042211473   0.04220286            9 
 2840000   0.78555321   -5.1031851    1431.6148  0.042007476  0.042192889           12 
 2841000   0.79356808   -5.1352418    1435.1814  0.042097307  0.042182927            9 
 2842000   0.80025405   -5.1110975    1435.9313  0.042104484  0.042172956            6 
 2843000   0.78910642   -5.1312634    1437.0583  0.042122707  0.042162897            5 
 2844000   0.78797544   -5.1022905    1434.5194  0.042033504  0.042152835           10 
 2845000   0.78724236   -5.1185674    1436.4087   0.04207407  0.042142828            4 
 2846000   0.80201803   -5.1209319    1438.7407  0.042127568  0.042132887            6 
 2847000   0.79193091   -5.1181198     1432.005  0.041915614  0.042122804            5 
 2848000     0.801946   -5.1673749    1433.6453  0.041948891   0.04211281            6 
 2849000   0.79827247    -5.141473    1441.6687  0.042168852  0.042102829           13 
 2850000   0.79721898   -5.1127465    1436.9681  0.042016611  0.042092996            9 
 2851000   0.80787238   -5.1325198    1439.4898   0.04207558  0.042083076            5 
 2852000   0.80093218   -5.1304797    1437.5933  0.042005415   0.04207314            5 
 2853000   0.78875848   -5.1349501    1442.5717  0.042136106  0.042063196            7 
 2854000   0.78952622   -5.1338015    1437.4635  0.041972188  0.042053171            5 
 2855000   0.77200476   -5.1223121    1437.0797  0.041946285  0.042043278            6 
 2856000   0.80326322   -5.1370591    1434.8079   0.04186531  0.042033414           10 
 2857000   0.78797999   -5.1018924    1441.2801  0.042039437   0.04202352            6 
 2858000   0.79521214   -5.1497275    1441.2839   0.04202484  0.042013676            7 
 2859000   0.77263928   -5.1438275    1439.5144  0.041958564  0.042003777            4 
 2860000   0.78881971   -5.1303722     1438.429  0.041912266  0.041993905            3 
 2861000   0.80064553   -5.1370108    1437.5249  0.041871283  0.041984086            5 
 2862000   0.79350425    -5.112054    1440.6038  0.041946302  0.041974157            6 
 2863000   0.79563812   -5.1449226     1441.287  0.041951536    0.0419643            6 
 2864000   0.80191294   -5.1316904    1438.8976  0.041867366  0.041954503            5 
 2865000   0.78125714   -5.1063256    1440.2212   0.04189125  0.041944576            6 
 2866000   0.78527014   -5.1539704    1437.7773  0.041805573  0.041934612            6 
 2867000   0.78415217   -5.1434447    1439.2614  0.041834129   0.04192472            4 
 2868000   0.77529693    -5.108388    1444.3287   0.04196678  0.041914849            5 
 2869000   0.79158845   -5.1809675    1439.3587  0.041807794  0.041904858            7 
 2870000   0.79897094   -5.1493955    1437.0455  0.041726058  0.041894872            6 
 2871000   0.78749481   -5.1258058    1439.8945  0.041794221  0.041884919            7 
 2872000   0.78033929   -5.1496403    1443.6321  0.041888119  0.041874984            6 
 2873000   0.80820032   -5.1497902    1442.0858  0.041828686  0.041865002            7 
 2874000   0.78877016   -5.1377957    1440.4129  0.041765626  0.041855056            8 
 2875000   0.80326909   -5.1291406    1443.8316  0.041850192  0.041845235            8 
 2876000   0.80035934   -5.1651348    1437.4189   0.04164983  0.041835309            5 
 2877000   0.80689521   -5.1246596    1444.0017  0.041826026    0.0418253            8 
 2878000   0.81976884   -5.1470956    1439.4447  0.041679543  0.041815421           11 
 2879000   0.79963243    -5.175505    1438.1021  0.041626204  0.041805544            7 
 2880000   0.80461877   -5.1609403    1441.4631  0.041709001  0.041795679            9 
 2881000   0.79012561   -5.1491392    1440.6382  0.041670665  0.041785753            8 
 2882000   0.78739232   -5.1433513    1443.1279  0.041728196  0.041775739            9 
 2883000   0.78531907   -5.1594668    1439.3016  0.041603121  0.041765822            6 
 2884000   0.78631871     -5.13066    1446.8336  0.041806334  0.041756005            4 
 2885000   0.79163817   -5.1471331    1445.8598  0.041763715  0.041746169            3 
 2886000   0.79673957   -5.1410754    1443.8098  0.041690051  0.041736369            4 
 2887000   0.78728542   -5.1522489    1439.6708  0.041556137  0.041726423            9 
 2888000   0.80582418   -5.1583366    1445.0061  0.041695697  0.041716569            4 
 2889000   0.77588468   -5.1542635    1441.0814  0.041568058  0.041706603            8 
 2890000     0.777458   -5.1554229    1445.6989   0.04168682  0.041696707            5 
 2891000   0.78634462   -5.1404756    1445.4898  0.041666373  0.041686793            6 
 2892000   0.77583326   -5.1459392    1441.8317  0.041546557  0.041676887            4 
 2893000   0.78276986   -5.1918571     1444.196    0.0416003  0.041666934            8 
 2894000   0.78693168   -5.1660946    1449.1301  0.041728004  0.041656979           11 
 2895000   0.80233902   -5.1412663    1444.0612   0.04156768  0.041647117            6 
 2896000   0.78472919   -5.1509773    1444.6473  0.041570193  0.041637306           11 
 2897000   0.78434114   -5.1413428    1445.2334  0.041572702  0.041627531            3 
 2898000    0.7927214   -5.1343789    1443.3741  0.041504892   0.04161767            3 
 2899000   0.78068117   -5.1961712    1441.9057  0.041448365  0.041607747            3 
 2900000   0.80746123   -5.1252561    1449.6588  0.041656862  0.041597807            6 
 2901000    0.7956169   -5.1254677    1446.6049  0.041554776  0.041587883            5 
 2902000   0.79617836   -5.1481387    1446.1783  0.041528206  0.041578016            3 
 2903000   0.77834524   -5.1621907    1449.1513  0.041599245  0.041568116            5 
 2904000   0.78993133   -5.1398949    1443.8404  0.041432519  0.041558225            7 
 2905000   0.79049747   -5.1468911    1448.0701  0.041539589  0.041548284            3 
 2906000   0.77322067   -5.1484505     1442.582  0.041367917  0.041538414            6 
 2907000   0.78472584   -5.1310555    1449.5197  0.041552566  0.041528432            4 
 2908000   0.78481019   -5.1660383     1445.184  0.041414031  0.041518606            3 
 2909000   0.79338199    -5.168891    1445.9664  0.041422206  0.041508647            8 
 2910000   0.80507439   -5.1929805    1446.1635  0.041413616  0.041498611            7 
 2911000   0.79383095   -5.1802718    1443.4711  0.041322315  0.041488648           14 
 2912000   0.78778495   -5.1496871    1444.9894  0.041351574   0.04147863            6 
 2913000    0.7725781   -5.1673404    1445.0741  0.041339803  0.041468697            6 
 2914000   0.76866769   -5.1561691     1447.011  0.041381005  0.041458765            6 
 2915000   0.78461062   -5.1536233    1447.1749  0.041371496  0.041448854            7 
 2916000   0.78818736   -5.1156195    1448.7112   0.04140121  0.041438999            8 
 2917000   0.80330658   -5.1170184    1450.7552  0.041445412  0.041429129            6 
 2918000    0.7871715   -5.1449134    1450.3953   0.04142093  0.041419264            5 
 2919000   0.78703908   -5.1408743    1448.4607  0.041351509  0.041409272            6 
 2920000    0.7973482   -5.1506075    1449.2059  0.041358617  0.041399335            4 
 2921000   0.78453341   -5.1854647    1446.4411  0.041265579  0.041389361            4 
 2922000    0.7838685   -5.1848383    1446.1986  0.041244543  0.041379367            5 
 2923000   0.76957708    -5.126286    1455.5161  0.041496068  0.041369521            7 
 2924000    0.7722494   -5.1895437    1448.2483  0.041274747  0.041359581            8 
 2925000   0.77613954   -5.1731084    1446.4614  0.041209727  0.041349713           10 
 2926000   0.79006657   -5.1526959    1448.2886  0.041247681  0.041339914            6 
 2927000   0.78450292   -5.1688827    1450.1899  0.041287722  0.041330116            4 
 2928000   0.76833336   -5.1362403    1455.9897  0.041438686  0.041320273            6 
 2929000    0.7788111   -5.1609411    1450.2488  0.041261203  0.041310381            4 
 2930000   0.77818598    -5.134228    1447.2033  0.041160504  0.041300461            7 
 2931000   0.78066861   -5.1622257    1446.9223   0.04113847  0.041290712            5 
 2932000   0.78379147   -5.1709456     1447.911   0.04115254  0.041280753            3 
 2933000   0.78043246    -5.140735    1450.5209  0.041212663  0.041270793            7 
 2934000   0.78093103   -5.1679182    1452.7855  0.041262939  0.041260767            5 
 2935000   0.77238565   -5.1471562    1449.1868  0.041146701  0.041250855            5 
 2936000   0.78663536   -5.1462705    1452.1746  0.041217489  0.041240907            3 
 2937000   0.78649713   -5.1664672    1454.4299  0.041267448  0.041231041            4 
 2938000   0.78135251   -5.1777822    1447.9191   0.04106873  0.041221057            6 
 2939000   0.76569213   -5.1701283    1451.2518  0.041149252  0.041211132           12 
 2940000   0.77904175   -5.1655586    1450.4233  0.041111772  0.041201201            7 
 2941000   0.79715541    -5.150635    1454.3583  0.041209292  0.041191286            5 
 2942000   0.77253361   -5.1467661    1455.5456  0.041228916  0.041181476            5 
 2943000   0.79686683     -5.16377    1448.8232  0.041024554  0.041171635            7 
 2944000   0.76727088    -5.140789    1451.3572  0.041082347  0.041161728            3 
 2945000   0.77899149   -5.1643466    1457.1257  0.041231627  0.041151935            5 
 2946000   0.78037606   -5.1730247    1453.1261  0.041104496  0.041142052            6 
 2947000   0.77019901    -5.172004    1451.9275  0.041056652  0.041132147            6 
 2948000   0.78697861   -5.1706877    1454.7488  0.041122479  0.041122309            4 
 2949000   0.77460546   -5.1693663    1454.2704  0.041095015  0.041112469            8 
 2950000   0.79002935   -5.1890366    1453.0228  0.041045842  0.041102668            5 
 2951000   0.79124993   -5.1591067    1456.1267  0.041119584   0.04109292            3 
 2952000   0.78723376   -5.1662068    1452.8593  0.041013416  0.041083223            4 
 2953000   0.79386693   -5.1409035    1458.6268  0.041162286  0.041073558            4 
 2954000   0.77867751    -5.194389    1452.1123  0.040964577  0.041063832            6 
 2955000   0.78382814   -5.2133611    1451.7644  0.040940904  0.041053944            3 
 2956000   0.78777145   -5.1759177      1455.96  0.041045333   0.04104415            3 
 2957000   0.79009244   -5.1920338    1457.0082  0.041060991  0.041034305            6 
 2958000    0.7858801   -5.1872764    1455.5043  0.041004741  0.041024425            7 
 2959000   0.79108222   -5.1491233    1458.6381   0.04107914  0.041014593            5 
 2960000   0.76834126    -5.192357    1451.2788  0.040858074  0.041004664            6 
 2961000   0.75950244   -5.1484657    1455.6314  0.040966775  0.040994681            7 
 2962000   0.77014748   -5.1847474    1458.3634  0.041029805  0.040984691            9 
 2963000   0.76175245   -5.1787483     1454.508  0.040907527  0.040974782            7 
 2964000   0.78671732   -5.1701186    1454.9455  0.040906024  0.040964855            7 
 2965000   0.78314226   -5.1834381    1456.0027  0.040921942  0.040954995            8 
 2966000   0.78126542   -5.1718319    1456.4295  0.040920137  0.040945067            8 
 2967000   0.76842545     -5.18048    1460.9878  0.041034373   0.04093519            5 
 2968000   0.79342855   -5.1511085    1453.9349   0.04082252  0.040925383            3 
 2969000   0.78095006   -5.1834998    1455.1354  0.040842468  0.040915592            4 
 2970000   0.76838031   -5.1582561    1455.4632  0.040837911  0.040905737           11 
 2971000   0.77810997   -5.1986194    1452.7976  0.040749399  0.040895863            7 
 2972000   0.77943042   -5.1631493    1456.0661  0.040827335  0.040885879            4 
 2973000   0.76330868   -5.1676063    1456.9839  0.040839329  0.040875932            6 
 2974000   0.77919518   -5.1601101    1454.3359  0.040751398  0.040866015            6 
 2975000   0.77151345   -5.1879205     1456.113   0.04078748  0.040856155            4 
 2976000   0.79452298   -5.1865728    1459.9398   0.04088093  0.040846238           11 
 2977000   0.77844509   -5.1868985    1451.3989  0.040628117  0.040836253            5 
 2978000   0.78759742   -5.1539695    1458.8482   0.04082293  0.040826369            7 
 2979000   0.76723098   -5.1692606    1456.5746  0.040745626  0.040816445            4 
 2980000   0.77277221   -5.1556154    1455.7279  0.040708274  0.040806552            6 
 2981000   0.75900014   -5.2046928    1453.0426  0.040619553  0.040796536            5 
 2982000   0.76221295    -5.204922    1454.2436  0.040639492  0.040786469            4 
 2983000   0.78002301   -5.1731845    1457.7731   0.04072447  0.040776462            8 
 2984000   0.76466884   -5.1684229    1456.5104  0.040675559  0.040766415            4 
 2985000   0.78041888   -5.1767969     1454.803  0.040614265  0.040756424            9 
 2986000   0.76739572   -5.1928419    1452.6851  0.040541559  0.040746476            8 
 2987000    0.7817418   -5.2173064    1449.7997  0.040447486   0.04073643            8 
 2988000   0.78912616   -5.2054534    1455.4007  0.040590157  0.040726299           16 
 2989000   0.77149863   -5.1912704    1457.7636  0.040642455  0.040716259            9 
 2990000   0.76536882    -5.184799    1456.9154  0.040605224  0.040706283            6 
 2991000   0.77635902   -5.2024445    1453.9528  0.040509106  0.040696237            6 
 2992000   0.78103927   -5.1824988    1456.3562  0.040562505   0.04068621            8 
 2993000   0.75984073   -5.2227915    1452.6227  0.040445002  0.040676114            6 
 2994000   0.78724863   -5.1733088    1456.6692  0.040544122  0.040666048            7 
 2995000   0.77075288   -5.1766103    1456.1167   0.04051521  0.040656039            5 
 2996000   0.77035884   -5.1811187    1457.4195  0.040537925  0.040646035            4 
 2997000   0.77942115   -5.1638402    1459.7229  0.040588446  0.040636044            9 
 2998000   0.76405941   -5.1540666    1457.2097  0.040505052  0.040625969            8 
 2999000   0.76353426   -5.1966322    1457.5921   0.04050217  0.040615944            3 
 3000000   0.79868523   -5.1616865    1458.1537  0.040504269  0.040605893            5 
 3001000   0.75647105   -5.1876003    1458.4978  0.040500327  0.040595814            5 
 3002000   0.77882452    -5.153988    1456.3013  0.040425863  0.040585761            8 
 3003000    0.7756198   -5.1706465    1457.5266  0.040446404  0.040575709            6 
 3004000   0.77775318   -5.1796412    1454.0841  0.040337443  0.040565632            3 
 3005000   0.78136463   -5.1869205    1459.9325  0.040486205  0.040555571            7 
 3006000   0.78663695   -5.1954331    1455.3857  0.040346687  0.040545487            6 
 3007000   0.77293374   -5.2015041    1454.4944  0.040308569  0.040535351            4 
 3008000   0.76798568   -5.1568393    1463.9563  0.040557299  0.040525187            4 
 3009000   0.77674987   -5.1588711    1460.7199  0.040454191  0.040515111            8 
 3010000   0.77587471     -5.17202    1462.6752  0.040494885  0.040505098            6 
 3011000   0.77646648   -5.1878699    1459.5141  0.040393947  0.040495135            6 
 3012000    0.7898477   -5.1773493    1456.2095  0.040289106  0.040485083            6 
 3013000   0.77568768   -5.2105434    1459.0471  0.040354217   0.04047505            4 
 3014000   0.75576281   -5.1905021    1458.9999  0.040339524  0.040464927           13 
 3015000   0.78719312   -5.1849955    1457.3312  0.040280021   0.04045479           17 
 3016000   0.76782895   -5.2142675    1457.6218  0.040274696  0.040444631            6 
 3017000   0.77531163   -5.1664103    1456.9822   0.04024368  0.040434506            6 
 3018000   0.76490205   -5.1986388    1456.8405  0.040226432  0.040424377           13 
 3019000   0.77134918   -5.1715898    1463.9908  0.040410477  0.040414265           13 
 3020000   0.78273083   -5.1831238    1458.9127  0.040256973  0.040404238            4 
 3021000   0.77313789   -5.1942185    1459.1706   0.04025076  0.040394197            4 
 3022000   0.77608736   -5.1862406    1461.5776  0.040303816   0.04038419            7 
 3023000   0.77057972   -5.1958839    1458.0511  0.040193271  0.040374104           13 
 3024000   0.76042261   -5.1709792    1461.6578  0.040279371  0.040364067            5 
 3025000   0.76560091   -5.1778852    1461.0926  0.040250484  0.040354159            6 
 3026000   0.76110472   -5.2232391    1459.1106  0.040182599   0.04034407            4 
 3027000   0.75395473   -5.1692892    1459.0204  0.040166843  0.040334017            6 
 3028000   0.76646769   -5.1792113    1458.3615  0.040135445  0.040323835            8 
 3029000   0.77749947   -5.2220943    1457.3819  0.040095244  0.040313634            5 
 3030000   0.76475051   -5.2150097    1457.0441  0.040072719   0.04030346            9 
 3031000   0.76138506   -5.1783207    1460.5438   0.04015572  0.040293303            3 
 3032000   0.76562207   -5.1803183    1458.8324  0.040095438  0.040283173            3 
 3033000    0.7691562    -5.189942    1461.4637  0.040154515  0.040273111            4 
 3034000   0.77439631   -5.1816913    1459.0111  0.040073915  0.040262991            7 
 3035000   0.75812419   -5.1858423    1462.0155  0.040143206  0.040252855            7 
 3036000   0.75468735    -5.205293    1458.6013  0.040036269  0.040242792            6 
 3037000   0.77022038   -5.1761103    1459.5625  0.040049459  0.040232633            5 
 3038000   0.78121599   -5.1985917    1461.7135   0.04009528  0.040222592            4 
 3039000    0.7791003   -5.1958338    1458.5189  0.039994485  0.040212448            6 
 3040000   0.77095093   -5.1981181    1459.4005  0.040005497  0.040202323            7 
 3041000   0.76737615   -5.2425562    1462.4721  0.040076513  0.040192184            5 
 3042000   0.76502692   -5.2097947    1459.6086  0.039984895  0.040182098            9 
 3043000   0.76947433   -5.2032234    1461.2697  0.040017245  0.040172051           17 
 3044000   0.75695814   -5.2008991    1460.9624  0.039995686  0.040162043           12 
 3045000   0.76044152    -5.182152    1462.1715   0.04001564  0.040151999            3 
 3046000   0.76446223   -5.1864117    1465.1414  0.040083754  0.040141965            6 
 3047000   0.77019145   -5.1839728      1464.39   0.04005005  0.040131905            4 
 3048000   0.76721868   -5.2091633    1460.9549  0.039942991  0.040121891            4 
 3049000   0.77028087   -5.2275407    1465.3602  0.040050296  0.040111849           13 
 3050000   0.76938764    -5.187034    1464.8302  0.040022682  0.040101862            5 
 3051000   0.77282722   -5.1612419    1468.1858  0.040101217  0.040091858            7 
 3052000   0.76302106   -5.2071351    1461.7916  0.039913488   0.04008192            4 
 3053000   0.75325067   -5.1771674    1463.3693  0.039943478  0.040071902            7 
 3054000   0.76712195   -5.2063808    1463.2478  0.039927084  0.040061922            6 
 3055000   0.75131656   -5.1947504    1463.4776  0.039920285  0.040051953            4 
 3056000   0.75476327   -5.2063081    1464.1438  0.039925386  0.040041996           11 
 3057000   0.76220137   -5.2057644     1461.986  0.039853507    0.0400321            6 
 3058000   0.78814191   -5.2132384    1463.3425   0.03987744  0.040022086            6 
 3059000   0.77859852   -5.2037583     1466.324  0.039945626  0.040012143            6 
 3060000   0.76430388   -5.1953365    1467.9905  0.039977955  0.040002282            8 
 3061000   0.75631236     -5.17602     1466.424  0.039922248  0.039992319            7 
 3062000   0.74946528   -5.1911176    1466.2037  0.039903215  0.039982422            9 
 3063000   0.75503588   -5.1951751    1471.3572  0.040030396  0.039972548            9 
 3064000   0.75844459    -5.231411    1466.1892  0.039876775  0.039962631            5 
 3065000   0.75667888   -5.2201862    1461.6823  0.039741225  0.039952699            8 
 3066000   0.75793506   -5.1806265    1471.0689   0.03998339  0.039942798           11 
 3067000   0.75828953   -5.1959714    1464.7975  0.039799955  0.039932963            5 
 3068000   0.76275484   -5.2306439    1464.8732  0.039789038  0.039923032            9 
 3069000   0.76551627   -5.2008689     1468.005  0.039861112  0.039913038            5 
 3070000    0.7648041   -5.1947243    1469.5039  0.039888815  0.039903119           10 
 3071000   0.77115413   -5.2131247    1469.5121  0.039876047  0.039893211            9 
 3072000   0.74999777   -5.1904398    1466.4694  0.039780527  0.039883288            5 
 3073000   0.75449779   -5.1709826     1469.373  0.039846323  0.039873447            7 
 3074000   0.74955942   -5.1898825    1463.7279  0.039680326  0.039863538            5 
 3075000   0.76009152   -5.2160353    1466.1832  0.039733963  0.039853605           11 
 3076000   0.78624229   -5.1979345    1470.6382  0.039841738  0.039843816            8 
 3077000    0.7671343    -5.216524    1470.1903  0.039816658  0.039833963           11 
 3078000   0.75697611   -5.1997056    1470.4551  0.039810892   0.03982416            5 
 3079000   0.75662246   -5.1997788    1471.5552  0.039827737  0.039814358            8 
 3080000   0.75385532   -5.2235946    1467.8586   0.03971479    0.0398045            5 
 3081000   0.75977034   -5.2214073    1467.9434  0.039704192  0.039794628           12 
 3082000   0.78550786   -5.2256904      1466.71  0.039657959  0.039784706            8 
 3083000   0.77191951   -5.1959193    1470.8904  0.039758091  0.039774767            5 
 3084000   0.74447154   -5.1842671     1469.415  0.039705333  0.039764954           10 
 3085000   0.76047443   -5.1980923    1469.7978  0.039702803  0.039755172            5 
 3086000   0.74983867   -5.1808053    1471.1944  0.039727651  0.039745313            6 
 3087000   0.75090771   -5.2054373    1470.1459  0.039686479  0.039735444           10 
 3088000   0.76286425   -5.2009779    1469.7855  0.039663901  0.039725517            8 
 3089000   0.75316687   -5.2185404    1467.7599  0.039596416  0.039715657            5 
 3090000   0.77770252   -5.2350668    1469.2803  0.039624604  0.039705711            6 
 3091000   0.77783629   -5.2268878    1471.1068  0.039661027   0.03969574            4 
 3092000   0.74596726   -5.2049726    1470.3671  0.039628263  0.039685795           10 
 3093000   0.75989531   -5.2078424    1472.2347   0.03966577  0.039676013            8 
 3094000   0.76348604    -5.221395    1472.8654  0.039669936  0.039666054            6 
 3095000   0.75393214   -5.1791212    1473.5703  0.039676099   0.03965623            7 
 3096000   0.74806624   -5.1846079    1473.0076  0.039648137  0.039646408            6 
 3097000   0.76195659   -5.2085038    1472.5126  0.039622015  0.039636527           15 
 3098000   0.76423301   -5.1931124    1475.4831   0.03968913   0.03962672            8 
 3099000   0.75839127   -5.2231403    1472.8917  0.039606639  0.039616861            6 
 3100000   0.73828646   -5.1962943    1468.8045  0.039483993  0.039606956            9 
 3101000    0.7613099   -5.2330854    1471.0932  0.039532763  0.039597046            6 
 3102000   0.74365518   -5.2007725    1470.5933  0.039506591  0.039587166            8 
 3103000    0.7528648   -5.2285884    1469.9088  0.039475476  0.039577287            3 
 3104000   0.75449615   -5.2328865    1468.2338  0.039417789  0.039567379            6 
 3105000   0.76062683   -5.2094783    1473.2241  0.039539025  0.039557427            8 
 3106000   0.75362356   -5.2280128    1470.1478  0.039443758  0.039547517            8 
 3107000   0.75758422   -5.2239752     1472.432  0.039492328  0.039537644           14 
 3108000   0.75116096   -5.2501619    1473.1123  0.039497862  0.039527789           13 
 3109000   0.74797149   -5.1935254    1474.8278  0.039531142  0.039518003            7 
 3110000   0.75720386   -5.2003678     1476.188  0.039554877  0.039508293            7 
 3111000    0.7486192   -5.2262221    1474.2255  0.039489592  0.039498539            5 
 3112000   0.75193896   -5.2395208    1470.1574  0.039367967  0.039488719            9 
 3113000   0.77154725   -5.2194624    1475.2175  0.039490778  0.039478891            5 
 3114000   0.74880195   -5.2232222    1473.1553  0.039422909  0.039469063            9 
 3115000   0.74776523     -5.19113    1477.7303  0.039532646  0.039459247            7 
 3116000   0.72241898   -5.2350623    1475.3489  0.039456273  0.039449403            7 
 3117000    0.7490536   -5.2191018    1472.8658  0.039377227  0.039439563            4 
 3118000   0.75972316   -5.2660399    1471.2792  0.039322193  0.039429742            5 
 3119000   0.77202413   -5.2179712    1476.2361  0.039442024  0.039419889           15 
 3120000    0.7633217   -5.2484966    1472.0283  0.039316995  0.039410106            7 
 3121000   0.74128652   -5.2318746    1473.6834  0.039348591  0.039400199            5 
 3122000   0.75022334   -5.2074522    1480.7465  0.039524518  0.039390455            7 
 3123000   0.75363893   -5.2328287    1476.6991   0.03940386  0.039380729            4 
 3124000    0.7545966   -5.2517883    1476.1238  0.039375902  0.039370921            7 
 3125000     0.743725   -5.2319993    1473.5006  0.039293348  0.039361077            5 
 3126000   0.76026788   -5.2460081    1472.7374  0.039260434  0.039351217            6 
 3127000   0.75013008   -5.2302323    1475.6128  0.039324506  0.039341275            9 
 3128000   0.75686973     -5.25343    1470.0827  0.039164608  0.039331334           10 
 3129000   0.75676714    -5.211549    1476.9008  0.039333675  0.039321496            7 
 3130000   0.75153482   -5.2310165    1478.4225  0.039361622  0.039311711            6 
 3131000   0.74726467   -5.2682556    1475.5687  0.039273093  0.039301817            4 
 3132000   0.75766338   -5.2305426    1473.6961  0.039210732  0.039291973            5 
 3133000    0.7579684    -5.256898    1477.6275  0.039302786   0.03928217            9 
 3134000   0.75137953   -5.2157663    1479.9873  0.039352993  0.039272323            6 
 3135000   0.75214447   -5.2557616    1476.2614  0.039241398  0.039262559            7 
 3136000   0.74186297   -5.2075885     1482.569  0.039396498  0.039252798            8 
 3137000   0.77647485   -5.2353043    1476.3677  0.039219203  0.039243031            4 
 3138000   0.73794083   -5.2451623     1472.307  0.039098868  0.039233211            9 
 3139000   0.73170559    -5.239758    1473.0731  0.039106752  0.039223359           10 
 3140000   0.75253773   -5.2131002    1473.7144  0.039111316   0.03921353            6 
 3141000   0.75051523   -5.2426412     1476.865  0.039182453  0.039203723            5 
 3142000     0.745027   -5.2111924    1478.0241  0.039200724  0.039193955            8 
 3143000   0.75727347   -5.2190578    1479.3504  0.039223418  0.039184226            8 
 3144000   0.75672329   -5.2429687     1477.755  0.039168653   0.03917442            9 
 3145000   0.74942068   -5.2498139     1473.526  0.039044145  0.039164569            8 
 3146000   0.74614325   -5.2296226    1482.7772  0.039276786  0.039154721            4 
 3147000   0.74511644   -5.2071431    1476.4893    0.0390978  0.039144895            3 
 3148000   0.75414148    -5.217554    1477.0819  0.039101066  0.039135052            9 
 3149000     0.738458   -5.2450377    1479.2566    0.0391462  0.039125217            9 
 3150000   0.74258493   -5.2323112    1480.0352   0.03915437   0.03911539           10 
 3151000   0.75999793   -5.2379346    1478.0185   0.03908861  0.039105601            5 
 3152000   0.75809677   -5.2297175    1482.4908  0.039194449  0.039095799            8 
 3153000   0.74553816   -5.2147737    1477.2369  0.039043158  0.039086027           10 
 3154000   0.75141999   -5.2197909     1481.148  0.039134116  0.039076233            5 
 3155000   0.75288527   -5.2280033    1479.0625  0.039066627  0.039066401            9 
 3156000    0.7585855   -5.2171636    1480.3934   0.03908939  0.039056505            7 
 3157000   0.75923574   -5.2608542    1478.5337  0.039027918  0.039046698           10 
 3158000   0.73117529     -5.25124     1482.381  0.039117083  0.039036853            6 
 3159000   0.73533384   -5.2417159     1481.577  0.039083493   0.03902706            8 
 3160000   0.73327006   -5.2579589    1476.8056  0.038945296   0.03901723            9 
 3161000   0.74697821   -5.2401161    1476.2594  0.038918576  0.039007434            5 
 3162000   0.75370044   -5.2162846    1485.1201  0.039139787  0.038997754            7 
 3163000    0.7422069   -5.2071829    1486.0948  0.039153092  0.038988127            7 
 3164000   0.75029445   -5.2559872    1482.3739  0.039042716  0.038978377            7 
 3165000   0.74958246   -5.2448453    1480.8985  0.038991535   0.03896861            6 
 3166000   0.73126584   -5.2392358    1480.3197  0.038963983  0.038958889            7 
 3167000   0.73976489   -5.2546743    1482.0759  0.038997892  0.038949195            7 
 3168000   0.75467726    -5.233443    1481.4929  0.038970248  0.038939539           17 
 3169000   0.74415175   -5.2512769    1483.6415   0.03901445  0.038929832            6 
 3170000   0.74763393    -5.255562    1480.3902  0.038916673  0.038920127            8 
 3171000    0.7463334   -5.2325049    1484.7659  0.039019391  0.038910394            9 
 3172000   0.73800886   -5.2531021     1481.675  0.038925887  0.038900733           11 
 3173000    0.7440501   -5.2352256    1485.5894  0.039016424  0.038891024            3 
 3174000    0.7523821    -5.236802    1486.3751   0.03902476  0.038881271            6 
 3175000   0.73608386   -5.2327076    1480.6521   0.03886226  0.038871596            6 
 3176000   0.75373838    -5.230224    1480.4085  0.038843633  0.038861957           11 
 3177000   0.73944505   -5.2270451    1484.4637  0.038937773  0.038852345            7 
 3178000   0.74407771   -5.2417285       1483.6  0.038902875  0.038842799            9 
 3179000   0.73326175   -5.2483552    1483.4176  0.038885856  0.038833172            4 
 3180000   0.74866385   -5.2406169    1486.0751  0.038943269  0.038823442            7 
 3181000   0.73128117   -5.2299418    1485.6447  0.038919749  0.038813856           14 
 3182000    0.7452283    -5.248167    1486.3076  0.038924879  0.038804277           12 
 3183000   0.72480714   -5.2562639    1484.3001  0.038860092    0.0387947           12 
 3184000   0.73648709   -5.2514005    1485.9117  0.038890068  0.038785009            5 
 3185000   0.73550936   -5.2588025    1483.6572   0.03881887  0.038775252           13 
 3186000   0.73565407   -5.2564944    1486.9676  0.038893274  0.038765552            5 
 3187000   0.74777274   -5.2406127    1488.1867  0.038912945  0.038755887           11 
 3188000   0.73252575   -5.2038321    1485.6595   0.03883468  0.038746165            7 
 3189000    0.7459282   -5.2660827    1486.7397   0.03885073  0.038736501            7 
 3190000   0.76295078    -5.258195    1481.3402  0.038697497  0.038726836            5 
 3191000   0.74557497   -5.2483948    1487.8911  0.038856448  0.038717176           11 
 3192000   0.73843783   -5.2380085    1486.7261  0.038813859  0.038707538            9 
 3193000   0.75253019    -5.257073    1486.2267  0.038788671  0.038697902            6 
 3194000    0.7294251   -5.2310298    1483.3607  0.038701752  0.038688279            4 
 3195000   0.73764728     -5.25492    1487.1544  0.038788587   0.03867867            4 
 3196000   0.73834755    -5.236524    1488.0635  0.038800154  0.038669073            7 
 3197000   0.74391577   -5.2659323    1487.7575  0.038780041   0.03865943            5 
 3198000   0.74875688   -5.2496411    1487.3841  0.038758185    0.0386497           12 
 3199000    0.7440867   -5.2266892    1492.5878  0.038881623  0.038640093           10 
 3200000   0.74037463   -5.2489836    1485.5565  0.038686366  0.038630478            8 
 3201000    0.7264182    -5.254317    1485.2589  0.038666534   0.03862089            8 
 3202000   0.73921999    -5.282514     1482.017  0.038570087  0.038611206            3 
 3203000   0.73056161   -5.2333969    1488.1216  0.038716868  0.038601575            5 
 3204000   0.74584699   -5.2544911    1482.1946   0.03855063  0.038592047            4 
 3205000   0.74891709   -5.2583582     1486.944  0.038662091  0.038582365            6 
 3206000   0.75004476   -5.2449236    1490.5263  0.038743145  0.038572764           12 
 3207000   0.74424417   -5.2657274    1487.4067  0.038650002  0.038563185           12 
 3208000   0.73926012    -5.280116    1487.2009  0.038632608  0.038553497           12 
 3209000   0.77473331   -5.2851351    1487.8926  0.038638533  0.038543843            7 
 3210000   0.74970972   -5.2246643    1490.0413  0.038682276  0.038534163            7 
 3211000   0.73686521   -5.2750265    1487.9141  0.038615024  0.038524546           18 
 3212000   0.72867581   -5.2501835    1488.8902  0.038628326  0.038514901            5 
 3213000   0.72908653   -5.2752001    1487.1352  0.038570787  0.038505186            3 
 3214000   0.73360642   -5.2722594    1491.9179  0.038682792   0.03849555            9 
 3215000   0.73511083   -5.2842761    1485.7982  0.038512135  0.038485843            5 
 3216000   0.73824827    -5.240864    1487.5064  0.038544423  0.038476187           11 
 3217000   0.72416886   -5.2555807    1488.3908  0.038555351  0.038466552           13 
 3218000   0.73675922   -5.2585353    1488.2007  0.038538447  0.038456904            9 
 3219000   0.75616171   -5.2576521    1491.3655  0.038608405   0.03844727            5 
 3220000   0.72016092   -5.2420855    1488.6196  0.038525351  0.038437636            9 
 3221000     0.738085   -5.2592068    1492.7801  0.038621031   0.03842797            6 
 3222000   0.73376133   -5.2653325     1492.604  0.038604489  0.038418372            7 
 3223000   0.74238549   -5.2582489    1492.4508  0.038588552  0.038408873            5 
 3224000   0.73278309    -5.251202    1489.6879  0.038505167  0.038399316            6 
 3225000   0.73818997   -5.2574621    1490.9004  0.038524557  0.038389826           14 
 3226000   0.71618709   -5.2490505    1497.8552  0.038692271  0.038380275            6 
 3227000   0.74013649   -5.2474712     1490.834  0.038498968  0.038370701            7 
 3228000   0.73381377   -5.2755639    1486.0657  0.038363943  0.038361178            7 
 3229000    0.7253189   -5.2487672    1494.1472  0.038560629  0.038351643            5 
 3230000   0.73924906   -5.2429368     1492.416  0.038504026  0.038342068            8 
 3231000   0.72765879    -5.271646    1490.3952  0.038439987  0.038332466           12 
 3232000   0.72936229   -5.2599081     1490.046  0.038419091  0.038322827            8 
 3233000   0.71389503    -5.264342    1491.0799  0.038433855  0.038313276            5 
 3234000   0.72881775   -5.2533622    1490.5033  0.038407114  0.038303628            5 
 3235000   0.72882628   -5.2627306    1492.2044  0.038439062  0.038294019            7 
 3236000   0.72473643   -5.2799211    1487.4602   0.03830501  0.038284378            9 
 3237000   0.74126883   -5.2701868    1492.1127  0.038412953  0.038274808           18 
 3238000   0.74643835     -5.27184    1491.6924  0.038390273  0.038265245            4 
 3239000   0.74042898   -5.2504943     1489.591  0.038324355  0.038255586            8 
 3240000   0.72609907   -5.2701505    1487.7049  0.038264014  0.038246045            6 
 3241000   0.72792866   -5.2691677    1492.4505   0.03837423  0.038236484            6 
 3242000   0.73216923   -5.2593854    1494.4325  0.038413339  0.038226945            5 
 3243000   0.73457783   -5.2711972    1492.0533  0.038340356  0.038217492           22 
 3244000   0.74701251   -5.3103677    1491.0971  0.038303975  0.038207978           15 
 3245000   0.73531905   -5.2722493    1491.8156  0.038310621  0.038198311            5 
 3246000   0.73800696   -5.2402208    1490.9862  0.038277526  0.038188805            4 
 3247000    0.7277349   -5.2836299    1492.6134  0.038307499  0.038179177            4 
 3248000   0.73550013    -5.270593    1491.5103  0.038267402  0.038169641            6 
 3249000   0.75379114   -5.2891045    1492.3364  0.038276813   0.03816011            6 
 3250000   0.72610244   -5.2757043    1495.7044  0.038351395  0.038150527            6 
 3251000   0.71873021   -5.2611806    1495.7901  0.038341794  0.038140988            9 
 3252000   0.71912846   -5.2758207     1493.568  0.038273063  0.038131418            7 
 3253000   0.72243756   -5.2984474    1488.6073  0.038134218  0.038121818            7 
 3254000   0.72399452   -5.2598005    1491.2428  0.038189993  0.038112205           10 
 3255000    0.7380724   -5.2877249     1491.993  0.038197465  0.038102622            6 
 3256000   0.72699266   -5.2579756    1493.8482  0.038233215  0.038093066            7 
 3257000   0.72388765   -5.2995199    1489.6674  0.038114507  0.038083417            9 
 3258000   0.73833637   -5.2903733    1493.4681  0.038200023  0.038073813           12 
 3259000   0.72900244    -5.293313    1490.3738  0.038109179  0.038064237            9 
 3260000   0.73411367   -5.2799095    1493.1243  0.038167798  0.038054616           15 
 3261000   0.75179589   -5.2820889    1493.2619  0.038159611  0.038045013            4 
 3262000   0.73959265   -5.2605458    1496.7396  0.038236757  0.038035513            7 
 3263000   0.73265939   -5.2884313    1490.3415  0.038061637  0.038025964           11 
 3264000   0.72561238   -5.2967259       1493.9   0.03814083  0.038016378            5 
 3265000   0.73744274   -5.2705835    1494.4691  0.038143672  0.038006803           10 
 3266000   0.72969027   -5.2692224    1501.1595  0.038302703  0.037997267            3 
 3267000   0.73944716    -5.279582     1492.168  0.038061627   0.03798781            9 
 3268000   0.72995562   -5.2804925    1500.0016  0.038249734  0.037978333           10 
 3269000   0.73151255   -5.2757059    1493.1722   0.03806394   0.03796876           10 
 3270000   0.72680881   -5.2883841    1493.8311  0.038069091  0.037959245            8 
 3271000   0.74001384   -5.2817052    1492.0709  0.038012609  0.037949679            8 
 3272000   0.71483325   -5.2810219    1494.8712  0.038072311  0.037940145            9 
 3273000   0.72907686   -5.2854933    1491.0922  0.037964462  0.037930625           10 
 3274000   0.72297267   -5.2940706    1495.0807  0.038054386  0.037921041           12 
 3275000   0.72781635     -5.27732    1496.2635  0.038072863  0.037911449            8 
 3276000   0.72960084   -5.2825628    1497.9884  0.038105118  0.037901853           22 
 3277000   0.73611072   -5.2890918    1492.6598  0.037957986  0.037892177            6 
 3278000   0.72587134   -5.2775936    1498.7318  0.038100768  0.037882645            5 
 3279000   0.72955885    -5.290908     1497.181  0.038049735  0.037873172            4 
 3280000   0.71553763   -5.2933016    1495.2409  0.037988845  0.037863693            8 
 3281000    0.7305093   -5.2715615    1496.3801  0.038006201  0.037854256           15 
 3282000   0.73045396   -5.2704206    1496.8258  0.038005936  0.037844785           18 
 3283000   0.71244872   -5.2794656      1498.76  0.038043456  0.037835397           10 
 3284000   0.72440906   -5.3016937    1498.9647  0.038037065  0.037825965            7 
 3285000   0.73101415   -5.2810757    1503.1967  0.038132845  0.037816609            9 
 3286000   0.74078238   -5.2741038    1500.6686  0.038057125  0.037807259            3 
 3287000    0.7262307   -5.2720034    1499.5008   0.03801594   0.03779789           15 
 3288000   0.73059509   -5.2853039     1501.293  0.038049802  0.037788539           11 
 3289000   0.72343045    -5.274171    1501.2238  0.038036479  0.037779119            7 
 3290000   0.71972809   -5.2972227    1500.5521  0.038007905  0.037769733            7 
 3291000   0.73543025   -5.2658303    1501.0064  0.038007859  0.037760415            7 
 3292000   0.72358666   -5.2719123    1498.8179  0.037940914  0.037751033            6 
 3293000   0.72756028    -5.302473     1496.389  0.037867926  0.037741565           10 
 3294000   0.71799808    -5.292332    1503.7772  0.038043342  0.037732094            4 
 3295000   0.73170587   -5.2889977    1498.6679  0.037902578  0.037722703            5 
 3296000    0.7299864   -5.2861588     1502.185      0.03798  0.037713321            4 
 3297000   0.71906035   -5.3089758    1498.7736  0.037882256  0.037703913           16 
 3298000   0.73411166   -5.2969005    1497.7515  0.037844943  0.037694422            8 
 3299000    0.7059034   -5.2988905    1500.0371  0.037891208  0.037684897            6 
 3300000   0.72533159   -5.2959642    1500.5958  0.037893833  0.037675464            4 
 3301000   0.73353483   -5.2833177    1502.9118  0.037940822   0.03766608           17 
 3302000   0.72117292   -5.2931702    1498.1493  0.037809137  0.037656667            9 
 3303000   0.74384084   -5.2884334    1502.3616  0.037903967  0.037647303            4 
 3304000   0.70853214   -5.2829779    1503.9378  0.037932249  0.037637943            5 
 3305000   0.71879796   -5.2901888    1500.6764  0.037838538  0.037628591            8 
 3306000   0.73429979   -5.2748628    1498.4071  0.037769891  0.037619225            5 
 3307000    0.7395073   -5.2888958    1499.7063  0.037791209  0.037609815            7 
 3308000   0.73044786   -5.2614818      1504.93  0.037911378  0.037600428            8 
 3309000   0.74251649   -5.3113451    1501.0011  0.037800975  0.037591017            8 
 3310000   0.71595078   -5.2834781    1500.0735    0.0377662  0.037581592           10 
 3311000   0.72843035   -5.2879126     1497.237  0.037683403  0.037572203           10 
 3312000   0.73013062   -5.2791003    1499.5847  0.037731097  0.037562777            4 
 3313000   0.71225316   -5.2682814    1504.6109  0.037846133   0.03755339           20 
 3314000   0.70549601   -5.2903453     1509.271  0.037951896  0.037544058            5 
 3315000   0.72383887    -5.254664    1500.0518  0.037708693  0.037534727            6 
 3316000   0.72420326   -5.2939195    1502.4911  0.037758623   0.03752536            8 
 3317000    0.7223631   -5.2812057    1504.9254  0.037808396  0.037516039            7 
 3318000   0.72151217   -5.2847076     1499.755  0.037667143  0.037506667            4 
 3319000   0.71989611   -5.2878038    1502.2447  0.037718307  0.037497296            7 
 3320000   0.73536167   -5.3040632    1498.7981  0.037620435  0.037487887            3 
 3321000   0.72419632    -5.305169    1504.7275  0.037757892  0.037478483            6 
 3322000   0.72149105   -5.2825246    1500.4879  0.037640174  0.037469109           11 
 3323000   0.71887379   -5.3111543    1500.7862  0.037636327  0.037459698            5 
 3324000   0.71608811   -5.2873223    1502.7079  0.037673182  0.037450287            4 
 3325000   0.72472309   -5.2673202     1504.514  0.037707118  0.037440929            4 
 3326000   0.70740935   -5.3089009     1502.903  0.037655417  0.037431538            7 
 3327000   0.71666041   -5.2873499    1502.4481  0.037632704  0.037422181            8 
 3328000   0.72264887   -5.3060823    1504.8256   0.03768093  0.037412818            8 
 3329000   0.69492481   -5.3206436    1502.0119  0.037599175  0.037403457           10 
 3330000   0.72767388   -5.3029177     1499.195  0.037517393  0.037394025            6 
 3331000   0.72225003   -5.3068431    1503.3176  0.037609267  0.037384608            6 
 3332000   0.71122844   -5.3092144    1503.2141  0.037595391  0.037375221            6 
 3333000   0.72278003   -5.3040782    1503.5955  0.037593646  0.037365889            7 
 3334000   0.71357666   -5.3113552    1502.8253  0.037563119  0.037356475            8 
 3335000   0.71155147   -5.3101544     1502.464  0.037542827  0.037347118            6 
 3336000   0.71503845   -5.2934285    1506.9942  0.037644738  0.037337769           12 
 3337000   0.73366876   -5.3087698    1506.2672  0.037615303  0.037328416            9 
 3338000   0.72069684   -5.2875749    1503.8923  0.037544745  0.037319047            7 
 3339000   0.72047384   -5.3040047    1503.8794  0.037533178  0.037309742            7 
 3340000   0.71923864   -5.3157054    1502.9951  0.037499877  0.037300377           12 
 3341000   0.71593165   -5.2859032    1505.3509  0.037547413  0.037291023           17 
 3342000     0.715755   -5.3191826    1503.8884   0.03749971   0.03728167            5 
 3343000   0.70421224    -5.292361    1503.8434  0.037487372  0.037272331            7 
 3344000   0.73307052    -5.305997     1503.081  0.037457161   0.03726302            8 
 3345000   0.71456286   -5.2948311    1506.6876  0.037535816  0.037253676            9 
 3346000   0.71577892    -5.310368    1508.0643  0.037558884  0.037244359           11 
 3347000   0.72551614   -5.2994952    1502.7448  0.037415217  0.037235016            6 
 3348000   0.71280982   -5.3213491    1502.7421  0.037403974   0.03722564           10 
 3349000   0.72101259   -5.2993354    1502.4658  0.037385931  0.037216276            9 
 3350000   0.72425483   -5.3037048    1505.9022  0.037460254  0.037206931            7 
 3351000   0.70007405   -5.3207717    1504.2186  0.037407206  0.037197582           10 
 3352000   0.71080039   -5.3139311    1509.4889  0.037527072  0.037188217            7 
 3353000   0.72672381   -5.3044247    1512.7791  0.037597651  0.037178874           10 
 3354000    0.7275989   -5.3115308     1503.961  0.037367348  0.037169634            9 
 3355000   0.71971559   -5.3117703     1505.993   0.03740668   0.03716029           10 
 3356000   0.72130599   -5.3099066    1502.1472   0.03730004   0.03715102            7 
 3357000   0.72415897   -5.2895012    1510.8355  0.037504605  0.037141749           14 
 3358000   0.70315334   -5.3174873    1504.3328  0.037332063   0.03713244            6 
 3359000   0.71427741   -5.3150186    1505.0813  0.037339517  0.037123078           13 
 3360000   0.72427005   -5.3192053    1507.4142  0.037386264  0.037113731           10 
 3361000   0.70967825   -5.3238588    1504.8141  0.037310673  0.037104368           11 
 3362000   0.71603311   -5.3222813    1503.8605  0.037275939  0.037094935            2 
 3363000   0.72729177   -5.2984287    1502.1117   0.03722152  0.037085543            7 
 3364000    0.7002775    -5.335983    1501.3623  0.037191891  0.037076131            3 
 3365000   0.70549062   -5.2913695    1506.5004  0.037308083  0.037066735            4 
 3366000   0.70247798   -5.3022113    1504.6445  0.037251052   0.03705737            7 
 3367000   0.70398772   -5.3011881    1506.3914  0.037283225   0.03704804           13 
 3368000   0.71365451    -5.321904    1502.8976   0.03718571  0.037038684           12 
 3369000   0.72448767   -5.2854466    1513.4568  0.037435856  0.037029404            5 
 3370000    0.7335321   -5.3032461    1503.2983  0.037173549  0.037020091           11 
 3371000   0.69640123   -5.3098844    1508.0175  0.037279183  0.037010753            7 
 3372000   0.73140659   -5.2909208    1506.6993  0.037235551   0.03700139           10 
 3373000    0.7162682   -5.3173118    1504.8367  0.037178493   0.03699197            8 
 3374000   0.72813996   -5.3025474    1510.5433  0.037308421  0.036982627            9 
 3375000   0.71547905   -5.3185101    1505.0478  0.037161674  0.036973301           12 
 3376000   0.69452887   -5.3159265    1505.2998  0.037156886  0.036963883            7 
 3377000   0.71238925   -5.3327432    1505.7417  0.037156789  0.036954501            8 
 3378000   0.70128406   -5.3350436     1511.119  0.037278444   0.03694516            4 
 3379000   0.69615949   -5.3068538    1507.5542  0.037179496  0.036935803            9 
 3380000   0.68840243   -5.3172326    1506.1752  0.037134497  0.036926489            6 
 3381000   0.71045404   -5.2958491    1511.4063  0.037252447  0.036917171            9 
 3382000    0.7140802   -5.3040378    1511.1736    0.0372357  0.036907888           10 
 3383000   0.71428911   -5.3092563    1510.0443  0.037196873  0.036898563           26 
 3384000   0.71622493   -5.3155931    1505.5663  0.037075608  0.036889207            7 
 3385000   0.71788513   -5.3257637    1509.1747  0.037153488  0.036879821           12 
 3386000     0.703276   -5.3312466    1511.5368   0.03720065  0.036870491            5 
 3387000   0.70863218   -5.3133809    1511.1394  0.037179888  0.036861144            7 
 3388000   0.71488345   -5.3331882     1504.765  0.037012127  0.036851837            8 
 3389000   0.71245864   -5.3291566    1504.7662  0.037001234  0.036842466           11 
 3390000   0.70298762    -5.300725    1510.9278  0.037141784  0.036833094           13 
 3391000   0.71312586   -5.3053164    1509.4536  0.037094603  0.036823725            6 
 3392000   0.69864791   -5.3263406    1506.0561  0.037000198   0.03681437           11 
 3393000   0.71559182   -5.3192003    1505.2057  0.036968408   0.03680502           12 
 3394000    0.7094866   -5.3121265    1505.0788    0.0369544  0.036795644            8 
 3395000   0.71100568   -5.3474937    1505.9417  0.036964695  0.036786211            7 
 3396000   0.70792388   -5.3196719    1509.7357   0.03704691  0.036776762            9 
 3397000   0.71024032   -5.3092803    1506.7901  0.036963745   0.03676742           12 
 3398000   0.71390373   -5.3249803    1507.1929  0.036962744  0.036757982           13 
 3399000   0.70670654   -5.3098274    1506.6585  0.036938769  0.036748616            8 
 3400000   0.70681894   -5.3049745    1508.4848  0.036972667  0.036739217           19 
 3401000   0.70393456   -5.3281399    1506.1666  0.036904995  0.036729802           14 
 3402000   0.70227801   -5.3397891    1507.5272  0.036927474  0.036720429            9 
 3403000   0.69305539   -5.3098521     1508.591  0.036942672  0.036711053            9 
 3404000   0.72246144   -5.3264648     1512.834  0.037035692  0.036701682            7 
 3405000   0.70086458   -5.3233908    1505.6946  0.036850088  0.036692278            6 
 3406000   0.70188268   -5.3181974    1509.3028  0.036927549  0.036682894           23 
 3407000   0.70645076   -5.3368006    1510.1629  0.036937749  0.036673508            6 
 3408000    0.7159264   -5.3311829    1510.0182  0.036923371  0.036664086            5 
 3409000   0.71181749   -5.3275877    1510.9653  0.036935692  0.036654667            8 
 3410000   0.70935376   -5.3011751    1512.1226  0.036953142  0.036645288           11 
 3411000   0.68882891   -5.3529639    1503.1292  0.036722593  0.036635869           17 
 3412000   0.71193143   -5.3291529    1504.5919  0.036747555  0.036626344            6 
 3413000   0.70316395   -5.3245601    1511.6131  0.036908222  0.036616929           12 
 3414000   0.70000965   -5.3310151     1507.293   0.03679196  0.036607439            8 
 3415000   0.70714879   -5.3216949    1505.5451  0.036738534  0.036597967            5 
 3416000   0.69739411   -5.3328704    1505.2025   0.03671942   0.03658852           10 
 3417000   0.69999716   -5.3471463     1508.589  0.036791264  0.036579076            7 
 3418000   0.70410522   -5.3443362    1505.6106  0.036707884  0.036569531            6 
 3419000   0.70590316   -5.3253405     1510.389  0.036813616  0.036560073            5 
 3420000   0.70015372   -5.3309282    1504.9082  0.036669303  0.036550642            9 
 3421000   0.71418707   -5.3239936    1509.1015   0.03676073  0.036541206            4 
 3422000   0.69748704    -5.334267    1510.7275  0.036789585  0.036531798            3 
 3423000   0.71108712   -5.3372504    1511.1451  0.036789002  0.036522396            6 
 3424000   0.69038495   -5.3435491    1509.0484   0.03672723  0.036512926            6 
 3425000   0.70164246   -5.3415336    1506.1545  0.036646094  0.036503494           10 
 3426000   0.70709397   -5.3332839    1503.6271  0.036573923  0.036494036           12 
 3427000   0.70659984   -5.3561467    1508.9149  0.036691832  0.036484568            8 
 3428000   0.70637508   -5.3323031    1508.0513  0.036660134  0.036475052            5 
 3429000   0.71079848   -5.3393165    1504.1544  0.036554738  0.036465551           11 
 3430000   0.70092427   -5.3613413    1503.9283  0.036538588  0.036455991            7 
 3431000    0.7022771   -5.3451993    1509.7619  0.036669626  0.036446525            7 
 3432000    0.6965268   -5.3366865    1509.4611  0.036651639  0.036437082           10 
 3433000   0.71558959   -5.3465873    1508.5567  0.036619009  0.036427638            6 
 3434000   0.70633438   -5.3088566      1510.44  0.036654047  0.036418149           10 
 3435000    0.7249096   -5.3375653    1511.2117  0.036662097  0.036408767           15 
 3436000   0.70202645   -5.3322858     1508.072  0.036575283  0.036399363            7 
 3437000   0.69041239    -5.333568    1508.0925  0.036565137  0.036389933            5 
 3438000   0.70673812   -5.3449065    1508.1276  0.036555351  0.036380522           11 
 3439000   0.70389961   -5.3335897     1505.843  0.036489363  0.036371113            8 
 3440000   0.70268409   -5.3243029    1508.2615  0.036537342  0.036361673           11 
 3441000   0.70599818   -5.3288096    1510.2923  0.036575906  0.036352252            8 
 3442000   0.70805614   -5.3421674     1508.426  0.036520096  0.036342816           10 
 3443000   0.71797813   -5.3379684    1512.3242  0.036603838   0.03633343            5 
 3444000   0.69595306   -5.3550185    1507.7077  0.036481505  0.036323998           13 
 3445000   0.70061889    -5.353805    1510.4703  0.036537743  0.036314484           10 
 3446000   0.70467022   -5.3372273    1509.3328  0.036499633  0.036305028            7 
 3447000   0.68572878    -5.323202    1509.8512  0.036501575  0.036295614            7 
 3448000   0.69568447    -5.336421    1509.4963  0.036482413  0.036286194            8 
 3449000   0.69990876   -5.3463755    1505.9826  0.036386938  0.036276754            5 
 3450000   0.72106561   -5.3411439    1508.0716   0.03642685  0.036267288            8 
 3451000   0.69687301   -5.3619306    1512.5281  0.036523908  0.036257857            5 
 3452000   0.70323111   -5.3512308    1507.2014  0.036384739  0.036248379            9 
 3453000   0.70915148   -5.3765578     1506.202  0.036350082  0.036238884            5 
 3454000   0.69704549   -5.3475732    1512.1853  0.036483915  0.036229472            8 
 3455000   0.70169987   -5.3186101    1512.1801  0.036473229  0.036220105           11 
 3456000   0.69672139   -5.3129529    1512.5791  0.036472298  0.036210796            7 
 3457000   0.70445212   -5.3551286    1508.9329  0.036373853  0.036201377            7 
 3458000   0.69650109   -5.3237407    1510.4896  0.036400847   0.03619199            6 
 3459000   0.70137343   -5.3461785    1511.2967  0.036409768  0.036182563            6 
 3460000   0.71264311   -5.3158726    1513.9439  0.036463004  0.036173236            7 
 3461000    0.7082816   -5.3308629    1514.4609  0.036464916  0.036163902            8 
 3462000   0.68828627   -5.3435061    1514.2261  0.036448733  0.036154575            9 
 3463000   0.70433267   -5.3175244    1515.3818  0.036466017  0.036145282            7 
 3464000    0.6916046   -5.3334671    1512.5739   0.03638794  0.036135956           11 
 3465000   0.70969193   -5.3378247     1509.939  0.036314068  0.036126593            9 
 3466000   0.69796325   -5.3338934    1512.7688   0.03637163  0.036117271           12 
 3467000    0.7004828    -5.293508    1519.9632  0.036534064  0.036107937           11 
 3468000   0.68605541   -5.3217264    1514.3367  0.036388329  0.036098671            9 
 3469000   0.69262787   -5.3389165    1513.6713  0.036361854  0.036089331            5 
 3470000   0.70282667   -5.3427595    1514.1046  0.036361781  0.036079955            7 
 3471000   0.68649428   -5.3597525    1507.8257  0.036200558  0.036070592            7 
 3472000    0.6952203   -5.3472947    1512.1128   0.03629303  0.036061178           16 
 3473000   0.71302907   -5.3495406    1510.5973  0.036246215  0.036051814           10 
 3474000   0.69417815   -5.3239047    1515.8996  0.036362972  0.036042433            6 
 3475000   0.71095172   -5.3475056    1509.4858    0.0361987  0.036033039           14 
 3476000   0.69761142   -5.3434292    1514.8509  0.036316909  0.036023727            5 
 3477000   0.70366894   -5.3417121    1514.0452  0.036287153  0.036014462           13 
 3478000   0.68873181   -5.3466791    1514.6303   0.03629074  0.036005132            5 
 3479000   0.69962279   -5.3587085    1511.1357  0.036196601  0.035995817           12 
 3480000   0.70239642     -5.35577    1516.1454  0.036306164  0.035986488            6 
 3481000    0.6999357   -5.3650924    1512.1061  0.036199034   0.03597714            7 
 3482000   0.68656406   -5.3638842    1512.6337  0.036201265  0.035967754            8 
 3483000   0.69396072    -5.384542     1507.651  0.036071658    0.0359584            5 
 3484000   0.69777151   -5.3461695     1509.553  0.036106798  0.035949035            9 
 3485000   0.69057454   -5.3444648    1515.2741  0.036233239  0.035939645            9 
 3486000   0.69194553   -5.3513008    1512.2304  0.036150086  0.035930288            6 
 3487000   0.69131997    -5.377541    1510.5091  0.036098583  0.035920884            9 
 3488000   0.68143919   -5.3834525    1512.5761  0.036137618  0.035911478           19 
 3489000   0.71507881   -5.3506451    1514.5493  0.036174388   0.03590215           10 
 3490000   0.68038418   -5.3485804     1516.522  0.036211126  0.035892914            8 
 3491000   0.69892518   -5.3275213    1516.1366  0.036191554  0.035883601            7 
 3492000   0.68431876   -5.3224039    1516.5589  0.036191268  0.035874352           10 
 3493000   0.68404855   -5.3386885    1514.1299  0.036122959  0.035865108            5 
 3494000   0.69078033   -5.3450459    1513.8289   0.03610544  0.035855789            8 
 3495000   0.68944583   -5.3881548    1514.0829  0.036101166  0.035846439           15 
 3496000   0.68761808    -5.343149    1512.0142  0.036041528  0.035837077            7 
 3497000   0.68609513   -5.3364607    1512.7202  0.036048046  0.035827717            7 
 3498000   0.69421221   -5.3712783    1512.3848   0.03602975  0.035818406            7 
 3499000   0.68101227   -5.3481404    1516.0685  0.036107186  0.035809102           23 
 3500000   0.69836038   -5.3500754    1514.3367  0.036055635  0.035799894            8 
 3501000   0.69323339   -5.3592587    1519.1845  0.036160728  0.035790648            8 
 3502000   0.68239292    -5.352312    1510.9162   0.03595365  0.035781364            9 
 3503000   0.69028902   -5.3490208    1513.6853  0.036009261  0.035772039            9 
 3504000   0.69238036    -5.369181    1512.4407  0.035969386  0.035762756            8 
 3505000   0.68888736   -5.3275141     1516.662  0.036059487  0.035753483           12 
 3506000   0.69514526   -5.3630825    1514.7494   0.03600374  0.035744174            8 
 3507000   0.70315796    -5.346833    1516.1115   0.03602584  0.035734936            7 
 3508000   0.70103172   -5.3489493    1520.8213  0.036127453  0.035725673            6 
 3509000    0.6861113   -5.3590213    1517.4421  0.036036908  0.035716383            9 
 3510000   0.69625837   -5.3310222    1519.7535  0.036081516  0.035707109            8 
 3511000   0.69029313     -5.34369    1517.8952  0.036027133  0.035697881            7 
 3512000   0.68368104   -5.3754159    1514.9621  0.035947279  0.035688593           11 
 3513000   0.67970099   -5.3544466    1516.5004  0.035973535  0.035679321           12 
 3514000   0.69878229   -5.3697202    1516.2731   0.03595791  0.035670015           11 
 3515000   0.68791312   -5.3444315     1515.572  0.035931058  0.035660686            6 
 3516000   0.68491031   -5.3780876    1514.2587  0.035889711  0.035651359           14 
 3517000   0.69385286   -5.3615353    1513.0942  0.035851914  0.035642007            6 
 3518000   0.69955806   -5.3820255    1516.1826  0.035914881  0.035632661            7 
 3519000   0.68498165   -5.3878643    1512.9721  0.035828647  0.035623366           15 
 3520000   0.68286878   -5.3704838    1515.9941  0.035890012  0.035614068            6 
 3521000   0.69718623   -5.3703504    1514.8682   0.03585317  0.035604769            7 
 3522000   0.67015319   -5.3927086     1513.444  0.035809293  0.035595433            7 
 3523000   0.68777776   -5.3663846    1515.6168  0.035850524  0.035586116            7 
 3524000   0.68231266   -5.3611246     1514.291  0.035809001  0.035576801            6 
 3525000   0.69775844   -5.3723741    1513.0719  0.035770021  0.035567499            7 
 3526000   0.67973869   -5.3706819    1516.8362  0.035848841  0.035558254           10 
 3527000   0.68901775   -5.3573321    1519.7849  0.035908348  0.035548997           15 
 3528000   0.68055828   -5.3603347    1517.6781  0.035848407   0.03553974            4 
 3529000   0.70108779   -5.3746636    1516.0719  0.035800319  0.035530447            7 
 3530000   0.69066359   -5.3854557    1513.3186   0.03572518  0.035521147           16 
 3531000   0.66481898   -5.4143974     1511.686  0.035676533  0.035511831            8 
 3532000   0.67722598   -5.3665178     1518.364  0.035823989   0.03550249            6 
 3533000   0.69137922   -5.3615905    1516.1326  0.035761218  0.035493279            7 
 3534000   0.68768999   -5.3961926    1516.2829  0.035754642  0.035483985           14 
 3535000   0.69184009   -5.3548702    1516.8636  0.035758217  0.035474729           22 
 3536000   0.68362253   -5.3666818    1516.9116  0.035749237  0.035465522            7 
 3537000   0.69605918    -5.382631    1517.7943  0.035759926  0.035456317           11 
 3538000   0.68154636   -5.3890994    1516.3058  0.035714758  0.035447051            6 
 3539000   0.68210195   -5.3844821    1519.9744  0.035791052  0.035437818           10 
 3540000   0.67335589   -5.3701232    1520.9712  0.035804406  0.035428621            9 
 3541000   0.67475086   -5.3802593    1515.2456  0.035659551  0.035419404           10 
 3542000   0.69561161   -5.3826922    1517.8115  0.035709851  0.035410187            8 
 3543000   0.68338047   -5.3863307     1518.733  0.035721445  0.035400999            9 
 3544000   0.68050151    -5.378952    1519.3572  0.035726045  0.035391815           10 
 3545000   0.68023124   -5.3560577    1520.1635  0.035734919   0.03538264           17 
 3546000   0.68110094     -5.36055    1521.0379  0.035745393  0.035373418            8 
 3547000   0.68237055   -5.3697557    1519.8306   0.03570695   0.03536423           10 
 3548000   0.69345192   -5.3438635    1520.8454  0.035720721  0.035354996           22 
 3549000   0.69194532   -5.3944518    1513.6865  0.035542558  0.035345811            6 
 3550000   0.67724898   -5.3888045    1516.8837  0.035607599  0.035336558            5 
 3551000   0.68457068     -5.38264    1518.2353   0.03562929  0.035327353           11 
 3552000   0.66482237   -5.3861437    1514.9112  0.035541273  0.035318131            9 
 3553000   0.70673033    -5.355186    1520.0326  0.035651387   0.03530892           10 
 3554000   0.67715635   -5.3568633    1523.1772  0.035715092  0.035299709            8 
 3555000   0.68320785   -5.3574361     1516.363  0.035545311  0.035290511            4 
 3556000   0.67520205   -5.3802588    1518.7819  0.035592002  0.035281256            9 
 3557000   0.67269506   -5.3730419    1514.8531  0.035489953  0.035271958            5 
 3558000   0.68436942   -5.3958907    1517.2258  0.035535549  0.035262676            7 
 3559000   0.66870514   -5.3760283    1520.9696  0.035613225  0.035253397           10 
 3560000   0.67956657   -5.3654849    1514.0828  0.035442014  0.035244167            5 
 3561000   0.68741001   -5.3927765    1516.8223  0.035496169  0.035234907           11 
 3562000   0.68907916   -5.3940362    1521.2528  0.035589855   0.03522564           10 
 3563000   0.67569838   -5.3977956    1521.6878  0.035590041  0.035216354            6 
 3564000   0.68685235   -5.3812356    1519.3877  0.035526273  0.035207069           14 
 3565000   0.68331434   -5.3562525    1522.3876  0.035586433  0.035197811            8 
 3566000   0.67980481   -5.3771949    1517.9299  0.035472283  0.035188626            5 
 3567000   0.68361142   -5.3754423    1517.8439  0.035460329  0.035179449            5 
 3568000     0.685636   -5.3702703    1521.3711  0.035532771  0.035170235            5 
 3569000   0.68548963   -5.3551148    1516.1375  0.035400614  0.035161026            4 
 3570000   0.69218859   -5.3808017    1519.3692  0.035466135   0.03515177            8 
 3571000   0.67794522   -5.3906508    1521.0429   0.03549526  0.035142556            8 
 3572000   0.68355911    -5.394829    1516.9832  0.035390613  0.035133358           16 
 3573000    0.6847951   -5.3865237    1522.5821  0.035511291  0.035124167            8 
 3574000   0.67000214   -5.3619301    1519.1114  0.035420431  0.035114946           15 
 3575000   0.66554029   -5.4038367    1516.3243  0.035345556  0.035105717            9 
 3576000   0.68261293   -5.3706081     1524.411   0.03552412  0.035096478           13 
 3577000   0.67333753   -5.3782273     1517.435  0.035351668  0.035087241            9 
 3578000    0.6687677   -5.3940319    1517.1518  0.035335193  0.035078053           16 
 3579000   0.66975401   -5.3858751    1520.6384  0.035406502  0.035068849            6 
 3580000   0.68342911    -5.386384    1519.5261  0.035370718  0.035059636           31 
 3581000   0.67518656   -5.3927508    1519.5317  0.035360973  0.035050393           12 
 3582000   0.69740956   -5.4135973    1514.1791  0.035226575   0.03504108           12 
 3583000   0.68435437   -5.3960731    1517.7301  0.035299333  0.035031772            6 
 3584000   0.68050161   -5.3827389    1518.1983  0.035300369  0.035022513            9 
 3585000    0.6817284   -5.3725607     1520.325  0.035339959  0.035013274           41 
 3586000   0.67817835   -5.3973323    1520.8427  0.035342134   0.03500408           18 
 3587000   0.66819669   -5.3884684    1517.8812  0.035263478  0.034994899            6 
 3588000   0.67151974   -5.3929509    1522.7031  0.035365642  0.034985674            7 
 3589000   0.68364568   -5.3904274    1519.9031  0.035290774  0.034976544            7 
 3590000   0.66970183    -5.365033    1524.4199  0.035385792  0.034967401            8 
 3591000   0.68325555    -5.390635     1519.111  0.035252739  0.034958289            7 
 3592000   0.67781702   -5.3911925    1519.6685  0.035255857  0.034949077            9 
 3593000   0.67738826   -5.4009251    1526.3648  0.035401355  0.034939877           15 
 3594000   0.66318064   -5.4193889    1521.8055  0.035285788   0.03493079           11 
 3595000    0.6765584   -5.3972605    1517.8509  0.035184304  0.034921612            7 
 3596000   0.68517494   -5.3931274    1521.8686  0.035267627  0.034912468           12 
 3597000   0.67635444   -5.3893029    1519.1006  0.035193694  0.034903359           13 
 3598000   0.66443373   -5.3842653    1524.7066  0.035313753  0.034894206            7 
 3599000   0.67793328   -5.4062286    1523.7425  0.035281618  0.034885075            7 
 3600000    0.6799656   -5.4067964    1520.9689  0.035207614  0.034875955            7 
 3601000   0.67230262   -5.3974719     1522.504   0.03523336  0.034866835           11 
 3602000   0.67430964   -5.3771453    1524.4943  0.035269627   0.03485775           10 
 3603000   0.67705299    -5.402849    1522.6077  0.035216202  0.034848651            6 
 3604000    0.6691434   -5.4118083    1520.9982  0.035169214  0.034839548            4 
 3605000   0.66930534   -5.3775457    1526.7932  0.035293417  0.034830458            6 
 3606000   0.66774837   -5.3761626    1521.6227  0.035164141  0.034821407           14 
 3607000    0.6657859   -5.3902243    1523.1259   0.03518912  0.034812396           16 
 3608000   0.69189609    -5.389031    1528.6075  0.035305976  0.034803353           10 
 3609000   0.68645752   -5.3604518    1525.0565  0.035214198  0.034794279            6 
 3610000   0.67961564   -5.3925842    1524.8873  0.035200539  0.034785262           17 
 3611000   0.68985694   -5.3960212     1521.005  0.035101196  0.034776178           10 
 3612000   0.68103205   -5.3779651    1526.3534  0.035214872  0.034767109           12 
 3613000   0.67217436   -5.3758548    1525.6926  0.035189885  0.034758084           15 
 3614000   0.67534562   -5.3723451    1525.7631  0.035181772  0.034749095           23 
 3615000   0.68313219   -5.4001363    1528.2693  0.035229812  0.034740097           13 
 3616000   0.68218867   -5.3956666    1522.4319  0.035085543  0.034731091            6 
 3617000   0.66921795   -5.3990021    1520.8669  0.035039787  0.034722076            9 
 3618000   0.67607296   -5.3918559    1527.4282  0.035181228  0.034713092           12 
 3619000   0.65578119   -5.3935387    1524.1869  0.035096871  0.034704113           15 
 3620000   0.67533974   -5.3807239    1523.8476  0.035079365  0.034695122            5 
 3621000   0.67238929   -5.3966752    1521.9687  0.035026436   0.03468612           15 
 3622000   0.67672672   -5.4016662    1524.6736  0.035078998  0.034677102           19 
 3623000   0.66461823     -5.37439    1528.9451  0.035167566  0.034668134            6 
 3624000   0.66198109   -5.4060668    1527.6565  0.035128231  0.034659141            9 
 3625000   0.67548561    -5.399337      1524.59  0.035048046  0.034650197           15 
 3626000   0.68189975    -5.386046    1531.1084  0.035188188  0.034641199           11 
 3627000   0.67720585    -5.399542    1527.2598   0.03509006  0.034632235            7 
 3628000   0.66547388   -5.4201663    1524.2788  0.035011916  0.034623243            4 
 3629000   0.67034505   -5.4155838    1525.4942  0.035030179  0.034614251            6 
 3630000   0.66310312   -5.4070461    1527.4346  0.035065073  0.034605262           13 
 3631000   0.65899664    -5.395141    1527.1926  0.035049863  0.034596263            9 
 3632000   0.66917855   -5.4312247    1521.4175  0.034907708  0.034587214            5 
 3633000   0.67402422   -5.3983101    1525.7271  0.034996952  0.034578159           13 
 3634000   0.67326285   -5.4072452    1525.9409  0.034992224  0.034569082            9 
 3635000   0.66529668   -5.4104627    1524.2715  0.034944327  0.034559957           15 
 3636000   0.67839797   -5.4113787    1525.8744  0.034971451  0.034550865           19 
 3637000   0.66155408   -5.4198502    1524.7091  0.034935138  0.034541819            8 
 3638000   0.68083156   -5.4208246     1528.069  0.035002497    0.0345328           10 
 3639000   0.67361342   -5.4012366    1523.5576  0.034889566  0.034523782            6 
 3640000   0.65229739   -5.3712371    1530.5278  0.035039555  0.034514813            7 
 3641000   0.67306002   -5.4023571    1522.0075  0.034834924  0.034505803           10 
 3642000   0.65699241   -5.3855426    1529.4099  0.034994735  0.034496769            6 
 3643000   0.66766619   -5.3937455    1523.1236  0.034841329  0.034487772           13 
 3644000   0.65017568   -5.4136285    1519.9523  0.034759246  0.034478727           20 
 3645000   0.66504489   -5.4273799    1523.9632  0.034841408  0.034469642           21 
 3646000   0.66198562   -5.4124439    1523.2401  0.034815325  0.034460563            8 
 3647000   0.66720252   -5.4234636    1521.6006  0.034768317  0.034451439            6 
 3648000   0.66974626    -5.427814    1524.2576   0.03481948  0.034442332           11 
 3649000   0.66823121   -5.4187738    1522.9685    0.0347805  0.034433254           18 
 3650000   0.66804707   -5.4001397    1528.1413  0.034889071  0.034424194           12 
 3651000   0.66997878   -5.4007835    1526.8427  0.034849875  0.034415146            7 
 3652000   0.66965028   -5.4321323    1523.0025  0.034752704  0.034406133            9 
 3653000   0.66272739    -5.386866    1529.3703  0.034888455   0.03439711            6 
 3654000   0.67234631   -5.4131064    1527.2215  0.034829901  0.034388077            6 
 3655000   0.66313026   -5.4075241    1527.6335  0.034829766  0.034378988            5 
 3656000   0.66342834   -5.3876241    1526.5006  0.034794415  0.034369992           11 
 3657000   0.68438908   -5.4119284    1524.7924  0.034745975   0.03436092            9 
 3658000   0.65730034    -5.429343    1521.2477  0.034655726   0.03435184           11 
 3659000   0.67131413   -5.4199336    1523.4344  0.034696056  0.034342739            7 
 3660000   0.65838176   -5.4327613    1524.7775  0.034717156  0.034333653           12 
 3661000   0.65804787   -5.3991394     1524.429   0.03469974  0.034324611           10 
 3662000   0.66477858   -5.4079753    1525.2878  0.034709807  0.034315562            5 
 3663000   0.67290638   -5.4386362    1524.5309  0.034683112  0.034306492            7 
 3664000   0.67778038   -5.4139113    1521.3626  0.034601587  0.034297371           12 
 3665000    0.6733353   -5.4285407    1524.2952  0.034658826  0.034288225           11 
 3666000   0.67182061   -5.4143245    1523.6546   0.03463481  0.034279107            6 
 3667000   0.66616132   -5.4133018     1527.376  0.034709935  0.034270052           15 
 3668000   0.65945497   -5.4120434    1524.3843  0.034632504  0.034261046            6 
 3669000   0.68150472   -5.4014618    1530.4981  0.034761926  0.034252016           13 
 3670000    0.6715392    -5.402876    1528.3734   0.03470421  0.034242991            7 
 3671000   0.66576398   -5.4087464    1526.8585  0.034660368  0.034233957           11 
 3672000   0.67325358   -5.4411862    1522.7718  0.034558183  0.034224922           10 
 3673000   0.67215085   -5.4070755    1527.7711  0.034662199  0.034215853            9 
 3674000   0.67531497    -5.417734    1524.0286  0.034567877  0.034206779            9 
 3675000    0.6826294   -5.4224667    1524.2794  0.034564158  0.034197724           20 
 3676000   0.65360474   -5.4213157      1528.88   0.03465905  0.034188662            7 
 3677000   0.67079292   -5.4181288    1526.0251  0.034584922  0.034179648           18 
 3678000   0.64985525   -5.4024459    1528.9093  0.034640868  0.034170637           12 
 3679000    0.6667762   -5.3930731    1529.8578  0.034652935  0.034161623           10 
 3680000   0.66593028   -5.4253932    1524.2575    0.0345167  0.034152598            8 
 3681000    0.6823308   -5.4068732     1523.277  0.034485125  0.034143565           12 
 3682000    0.6583188   -5.4185622    1527.1618  0.034563683  0.034134548           11 
 3683000   0.65228137   -5.4242261    1526.0402  0.034528921  0.034125504            7 
 3684000   0.64792025   -5.4267158    1523.7539  0.034467831  0.034116486           10 
 3685000   0.67001098   -5.4489324    1527.2269  0.034537018   0.03410743            9 
 3686000   0.66454436   -5.4344548    1524.4442  0.034464736  0.034098338           12 
 3687000   0.64560379   -5.4338461     1529.038  0.034559218  0.034089332            8 
 3688000   0.65286841    -5.449418    1523.5821  0.034426567  0.034080211           10 
 3689000    0.6690647   -5.4353646    1520.5849  0.034349528  0.034071116           11 
 3690000   0.65642491   -5.4469242    1527.6494   0.03449976  0.034062043           10 
 3691000   0.67132942   -5.4304356    1528.2662   0.03450434     0.034053           13 
 3692000   0.65848054   -5.4354974    1524.0417   0.03439964   0.03404399           12 
 3693000   0.66608222   -5.4104024    1525.9013  0.034432288  0.034034921           13 
 3694000   0.65299635   -5.4189309    1524.3603  0.034388204  0.034025913           12 
 3695000   0.66539442   -5.4214882    1526.7744  0.034433342  0.034016885           24 
 3696000   0.65687507    -5.401976    1529.5292  0.034486138  0.034007866           10 
 3697000   0.65515054   -5.4362451    1529.2587  0.034470713  0.033998889           11 
 3698000   0.65125928   -5.4223123     1529.701  0.034471359  0.033989894           11 
 3699000   0.64326254   -5.4358308    1530.0892  0.034470785  0.033980925            7 
 3700000   0.67440598   -5.4143864    1531.5605  0.034494605   0.03397196           13 
 3701000    0.6692832   -5.4318378    1522.5408  0.034282195  0.033963022            8 
 3702000   0.65958832    -5.436051    1530.1552  0.034444337   0.03395405            9 
 3703000   0.66219106   -5.4369501    1527.9384  0.034385147  0.033945101            7 
 3704000   0.64437398   -5.4098355     1529.482  0.034410592  0.033936141            8 
 3705000   0.66952975   -5.4255778    1527.5661  0.034358212   0.03392721           10 
 3706000   0.65637007   -5.4116036    1525.9912  0.034313527  0.033918234           10 
 3707000   0.66265151   -5.4570585    1525.7995  0.034299961  0.033909193           12 
 3708000   0.63677263   -5.4539468    1531.2012  0.034412109  0.033900208            9 
 3709000   0.65330265   -5.4521861    1527.6092  0.034322127    0.0338912           12 
 3710000   0.66679007   -5.4323417    1526.9478  0.034298019  0.033882241            9 
 3711000   0.66801924   -5.4306042    1530.6587  0.034372107  0.033873245           31 
 3712000     0.659301    -5.429553    1529.1956  0.034330002  0.033864291            8 
 3713000   0.65329555   -5.4541328    1529.8792  0.034336099  0.033855338           10 
 3714000   0.66683143   -5.4345517    1534.0942  0.034421428  0.033846405           13 
 3715000   0.66274261   -5.4187362    1528.6335   0.03428967   0.03383748           17 
 3716000   0.66447146   -5.4633488     1526.159   0.03422495  0.033828604           11 
 3717000    0.6617503   -5.4315788    1529.4739  0.034290062  0.033819633           20 
 3718000   0.65208087   -5.4195173     1529.283   0.03427656  0.033810699           12 
 3719000   0.65553878    -5.417724    1532.9669  0.034349889    0.0338018            8 
 3720000    0.6639702   -5.4355073    1531.5052  0.034307912  0.033792834            5 
 3721000   0.65659545   -5.4243215    1531.0879  0.034289346  0.033783906           12 
 3722000   0.64650839   -5.4138181     1531.416  0.034287479  0.033775022            5 
 3723000   0.64893834    -5.443061    1529.8421   0.03424304  0.033766175           18 
 3724000   0.66921696   -5.4199454    1530.4437  0.034247307  0.033757236            9 
 3725000   0.64758202   -5.4374695    1530.1461  0.034231457  0.033748304           22 
 3726000   0.65175228   -5.4516186    1524.1538   0.03408825  0.033739335           16 
 3727000   0.66113951   -5.4267916    1527.9775  0.034164599  0.033730354           19 
 3728000   0.64864549   -5.4432932    1527.5612  0.034146129  0.033721397           11 
 3729000   0.65084045   -5.4413888     1527.815  0.034142642  0.033712436           10 
 3730000   0.65811881   -5.4575503    1530.2795  0.034188551  0.033703476           12 
 3731000   0.65868303   -5.4517159     1527.642  0.034120476    0.0336945           10 
 3732000   0.66604033   -5.4359084     1528.336  0.034126831  0.033685536           12 
 3733000   0.65408279   -5.4460254     1527.648  0.034102331    0.0336766           17 
 3734000   0.65176098   -5.4568545    1527.4113  0.034087915   0.03366763            7 
 3735000   0.65379015   -5.4361449    1530.3593  0.034144563  0.033658638            8 
 3736000   0.63952406   -5.4678814    1529.2983  0.034111757   0.03364968           10 
 3737000   0.64421898   -5.4515435    1527.4415  0.034061224  0.033640697           16 
 3738000   0.65175387   -5.4496554    1528.9952  0.034086749  0.033631742           17 
 3739000   0.65667851   -5.4455296    1528.1326  0.034058407  0.033622793           15 
 3740000   0.65444613   -5.4538447    1529.3031   0.03407538  0.033613831           11 
 3741000   0.64775171    -5.444772    1529.2771  0.034065692  0.033604862            9 
 3742000   0.66088896   -5.4410749    1531.6209  0.034108785  0.033595903           11 
 3743000   0.65074953   -5.4463093    1530.2942  0.034070136  0.033586931           14 
 3744000   0.65380209   -5.4516835    1530.5814  0.034067427  0.033577997           15 
 3745000   0.64405289    -5.468759    1531.2721    0.0340737  0.033569052            7 
 3746000   0.65377941   -5.4446808    1527.8192  0.033987792  0.033560085           24 
 3747000   0.65942239   -5.4299702     1527.192  0.033964772   0.03355115            8 
 3748000   0.64602911   -5.4354749    1530.3171  0.034025194  0.033542233           12 
 3749000   0.64422852   -5.4743574    1527.1867  0.033946534  0.033533267           11 
 3750000   0.65732622   -5.4422316    1527.3319   0.03394071  0.033524329           14 
 3751000   0.64209454   -5.4452178    1532.5382  0.034047325  0.033515436           41 
 3752000   0.64545946   -5.4437582    1533.3949  0.034057278  0.033506569           15 
 3753000   0.66248411    -5.446034    1526.4568  0.033894147  0.033497649           15 
 3754000   0.64793576   -5.4322731    1532.3089  0.034015027  0.033488732            9 
 3755000   0.65330286   -5.4401169    1528.6924  0.033925709  0.033479839            8 
 3756000   0.67308708   -5.4581075     1529.282  0.033929757  0.033470924            8 
 3757000   0.65886969   -5.4489718    1536.5673  0.034082319   0.03346202            8 
 3758000   0.66280947   -5.4616923    1528.8378  0.033901849  0.033453097           12 
 3759000   0.65107883   -5.4368593    1532.4042  0.033971894  0.033444234            7 
 3760000   0.65197808   -5.4435176    1530.2969  0.033916155   0.03343535            6 
 3761000   0.64702595   -5.4550857    1529.7428   0.03389486  0.033426501           14 
 3762000   0.65021705   -5.4434245    1529.8787   0.03388886  0.033417632           15 
 3763000   0.64591083   -5.4503371    1531.9637  0.033926027    0.0334088           15 
 3764000   0.64169051   -5.4397365    1532.8497   0.03393663  0.033399972            7 
 3765000   0.64891808   -5.4459792    1530.2398   0.03386985  0.033391104           13 
 3766000   0.65436429   -5.4240333    1534.0564  0.033945308  0.033382252           23 
 3767000    0.6524121   -5.4615175    1532.8425  0.033909445  0.033373412           10 
 3768000    0.6325279   -5.4704481    1530.6667  0.033852325  0.033364525           13 
 3769000   0.65193107   -5.4375569    1531.9855  0.033872502  0.033355622           20 
 3770000   0.65518046   -5.4440107    1531.7274  0.033857812  0.033346754           10 
 3771000   0.66170553   -5.4712176    1533.2142   0.03388169   0.03333787           10 
 3772000   0.64439401   -5.4876064     1529.854  0.033798471  0.033328975           13 
 3773000   0.65446919   -5.4601843    1533.6728  0.033873858  0.033320111            9 
 3774000   0.66457876   -5.4660651    1529.3725  0.033769929  0.033311226           14 
 3775000   0.63013571   -5.4629486    1531.0146  0.033797232  0.033302338           41 
 3776000   0.63356257   -5.4722425    1537.5019   0.03393145  0.033293523           21 
 3777000   0.64655976   -5.4725648    1530.5844  0.033769844  0.033284663            5 
 3778000   0.63770745   -5.4495128    1532.5259  0.033803731  0.033275839           10 
 3779000   0.64687245   -5.4502397    1530.5841  0.033751965   0.03326701           18 
 3780000   0.64293555   -5.4608651    1532.0247  0.033774794  0.033258183            9 
 3781000   0.65613525   -5.4515343    1533.3466  0.033794996  0.033249352            6 
 3782000   0.64682194   -5.4620226    1534.5287  0.033812109  0.033240506           12 
 3783000   0.64203055   -5.4673157    1528.8414  0.033677887  0.033231653           22 
 3784000   0.64633146   -5.4689865    1529.9325  0.033693018  0.033222842           20 
 3785000   0.64669291   -5.4197006    1536.8376  0.033836142  0.033214075            5 
 3786000   0.63621292   -5.4513947    1537.3708  0.033838943  0.033205314           10 
 3787000   0.63601973   -5.4635828    1536.1839  0.033803889  0.033196506           15 
 3788000    0.6519565   -5.4587848    1532.5577  0.033715191  0.033187721           11 
 3789000    0.6568168   -5.4319594    1539.3179  0.033854973   0.03317898            8 
 3790000   0.64831799   -5.4645251    1535.7035  0.033766567  0.033170257           13 
 3791000   0.64385051    -5.462698    1530.8168  0.033650243  0.033161458           20 
 3792000   0.64719364   -5.4472965    1532.7037  0.033682835  0.033152658           15 
 3793000   0.63713138   -5.4624014    1536.8567  0.033765197   0.03314389           11 
 3794000   0.63712092   -5.4650492    1534.3819  0.033701939    0.0331351           13 
 3795000   0.63597779    -5.458321     1536.152  0.033731928  0.033126346            9 
 3796000   0.64438509   -5.4595647    1531.9721  0.033631281  0.033117544           14 
 3797000   0.63803612   -5.4721431     1533.019  0.033645401   0.03310876           12 
 3798000   0.63913174    -5.444022    1534.6356  0.033672012   0.03310002           14 
 3799000   0.63343244    -5.466603    1535.7028  0.033686558  0.033091293           22 
 3800000      0.64254   -5.4539212    1533.5051  0.033629497  0.033082537           16 
 3801000   0.63758437   -5.4448959    1534.3815  0.033639865  0.033073752            9 
 3802000   0.64967991   -5.4689882    1535.4314  0.033654029   0.03306496           13 
 3803000   0.64689375   -5.4744476    1532.0336  0.033570726  0.033056185            9 
 3804000   0.64850901   -5.5004716    1532.0094  0.033561371  0.033047395           23 
 3805000   0.63214181   -5.4633757    1533.1113  0.033576681  0.033038591            9 
 3806000   0.64072865   -5.4929498    1528.9354  0.033476427  0.033029751            6 
 3807000    0.6532144   -5.4984994    1531.8066  0.033530484  0.033020885           13 
 3808000   0.63093165   -5.4841192    1529.5771  0.033472888  0.033012068           11 
 3809000   0.63800741   -5.4587279     1533.694   0.03355417  0.033003239           18 
 3810000    0.6345173   -5.4759945    1533.5839  0.033542954  0.032994429           13 
 3811000   0.65348288   -5.4710046    1538.2943  0.033637153  0.032985665           21 
 3812000   0.63820127   -5.4671131    1531.0734  0.033470474  0.032976886           13 
 3813000   0.63623747   -5.4637502    1537.9469  0.033611917  0.032968109           15 
 3814000    0.6523178   -5.4621074     1535.709  0.033554208  0.032959375           15 
 3815000   0.64505168   -5.4415391    1535.7677  0.033546696  0.032950609           17 
 3816000   0.63576827   -5.4642006    1535.2325  0.033526217  0.032941889           13 
 3817000   0.63018125   -5.4693222    1539.7413  0.033615869  0.032933083           10 
 3818000   0.63895882   -5.4574547    1531.9514   0.03343704  0.032924287           30 
 3819000   0.64857916   -5.5038549    1534.4432  0.033482658  0.032915486           19 
 3820000   0.64991367   -5.5010388    1533.3403  0.033449832  0.032906672           21 
 3821000   0.64875065   -5.4534877    1533.6058  0.033446867  0.032897884           13 
 3822000   0.64260301   -5.4827942    1533.2341  0.033430013  0.032889173           15 
 3823000   0.65320356   -5.4725974    1536.7555  0.033498027  0.032880441           14 
 3824000   0.63811303   -5.5058321    1536.0272  0.033473396  0.032871721           21 
 3825000   0.64811681    -5.451276    1534.3212  0.033427478  0.032862974           20 
 3826000   0.63546251   -5.4932905    1534.9709   0.03343289  0.032854222           10 
 3827000   0.64462044   -5.4749938    1531.1667  0.033341318  0.032845478            9 
 3828000   0.61968637   -5.4730469    1533.7182  0.033388152  0.032836752           21 
 3829000   0.64522515   -5.4682178    1537.9911  0.033472427  0.032828027           16 
 3830000   0.64010265   -5.4781352    1535.8961  0.033418105  0.032819355           12 
 3831000   0.65453302   -5.4794327    1536.2093  0.033416195  0.032810631            9 
 3832000   0.62180203   -5.4846255    1534.6828  0.033374278  0.032801948           16 
 3833000   0.63216289   -5.5012747    1534.0817  0.033352503  0.032793255            8 
 3834000   0.63763447   -5.5062236    1532.5647  0.033310832  0.032784571            8 
 3835000   0.63006859   -5.4848404    1539.9507   0.03346264  0.032775898           11 
 3836000   0.63233835    -5.477708    1537.0825  0.033391609  0.032767284            9 
 3837000   0.66062128   -5.4930371    1538.2443  0.033408137  0.032758604           15 
 3838000   0.63393322   -5.4683078    1539.1754  0.033419649  0.032749916           11 
 3839000   0.62734183   -5.4899821    1536.8978  0.033361505   0.03274126           12 
 3840000   0.63522412   -5.4573493    1541.7779  0.033458723  0.032732578            5 
 3841000    0.6427133   -5.4674704    1537.7082  0.033361717  0.032723979           12 
 3842000   0.65735271   -5.4904306    1537.8054   0.03335514  0.032715359           15 
 3843000   0.63995145   -5.4947753    1539.2136  0.033376998  0.032706731           13 
 3844000   0.63571205   -5.4846823     1537.101  0.033322516  0.032698085           16 
 3845000   0.63586744   -5.4752145    1541.7139  0.033413826  0.032689432           13 
 3846000   0.63088949    -5.459951    1538.8902  0.033343955  0.032680793           20 
 3847000   0.63267258   -5.4726179    1537.9512  0.033314946  0.032672159           13 
 3848000   0.63401801   -5.4763907    1534.0419  0.033221628  0.032663492           11 
 3849000   0.63336901   -5.4883991    1537.4941   0.03328774  0.032654887           16 
 3850000   0.64952699   -5.4911499    1536.6987  0.033261877  0.032646251           12 
 3851000   0.64730946   -5.4905667    1537.3317  0.033266937  0.032637635           16 
 3852000   0.64538765   -5.4884891    1538.7772  0.033289573  0.032629002           19 
 3853000   0.63397253   -5.4826322    1538.2738  0.033270045  0.032620336            5 
 3854000   0.63766848   -5.4784115    1536.1642  0.033215798  0.032611735           11 
 3855000   0.63398714   -5.4969441    1538.0332  0.033247584  0.032603115           14 
 3856000   0.63897347   -5.4972047    1536.6605  0.033209296  0.032594488            9 
 3857000   0.63900731   -5.5112203    1537.3243  0.033215026  0.032585865           19 
 3858000   0.62097086   -5.4902418    1539.9737  0.033263644  0.032577249           13 
 3859000   0.64055667   -5.4973449    1535.0388  0.033148459  0.032568621           13 
 3860000   0.62323768   -5.4824787    1536.7742  0.033177337  0.032559958            9 
 3861000   0.62743587   -5.4883388    1537.1378   0.03317659  0.032551348            9 
 3862000   0.64459525   -5.4852242    1538.5478  0.033198424  0.032542752           18 
 3863000   0.63327641   -5.5030772    1536.8786  0.033153822  0.032534162           13 
 3864000   0.63201959   -5.4851646    1539.6097  0.033204144  0.032525554           17 
 3865000   0.62616089   -5.4943546    1539.5737  0.033194775  0.032516947            6 
 3866000   0.63989229    -5.490557    1538.4004  0.033160898  0.032508329            9 
 3867000   0.63895292   -5.4989227    1539.0041  0.033165332   0.03249968           20 
 3868000   0.63217298   -5.4950341    1542.8163  0.033238889  0.032491054           16 
 3869000   0.63683676   -5.4784523    1538.9794  0.033147657  0.032482446           14 
 3870000   0.63247273   -5.4899087    1538.7116  0.033133324  0.032473826            6 
 3871000   0.63444761   -5.5071501    1537.1454  0.033091048  0.032465188           10 
 3872000    0.6291409   -5.4947851    1540.4367  0.033153339  0.032456583            9 
 3873000   0.63793752   -5.4922178    1535.0549   0.03302898  0.032448013           12 
 3874000   0.62370502   -5.4967126    1535.9119   0.03303889  0.032439399            7 
 3875000   0.62520815   -5.4974181    1544.0809   0.03320604  0.032430792           17 
 3876000   0.63183242   -5.5030227    1538.1399  0.033069744  0.032422227           17 
 3877000   0.63576685   -5.5144302    1537.2534  0.033042159  0.032413627           15 
 3878000   0.64403489   -5.4663773    1545.1437  0.033203192  0.032405038           11 
 3879000   0.61467518     -5.52396    1534.5495  0.032967034  0.032396456           10 
 3880000   0.62217462   -5.5300066    1538.5395  0.033044234  0.032387848           12 
 3881000   0.62047888   -5.5389146    1536.5314    0.0329926   0.03237926           14 
 3882000   0.62888331   -5.5143012    1537.1273  0.032996894  0.032370652           12 
 3883000   0.64511682   -5.4945494    1539.2003  0.033032885  0.032362098           10 
 3884000   0.62924743   -5.5022902    1539.7994  0.033037233  0.032353533            8 
 3885000   0.63536317   -5.4979205    1538.5592  0.033002128  0.032344939            8 
 3886000   0.62766366    -5.507255    1537.3936   0.03296864  0.032336339           16 
 3887000   0.64254972    -5.505009    1539.8435  0.033012681  0.032327751           15 
 3888000   0.63214714   -5.5086113     1541.513  0.033039974  0.032319131           18 
 3889000   0.62746896   -5.4992227    1537.1528  0.032938047   0.03231055           11 
 3890000     0.621462   -5.5000708    1539.5463  0.032980856  0.032301943           10 
 3891000   0.62343864   -5.5187157    1542.9474   0.03304522  0.032293399           11 
 3892000   0.63457767   -5.5183841    1537.2575  0.032914901  0.032284811           37 
 3893000   0.62736808   -5.5151842    1534.9158   0.03285632  0.032276197           22 
 3894000   0.63023215   -5.5096323    1538.9325   0.03293384  0.032267537           24 
 3895000   0.62639535   -5.5107851    1538.5325  0.032916828  0.032258871           19 
 3896000   0.62097304   -5.4827379    1537.9514  0.032895949  0.032250249           14 
 3897000   0.62750157   -5.5128585    1540.8344  0.032949157  0.032241665           25 
 3898000   0.62846918   -5.4894722    1540.1355  0.032925764  0.032233084            8 
 3899000   0.64087839   -5.5016438    1538.2705  0.032877459  0.032224487           10 
 3900000   0.62079137   -5.4951851    1539.8448  0.032902666  0.032215891           18 
 3901000   0.61433096    -5.509643    1540.2964  0.032903879  0.032207289           10 
 3902000   0.63568997   -5.4928323    1538.7973   0.03286343  0.032198672           18 
 3903000   0.61648084   -5.4885021    1539.2075   0.03286377  0.032190102            7 
 3904000   0.62220281   -5.5093951    1536.3442  0.032794232   0.03218153           11 
 3905000   0.62456154   -5.5057469    1541.6587  0.032899246  0.032172917           10 
 3906000   0.62186909   -5.4962353     1542.644  0.032911845  0.032164373            9 
 3907000   0.62105685   -5.4742774    1539.2042  0.032830052   0.03215582            7 
 3908000   0.61768013   -5.4959973    1536.6715  0.032767645  0.032147297           15 
 3909000   0.61999031   -5.4756714    1540.9683  0.032850864  0.032138798            6 
 3910000   0.62723059   -5.4722089    1540.1107  0.032824185  0.032130336           17 
 3911000   0.63461223   -5.4950441    1543.1553  0.032880663  0.032121834           20 
 3912000   0.60872298   -5.5145175    1540.9366  0.032824996  0.032113354           33 
 3913000   0.61854874   -5.5066979    1538.4377  0.032763389  0.032104808           24 
 3914000   0.61091914   -5.4959716    1539.8034  0.032784095  0.032096246           19 
 3915000   0.61406268    -5.506492    1539.3143  0.032765312  0.032087731           33 
 3916000   0.61868297   -5.4864487    1539.0858  0.032752081  0.032079235           21 
 3917000   0.61833404   -5.5246123    1538.3074  0.032727158  0.032070741           18 
 3918000    0.6317499   -5.5216431    1542.7378  0.032813038   0.03206221           18 
 3919000   0.63169936   -5.5159435    1545.0143  0.032853072  0.032053704           14 
 3920000   0.61473714   -5.4982603    1540.4106  0.032746825  0.032045249           12 
 3921000   0.62151845    -5.516584    1539.6629  0.032722581  0.032036798           25 
 3922000   0.62077025   -5.5193328    1538.6896  0.032693558  0.032028294           10 
 3923000   0.61715911   -5.5141512    1541.5674  0.032746355  0.032019756            7 
 3924000   0.61444327    -5.511987    1539.8318  0.032701151  0.032011227           21 
 3925000   0.62500543     -5.53598    1541.9887  0.032738614   0.03200272           17 
 3926000    0.6221545   -5.5131017     1544.331  0.032779993  0.031994199           10 
 3927000   0.63540988   -5.5296524    1540.1712  0.032683371  0.031985666           12 
 3928000   0.63678578    -5.512451    1539.3945  0.032658573  0.031977148           15 
 3929000   0.62114993   -5.4947602     1543.526   0.03273789   0.03196868           17 
 3930000   0.64373411   -5.5116906    1544.0535  0.032740744  0.031960213           14 
 3931000   0.60567245   -5.5106648    1540.2731  0.032652275   0.03195178           21 
 3932000   0.61288011   -5.5351866    1539.9659  0.032637459  0.031943312           11 
 3933000    0.6213782   -5.5283705    1541.6633  0.032665126  0.031934835           12 
 3934000   0.61193209   -5.5029699    1543.3816  0.032693221  0.031926379            9 
 3935000   0.62737488   -5.5424501    1538.8847  0.032589681  0.031917915           19 
 3936000   0.61290017   -5.5037732    1542.0289  0.032647969   0.03190941           12 
 3937000   0.62498801   -5.5216223    1541.3536  0.032625382   0.03190095           15 
 3938000   0.61928319    -5.504271    1542.2305  0.032635655  0.031892503           20 
 3939000   0.62059789   -5.5319911     1538.145  0.032540937     0.031884           19 
 3940000   0.62382721   -5.5315985    1543.0408  0.032636227  0.031875499           12 
 3941000   0.61212532   -5.5262027    1542.8638  0.032624202  0.031866999           17 
 3942000   0.62711848   -5.5134177    1543.2946  0.032625033   0.03185855           15 
 3943000   0.62298006   -5.5131652    1540.6118   0.03256006  0.031850055           22 
 3944000   0.62363962   -5.5256833     1539.119  0.032520263   0.03184156           17 
 3945000   0.63025719   -5.5144072    1538.8788  0.032506945  0.031833038           15 
 3946000   0.62766356    -5.524257    1537.9408  0.032478898  0.031824503           19 
 3947000   0.60464776   -5.5352095    1538.8028   0.03248887  0.031815991            9 
 3948000   0.61965592   -5.5365386    1539.6433   0.03249838  0.031807452           19 
 3949000   0.63466721   -5.4958511    1544.3865  0.032590245   0.03179892           10 
 3950000   0.61905887   -5.5156289    1539.0193  0.032468762  0.031790412           10 
 3951000   0.61287498    -5.539565    1543.0271  0.032545075  0.031781902            9 
 3952000   0.61639847   -5.5175429    1539.7012  0.032466708  0.031773385           17 
 3953000   0.62192137   -5.5122019    1541.9068  0.032504992  0.031764876           18 
 3954000   0.61429191   -5.5044893    1544.6911  0.032555451  0.031756362            5 
 3955000     0.635869   -5.5144223    1539.2465  0.032432502  0.031747892           14 
 3956000   0.61118893   -5.5241089    1539.9796  0.032439746  0.031739407           12 
 3957000   0.62447446   -5.5144315     1541.061  0.032454322  0.031730934           12 
 3958000   0.61863842   -5.5400418    1542.9314  0.032485502  0.031722461           18 
 3959000   0.61777608   -5.5040854    1543.5452  0.032490217  0.031713933           18 
 3960000   0.62414036   -5.5113796    1544.3388  0.032498711  0.031705479           10 
 3961000   0.62080068   -5.5079804    1544.8116  0.032500454   0.03169701           11 
 3962000   0.60212225   -5.5277888    1542.5731  0.032445169  0.031688539           13 
 3963000   0.61370593   -5.5214078    1541.4579  0.032413532  0.031680041           14 
 3964000   0.61839745   -5.5125757      1543.51  0.032448494  0.031671568           10 
 3965000   0.61175625   -5.5123327    1539.7664   0.03236163  0.031663097           18 
 3966000   0.62460193    -5.511081    1542.7701  0.032416584  0.031654631           14 
 3967000   0.62790041   -5.5322753    1540.8398  0.032367863  0.031646191           15 
 3968000   0.61484917   -5.5230217    1540.2306  0.032346912  0.031637766           11 
 3969000   0.61868648   -5.5535948    1544.1072  0.032420157  0.031629336           11 
 3970000   0.61087405   -5.5170741    1544.2978   0.03241599  0.031620862            8 
 3971000   0.61705851   -5.5275951    1539.6205  0.032309673   0.03161242            7 
 3972000   0.62203009   -5.5107474    1541.9764  0.032350966  0.031603998            5 
 3973000   0.61181091   -5.5049797    1543.1291  0.032366999  0.031595576           11 
 3974000   0.60765359   -5.5331896    1541.9725  0.032334602  0.031587146           10 
 3975000   0.62356991    -5.539991    1540.9575  0.032305188  0.031578749            8 
 3976000   0.61180149   -5.5408253    1547.9844  0.032444342  0.031570325           13 
 3977000   0.61833229   -5.5484106    1542.1248  0.032313402  0.031561906            7 
 3978000    0.6249648   -5.5379188    1540.4151  0.032269464  0.031553492           23 
 3979000   0.60655587    -5.538481    1542.4866  0.032304738  0.031545052           11 
 3980000   0.61826755   -5.5529807    1543.0399  0.032308205  0.031536645           33 
 3981000   0.61429827   -5.5473074     1544.417  0.032328917  0.031528239           25 
 3982000   0.61901938   -5.5444248    1544.8754  0.032330392  0.031519828           10 
 3983000   0.61873836   -5.5251008    1545.6558  0.032338601  0.031511412           18 
 3984000   0.60987081   -5.5266482    1542.8937  0.032272709     0.031503            8 
 3985000   0.59835226   -5.5378428    1542.2231  0.032250587  0.031494542           18 
 3986000   0.62960986   -5.5468879    1545.8466  0.032318252   0.03148611           25 
 3987000   0.61762161   -5.5322666     1544.617  0.032284446  0.031477683           10 
 3988000   0.61474857   -5.5229935    1544.8763  0.032281767  0.031469275           23 
 3989000   0.60800005   -5.5231968    1542.0149  0.032213898  0.031460867           21 
 3990000    0.6188427   -5.5321769    1540.7726  0.032179879  0.031452476           11 
 3991000   0.59950083   -5.5469382     1544.952  0.032259083  0.031444032           20 
 3992000   0.62863366   -5.5609994    1542.9146  0.032208472  0.031435621           12 
 3993000   0.61265536   -5.5505383    1541.3052  0.032166816  0.031427203            9 
 3994000   0.59524917   -5.5394148    1543.8293  0.032211428  0.031418819           17 
 3995000   0.63006775   -5.5366086    1543.1216  0.032188602  0.031410444           14 
 3996000   0.61457369   -5.5261842    1545.9403  0.032239328  0.031402077           11 
 3997000   0.60567277   -5.5385061    1545.5828  0.032223809  0.031393712           10 
 3998000   0.61095649   -5.5379763     1546.488  0.032234617  0.031385334           15 
 3999000   0.62531364    -5.543992    1546.0909  0.032218282  0.031376978           12 
 4000000   0.61289486   -5.5439769    1542.5923   0.03213734  0.031368591           13 
 4001000   0.60152691   -5.5748676    1539.9761  0.032074817  0.031360183           19 
 4002000   0.61689429   -5.5438117    1543.8891  0.032148282  0.031351792           12 
 4003000   0.61054907   -5.5367809    1543.9183  0.032140859  0.031343427           16 
 4004000   0.61013468    -5.530988    1545.4066  0.032163807  0.031335086           10 
 4005000   0.60924535   -5.5692999    1540.9707  0.032063478  0.031326747           12 
 4006000   0.61165909   -5.5396095    1542.9593   0.03209684  0.031318395           26 
 4007000   0.60367768   -5.5454769    1543.5594   0.03210131  0.031310089            9 
 4008000   0.60933572   -5.5639339    1545.7389  0.032138618  0.031301769            8 
 4009000   0.60798439   -5.5625486    1542.9829  0.032073313   0.03129345           17 
 4010000   0.60978862   -5.5537804    1544.0206  0.032086879  0.031285133            8 
 4011000   0.61276986   -5.5391419     1545.258  0.032104587  0.031276804           19 
 4012000   0.61294297   -5.5592182    1549.3999  0.032182617  0.031268485            8 
 4013000   0.61012837   -5.5541805    1542.5806  0.032032989  0.031260149           31 
 4014000    0.6211933   -5.5597443    1545.1457  0.032078261  0.031251822           15 
 4015000   0.60975202   -5.5583663    1542.1811  0.032008741  0.031243483           18 
 4016000   0.60307855   -5.5315507    1543.6997  0.032032282  0.031235188           28 
 4017000   0.61729799   -5.5458726    1545.1104  0.032053573  0.031226891           20 
 4018000   0.60287342   -5.5420827    1548.4329  0.032114504  0.031218612           15 
 4019000   0.59086309   -5.5557273    1544.5058  0.032025084  0.031210355           15 
 4020000   0.60861039   -5.5508342    1545.6345  0.032040516  0.031202062           14 
 4021000   0.60885888   -5.5496916    1540.3408  0.031922839  0.031193776           10 
 4022000   0.61172607   -5.5319497    1545.2037  0.032015657  0.031185479           13 
 4023000   0.60855772   -5.5491361    1546.0685  0.032025613  0.031177243           10 
 4024000   0.61052052   -5.5686108    1544.6935  0.031989179  0.031168986           21 
 4025000   0.60913855   -5.5263845    1549.6005  0.032082826  0.031160716           15 
 4026000   0.60911622   -5.5561928     1547.759  0.032036741  0.031152475           30 
 4027000    0.6165785     -5.56035    1547.9163   0.03203204  0.031144254           17 
 4028000   0.59963015   -5.5571213    1546.2032  0.031988647  0.031135994           13 
 4029000   0.60989548   -5.5607279    1548.4001  0.032026146  0.031127732           15 
 4030000   0.60838174   -5.5454787    1547.3397  0.031996271    0.0311195           20 
 4031000   0.60057745   -5.5572385     1547.135  0.031984102  0.031111266           18 
 4032000   0.62086131   -5.5442398    1547.1932  0.031977373  0.031103027            9 
 4033000   0.60539994   -5.5547503    1547.0438  0.031966356  0.031094785           46 
 4034000   0.60938843   -5.5469058    1549.5511  0.032010228  0.031086563           10 
 4035000   0.60008236   -5.5620843     1549.037  0.031991677  0.031078311           26 
 4036000   0.60977437   -5.5722856    1549.5453  0.031994245  0.031070069           17 
 4037000   0.59954492   -5.5352981    1547.5404  0.031944934  0.031061809           19 
 4038000   0.61466247   -5.5728498     1543.318  0.031849884  0.031053562           13 
 4039000   0.62080208   -5.5751457    1543.9267  0.031854559  0.031045271           28 
 4040000   0.60578842   -5.5477024    1546.4935  0.031899619  0.031037016           25 
 4041000   0.61593635   -5.5646345    1546.5823  0.031893557  0.031028754           17 
 4042000   0.61805605   -5.5364014    1544.8167  0.031849264  0.031020511           19 
 4043000   0.58976737   -5.5334476    1546.5589  0.031877297  0.031012286           16 
 4044000   0.59471301   -5.5501028    1548.0077  0.031899268  0.031004065           29 
 4045000   0.60474838   -5.5639726    1544.3459  0.031815944  0.030995841           22 
 4046000   0.60907377   -5.5635695     1546.498  0.031852407  0.030987612           28 
 4047000   0.59865853   -5.5691553    1547.4804  0.031864763  0.030979402           15 
 4048000   0.58903146    -5.540621    1549.6222  0.031900983  0.030971177            5 
 4049000   0.60949875   -5.5366687    1547.6298    0.0318521  0.030962989           13 
 4050000   0.59541999   -5.5732765    1545.1394  0.031792991  0.030954734           19 
 4051000   0.59001741    -5.562623    1546.8845  0.031821043  0.030946476           18 
 4052000   0.58532329   -5.5595335    1545.3242  0.031781099  0.030938235           11 
 4053000   0.60720197   -5.5748574    1546.4391  0.031796181  0.030929985           22 
 4054000   0.60245407   -5.5651849    1547.1924  0.031803824  0.030921766           10 
 4055000   0.61134509   -5.5741097     1548.798  0.031828977  0.030913569            8 
 4056000    0.6115087    -5.558409    1543.9522  0.031721568  0.030905373           16 
 4057000   0.60159988    -5.565668    1549.1231  0.031819963  0.030897176           19 
 4058000   0.60993411   -5.5745214    1551.9528  0.031870232  0.030888974           11 
 4059000   0.61711193   -5.5821456    1546.7704  0.031755982   0.03088076           17 
 4060000   0.60963963   -5.5734168    1545.9421   0.03173116  0.030872549           11 
 4061000   0.60028374   -5.5434212    1551.8605  0.031844794   0.03086436           12 
 4062000   0.59850552   -5.5484944    1549.1168  0.031780667    0.0308562            7 
 4063000   0.60712074   -5.5518411    1548.7122  0.031764546  0.030848034           20 
 4064000   0.60909005   -5.5679997    1545.8949  0.031698961  0.030839858           14 
 4065000   0.60196911   -5.5607564    1546.7753  0.031709212  0.030831665           20 
 4066000   0.60567465   -5.5587275    1550.3237  0.031774138  0.030823514           18 
 4067000   0.59675498   -5.5651903     1549.179   0.03174287  0.030815332           14 
 4068000   0.59133301   -5.5682701    1547.3193   0.03169697  0.030807122            9 
 4069000   0.59704915   -5.5759239    1545.5819  0.031653599  0.030798922           19 
 4070000   0.59302735    -5.553619    1548.2842  0.031701151  0.030790755            5 
 4071000   0.61234793   -5.5541093    1549.5995  0.031720287  0.030782625           25 
 4072000   0.59627606    -5.563624    1546.8357  0.031655937   0.03077446           14 
 4073000   0.61374786   -5.5563294    1548.7651  0.031687639  0.030766309           14 
 4074000   0.59005951    -5.586595     1544.296  0.031588447  0.030758132           14 
 4075000   0.60389806   -5.5827188    1547.5311  0.031646854   0.03074994           23 
 4076000    0.5976844    -5.550602    1541.2985  0.031511665  0.030741748           15 
 4077000   0.59417951   -5.5769631    1548.7189  0.031655606  0.030733587           13 
 4078000   0.60952998   -5.5834882     1547.534  0.031623631   0.03072539           16 
 4079000   0.59957983   -5.5711543    1549.1664  0.031649228  0.030717196           17 
 4080000   0.58933901   -5.5776033    1545.9691  0.031576167  0.030709004           22 
 4081000   0.60060912   -5.5615657     1544.499  0.031538411  0.030700802            9 
 4082000   0.59799581   -5.5848112     1546.286  0.031567166  0.030692626           14 
 4083000   0.59448765    -5.573918     1548.609  0.031606846  0.030684482           14 
 4084000   0.59628966   -5.5346925    1549.9041  0.031625533  0.030676342           14 
 4085000    0.5951092   -5.5762954    1548.3874  0.031586851  0.030668202            8 
 4086000   0.60864109   -5.5659246    1549.8523  0.031608996  0.030660038            9 
 4087000   0.59890568   -5.5752203    1543.2218  0.031466067  0.030651835           31 
 4088000   0.59845621   -5.5751573     1544.381     0.031482  0.030643645           10 
 4089000   0.59817336   -5.5848812    1549.7499  0.031583718  0.030635453           16 
 4090000   0.59485125   -5.5712412    1546.9765  0.031519488  0.030627297            8 
 4091000   0.60357728   -5.5730764    1550.8843  0.031591386  0.030619098           25 
 4092000   0.60356883   -5.5813935    1546.8918  0.031502358  0.030610898            9 
 4093000    0.5877403   -5.5805415     1548.319  0.031523719   0.03060268           20 
 4094000   0.59733284   -5.5684551    1548.9345  0.031528548   0.03059449            9 
 4095000   0.58366708   -5.5682204    1548.6693  0.031515453  0.030586296           22 
 4096000   0.59531576   -5.5805836    1545.6544   0.03144642   0.03057811           43 
 4097000   0.58750748   -5.5830856    1546.3773  0.031453448  0.030569909           12 
 4098000    0.5882011   -5.6091569    1548.6536  0.031492061   0.03056172           14 
 4099000   0.60915212   -5.5869366    1545.2354  0.031414885  0.030553518           12 
 4100000   0.62044329   -5.6257664    1542.4029  0.031349652    0.0305453           17 
 4101000   0.59128512   -5.5995514    1546.1032  0.031417198  0.030537082           13 
 4102000   0.58729974   -5.5802012    1546.5327  0.031418266  0.030528855           38 
 4103000   0.59053408   -5.5789913    1547.0136  0.031420375  0.030520653           21 
 4104000   0.60281262   -5.5803826     1545.524  0.031382473  0.030512447           10 
 4105000    0.6009948    -5.574643    1545.2876  0.031370029  0.030504241           17 
 4106000   0.58208679   -5.5966412    1548.1835  0.031421163   0.03049605           19 
 4107000   0.59846775   -5.5943074    1546.8937   0.03138734  0.030487852           13 
 4108000   0.60019834    -5.608607    1546.2291  0.031366218   0.03047966           11 
 4109000    0.6019877   -5.6015718    1547.7002   0.03138842  0.030471481           14 
 4110000   0.60051281   -5.5939052    1548.4389   0.03139576  0.030463324           14 
 4111000   0.59535904   -5.5966876    1544.8728  0.031315835  0.030455165           18 
 4112000     0.593646   -5.5952844    1548.8811  0.031389452  0.030446982           24 
 4113000   0.57693955   -5.6037271    1543.4972  0.031272738  0.030438786            9 
 4114000     0.589321   -5.5688925    1546.2485  0.031320866  0.030430607           17 
 4115000   0.58282824   -5.5786787    1547.2423  0.031333379  0.030422491           14 
 4116000    0.6024314   -5.5699835    1550.3961  0.031389619   0.03041433           10 
 4117000   0.58403914   -5.5527699    1550.4141  0.031382359  0.030406211           15 
 4118000   0.59078519   -5.5883742    1544.5267  0.031255599  0.030398087           11 
 4119000   0.61195522   -5.5727687    1543.2554  0.031222291  0.030389924           15 
 4120000   0.59374697   -5.6070789    1547.3655  0.031297846  0.030381748           13 
 4121000    0.5905658   -5.6076692    1540.9873  0.031161274  0.030373571           28 
 4122000   0.57512437   -5.5949717    1547.0169  0.031275612  0.030365383           29 
 4123000    0.5982337   -5.5986374    1547.9468  0.031286822  0.030357227           27 
 4124000   0.59562335   -5.6139115     1545.416  0.031228095  0.030349072           56 
 4125000   0.58938973   -5.6005614    1545.9538  0.031231391  0.030340923           16 
 4126000   0.60330169    -5.598081    1546.0425  0.031225612  0.030332755           24 
 4127000    0.5787016   -5.5801617    1547.3159  0.031243758  0.030324593           37 
 4128000   0.58885324   -5.6019942    1544.4187  0.031177704  0.030316448           25 
 4129000   0.60053905   -5.5694551    1548.4282  0.031251074  0.030308311           18 
 4130000   0.58065679    -5.590141     1545.581  0.031186056  0.030300139           10 
 4131000   0.60002153   -5.5965168    1549.1955  0.031251423  0.030291987            8 
 4132000   0.59514918   -5.6118537    1548.5727  0.031231299  0.030283842           35 
 4133000   0.58509478   -5.6195159    1544.1204  0.031133971  0.030275685           21 
 4134000   0.59025618   -5.5849955    1545.9597  0.031163515  0.030267518           27 
 4135000   0.58803901   -5.5879153    1550.2708  0.031242862  0.030259366           28 
 4136000   0.59553741   -5.6052122    1543.4285  0.031097447  0.030251206           32 
 4137000   0.57733471    -5.611641    1548.8705   0.03119955  0.030243057           19 
 4138000   0.58930211   -5.6138543    1545.1776  0.031117642  0.030234916           15 
 4139000   0.59329224   -5.6088002    1545.1145  0.031108853  0.030226778            6 
 4140000   0.57874859   -5.5908324    1545.0302  0.031099642  0.030218635           30 
 4141000   0.59223568   -5.5936339    1544.9286  0.031090088  0.030210513           29 
 4142000    0.5817543   -5.5985677    1544.2854   0.03106964  0.030202365           11 
 4143000   0.60261473   -5.5889916    1545.5453  0.031087482  0.030194254           19 
 4144000   0.58458251   -5.5991328    1547.9666  0.031128673  0.030186131           12 
 4145000    0.5758368   -5.5984104    1550.6657  0.031175427  0.030177995           21 
 4146000   0.57872658   -5.6068412    1548.7848  0.031130101  0.030169873           16 
 4147000    0.5980826    -5.604686    1548.3342   0.03111354  0.030161798           15 
 4148000   0.60496699   -5.5986089    1547.8471  0.031096252  0.030153722           13 
 4149000   0.58130842   -5.6141821    1549.3033  0.031118005  0.030145624           13 
 4150000   0.58331088   -5.6045068    1550.0879  0.031126263  0.030137504           22 
 4151000   0.58466656   -5.5816504    1552.0671  0.031158498  0.030129391           13 
 4152000   0.59326831   -5.6068698    1546.1944  0.031033124  0.030121318           15 
 4153000   0.58053696    -5.614868    1551.9496  0.031141136  0.030113257           28 
 4154000   0.58364458   -5.5873237    1550.0577  0.031095685  0.030105183           12 
 4155000   0.57610896   -5.5890023    1550.0313  0.031087672   0.03009712           26 
 4156000   0.58358144   -5.5788465    1551.0349  0.031100316  0.030089084           15 
 4157000   0.58686147   -5.5827694    1550.2933  0.031077967  0.030081043           10 
 4158000   0.57652523   -5.5895235     1548.493  0.031034411  0.030072986           18 
 4159000   0.58410825   -5.5966359     1555.443  0.031166206  0.030064909           27 
 4160000   0.58575263   -5.5833245    1548.4423  0.031018476  0.030056876           19 
 4161000   0.57172873   -5.5842568    1549.0617  0.031023425  0.030048812           21 
 4162000   0.58856532   -5.5806056    1550.6159  0.031047091  0.030040788           17 
 4163000   0.59273445    -5.582805    1548.6487  0.031000254  0.030032786           26 
 4164000   0.58699189   -5.6071027    1547.8255  0.030976335  0.030024714           12 
 4165000   0.57710232   -5.5983099    1546.3377   0.03093913  0.030016607           22 
 4166000   0.59377024   -5.6188151    1546.8738  0.030942427  0.030008504           17 
 4167000    0.5852066   -5.6057352    1549.4628  0.030986777   0.03000043           22 
 4168000   0.58203057   -5.5977025    1549.2608  0.030975304   0.02999235           27 
 4169000   0.59147565   -5.6108087    1548.9749  0.030962159  0.029984294           12 
 4170000   0.57801541   -5.6266029    1548.2728  0.030940703  0.029976253            9 
 4171000   0.58208173   -5.6116863    1550.3447   0.03097468  0.029968179           31 
 4172000   0.57221729   -5.6140829    1551.3374  0.030987085  0.029960104           33 
 4173000   0.58000371   -5.6280149    1550.7565  0.030968058   0.02995206           43 
 4174000   0.58600804   -5.6179249    1547.9448  0.030904505  0.029944018           12 
 4175000   0.57328345   -5.6116882     1548.182  0.030901837  0.029935961           30 
 4176000   0.58348825   -5.6304705    1545.9332  0.030849561  0.029927908           29 
 4177000   0.57713922   -5.6144756    1548.1521  0.030886444  0.029919858           19 
 4178000     0.573845   -5.5919715    1548.1685  0.030879378  0.029911826           19 
 4179000   0.59486957   -5.6038174    1549.4077  0.030896699  0.029903764           14 
 4180000   0.57012405    -5.606502    1551.5011  0.030931043  0.029895743           10 
 4181000    0.5899037   -5.6079022    1547.6521  0.030846929  0.029887734           12 
 4182000   0.58584393   -5.6169844    1550.0952  0.030888235   0.02987972            8 
 4183000    0.5971997   -5.6076404    1548.3423  0.030845929  0.029871698            9 
 4184000   0.58634287   -5.6063262    1548.8207  0.030848085  0.029863675           13 
 4185000   0.59310906   -5.5985025    1548.3559  0.030831459   0.02985565           23 
 4186000    0.5787949   -5.6201663    1551.5811    0.0308883  0.029847598           12 
 4187000   0.57856058   -5.6078539    1549.0706  0.030830958  0.029839584           16 
 4188000   0.59079514   -5.6351986    1546.1903  0.030766282  0.029831532           24 
 4189000   0.57142096   -5.6258831    1552.8197   0.03089082  0.029823499            8 
 4190000   0.60645764   -5.6190533    1549.1457  0.030810376  0.029815478           33 
 4191000   0.58639568    -5.599512    1550.0836  0.030821674   0.02980745           12 
 4192000   0.58144445   -5.6177576    1553.1307  0.030874894  0.029799455           29 
 4193000   0.57034101   -5.6222024    1551.8237  0.030841556  0.029791462           15 
 4194000   0.57405488   -5.6045952    1549.6533  0.030791076  0.029783458           17 
 4195000   0.57333475   -5.5893812    1548.7535  0.030765862  0.029775464           16 
 4196000   0.58926224   -5.6176279     1547.452  0.030732682  0.029767443           15 
 4197000   0.58352935    -5.615367    1550.4194  0.030784277  0.029759466           19 
 4198000   0.58917365   -5.6098313     1549.839  0.030765424  0.029751496           15 
 4199000   0.57640692   -5.6155093    1550.9884  0.030780908  0.029743509           25 
 4200000   0.55967325   -5.6119498    1547.9958  0.030714202  0.029735502           39 
 4201000    0.5756166   -5.6200704    1550.8834   0.03076417  0.029727481           16 
 4202000   0.59551234   -5.6060546    1547.8221  0.030696138  0.029719486           22 
 4203000   0.58659364   -5.6033189    1550.7498  0.030746883  0.029711475           26 
 4204000   0.58772373   -5.6441374    1545.2387  0.030630327  0.029703462           14 
 4205000   0.58850835   -5.6222711    1547.7503  0.030672816  0.029695435           13 
 4206000   0.57531216   -5.6040982    1543.9473  0.030590175  0.029687441           20 
 4207000   0.58094761    -5.614515    1545.8792   0.03062117   0.02967942           24 
 4208000   0.57802317   -5.6254838    1547.5607  0.030647194  0.029671435           52 
 4209000   0.58306865   -5.6267373    1548.1366  0.030651315  0.029663406           32 
 4210000     0.574059   -5.6206578    1546.8284  0.030618139  0.029655402           22 
 4211000   0.58361957   -5.6299208    1548.0141  0.030634332  0.029647396           49 
 4212000   0.58138907   -5.6299726    1548.8567  0.030643731  0.029639366           12 
 4213000   0.58470631   -5.6475371    1548.2156  0.030623776  0.029631355            9 
 4214000   0.57152393   -5.6415745    1548.0865  0.030613956  0.029623337           18 
 4215000   0.57670284   -5.6154324    1548.6166  0.030617174    0.0296153           17 
 4216000   0.57698311    -5.629218    1548.6078  0.030609737  0.029607302           35 
 4217000   0.57647809   -5.6377741    1549.2131   0.03061444  0.029599305           39 
 4218000   0.58436301   -5.6259053    1546.6959  0.030557449  0.029591308           12 
 4219000   0.57098432   -5.6347806    1548.6942  0.030589678  0.029583313           40 
 4220000   0.58487888   -5.6306425    1548.5115  0.030578821  0.029575293           26 
 4221000   0.58068291   -5.6328031    1544.9149  0.030500571  0.029567283           18 
 4222000   0.57955629   -5.6349164    1548.2131  0.030558445  0.029559296           23 
 4223000   0.57271499   -5.6407353    1547.4711  0.030536568  0.029551313           19 
 4224000   0.57608716   -5.6273557    1545.7463   0.03049531  0.029543309           25 
 4225000   0.57440702   -5.6357955    1550.0322  0.030572626  0.029535297           39 
 4226000    0.5667479   -5.6466062    1547.9412   0.03052416  0.029527293           51 
 4227000   0.59680429   -5.6273874    1548.6978  0.030531855  0.029519279           18 
 4228000   0.57441889   -5.6437025    1547.0187  0.030491538  0.029511272           13 
 4229000    0.5645039   -5.6427454    1548.3542  0.030510644  0.029503273           20 
 4230000   0.57299748   -5.6372388     1545.815  0.030453409  0.029495247           36 
 4231000   0.58064212   -5.6317451    1546.7274  0.030464181  0.029487233           36 
 4232000   0.57998822    -5.620172    1546.2039  0.030446674   0.02947924           21 
 4233000   0.57845852   -5.6374536    1549.3254  0.030500932  0.029471242           18 
 4234000   0.56943015   -5.6148952    1546.6871  0.030441802  0.029463241           11 
 4235000   0.57470795   -5.6393908    1548.7664  0.030475529  0.029455282           22 
 4236000    0.5759043   -5.6303543    1546.1624  0.030417107  0.029447294           15 
 4237000   0.56561034   -5.6252338    1548.3291  0.030452544   0.02943931           23 
 4238000   0.56849805   -5.6274312    1551.8073  0.030513751  0.029431348           23 
 4239000   0.57277366   -5.6174674    1548.3531  0.030438648  0.029423373           18 
 4240000   0.58347058   -5.6195108    1547.6509  0.030417666  0.029415423           27 
 4241000   0.56269223   -5.6171305    1548.9797  0.030436606  0.029407465           16 
 4242000   0.57300693   -5.6409577    1549.4014  0.030437715  0.029399529           17 
 4243000   0.58580665   -5.6218717    1546.3083  0.030369791  0.029391557           17 
 4244000   0.57636606   -5.6331814    1550.1568  0.030438203  0.029383621           30 
 4245000   0.56250275   -5.6311211    1551.7978  0.030463246  0.029375677           30 
 4246000   0.56891918   -5.6321134    1550.0766  0.030422291  0.029367757           18 
 4247000    0.5721768   -5.6206589    1549.6121  0.030406013  0.029359808           42 
 4248000   0.57623002    -5.614474    1549.4759  0.030396185  0.029351841           27 
 4249000   0.57642283   -5.6109856    1549.5637  0.030390752  0.029343879           25 
 4250000   0.57793462   -5.6264663    1545.5637  0.030305171  0.029335942           27 
 4251000   0.56643154   -5.6230798    1550.1627  0.030388197  0.029327995           36 
 4252000   0.56613752   -5.6224375    1550.4336   0.03038636  0.029320061           53 
 4253000   0.57093597   -5.6467442    1548.7548   0.03034632  0.029312109           19 
 4254000   0.57024816    -5.645345    1547.6953  0.030318431  0.029304143           19 
 4255000    0.5699876   -5.6466663    1548.3665  0.030324452  0.029296181           16 
 4256000   0.56144922   -5.6328967    1546.1552  0.030274029  0.029288229           28 
 4257000   0.57084397   -5.6449351    1547.5446  0.030294116  0.029280272           55 
 4258000   0.57082958   -5.6367799    1545.0456  0.030238093  0.029272316           15 
 4259000   0.57463377   -5.6390918    1546.2057  0.030253692  0.029264355           12 
 4260000   0.56501461   -5.6372045    1547.2664   0.03026734  0.029256404           20 
 4261000   0.56190752   -5.6520753    1543.6796  0.030190087  0.029248416           21 
 4262000   0.57907354   -5.6660262    1547.8358  0.030264269  0.029240423           13 
 4263000   0.55906064   -5.6373511    1546.7343  0.030235637  0.029232457           36 
 4264000   0.57656123   -5.6396221    1548.9192  0.030271247   0.02922451           25 
 4265000   0.56959284   -5.6541032    1546.7011  0.030220812  0.029216547           61 
 4266000   0.55828742   -5.6414446    1546.0371  0.030200756  0.029208591           12 
 4267000   0.56874669   -5.6450304    1544.9898  0.030173226  0.029200637            8 
 4268000   0.57665888   -5.6405211    1547.7757  0.030220551  0.029192677           13 
 4269000   0.57561556   -5.6323251    1552.9206  0.030313903  0.029184742           25 
 4270000   0.56454684   -5.6349954    1550.8166  0.030265741  0.029176845           13 
 4271000   0.55789975   -5.6468714    1549.0013  0.030223236  0.029168931           13 
 4272000   0.57624174   -5.6463102    1544.9192  0.030136532     0.029161           24 
 4273000   0.56679649   -5.6529877    1544.8168  0.030127482   0.02915305           41 
 4274000   0.56555252   -5.6497846     1549.457  0.030210908  0.029145106           45 
 4275000   0.56782774   -5.6649873    1541.5395  0.030049503  0.029137169           34 
 4276000   0.55887433   -5.6755643    1546.6425  0.030141926  0.029129212           46 
 4277000   0.56950789   -5.6649856    1546.4262  0.030130665  0.029121266           36 
 4278000   0.55370029   -5.6644745    1546.8313  0.030131512  0.029113315           39 
 4279000   0.57207285   -5.6661559    1549.3873  0.030174249  0.029105383           25 
 4280000   0.56146888   -5.6558335    1550.0121  0.030179363  0.029097489            9 
 4281000   0.57238692   -5.6297456    1548.9057  0.030150776   0.02908959           27 
 4282000   0.58167509   -5.6401603    1550.3483   0.03017181  0.029081705           13 
 4283000   0.57386073    -5.636166    1549.5226  0.030148701  0.029073833           14 
 4284000   0.56134745   -5.6294566    1547.5202  0.030102711  0.029065943           37 
 4285000   0.55796363   -5.6518534    1549.1249  0.030126893  0.029058097            7 
 4286000   0.56072203   -5.6343524    1546.5186   0.03006919  0.029050223           36 
 4287000   0.56891066     -5.67045    1553.0764  0.030189651  0.029042348           32 
 4288000   0.56126095   -5.6279937    1550.0114  0.030123045  0.029034484           31 
 4289000   0.56806307   -5.6388307    1550.9104  0.030133489  0.029026603            9 
 4290000   0.55869152   -5.6525667    1545.4747  0.030020876  0.029018718           14 
 4291000   0.55787157   -5.6431348    1552.9717  0.030159475  0.029010841           26 
 4292000   0.56683738   -5.6473536    1548.8516  0.030072452   0.02900295           15 
 4293000   0.56081197   -5.6685654    1549.0961  0.030070193  0.028995077           23 
 4294000    0.5695171    -5.656795     1545.932  0.030001785  0.028987182           46 
 4295000   0.57017077   -5.6515653    1548.4379  0.030043421   0.02897928           47 
 4296000   0.56714809   -5.6750171    1545.2525  0.029974637  0.028971388           42 
 4297000   0.56750779   -5.6411167    1542.6062  0.029916341   0.02896349           42 
 4298000   0.56740761   -5.6672581    1546.4341    0.0299836  0.028955592           73 
 4299000   0.56858309   -5.6467971    1550.6721  0.030058774  0.028947721           29 
 4300000    0.5592231   -5.6491432     1549.947  0.030037733  0.028939837           28 
 4301000    0.5717255   -5.6448705     1554.077  0.030110769  0.028931995           32 
 4302000   0.56933438   -5.6779445    1550.4585  0.030033676  0.028924115           36 
 4303000   0.56721077   -5.6454453    1549.1004  0.030000396  0.028916229           36 
 4304000   0.56386556    -5.675819    1545.4326  0.029922409  0.028908348           21 
 4305000   0.56590591   -5.6570326    1546.7308  0.029940589  0.028900478           26 
 4306000   0.56408248   -5.6554602    1547.3199  0.029945037  0.028892618           25 
 4307000   0.57343917   -5.6438509    1547.4343  0.029940297  0.028884789           27 
 4308000   0.56208356   -5.6533998    1547.9918   0.02994413  0.028876926           38 
 4309000   0.57141949   -5.6545355    1546.2863  0.029904198  0.028869054           25 
 4310000   0.56701519   -5.6587076    1550.6858  0.029982324  0.028861216           15 
 4311000     0.568984   -5.6595637    1548.8843  0.029940545  0.028853371           26 
 4312000   0.55687289   -5.6646832    1548.2639  0.029921612   0.02884553           10 
 4313000   0.56358666   -5.6571438    1548.9551  0.029928029  0.028837663           19 
 4314000   0.55505555   -5.6412597    1547.6105  0.029895118  0.028829806           26 
 4315000   0.56107003   -5.6546405    1548.5047   0.02990546  0.028821968           32 
 4316000   0.55848549   -5.6379471     1549.585  0.029919389  0.028814126           21 
 4317000   0.55016229   -5.6510296    1547.1487  0.029865429  0.028806291           23 
 4318000   0.56278357   -5.6593956    1546.3921   0.02984391  0.028798438           24 
 4319000   0.56093653   -5.6575832    1547.7109  0.029862447  0.028790552           32 
 4320000    0.5564346   -5.6589474    1545.8802  0.029820221  0.028782671           31 
 4321000   0.57210922   -5.6704029     1545.293  0.029801994  0.028774785           11 
 4322000   0.55660426   -5.6448177    1551.3669  0.029912211  0.028766918           23 
 4323000   0.56389895   -5.6625352    1547.7283  0.029835152  0.028759073           22 
 4324000   0.55369677   -5.6502716    1549.1254  0.029855177  0.028751213           17 
 4325000   0.56890374   -5.6701085    1546.3573  0.029794938  0.028743351           23 
 4326000    0.5591768   -5.6713674    1547.1378  0.029803086  0.028735479           19 
 4327000   0.56472455   -5.6839636    1547.5439  0.029804019  0.028727617           18 
 4328000   0.56206723   -5.6596044    1548.3961  0.029813542  0.028719748           72 
 4329000   0.56526956   -5.6608849    1547.9505  0.029798076  0.028711879           21 
 4330000   0.56604165   -5.6664614    1548.4549  0.029800903  0.028704016           38 
 4331000   0.56346196   -5.6682746    1544.7761  0.029723238  0.028696164           31 
 4332000   0.56315222   -5.6815892    1545.0101  0.029720878  0.028688297           23 
 4333000   0.56762752   -5.6773213     1546.622  0.029745019  0.028680442           17 
 4334000   0.55516319   -5.6668187    1548.0814  0.029766217  0.028672588           18 
 4335000   0.56712948   -5.6914472    1544.2557  0.029685808  0.028664758           15 
 4336000   0.55615293   -5.6715542    1548.1113  0.029753061  0.028656928           32 
 4337000   0.55313398   -5.6536955    1548.2659  0.029749171  0.028649087           18 
 4338000   0.56021687   -5.6532335     1548.153  0.029740144  0.028641252           21 
 4339000   0.55813953   -5.6681746    1548.3659  0.029737381  0.028633402           15 
 4340000   0.55771046   -5.6705904     1545.571  0.029676862  0.028625574           21 
 4341000   0.55685432   -5.6856415    1544.6518  0.029652381  0.028617708           20 
 4342000   0.56056992   -5.6632857    1545.8788  0.029669101  0.028609869           22 
 4343000   0.55969791   -5.6676428     1549.114  0.029724346  0.028602064           10 
 4344000   0.55318391   -5.6724646    1547.7912  0.029692127  0.028594224           38 
 4345000   0.55508541    -5.666317    1546.3374   0.02965741  0.028586405           18 
 4346000   0.55147524   -5.6637258    1546.8486  0.029660389  0.028578595           17 
 4347000   0.56116075    -5.677234     1547.085  0.029658097   0.02857078           14 
 4348000    0.5595085   -5.6790616    1544.7195   0.02960594  0.028562931           28 
 4349000   0.55516474   -5.6727183    1548.6101  0.029673681  0.028555077           29 
 4350000   0.54284102    -5.674183    1549.0513  0.029675312  0.028547241           12 
 4351000   0.54426972   -5.6782457    1544.2107  0.029575781  0.028539386            9 
 4352000   0.55604499   -5.6761011    1546.7142  0.029616922  0.028531536           27 
 4353000   0.55370587   -5.6808962    1545.0943  0.029579108   0.02852367           31 
 4354000   0.54823434   -5.6638365    1546.5171  0.029599546  0.028515842           31 
 4355000     0.548921   -5.6732981    1543.6516  0.029537918  0.028508006           37 
 4356000   0.56990716   -5.6711789    1548.2667  0.029619428   0.02850017           27 
 4357000   0.55026743   -5.6658535    1549.1213  0.029628975  0.028492344           41 
 4358000   0.55622566    -5.663825    1547.9728  0.029600214  0.028484514           32 
 4359000   0.55937425   -5.6813485     1544.384  0.029524814  0.028476695           28 
 4360000    0.5551454    -5.674057    1547.1926  0.029571724  0.028468849           44 
 4361000   0.55275295   -5.6915365    1546.4897  0.029551512  0.028461013           27 
 4362000   0.56336866   -5.6853986    1543.9877  0.029496937  0.028453159           28 
 4363000   0.55821597   -5.6732915    1546.0519  0.029529604   0.02844531           27 
 4364000   0.55076622    -5.701456    1544.1207   0.02948596  0.028437474           37 
 4365000   0.55631824   -5.6783151    1545.9876  0.029514846   0.02842964           12 
 4366000   0.55602333   -5.6774361      1544.67  0.029482936  0.028421794           18 
 4367000   0.55389616   -5.6747172    1547.6875  0.029533766  0.028413979           13 
 4368000   0.54938148   -5.6982733    1544.3182  0.029462725   0.02840614           17 
 4369000   0.55914149   -5.7031522    1545.1893  0.029472597    0.0283983           19 
 4370000    0.5653346   -5.6845494     1546.824  0.029497025  0.028390456           21 
 4371000   0.55316839   -5.6930093    1546.4894  0.029483898  0.028382629           36 
 4372000   0.54941549   -5.6886723    1546.5718  0.029478725  0.028374813           56 
 4373000   0.54998074   -5.6788859    1544.5482  0.029433422  0.028366988           58 
 4374000   0.55576989   -5.6803202    1546.2875  0.029459829  0.028359145           35 
 4375000   0.54186893    -5.682087    1544.5531  0.029420059  0.028351311           17 
 4376000   0.54163711   -5.6822223    1548.0423  0.029479782  0.028343487           31 
 4377000   0.56049242   -5.6774276    1546.1225  0.029436495  0.028335695           14 
 4378000   0.56204405   -5.6557391    1547.1583  0.029449488  0.028327908           20 
 4379000   0.54816413   -5.6864918    1545.1436  0.029404423  0.028320124           32 
 4380000   0.56400855   -5.6708199    1548.2526   0.02945686  0.028312326           30 
 4381000   0.53850832   -5.6563479    1548.4912  0.029454676  0.028304549           19 
 4382000   0.55355587   -5.6749253    1548.1384  0.029441245  0.028296782           49 
 4383000   0.54829985   -5.6737909    1548.7547  0.029446244  0.028288997           15 
 4384000   0.53223952   -5.6977124    1544.6364  0.029361245  0.028281206           20 
 4385000   0.54658951   -5.6748916    1550.9941  0.029475373  0.028273422           18 
 4386000    0.5489435   -5.6818246    1547.4969  0.029402206  0.028265652           20 
 4387000   0.55699908   -5.6726923    1543.8341  0.029325927  0.028257868           28 
 4388000   0.55969151   -5.6992326    1546.5041  0.029369951  0.028250083           28 
 4389000   0.55605661   -5.6931673     1545.938   0.02935251  0.028242259           37 
 4390000   0.54472596   -5.6903408    1546.2115  0.029351016  0.028234457           33 
 4391000   0.55492925    -5.703394     1544.957  0.029320524  0.028226658           19 
 4392000   0.54813117   -5.7068859    1543.1175  0.029278944  0.028218838           34 
 4393000   0.54715287   -5.6764209    1545.7102  0.029321462  0.028211018           35 
 4394000   0.54929798    -5.709705    1549.2392  0.029381717  0.028203218           36 
 4395000   0.55102548   -5.6981442    1544.7883   0.02929064  0.028195405           59 
 4396000   0.54431798   -5.6728111    1546.2778  0.029312211  0.028187608           22 
 4397000   0.55725416   -5.6836373    1546.1783  0.029303659  0.028179816           36 
 4398000    0.5526205     -5.71063    1546.0264  0.029294119  0.028172036           51 
 4399000   0.55334654   -5.6655269    1547.1069  0.029307929  0.028164229           52 
 4400000   0.55728755   -5.6711964    1543.5892  0.029234643  0.028156456           37 
 4401000   0.53989219   -5.6721438    1546.1727  0.029276921  0.028148706           21 
 4402000   0.54797385   -5.6901569    1547.4555  0.029294554  0.028140989           32 
 4403000   0.54607753   -5.6932549    1549.3421  0.029323607  0.028133276           18 
 4404000   0.54771839   -5.7094659     1546.398   0.02926124  0.028125536           67 
 4405000   0.54864018   -5.6730434    1545.8674   0.02924456  0.028117788           23 
 4406000   0.54021981   -5.6732555    1546.1458  0.029243188  0.028110065           27 
 4407000   0.54133744    -5.681931    1549.0831  0.029292094  0.028102331           19 
 4408000   0.54906389   -5.6939386    1545.8407  0.029224151  0.028094579           20 
 4409000   0.55967047   -5.7087701    1546.1373   0.02922313  0.028086847           51 
 4410000     0.543855   -5.7013939     1546.804    0.0292291  0.028079109           25 
 4411000   0.55494534   -5.6983527     1546.293   0.02921282  0.028071358           24 
 4412000   0.54131466   -5.7007616    1546.2391   0.02920518  0.028063577           25 
 4413000   0.54358407   -5.7023534    1548.0343  0.029232463  0.028055811           27 
 4414000    0.5478322   -5.6877507    1544.7513   0.02916386   0.02804805           29 
 4415000   0.54941785   -5.7175651    1544.8816  0.029159714  0.028040296           22 
 4416000   0.55119751   -5.6993998    1545.5595  0.029165903  0.028032557           19 
 4417000   0.54559989   -5.6914502    1546.5252  0.029177518  0.028024848           28 
 4418000   0.54737448   -5.7001048    1547.0727  0.029181241   0.02801709           15 
 4419000   0.54563453   -5.7008603    1547.6062    0.0291847  0.028009355           44 
 4420000   0.52954797   -5.7060097     1544.748  0.029124207  0.028001629           34 
 4421000   0.54733129   -5.7082684    1544.6889  0.029116507  0.027993888           47 
 4422000   0.53867248   -5.6979039    1544.3035  0.029102659   0.02798616           26 
 4423000   0.54738194   -5.7150211    1547.2082  0.029150807  0.027978398           52 
 4424000   0.56074501   -5.7165113    1543.7565  0.029079198  0.027970656           42 
 4425000   0.54912409   -5.7044245    1547.6825  0.029146564  0.027962898           34 
 4426000    0.5517994   -5.7028499    1546.9269  0.029125751  0.027955127           44 
 4427000   0.55352346    -5.714101    1544.1604  0.029067096  0.027947333           52 
 4428000   0.55605408   -5.7096165    1544.0355   0.02905818   0.02793956           73 
 4429000   0.54227835   -5.7076073    1544.5619  0.029061524  0.027931803           51 
 4430000   0.54326536   -5.7216161     1547.261  0.029105737  0.027924042           35 
 4431000   0.54945364   -5.6991496    1544.0748  0.029039246  0.027916285           86 
 4432000   0.54987415   -5.7017799    1543.9887  0.029031076  0.027908511           45 
 4433000   0.53821192   -5.6922287    1544.8906  0.029041481   0.02790077           57 
 4434000   0.54078344   -5.6838139    1548.0033  0.029093432   0.02789305           72 
 4435000   0.54136093   -5.7024232    1544.2804  0.029016918  0.027885344           68 
 4436000   0.54024227   -5.6797038     1545.785  0.029038641  0.027877618          106 
 4437000   0.54111406   -5.7061541    1545.7142  0.029030768  0.027869905          105 
 4438000   0.54688377   -5.6894493    1542.0782  0.028955952  0.027862155          104 
 4439000   0.54186941   -5.7042562    1544.3425  0.028991938  0.027854427          151 
 4440000   0.53217154   -5.7048568    1547.4499  0.029043729  0.027846689          133 
 4441000   0.54036001   -5.7200135    1544.1185  0.028974678  0.027838948           76 
 4442000   0.55092332   -5.7055503    1543.5913  0.028958263  0.027831211           57 
 4443000   0.52980693   -5.7143164    1545.5583  0.028988639  0.027823465           50 
 4444000   0.53635037   -5.7206528    1546.4313  0.028998486  0.027815702           34 
 4445000   0.55267776   -5.7024449     1541.314  0.028896025  0.027807931           48 
 4446000   0.53216505   -5.7203858    1542.6852  0.028915227  0.027800189           41 
 4447000   0.53373306   -5.7160074     1540.385  0.028865621   0.02779244           61 
 4448000   0.53337425   -5.7107305    1542.6606  0.028901765  0.027784709           36 
 4449000   0.53985738   -5.7094976     1545.467  0.028947834  0.027776989           50 
 4450000   0.53230635   -5.7132538     1541.395  0.028865074  0.027769267           25 
 4451000   0.52467089   -5.7180073    1541.8471  0.028867054  0.027761529           40 
 4452000   0.54509677   -5.7146167    1544.9309  0.028918293  0.027753784           24 
 4453000   0.54004019   -5.7131219    1542.3731  0.028863933   0.02774604           55 
 4454000   0.54364291   -5.7346431    1541.6108   0.02884319   0.02773827           53 
 4455000   0.55086616   -5.7060961    1544.6786  0.028894099  0.027730529           47 
 4456000   0.54148504   -5.7128869    1542.5697  0.028848177  0.027722816           10 
 4457000   0.54472437   -5.7469652    1543.2325  0.028854097   0.02771507           22 
 4458000   0.54221738   -5.6991206    1548.1101  0.028938801  0.027707345          102 
 4459000   0.54343812   -5.7249568    1545.0298  0.028874744  0.027699629           71 
 4460000   0.54342856   -5.6948363    1546.4923  0.028895596  0.027691939           33 
 4461000   0.54395941   -5.7063247    1545.2333    0.0288656  0.027684246           54 
 4462000   0.53568167   -5.6985944    1546.8363   0.02888907  0.027676548           59 
 4463000   0.54669913   -5.7227035    1543.7626  0.028825203  0.027668851           95 
 4464000   0.53699929   -5.7139194    1544.3846  0.028830358  0.027661166           77 
 4465000   0.54554821   -5.7203869    1544.8729  0.028833013  0.027653472           61 
 4466000   0.54177558    -5.723669    1542.0303  0.028773516  0.027645781           48 
 4467000   0.54490559   -5.7119213    1546.1261  0.028843483  0.027638074          140 
 4468000   0.54378807   -5.7212264    1544.4931  0.028806572  0.027630376          145 
 4469000   0.54049661   -5.7099085    1544.3558  0.028797565  0.027622674          156 
 4470000   0.53393087   -5.7201663    1542.5323  0.028757128  0.027614978          121 
 4471000   0.52664838   -5.7255718    1542.7598  0.028754936  0.027607279           51 
 4472000   0.53119627   -5.7301813    1541.6597  0.028728006  0.027599579          123 
 4473000   0.54479147   -5.7094496     1544.419   0.02877299  0.027591865           79 
 4474000   0.52614083   -5.7311009    1543.0179  0.028740462  0.027584148           92 
 4475000   0.53249826    -5.741146    1542.4268  0.028723031  0.027576436           98 
 4476000   0.54096687   -5.7457657    1539.8889  0.028669364  0.027568727          163 
 4477000   0.54254197   -5.7199601    1542.5505  0.028712503  0.027560999          191 
 4478000   0.53717497   -5.7425565     1542.419  0.028703644  0.027553314          139 
 4479000   0.53149106   -5.7291188    1544.6421  0.028738597  0.027545629           84 
 4480000   0.53463535   -5.7078249    1542.3871  0.028690237   0.02753795           35 
 4481000   0.52203495   -5.7218947    1543.9906  0.028713654  0.027530293           77 
 4482000   0.53795078   -5.7264884    1543.7039  0.028701918   0.02752264           56 
 4483000   0.53715848    -5.703595    1544.9218  0.028718155  0.027514979           57 
 4484000   0.54291642   -5.7289195    1545.2491  0.028717833  0.027507341           35 
 4485000   0.53900372   -5.7265999    1542.4354   0.02865915  0.027499705           42 
 4486000   0.53605419   -5.7183776    1541.9904  0.028644493  0.027492061           72 
 4487000   0.53532414   -5.7262653    1544.6048  0.028686665  0.027484399           29 
 4488000   0.53682834   -5.7408058    1545.2306  0.028691894  0.027476742           50 
 4489000   0.53530758   -5.7203451    1544.0971  0.028664459  0.027469082           30 
 4490000   0.54883372   -5.7134874    1543.4053  0.028645236  0.027461419           23 
 4491000   0.53073627   -5.7315406    1541.8397  0.028609806  0.027453772           46 
 4492000   0.53447826     -5.74513    1543.8707  0.028641116  0.027446099           19 
 4493000   0.53222541   -5.7509311    1541.1133  0.028583598  0.027438423           23 
 4494000   0.53236715   -5.7258746     1545.582  0.028660103  0.027430768           29 
 4495000   0.53286144   -5.7374945    1543.7565  0.028619883  0.027423104           67 
 4496000   0.53138352   -5.7358279    1542.6817  0.028593596  0.027415447           84 
 4497000   0.52993645   -5.7422842    1543.7397  0.028606843  0.027407792           53 
 4498000   0.53236112    -5.741789    1541.6198  0.028561209  0.027400129           17 
 4499000   0.52661874   -5.7484253     1543.417   0.02858815  0.027392454           18 
 4500000   0.51654008   -5.7255465    1541.7532  0.028550985  0.027384802           21 
 4501000   0.53223808   -5.7273337    1543.0867   0.02856933  0.027377161           24 
 4502000   0.52710476     -5.73721    1542.7092  0.028555997  0.027369534           33 
 4503000   0.52991557   -5.7074642    1543.9621  0.028572841  0.027361919           30 
 4504000   0.52902528   -5.7170057    1545.0627  0.028586862  0.027354312           38 
 4505000   0.53785383   -5.7092924    1543.3656  0.028549124  0.027346687           31 
 4506000   0.53615129    -5.740098     1543.177  0.028539299  0.027339033           44 
 4507000   0.55215675     -5.73733    1543.1971  0.028533339  0.027331382           19 
 4508000   0.53508007   -5.7259173    1544.4918  0.028550943  0.027323734           64 
 4509000   0.52760619   -5.7344737    1541.1113  0.028482134  0.027316087           73 
 4510000   0.53005047   -5.7238306    1543.9731  0.028528697  0.027308435           30 
 4511000   0.54975563    -5.734156    1542.2986   0.02849144  0.027300785           44 
 4512000    0.5187007   -5.7213724    1543.9629  0.028515864  0.027293151           44 
 4513000   0.52301906   -5.7469768    1544.0361  0.028510895   0.02728551           32 
 4514000   0.52445292   -5.7462408    1542.1919  0.028470534  0.027277866           47 
 4515000   0.53450989   -5.7311186    1541.5508  0.028452396  0.027270217           73 
 4516000   0.54088432   -5.7410021    1541.2868  0.028441223  0.027262576           76 
 4517000   0.52879302   -5.7352663    1542.5318  0.028457897  0.027254935          158 
 4518000   0.53128374   -5.7230788    1542.0338  0.028442411  0.027247259           44 
 4519000   0.53236246   -5.7288696    1542.2087  0.028439344  0.027239622          135 
 4520000   0.52627703   -5.7462592    1541.0728   0.02841211  0.027231975           88 
 4521000    0.5308668   -5.7290034    1544.7316  0.028473266  0.027224345          180 
 4522000   0.54833783   -5.7425806    1539.5489  0.028371461  0.027216719           80 
 4523000   0.53038711   -5.7248944    1539.5988  0.028366107  0.027209084           57 
 4524000   0.53351989    -5.751733     1541.877  0.028401801  0.027201437           62 
 4525000   0.52724708   -5.7402765    1542.3839  0.028404861  0.027193789          105 
 4526000    0.5301107   -5.7388063     1541.145  0.028375773  0.027186137           59 
 4527000   0.52322875   -5.7463484    1537.7635  0.028307259  0.027178483           41 
 4528000   0.52160114   -5.7531231    1540.5211  0.028351757   0.02717084           58 
 4529000   0.52814468   -5.7406921    1541.5065  0.028363628  0.027163196           61 
 4530000   0.53938224   -5.7497794    1541.1785  0.028351334  0.027155551           50 
 4531000   0.53965726   -5.7515394     1539.688  0.028317664  0.027147918           43 
 4532000   0.53587577   -5.7513279    1539.7401  0.028312372  0.027140283           62 
 4533000   0.50882178   -5.7425213    1537.6747  0.028268157  0.027132656           31 
 4534000   0.51978001   -5.7358538    1543.0767   0.02836121   0.02712505           35 
 4535000   0.52113585    -5.755559    1540.5484  0.028308497  0.027117414           46 
 4536000   0.52972604   -5.7516485    1541.0269  0.028311047  0.027109785           28 
 4537000   0.52755768   -5.7650184     1539.358  0.028274154  0.027102158           31 
 4538000   0.51517218   -5.7393587    1542.3443  0.028322761  0.027094519           24 
 4539000   0.53188331   -5.7449041    1540.3853  0.028280555  0.027086892           35 
 4540000   0.52883293   -5.7483705    1539.1029  0.028250788  0.027079261           75 
 4541000   0.51842795   -5.7429649    1540.1025  0.028262911   0.02707162           67 
 4542000   0.51554276   -5.7470637    1539.7618  0.028250437  0.027063991           28 
 4543000   0.52475596   -5.7629073     1540.261  0.028253376   0.02705636           44 
 4544000   0.52063969    -5.760106    1539.1296  0.028226408   0.02704873           63 
 4545000   0.51469507   -5.7400041    1541.3184   0.02826033  0.027041114           61 
 4546000   0.52056147   -5.7431825    1540.4051  0.028237371   0.02703349           58 
 4547000   0.52884714   -5.7623089    1541.8975  0.028258514  0.027025871           41 
 4548000   0.52896799   -5.7433458    1541.7192  0.028249033  0.027018275           45 
 4549000   0.51507395   -5.7348046     1541.003  0.028229703  0.027010683           38 
 4550000   0.52247273   -5.7467164     1541.944  0.028240733   0.02700308           98 
 4551000   0.52817091   -5.7581216    1542.3405  0.028241787  0.026995493           42 
 4552000   0.53401688   -5.7510619    1540.1357  0.028195221  0.026987929          104 
 4553000    0.5305487     -5.75101    1543.7298  0.028254811  0.026980372           83 
 4554000    0.5191022   -5.7446427     1541.521  0.028208186  0.026972816           42 
 4555000   0.53209565   -5.7416679    1540.2893  0.028179459  0.026965265          110 
 4556000   0.51484614   -5.7473252     1539.894  0.028166045  0.026957693           89 
 4557000   0.52105034   -5.7413176     1538.627  0.028136695  0.026950119           85 
 4558000   0.51930441    -5.745352    1542.4077  0.028199643  0.026942556           75 
 4559000   0.52194746   -5.7579474    1543.5027  0.028213474  0.026935002          117 
 4560000   0.53080027   -5.7464963     1543.377   0.02820499  0.026927434           53 
 4561000   0.52408349   -5.7545186    1541.1618  0.028158331  0.026919877          152 
 4562000   0.51893891    -5.751241    1540.3239  0.028136854    0.0269123           93 
 4563000   0.52474956   -5.7500467    1544.2776  0.028202894  0.026904743          168 
 4564000   0.51461072   -5.7573191     1540.314  0.028124343  0.026897179          123 
 4565000   0.51758932   -5.7370164    1538.3524  0.028082373  0.026889617          102 
 4566000   0.51889508   -5.7681463    1538.0832  0.028071309  0.026882065           93 
 4567000   0.52309313   -5.7589116    1541.1992   0.02812202  0.026874526           84 
 4568000   0.51568579   -5.7551484    1541.7523  0.028125953   0.02686698           94 
 4569000   0.52053865   -5.7422781    1539.2812  0.028074728  0.026859435          184 
 4570000    0.5169399    -5.751669    1544.5345  0.028164378  0.026851905           71 
 4571000   0.52684198   -5.7658336    1540.1014  0.028077398  0.026844382           59 
 4572000   0.51823901   -5.7658281    1538.9976  0.028051137  0.026836827          113 
 4573000     0.506808   -5.7495483    1540.1388    0.0280658  0.026829274          126 
 4574000   0.53298855   -5.7542064    1540.6977  0.028069845  0.026821714           41 
 4575000   0.51397491   -5.7580256    1539.1558  0.028035624  0.026814158           23 
 4576000   0.51663683   -5.7591677    1539.3737  0.028033467   0.02680661           35 
 4577000   0.52262327   -5.7589745    1542.2621   0.02807993  0.026799085           42 
 4578000   0.51730853   -5.7601641    1541.9123  0.028067429  0.026791566           42 
 4579000    0.5156112   -5.7439792    1539.0308  0.028008859  0.026784052           48 
 4580000   0.51930304   -5.7197688    1545.2198  0.028115353  0.026776533           42 
 4581000   0.53308366   -5.7516553    1545.1817  0.028108523  0.026769026           21 
 4582000   0.51804079   -5.7384213    1543.7055  0.028075541  0.026761518           44 
 4583000   0.51074681   -5.7523742    1539.6782  0.027996185   0.02675399           39 
 4584000   0.52267837   -5.7625842    1541.9061  0.028030578  0.026746468           41 
 4585000   0.51237349   -5.7618307    1539.6986  0.027984344  0.026738948           66 
 4586000   0.52439151   -5.7609213    1539.4075  0.027972952  0.026731417           40 
 4587000      0.51254   -5.7536275    1539.6843  0.027971883  0.026723911           92 
 4588000     0.502937   -5.7625825    1538.6258   0.02794656  0.026716383           29 
 4589000   0.51402942   -5.7448174    1544.0893  0.028039684  0.026708857           73 
 4590000   0.52249469   -5.7768336    1540.2317  0.027963539  0.026701339          102 
 4591000   0.52130516   -5.7692951    1542.6564   0.02800146  0.026693812          100 
 4592000    0.5158097   -5.7880166    1539.6043  0.027939973  0.026686255          117 
 4593000   0.51610294   -5.7741962    1535.5884  0.027861027  0.026678696           93 
 4594000   0.51512119   -5.7743458    1540.2656  0.027939806  0.026671155          107 
 4595000   0.50412397   -5.7724307    1538.2454  0.027897088  0.026663613           90 
 4596000    0.5047597   -5.7678774    1539.4498  0.027912855  0.026656069           71 
 4597000   0.52289724   -5.7675507    1539.4583  0.027906937  0.026648539           71 
 4598000   0.50883434    -5.763391     1539.446  0.027900646  0.026640986          130 
 4599000   0.51909726   -5.7638802    1540.7055  0.027917401  0.026633452          109 
 4600000   0.51505842   -5.7652516    1540.2642  0.027903338  0.026625942          114 
 4601000   0.52368441    -5.770412    1540.5088  0.027901702  0.026618412          173 
 4602000   0.50969951   -5.7784934    1542.2046  0.027926347   0.02661089          244 
 4603000   0.51637982   -5.7708787    1539.1822  0.027865562  0.026603374          146 
 4604000    0.5224632     -5.74211    1541.6673  0.027904491  0.026595862           77 
 4605000   0.51322501   -5.7731068    1535.3665  0.027784409  0.026588348          175 
 4606000   0.51466212   -5.7706033    1536.1324  0.027792234  0.026580832          167 
 4607000   0.52201795   -5.7625487    1538.3552  0.027826409  0.026573318          139 
 4608000    0.5174365   -5.7907576    1538.6872  0.027826374  0.026565793          217 
 4609000   0.51651711   -5.7721256    1539.2351  0.027830243  0.026558283          157 
 4610000   0.51889896   -5.7767774    1537.8821  0.027799749  0.026550745          245 
 4611000   0.51145645   -5.7903341     1537.878  0.027793647  0.026543194          141 
 4612000   0.51098029    -5.797905    1533.2712  0.027704379  0.026535658          217 
 4613000   0.50710085   -5.7893084    1534.9213  0.027728183  0.026528106          226 
 4614000   0.51345386    -5.799897    1538.0067  0.027777898  0.026520541          189 
 4615000   0.51589387   -5.7892868    1534.3929  0.027706625  0.026513012          219 
 4616000   0.51364188   -5.7746374    1539.0183  0.027784125  0.026505486          223 
 4617000   0.51131448   -5.7883449    1535.5401  0.027715328  0.026497952          211 
 4618000   0.52900233   -5.7776439    1538.7292  0.027766875  0.026490441          257 
 4619000   0.51687886   -5.7883883    1537.0631  0.027730806  0.026482916          282 
 4620000   0.51912325   -5.7843329    1536.4582  0.027713893  0.026475376          337 
 4621000   0.52548566   -5.7905458    1537.0835  0.027719172  0.026467838          336 
 4622000    0.5178386   -5.7811723    1540.6394  0.027777286  0.026460311          304 
 4623000   0.51070646   -5.7964225    1536.7784   0.02770168  0.026452788          279 
 4624000   0.51053231   -5.8014316    1538.2715  0.027722598  0.026445276          327 
 4625000   0.51006093   -5.7865865    1538.0394  0.027712421  0.026437773          298 
 4626000   0.50968232   -5.7847321     1537.699  0.027700299  0.026430275          279 
 4627000   0.51683747   -5.7816247    1536.5758  0.027674083   0.02642278          212 
 4628000   0.50537677   -5.7659769    1538.6067  0.027704673  0.026415293          224 
 4629000   0.52076566   -5.8081843    1538.3141  0.027693419  0.026407794          307 
 4630000    0.5188107   -5.7774827    1538.7153  0.027694659  0.026400316          287 
 4631000   0.52029884   -5.7965522    1539.1087  0.027695759  0.026392809          293 
 4632000   0.51428987   -5.7868116    1537.6953  0.027664352  0.026385302          249 
 4633000   0.50626945    -5.789395    1540.2375  0.027704107  0.026377826          275 
 4634000   0.51142836   -5.8069225    1535.0307  0.027604495   0.02637034          300 
 4635000   0.50763818   -5.7936057    1535.7362  0.027611223  0.026362856          352 
 4636000   0.51489492   -5.7927189    1537.6781  0.027640174   0.02635537          373 
 4637000   0.51877806   -5.7857166    1536.8209  0.027618806  0.026347885          310 
 4638000   0.50112558   -5.8097354    1536.6818  0.027610353  0.026340405          333 
 4639000   0.51511981   -5.7958915     1538.748  0.027641518  0.026332928          317 
 4640000    0.5157848   -5.7931187    1539.9812  0.027657708  0.026325451          277 
 4641000   0.53498789    -5.801432    1537.3119  0.027603819  0.026317988          313 
 4642000   0.51015604   -5.8012254     1534.263  0.027543138  0.026310518          357 
 4643000   0.50702633   -5.7749173    1538.6776  0.027616441  0.026303061          315 
 4644000   0.51070224   -5.7871949    1537.3291  0.027586296  0.026295608          354 
 4645000   0.50852785   -5.7900858    1536.6895  0.027568882  0.026288151          396 
 4646000   0.51089772   -5.8096542    1540.3618  0.027628816  0.026280689          428 
 4647000   0.52442256   -5.8144994    1537.3386  0.027568657  0.026273231          462 
 4648000   0.50728275   -5.8058636    1535.2554  0.027525376  0.026265741          484 
 4649000   0.50359546   -5.8051612    1535.8613  0.027530316   0.02625826          412 
 4650000   0.51741831   -5.7848636      1536.87  0.027542473   0.02625079          428 
 4651000   0.50271031   -5.7956173    1537.3176   0.02754457  0.026243331          351 
 4652000   0.50359757   -5.8057867    1537.3492  0.027539217  0.026235866          382 
 4653000   0.51136253   -5.7986963    1535.8734  0.027506866  0.026228399          390 
 4654000   0.50947477   -5.8277611    1533.7545  0.027463015  0.026220946          447 
 4655000   0.52436835   -5.8158123    1537.0822  0.027516688  0.026213494          459 
 4656000   0.50757559   -5.7913478    1536.3145  0.027497038  0.026206043          420 
 4657000   0.51122626   -5.7992152    1535.8904  0.027483545  0.026198606          368 
 4658000    0.5138232   -5.8030227    1536.3107  0.027485163   0.02619116          375 
 4659000   0.51066256   -5.7848433     1538.325  0.027515293  0.026183706          382 
 4660000   0.50164017   -5.8170606    1535.6142  0.027460911   0.02617625          368 
 4661000   0.50228491   -5.8037372    1539.0276  0.027516049  0.026168799          304 
 4662000   0.51027525    -5.805618    1540.1052  0.027529408   0.02616134          397 
 4663000   0.50041515   -5.7989279    1536.3812  0.027456952  0.026153908          414 
 4664000   0.51160438   -5.8029195     1534.881  0.027424261  0.026146462          351 
 4665000   0.50137917   -5.7986212    1538.7495  0.027487486  0.026139031          300 
 4666000   0.49099284   -5.8014825    1538.9065  0.027484399  0.026131594          399 
 4667000   0.51153037   -5.7896339    1536.6555  0.027438318  0.026124162          522 
 4668000   0.48942247    -5.805682    1536.7196  0.027433583  0.026116737          480 
 4669000   0.50489236   -5.8037179    1538.1839  0.027453843  0.026109292          411 
 4670000   0.49812443   -5.8093234    1536.0509  0.027409902  0.026101839          530 
 4671000   0.49402938   -5.8067843    1538.5856  0.027449254  0.026094403          420 
 4672000   0.51376822   -5.8142967    1533.4787  0.027352288  0.026086975          341 
 4673000   0.50464319    -5.823407     1533.652  0.027349525  0.026079542          547 
 4674000   0.51177889   -5.8215444    1532.2044  0.027317864    0.0260721          437 
 4675000   0.50606375   -5.7954205    1536.0716  0.027380956  0.026064668          390 
 4676000   0.49211097   -5.8051994    1539.3076   0.02743277  0.026057249          417 
 4677000   0.50164287   -5.8111496    1536.0429  0.027368735  0.026049832          386 
 4678000   0.51666087   -5.8131521    1533.9974  0.027326447   0.02604242          445 
 4679000   0.49897741    -5.837687     1534.259  0.027325265  0.026034987          437 
 4680000   0.50101533   -5.8242296    1535.1378  0.027335074  0.026027542          433 
 4681000   0.51060363   -5.8200073    1536.8336  0.027359425  0.026020114          481 
 4682000   0.49464906   -5.8227507    1533.0426  0.027286106  0.026012685          502 
 4683000   0.50327395    -5.813584    1533.2567   0.02728409  0.026005253          371 
 4684000   0.50900856   -5.8185436    1535.3052  0.027314709  0.025997819          361 
 4685000    0.5115873   -5.8090777    1536.2079  0.027324936  0.025990394          479 
 4686000   0.50657922   -5.8331328    1533.7576  0.027275531  0.025982974          385 
 4687000   0.50481908   -5.8096507    1534.3528  0.027280293  0.025975557          395 
 4688000   0.49383163   -5.8084949    1535.2443   0.02729032  0.025968146          361 
 4689000   0.50587861   -5.8120719    1537.1632  0.027318604  0.025960752          324 
 4690000   0.49796391   -5.8381356    1534.3545  0.027262873  0.025953363          465 
 4691000   0.48822555   -5.8226257    1537.0238   0.02730448   0.02594595          442 
 4692000    0.4919873   -5.8072411    1535.3519  0.027268966  0.025938554          466 
 4693000   0.49813521   -5.8177439    1530.3216  0.027173834   0.02593116          451 
 4694000   0.50072369   -5.8178023    1535.2331  0.027255239  0.025923769          494 
 4695000   0.50462737   -5.8202492    1536.8871  0.027278792   0.02591638          357 
 4696000   0.49795099   -5.8179012    1534.2723   0.02722658  0.025909007          366 
 4697000   0.48592885   -5.8051822    1534.9176  0.027232234  0.025901624          454 
 4698000   0.49980267   -5.7887054    1535.4647  0.027236141  0.025894261          360 
 4699000   0.50482102   -5.8151602    1534.0149  0.027204634  0.025886883          330 
 4700000   0.49759256   -5.8336699    1533.5761  0.027191065   0.02587951          394 
 4701000   0.50268861   -5.8210047    1535.6535  0.027222107  0.025872111          493 
 4702000   0.49475801   -5.8063439    1536.5959  0.027233019  0.025864719          447 
 4703000   0.49448333   -5.8096162    1537.2521  0.027238857  0.025857333          437 
 4704000   0.50354518   -5.8221888    1538.0536  0.027247265  0.025849942          487 
 4705000   0.49125286     -5.82069    1534.7111  0.027182273  0.025842554          462 
 4706000   0.49643026   -5.8236358    1536.6446  0.027210734  0.025835165          485 
 4707000   0.49845055   -5.8238788     1534.405  0.027165303  0.025827788          459 
 4708000   0.49409215   -5.8160201    1534.3352  0.027158297  0.025820397          414 
 4709000    0.5040884    -5.814272    1532.9688  0.027128351  0.025813013          458 
 4710000   0.49122761   -5.8407655    1531.0007  0.027087769  0.025805634          431 
 4711000    0.4938984   -5.8206932    1534.2891  0.027140188  0.025798261          483 
 4712000   0.49216415    -5.818735    1534.7782  0.027143078  0.025790887          424 
 4713000   0.50391578   -5.8122184    1539.2436  0.027216274  0.025783525          479 
 4714000   0.49731555   -5.8284101    1533.7262  0.027112965  0.025776163          544 
 4715000   0.49956286   -5.8148302    1532.1367  0.027079122   0.02576882          462 
 4716000   0.50088135   -5.8311639    1532.0496  0.027071841  0.025761464          486 
 4717000   0.49817978   -5.8236105    1534.5366  0.027110038  0.025754122          393 
 4718000   0.49179229   -5.8148405    1535.4815  0.027120981  0.025746773          552 
 4719000   0.51148635   -5.8215066    1535.8581  0.027121884  0.025739426          551 
 4720000   0.50377103   -5.8331581    1532.3268  0.027053793  0.025732082          568 
 4721000   0.48993076   -5.8128381    1531.9958   0.02704222  0.025724731          512 
 4722000   0.48573169   -5.8341609    1536.4148  0.027114478  0.025717386          582 
 4723000   0.49548892   -5.8254394    1538.2523  0.027141158  0.025710038          562 
 4724000   0.49952391   -5.8175742    1534.1383  0.027062841  0.025702684          597 
 4725000   0.48757824   -5.8518507    1533.3641  0.027043458  0.025695327          598 
 4726000   0.49072831   -5.8195535    1537.0991  0.027103595  0.025687975          657 
 4727000   0.49732025   -5.8368186    1530.1506  0.026975365  0.025680623          595 
 4728000   0.50385582   -5.8381104    1530.9824  0.026984319  0.025673276          670 
 4729000   0.49329929   -5.8354359    1534.9791  0.027049042  0.025665941          505 
 4730000   0.48304283   -5.8257656    1534.5343  0.027035488  0.025658607          544 
 4731000   0.48612157   -5.8249373    1536.5106  0.027064584   0.02565127          587 
 4732000   0.50061657   -5.8478057    1531.4326  0.026969439  0.025643932          536 
 4733000    0.5006613   -5.8352605    1535.2103  0.027030253  0.025636593          554 
 4734000    0.4819773   -5.8422826    1532.8429   0.02698287  0.025629246          541 
 4735000   0.50780868   -5.8457677    1531.5646  0.026954674  0.025621903          640 
 4736000   0.49976703   -5.8317988    1537.4855  0.027053165  0.025614567          645 
 4737000   0.48036661   -5.8604819    1533.0182  0.026968865  0.025607238          625 
 4738000   0.49334518   -5.8290708    1533.1412  0.026965337  0.025599898          679 
 4739000   0.48734721   -5.8375977    1533.1558  0.026959904  0.025592573          681 
 4740000   0.50445898   -5.8321417    1534.4645  0.026977225  0.025585251          636 
 4741000   0.50055704   -5.8266234    1536.0732  0.026999811  0.025577928          677 
 4742000   0.48965253   -5.8453348    1535.8297  0.026989837  0.025570609          711 
 4743000   0.49600609   -5.8343402    1535.6228  0.026980512  0.025563297          780 
 4744000   0.48730566   -5.8326388    1535.3309  0.026969697  0.025555986          773 
 4745000   0.47866562   -5.8309137    1533.2209  0.026926957  0.025548672          755 
 4746000   0.49644107   -5.8480511    1532.1671   0.02690278   0.02554135          691 
 4747000   0.49142883    -5.824853    1532.7669  0.026907642  0.025534025          745 
 4748000   0.49569035   -5.8347637     1533.447  0.026913912  0.025526705          751 
 4749000   0.48963275   -5.8475526      1533.11   0.02690233  0.025519385          790 
 4750000   0.49400212   -5.8514301    1533.0496  0.026895607   0.02551206          802 
 4751000   0.48835227   -5.8466286    1528.6891  0.026813461  0.025504722          882 
 4752000   0.50106035   -5.8509692    1531.9723  0.026865396  0.025497415          856 
 4753000   0.49035436   -5.8327953    1534.2615  0.026899879  0.025490113          809 
 4754000   0.47902867    -5.841664    1533.8494  0.026886997  0.025482805          891 
 4755000   0.48502932   -5.8419232    1533.1538  0.026869152  0.025475494          882 
 4756000   0.49108261   -5.8573061    1532.4876  0.026851829  0.025468177          869 
 4757000   0.49552683   -5.8390637    1531.4961  0.026828816   0.02546087          858 
 4758000   0.49035395   -5.8627185    1529.9122  0.026795435  0.025453572          825 
 4759000   0.49122611   -5.8480433      1532.49  0.026834945  0.025446272          836 
 4760000   0.49377797   -5.8378678    1535.0628  0.026874349  0.025438968          886 
 4761000   0.48769074   -5.8430986    1533.2436  0.026836862  0.025431663          913 
 4762000   0.49276743   -5.8296593    1534.8306  0.026858998  0.025424351          823 
 4763000    0.5042079   -5.8515461    1532.1148  0.026805843  0.025417055          836 
 4764000   0.47993376   -5.8670702    1530.0367  0.026763867   0.02540975          793 
 4765000    0.4849873   -5.8647036    1529.8078  0.026754246  0.025402447          812 
 4766000   0.48041336    -5.855944    1535.1365  0.026841805  0.025395137          830 
 4767000    0.4916608    -5.838099    1537.3767  0.026875335  0.025387841          901 
 4768000    0.4882713   -5.8485423    1531.1202   0.02676035  0.025380545          843 
 4769000   0.48249209   -5.8574788    1530.9755   0.02675221   0.02537327          931 
 4770000   0.49161093   -5.8485424    1531.5632  0.026756869  0.025365975          812 
 4771000   0.49119061   -5.8756081    1530.9348  0.026740286  0.025358671          794 
 4772000   0.50180687    -5.846846    1530.5264  0.026727549  0.025351381          774 
 4773000   0.49079762   -5.8534957    1532.5862  0.026757912  0.025344096          895 
 4774000   0.47692478   -5.8565954    1528.4319  0.026679792  0.025336806          902 
 4775000   0.48791308   -5.8493079    1530.6992  0.026713773   0.02532951          935 
 4776000   0.48195243   -5.8558892    1532.4122  0.026738069  0.025322233          954 
 4777000   0.48981377   -5.8515985    1531.4504  0.026715694  0.025314951         1000 
 4778000   0.48015239   -5.8457162    1529.9162  0.026683343  0.025307664          883 
 4779000   0.49710083    -5.838756    1534.7676  0.026762356  0.025300389          966 
 4780000   0.48675707   -5.8605234    1528.3849  0.026645482   0.02529311          902 
 4781000   0.48673667   -5.8598756    1530.2739  0.026672835  0.025285827          894 
 4782000   0.49523161   -5.8731476    1528.9617  0.026644391  0.025278537         1036 
 4783000   0.47630575   -5.8761544    1530.2189  0.026660723  0.025271257          999 
 4784000    0.4885637   -5.8791484     1530.126  0.026653533  0.025263963          999 
 4785000   0.48295914   -5.8565208    1528.7508  0.026624012  0.025256685         1060 
 4786000   0.49399665   -5.8675524    1534.0635  0.026710954  0.025249413         1121 
 4787000   0.48681321   -5.8496132    1530.8224  0.026648952  0.025242142         1091 
 4788000   0.48484661   -5.8572636    1529.7601  0.026624897   0.02523487         1081 
 4789000   0.47981964   -5.8503196    1531.3617  0.026647207  0.025227595         1078 
 4790000    0.4834625   -5.8812403    1528.2877  0.026588165  0.025220314         1274 
 4791000   0.49045507   -5.8704646      1531.09  0.026631357  0.025213035         1193 
 4792000   0.48872987   -5.8584438    1529.4835  0.026597862  0.025205764         1213 
 4793000   0.48241981   -5.8575635    1529.0159  0.026584184    0.0251985         1208 
 4794000   0.48399194   -5.8734878    1531.0313  0.026613672  0.025191233         1290 
 4795000   0.47359356   -5.8541525    1530.5441  0.026599655   0.02518395         1212 
 4796000   0.47602738   -5.8647929    1531.4249  0.026609412   0.02517666         1343 
 4797000   0.48345758   -5.8870034    1530.7652  0.026592406  0.025169366         1269 
 4798000   0.48513438    -5.877736    1529.3067  0.026561532   0.02516208         1251 
 4799000   0.49553449   -5.8889779     1529.356  0.026556851  0.025154782         1263 
 4800000   0.48000268   -5.8819807    1526.1951  0.026496442  0.025147501         1221 
 4801000    0.4858521   -5.8860394    1530.2668  0.026561599  0.025140214         1312 
 4802000   0.49260559   -5.8853196    1530.4812  0.026559788  0.025132949         1280 
 4803000   0.47812738   -5.8752305    1527.2502  0.026498199  0.025125676         1378 
 4804000   0.48652373    -5.890585    1526.3036  0.026476263  0.025118392         1321 
 4805000   0.48060811   -5.8711574    1527.3866  0.026489536  0.025111103         1228 
 4806000   0.48986896   -5.8868157    1531.0732  0.026547948  0.025103835         1241 
 4807000   0.47985973    -5.874605     1525.108  0.026439013  0.025096563         1311 
 4808000   0.48246002   -5.8665402    1526.3318  0.026454725  0.025089292         1180 
 4809000   0.48657671   -5.8783767    1528.1091  0.026480022   0.02508202         1261 
 4810000   0.49499745   -5.8779029    1531.4017   0.02653156  0.025074755         1237 
 4811000   0.48140373    -5.857073    1530.8647  0.026516744  0.025067507         1237 
 4812000   0.48540802    -5.888691    1530.7501   0.02650925  0.025060255         1243 
 4813000     0.472214   -5.8680038    1528.9416  0.026472429  0.025053012         1180 
 4814000    0.4717425   -5.8753186    1528.6166  0.026461305   0.02504577         1255 
 4815000   0.49442397   -5.8731462    1530.1315  0.026482027  0.025038539         1304 
 4816000   0.47707247   -5.8587315    1529.6998  0.026469058  0.025031306         1314 
 4817000   0.48843273   -5.8844796     1528.041  0.026434866  0.025024072         1231 
 4818000   0.47160618    -5.880274    1528.6849  0.026440516  0.025016844         1237 
 4819000   0.47637575   -5.8788003    1525.4109  0.026378413  0.025009624         1213 
 4820000   0.47449707   -5.8760909    1528.4242  0.026425037  0.025002407         1172 
 4821000   0.47689132   -5.8792751    1530.7177  0.026459201  0.024995194         1212 
 4822000   0.49215728   -5.8864285    1530.3976  0.026448181  0.024987993         1200 
 4823000   0.46925161    -5.875533    1530.0236  0.026436236  0.024980789         1175 
 4824000   0.47814479   -5.8802038     1531.573  0.026457522  0.024973575         1165 
 4825000   0.47590846   -5.8793457    1528.1211   0.02639242  0.024966363         1187 
 4826000   0.48868986   -5.8788355    1526.2362  0.026354402  0.024959157         1104 
 4827000   0.48068898   -5.8738037    1528.9866  0.026396426  0.024951939         1268 
 4828000   0.46824402   -5.8957036    1526.6801  0.026351148   0.02494472         1139 
 4829000   0.48156946   -5.8876065    1527.5052  0.026359929  0.024937485         1116 
 4830000   0.48150853   -5.8836209     1526.185  0.026331694  0.024930249         1216 
 4831000   0.48070627   -5.8714044    1527.8353   0.02635471  0.024923023         1135 
 4832000   0.48155052   -5.8845826    1528.4734  0.026360261  0.024915798         1112 
 4833000   0.47525836   -5.8889229    1529.3046  0.026369139  0.024908569         1196 
 4834000   0.46835222   -5.8859479    1526.8903  0.026322063  0.024901353         1184 
 4835000   0.46509395    -5.888043    1528.0965  0.026337409   0.02489413         1107 
 4836000   0.47512509   -5.9021243    1528.8113  0.026344281  0.024886913         1186 
 4837000   0.48109242   -5.8918172    1526.9656  0.026307036  0.024879687         1179 
 4838000   0.47404544   -5.8871426    1528.7439  0.026332229  0.024872474         1165 
 4839000   0.47168811   -5.9128715    1528.7754   0.02632733  0.024865262         1235 
 4840000   0.46989055   -5.8957828    1526.6416  0.026285152  0.024858049         1236 
 4841000   0.47824502   -5.8953285    1528.6878  0.026314945  0.024850835         1182 
 4842000   0.48029974   -5.8958036    1532.9171  0.026382298  0.024843633         1260 
 4843000    0.4740865   -5.9037995    1527.1309  0.026277288  0.024836436         1246 
 4844000   0.48230422   -5.8957797    1527.3345  0.026275366  0.024829238         1267 
 4845000   0.48542905   -5.8817347    1526.9894  0.026264007  0.024822048         1287 
 4846000   0.48259518   -5.8827805     1525.531  0.026233509  0.024814853         1253 
 4847000     0.480908    -5.885087    1526.5362  0.026245378  0.024807653         1346 
 4848000   0.47677189   -5.9011878    1525.9573  0.026230014  0.024800446         1325 
 4849000   0.46663416   -5.9228337     1527.753  0.026255466  0.024793239         1414 
 4850000   0.47198729   -5.8884124    1525.8847  0.026217951  0.024786032         1396 
 4851000   0.47165919   -5.9038859    1526.3177  0.026219983  0.024778836         1355 
 4852000   0.47396831   -5.9035565    1527.2719  0.026230968  0.024771637         1373 
 4853000   0.47707398   -5.9211585    1527.5408   0.02623018  0.024764449         1276 
 4854000   0.47001962   -5.9162838    1528.3154  0.026238075  0.024757256         1306 
 4855000   0.46777145   -5.9035761    1528.4092  0.026234281  0.024750065         1260 
 4856000   0.47199028   -5.8883148    1526.6284  0.026198318  0.024742872         1245 
 4857000   0.47042033   -5.9038703    1528.1193  0.026218503  0.024735677         1297 
 4858000   0.47765798   -5.9076637    1526.6815  0.026188444  0.024728481         1330 
 4859000   0.47322601   -5.9002626    1523.8287  0.026134127  0.024721295         1316 
 4860000   0.46990005   -5.8926517    1526.4862  0.026174318  0.024714112         1274 
 4861000   0.47705135   -5.8907161    1525.8497  0.026158022  0.024706929         1383 
 4862000   0.47989617   -5.8922584    1525.4304  0.026145454  0.024699759         1389 
 4863000   0.48145236   -5.9260048    1525.5087   0.02614142  0.024692577         1336 
 4864000   0.47413978   -5.9076647    1527.7436  0.026174336  0.024685397         1385 
 4865000   0.47608656   -5.9055252    1525.4188  0.026129133  0.024678214         1398 
 4866000   0.47550254   -5.9097311    1525.3558  0.026122685  0.024671033         1364 
 4867000   0.47706148   -5.9027682    1525.4221  0.026118452  0.024663858         1336 
 4868000    0.4748767    -5.900254    1526.6768  0.026134565  0.024656708         1321 
 4869000    0.4752464   -5.9240523    1527.3757  0.026141159   0.02464955         1436 
 4870000   0.47652327   -5.9060564    1527.2995  0.026134488   0.02464238         1416 
 4871000   0.47404212   -5.8920462    1528.5002  0.026149664  0.024635212         1440 
 4872000   0.47377104   -5.8994905    1523.1546  0.026052863  0.024628048         1440 
 4873000   0.48255643   -5.8960859     1524.698   0.02607391  0.024620884         1444 
 4874000    0.4716311    -5.892541    1527.1385  0.026110288  0.024613729         1419 
 4875000   0.46657211   -5.9049916    1526.3522   0.02609149  0.024606577         1440 
 4876000   0.47859191   -5.9096151     1526.054  0.026081043  0.024599424         1333 
 4877000   0.47453288   -5.9201954    1525.3776  0.026064138  0.024592266         1343 
 4878000   0.48030567   -5.9119677    1521.9632  0.026000464  0.024585102         1344 
 4879000   0.46779238   -5.8958778    1526.7145  0.026076287  0.024577949         1362 
 4880000   0.47088354   -5.9119673    1526.7019   0.02607073  0.024570799         1391 
 4881000   0.47617905   -5.9051354    1526.0463  0.026054195  0.024563654         1339 
 4882000   0.48222386   -5.9039257    1522.0529  0.025980692  0.024556518         1347 
 4883000   0.47420304   -5.9123538    1522.5126  0.025983218  0.024549368         1378 
 4884000   0.47135131   -5.9139463     1525.579  0.026030218  0.024542208         1420 
 4885000   0.47463627   -5.9085327    1525.9402   0.02603105  0.024535062         1441 
 4886000   0.47102039   -5.9049315    1525.7147  0.026021877   0.02452793         1457 
 4887000   0.46590447   -5.9174798    1523.3961  0.025977015  0.024520791         1481 
 4888000    0.4708872   -5.9061438    1525.9351  0.026014987  0.024513653         1482 
 4889000   0.45797998   -5.9188764    1525.5416  0.026002959   0.02450651         1394 
 4890000   0.46386836   -5.9125626    1526.0244  0.026005869  0.024499366         1380 
 4891000   0.47099629   -5.9239335    1523.8651  0.025963761  0.024492229         1439 
 4892000   0.47559447   -5.9116558    1526.7395  0.026007418  0.024485099         1482 
 4893000    0.4633035   -5.9127251    1525.7119  0.025984602  0.024477957         1573 
 4894000   0.46100917   -5.9308236    1521.8464  0.025913472  0.024470824         1571 
 4895000   0.47603876   -5.9164569    1524.2296  0.025948751  0.024463678         1511 
 4896000   0.47613161   -5.9055741    1527.2263  0.025994457  0.024456544         1530 
 4897000   0.47200157    -5.934773    1521.8123  0.025897017  0.024449393         1595 
 4898000   0.45658488   -5.9004865    1524.4873  0.025937242  0.024442259         1444 
 4899000   0.47046293   -5.9313279    1524.9624  0.025940029  0.024435132         1554 
 4900000   0.45999443   -5.9199052    1524.6146   0.02592882  0.024427997         1620 
 4901000   0.46236642   -5.9251985    1523.6148   0.02590653  0.024420872         1704 
 4902000   0.47934257   -5.9210031    1523.8664  0.025905522  0.024413734         1624 
 4903000   0.47017984   -5.9317336    1522.9565  0.025884773  0.024406598         1650 
 4904000   0.44851831   -5.9433191    1522.7723  0.025876364  0.024399453         1709 
 4905000    0.4590144   -5.9215418    1521.7678  0.025854024  0.024392321         1563 
 4906000   0.47425546   -5.9156574    1524.0549  0.025887602  0.024385205         1534 
 4907000   0.46709596   -5.9127955    1524.4253  0.025888616  0.024378087         1538 
 4908000   0.47300954   -5.9212232    1522.7825  0.025855449   0.02437097         1535 
 4909000   0.45623427   -5.9169491     1523.382  0.025860359  0.024363863         1594 
 4910000   0.47012404   -5.9525412     1525.528  0.025891514  0.024356746         1638 
 4911000   0.46618127   -5.9176253     1523.668   0.02585468  0.024349641         1548 
 4912000   0.47652481   -5.9287841    1523.6994   0.02584995  0.024342531         1598 
 4913000   0.46557646    -5.918095    1525.2062  0.025870246  0.024335427         1605 
 4914000   0.45474873   -5.9325864    1524.8095  0.025858254  0.024328325         1792 
 4915000   0.46376964   -5.9158552    1523.4274  0.025829559  0.024321222         1710 
 4916000   0.47090059   -5.9137035    1523.5264  0.025825984  0.024314117         1727 
 4917000   0.46765834   -5.9324666    1522.2093  0.025798409  0.024307018         1750 
 4918000   0.46440034   -5.9169557    1523.7904  0.025819954  0.024299917         1615 
 4919000   0.46627275   -5.9266785    1521.4478  0.025775019  0.024292829         1780 
 4920000    0.4640238   -5.9305425    1522.6862  0.025790756   0.02428574         1705 
 4921000   0.45524474   -5.9224218    1528.0213  0.025875861  0.024278644         1679 
 4922000   0.46401115   -5.9302271    1522.0817  0.025770041  0.024271553         1739 
 4923000   0.45851466   -5.9168608    1524.0277  0.025797748  0.024264484         1672 
 4924000    0.4649425   -5.9324162    1521.7401  0.025753792  0.024257405         1822 
 4925000   0.45853561   -5.9351841    1526.2738  0.025825277  0.024250328         1759 
 4926000   0.46506029   -5.9402316    1523.1379  0.025766983  0.024243238         1906 
 4927000   0.46297463   -5.9310526    1522.5388  0.025751621  0.024236157         1798 
 4928000    0.4585288   -5.9287282    1521.1609  0.025723095  0.024229074         1894 
 4929000   0.46314493    -5.919132    1524.9569  0.025782054  0.024221995         1772 
 4930000   0.45326146   -5.9486328    1520.4337  0.025700367  0.024214901         1892 
 4931000   0.46329832   -5.9473349    1524.8952  0.025770554  0.024207809         1795 
 4932000   0.46611049   -5.9348124    1523.9186  0.025748827  0.024200722         1780 
 4933000   0.46051784   -5.9432716    1522.3184  0.025716575  0.024193637         1789 
 4934000   0.46599456   -5.9493082    1522.6675  0.025717259  0.024186551         1813 
 4935000   0.47654488   -5.9553114    1523.8277   0.02573164  0.024179482         1862 
 4936000    0.4544972    -5.941767    1522.4567   0.02570328   0.02417241         1837 
 4937000   0.47032972   -5.9390218    1523.3808  0.025713673  0.024165344         1792 
 4938000   0.47089892   -5.9323742     1521.828   0.02568226  0.024158277         1912 
 4939000   0.46578779   -5.9344703    1520.5695  0.025655826  0.024151205         1950 
 4940000   0.46275273   -5.9448335    1521.9346  0.025673661  0.024144148         1930 
 4941000   0.46362919    -5.932097    1525.0374  0.025720795  0.024137084         1977 
 4942000   0.45609696    -5.957866    1520.1414  0.025633033  0.024130025         1893 
 4943000   0.47116503   -5.9467837    1522.5351  0.025668203  0.024122975         1988 
 4944000   0.47342127   -5.9432601    1520.5578  0.025629683  0.024115921         1946 
 4945000   0.45959501   -5.9380701    1523.8118  0.025679337  0.024108873         1895 
 4946000   0.44846741   -5.9413901    1522.5011   0.02565206  0.024101826         1981 
 4947000   0.47157589   -5.9295514     1522.066  0.025639546  0.024094783         2002 
 4948000   0.45640913   -5.9367642    1520.6273  0.025610133  0.024087737         1920 
 4949000   0.45324788    -5.964183    1523.4096  0.025651808   0.02408067         2074 
 4950000   0.46671431   -5.9471742    1522.5753  0.025632581  0.024073615         2018 
 4951000    0.4595646   -5.9433633    1521.8507  0.025615207  0.024066562         2086 
 4952000   0.45801364   -5.9574409    1521.4977  0.025604095  0.024059501         1977 
 4953000   0.45900043   -5.9465169    1521.8067  0.025604124  0.024052438         2085 
 4954000   0.45624219   -5.9478797    1521.2829  0.025590145  0.024045385         2007 
 4955000    0.4629156   -5.9576625    1519.7576  0.025559327   0.02403833         2038 
 4956000   0.46969752   -5.9662401    1519.2672  0.025545925  0.024031289         2132 
 4957000   0.45935854   -5.9610187    1522.5995   0.02559679  0.024024251         2101 
 4958000   0.45887193   -5.9688075    1525.2041  0.025635405  0.024017208         2057 
 4959000   0.45685465   -5.9416935    1520.7051  0.025554634  0.024010167         2070 
 4960000    0.4530935   -5.9707081    1520.2083  0.025541135  0.024003122         2116 
 4961000   0.46048796   -5.9667416    1518.3445  0.025504678  0.023996085         2221 
 4962000    0.4480605   -5.9485003    1517.6381  0.025487675  0.023989048         2067 
 4963000   0.45766596   -5.9528055    1520.8564  0.025536577  0.023982002         2149 
 4964000   0.45354593   -5.9548628    1521.9891  0.025550449   0.02397497         2153 
 4965000   0.45030866    -5.957945    1517.7081  0.025473449  0.023967923         2187 
 4966000   0.45126852   -5.9663387    1521.4423  0.025530982  0.023960885         2244 
 4967000   0.46379461   -5.9663465    1519.2051  0.025488308  0.023953847         2124 
 4968000   0.45809843    -5.959008    1517.8638  0.025460679  0.023946821         2259 
 4969000   0.45195989    -5.964977    1516.0487  0.025425114  0.023939781         2147 
 4970000   0.44480827   -5.9577172    1517.7603  0.025448697  0.023932741         2182 
 4971000    0.4600636   -5.9609018    1520.0322  0.025481664  0.023925704         2133 
 4972000   0.46185254   -5.9641782    1518.0798  0.025443816  0.023918685         2165 
 4973000   0.45058699   -5.9692708    1520.2742  0.025475471  0.023911668         2139 
 4974000   0.45073008   -5.9625652    1519.1961  0.025452287  0.023904638         2150 
 4975000   0.45605181   -5.9720883    1520.5272  0.025469468  0.023897612         2204 
 4976000    0.4481689   -5.9731413    1519.0915  0.025440304  0.023890577         2151 
 4977000   0.46210185   -5.9658004    1519.2554  0.025437938  0.023883551         2154 
 4978000   0.45676521    -5.973528    1518.9459  0.025427647  0.023876521         2119 
 4979000   0.45259391   -5.9824959    1520.5617  0.025449583  0.023869496         2254 
 4980000   0.44869128    -5.960149    1517.1192  0.025386867  0.023862475         2154 
 4981000   0.45595282   -5.9553911    1519.0938  0.025414806   0.02385546         2124 
 4982000   0.45134077    -5.961352    1519.2624  0.025412525  0.023848446         2233 
 4983000   0.46488272   -5.9611812    1516.9246  0.025368329  0.023841441         2188 
 4984000   0.46114187    -5.958457    1517.6982  0.025376173   0.02383444         2183 
 4985000   0.45489223   -5.9691839    1518.2368  0.025380087  0.023827436         2214 
 4986000   0.44553832   -5.9753906    1517.2455  0.025358429  0.023820427         2204 
 4987000   0.45011191   -5.9690021    1516.2247  0.025336285  0.023813418         2174 
 4988000   0.45584736   -5.9570792    1520.7396  0.025406636  0.023806423         2137 
 4989000   0.46159398    -5.968536    1519.1422  0.025374861  0.023799433         2206 
 4990000   0.45210666   -5.9725754    1519.2367  0.025371354  0.023792434         2234 
 4991000   0.46465731   -5.9802496    1519.3449  0.025368078  0.023785435         2217 
 4992000   0.44914391   -5.9828984    1515.6814   0.02530184  0.023778436         2184 
 4993000   0.45032676    -5.993317    1517.3344   0.02532436  0.023771445         2262 
 4994000   0.46132418   -5.9700587    1520.4683  0.025371584  0.023764452         2238 
 4995000   0.44785679   -5.9664523    1517.9406  0.025324335  0.023757463         2190 
 4996000   0.45377946   -5.9922407    1517.5155  0.025312175  0.023750472         2179 
 4997000   0.44677083   -5.9751869    1519.3599  0.025337869  0.023743473         2203 
 4998000   0.44916616   -5.9728351    1516.7335  0.025289007  0.023736491         2197 
 4999000   0.45569398   -5.9769417    1516.0463  0.025272493  0.023729499         2182 
 5000000   0.46100247   -5.9874693    1517.4307  0.025290512  0.023722508         2210 
 5001000   0.45455196    -5.980399    1516.0336  0.025262175  0.023715525         2285 
 5002000   0.45057243   -5.9754141    1515.0694  0.025241061  0.023708539         2218 
 5003000   0.45567737   -5.9865871    1516.9928  0.025268052  0.023701552         2202 
 5004000   0.44413879   -5.9962658    1517.7656  0.025275872  0.023694567         2214 
 5005000   0.45478162   -5.9704356    1515.8207   0.02523844  0.023687578         2256 
 5006000   0.46321373   -5.9818248    1515.5382  0.025228696  0.023680599         2305 
 5007000   0.45273021    -5.975687    1518.5302  0.025273454  0.023673621         2209 
 5008000   0.46313424   -5.9776625    1516.2222  0.025230003  0.023666646         2293 
 5009000   0.43483314   -5.9961167    1515.9345  0.025220178  0.023659665         2271 
 5010000   0.44321505   -5.9940995    1518.3575  0.025255447  0.023652686         2319 
 5011000   0.45702005   -5.9917513    1517.2226  0.025231535  0.023645721         2348 
 5012000   0.44682662   -5.9807489    1517.4095  0.025229608  0.023638765         2295 
Loop time of 12647.4 on 48 procs for 5000000 steps with 4000 atoms

Performance: 68314.600 tau/day, 395.339 timesteps/s
99.4% CPU use with 48 MPI tasks x no OpenMP threads

MPI task timing breakdown:
Section |  min time  |  avg time  |  max time  |%varavg| %total
---------------------------------------------------------------
Pair    | 877.4      | 968.55     | 1039       |  99.9 |  7.66
Neigh   | 85.317     | 88.991     | 92.8       |  18.8 |  0.70
Comm    | 800.65     | 875.71     | 977.82     | 115.7 |  6.92
Output  | 14.556     | 14.561     | 14.665     |   0.4 |  0.12
Modify  | 10554      | 10586      | 10609      |  12.0 | 83.70
Other   |            | 113.8      |            |       |  0.90

Nlocal:        83.3333 ave          91 max          76 min
Histogram: 1 3 7 5 8 7 10 2 4 1
Nghost:        2358.56 ave        2370 max        2342 min
Histogram: 1 0 2 6 5 13 9 3 3 6
Neighs:        16130.0 ave       18630 max       14429 min
Histogram: 3 5 3 15 7 6 6 1 1 1
FullNghs:      32259.6 ave       36015 max       29019 min
Histogram: 1 3 8 8 10 3 10 3 1 1

Total # of neighbors = 1548461
Ave neighs/atom = 387.11525
Neighbor list builds = 269120
Dangerous builds = 0

#clear
#
#next RN
#
#jump SELF
Total wall time: 3:30:50
