
units lj                  # Use reduced LJ style units
atom_style atomic         # Uncharged point particles
atom_modify map hash      # Needed for indexing of clusters etc
                          # Used to be able to find where atoms are in relation to each other.

lattice fcc 1.0 spacing 1 1 1
Lattice spacing in x,y,z = 1.5874011 1.5874011 1.5874011
region box block 0 10 0 10 0 10 units lattice
create_box 2 box
Created orthogonal box = (0.0000000 0.0000000 0.0000000) to (15.874011 15.874011 15.874011)
  3 by 4 by 4 MPI processor grid
create_atoms 1 box
Created 4000 atoms
  using lattice units in orthogonal box = (0.0000000 0.0000000 0.0000000) to (15.874011 15.874011 15.874011)
  create_atoms CPU = 0.016 seconds
set type 1 type/fraction 2 0.59 78393
Setting atom values ...
  2375 settings made for type/fraction
mass 1 1.0
mass 2 1.0
pair_style lj/cut  3.5
pair_modify tail  yes
pair_coeff 1  1  1.0  1.0   # Intearaction between 1 and 1 set with epsilon = 1 and sigma = 1
pair_coeff 1  2  1.5  0.8
pair_coeff 2  2  0.5  0.88

write_data data.0
System init for write_data ...
Neighbor list info ...
  update every 1 steps, delay 10 steps, check yes
  max neighbors/atom: 2000, page size: 100000
  master list distance cutoff = 3.8
  ghost atom cutoff = 3.8
  binsize = 1.9, bins = 9 9 9
  1 neighbor lists, perpetual/occasional/extra = 1 0 0
  (1) pair lj/cut, perpetual
      attributes: half, newton on
      pair build: half/bin/atomonly/newton
      stencil: half/bin/3d
      bin: standard
WARNING: Not all mixed pair coeffs generated from mixing. Use write_data with 'pair ij' option to store all pair coeffs. (../write_data.cpp:312)


#############################
#   M E L T   S Y S T E M   #
#############################

velocity all create 2.4 6583654 mom yes dist gaussian # Assign velocities
                                                    # Temperature 2.4, random number seed, zero linear momentum
                                                                                # Gaussian distribution

timestep 0.002   # simulation timestep
thermo 1000       # output thermodynamic data every 1000 steps bf 100

# Define a fix  in this case with index 1 applied to all
# particles in the simulation. This fix is for simulations
# in the anisotropic NPT ensemble. Note that we use the MTK
# correction.
fix 1 all npt temp 2.4 2.4 0.1 iso 5.68 5.68 0.5 mtk yes tchain 5 pchain 5 # Use NPT ensemble
                                                                         # Set temperature and pressure and damping
                                                                         # Numbers of thermostats in chain and in barostat
run 10000          # run for 10000 steps
Per MPI rank memory allocation (min/avg/max) = 3.642 | 3.644 | 3.648 Mbytes
Step Temp E_pair E_mol TotEng Press Volume 
       0          2.4   -4.7762807            0   -1.1771807   -4.0862689         4000 
    1000    2.4013738   -4.4488371            0  -0.84767698    5.5812315    3654.9176 
    2000    2.4316312   -4.4587298            0  -0.81219489    5.8088229    3631.8818 
    3000    2.3767957   -4.5519119            0  -0.98760973    5.9126414     3586.543 
    4000     2.406833    -4.511729            0  -0.90238206    5.5342425    3631.0217 
    5000    2.4868326   -4.4977326            0  -0.76841631     5.770928    3622.9424 
    6000    2.4341062   -4.5027207            0  -0.85247419    5.9053362    3609.9468 
    7000    2.3819968   -4.5114276            0  -0.93932564    5.4573771      3634.01 
    8000    2.4343032   -4.5996495            0  -0.94910764    5.7217044    3575.4603 
    9000     2.429885    -4.474187            0  -0.83027077     5.958898    3622.5404 
   10000    2.4283811    -4.542648            0  -0.90098697    5.5434406    3621.3635 
Loop time of 2.70847 on 48 procs for 10000 steps with 4000 atoms

Performance: 637999.107 tau/day, 3692.124 timesteps/s
99.6% CPU use with 48 MPI tasks x no OpenMP threads

MPI task timing breakdown:
Section |  min time  |  avg time  |  max time  |%varavg| %total
---------------------------------------------------------------
Pair    | 1.1881     | 1.278      | 1.3723     |   3.5 | 47.19
Neigh   | 0.21765    | 0.2252     | 0.24239    |   1.1 |  8.31
Comm    | 0.83675    | 0.93126    | 1.0125     |   4.9 | 34.38
Output  | 0.00024871 | 0.00026238 | 0.00033024 |   0.0 |  0.01
Modify  | 0.23426    | 0.25811    | 0.30669    |   3.7 |  9.53
Other   |            | 0.01562    |            |       |  0.58

Nlocal:        83.3333 ave          93 max          72 min
Histogram: 1 0 2 8 11 10 5 5 5 1
Nghost:        1753.08 ave        1778 max        1722 min
Histogram: 1 3 5 5 3 8 11 6 1 5
Neighs:        10563.6 ave       11707 max        8894 min
Histogram: 1 0 1 4 10 13 5 5 3 6

Total # of neighbors = 507055
Ave neighs/atom = 126.76375
Neighbor list builds = 907
Dangerous builds = 212

# Equilibrate just above the melting temperature to avoid step fn in T

fix 1 all npt temp 1.25 1.25 0.1 iso 5.68 5.68 0.5 mtk yes tchain 5 pchain 5
run 2000
Per MPI rank memory allocation (min/avg/max) = 3.644 | 3.646 | 3.650 Mbytes
Step Temp E_pair E_mol TotEng Press Volume 
   10000    2.4283811    -4.542648            0  -0.90098697    5.5434406    3621.3635 
   11000     1.271261   -6.6103741            0   -4.7039593    5.5720356    2778.7371 
   12000    1.2403614    -6.684083            0    -4.824006    5.5652399    2760.2149 
Loop time of 0.656945 on 48 procs for 2000 steps with 4000 atoms

Performance: 526071.100 tau/day, 3044.393 timesteps/s
99.6% CPU use with 48 MPI tasks x no OpenMP threads

MPI task timing breakdown:
Section |  min time  |  avg time  |  max time  |%varavg| %total
---------------------------------------------------------------
Pair    | 0.2942     | 0.32296    | 0.34458    |   2.0 | 49.16
Neigh   | 0.041905   | 0.044097   | 0.046332   |   0.5 |  6.71
Comm    | 0.21756    | 0.24077    | 0.27012    |   2.6 | 36.65
Output  | 5.2605e-05 | 5.572e-05  | 0.00015524 |   0.0 |  0.01
Modify  | 0.03991    | 0.044207   | 0.048212   |   1.0 |  6.73
Other   |            | 0.004854   |            |       |  0.74

Nlocal:        83.3333 ave          90 max          73 min
Histogram: 1 1 4 2 7 5 6 13 6 3
Nghost:        2106.06 ave        2147 max        2086 min
Histogram: 8 3 8 11 11 6 0 0 0 1
Neighs:        13836.3 ave       15516 max       11526 min
Histogram: 1 2 1 0 10 13 6 14 0 1

Total # of neighbors = 664142
Ave neighs/atom = 166.03550
Neighbor list builds = 145
Dangerous builds = 15

#############################
# L I N E A R  Q U E N C H  #
#############################

# Define solid atoms. This closely follows ten Wolde  Ruiz-Montero and Frenkel  Faraday Discuss  1996  104  93-110
# Compute components of the per-atom q6 vector
compute q6 all orientorder/atom degrees 1 6 components 6 nnn NULL cutoff 1.3 # compute the Q6 parameter.
                                                                             # Use all neighbours within 1.3 unit cell.

# get number of connections
compute coord_number all coord/atom orientorder q6 0.5

# An atom is solid if it has 8 or more connections (of a possible 14)
variable is_solid atom c_coord_number>=8
group solid dynamic all var is_solid    # Must be dynamic to update
dynamic group solid defined

# do clustering
compute cluster solid cluster/atom 1.3 # Create a cluster where all atoms within are solid and max 1.3 units from another member

# define chunks one chunk per cluster
compute clus_chunks solid chunk/atom c_cluster nchunk every compress yes  # Says which atoms are in which chunk

# count the size of each chunk
compute size_chunks solid property/chunk clus_chunks count


# Find the maximum entry in the vector of chunk sizes
variable max_n equal max(c_size_chunks)


# Thermo style which includes this variable
# thermo_style custom step temp pe vol v_max_n

thermo ${N}  # Print the thermo information every 100 steps
thermo 1000  

# Reset the npt fix at a lower temperature (below freezing)
fix 1  all npt temp  ${temp} ${temp}  0.1  iso  5.68  5.68  0.5  mtk yes tchain  5  pchain  5
fix 1  all npt temp  0.45 ${temp}  0.1  iso  5.68  5.68  0.5  mtk yes tchain  5  pchain  5
fix 1  all npt temp  0.45 0.45  0.1  iso  5.68  5.68  0.5  mtk yes tchain  5  pchain  5

dump dmp2 all dcd ${N} traj.dcd
dump dmp2 all dcd 1000 traj.dcd


compute msd all msd com yes
variable twopoint equal c_msd[4]/6/(step*dt+1.0e-6)
fix 9 all vector 10 c_msd[4]
variable fit equal slope(f_9)/6/(10*dt)
thermo_style custom step temp pe c_msd[4] v_twopoint v_fit v_max_n

fix 1 all npt temp 1.25 ${temp} 0.1 iso 5.68 5.68 0.5 mtk yes tchain 5 pchain 5
fix 1 all npt temp 1.25 0.45 0.1 iso 5.68 5.68 0.5 mtk yes tchain 5 pchain 5
run 5000000 # 5000000  # Run for this many steps
Neighbor list info ...
  update every 1 steps, delay 10 steps, check yes
  max neighbors/atom: 2000, page size: 100000
  master list distance cutoff = 3.8
  ghost atom cutoff = 3.8
  binsize = 1.9, bins = 8 8 8
  4 neighbor lists, perpetual/occasional/extra = 1 3 0
  (1) pair lj/cut, perpetual
      attributes: half, newton on
      pair build: half/bin/atomonly/newton
      stencil: half/bin/3d
      bin: standard
  (2) compute orientorder/atom, occasional
      attributes: full, newton on
      pair build: full/bin/atomonly
      stencil: full/bin/3d
      bin: standard
  (3) compute coord/atom, occasional
      attributes: full, newton on
      pair build: full/bin/atomonly
      stencil: full/bin/3d
      bin: standard
  (4) compute cluster/atom, occasional
      attributes: full, newton on
      pair build: full/bin/atomonly
      stencil: full/bin/3d
      bin: standard
Per MPI rank memory allocation (min/avg/max) = 9.847 | 9.850 | 9.854 Mbytes
Step Temp PotEng c_msd[4] v_twopoint v_fit v_max_n 
   12000    1.2403614    -6.684083 9.6694625e-31 6.7149043e-33 8.3333333e+20            1 
   13000    1.2777735   -6.6508297   0.47420697 0.0030397881  0.037936398            1 
   14000    1.2054937   -6.6543468   0.89929746 0.0053529609  0.036441599            3 
   15000    1.2117019   -6.6968099    1.3434637  0.007463687  0.036463413            2 
   16000    1.2638153   -6.7137026    1.7591008 0.0091619832  0.036527899            3 
   17000    1.2758822   -6.7225734    2.1511595  0.010544899  0.035917273            6 
   18000    1.2560034   -6.7163031    2.5511258  0.011810767  0.035315587            4 
   19000    1.2336036   -6.6719925    2.9579201  0.012973334  0.034838009            2 
   20000    1.2451963   -6.7034965     3.368828  0.014036783  0.034686556            2 
   21000    1.2362022   -6.6918628    3.8415784  0.015244358  0.034709593            1 
   22000    1.2414489   -6.6760977    4.2356597  0.016044165  0.034760939            1 
   23000    1.2596313   -6.6984016    4.6223638  0.016747695   0.03472112            3 
   24000    1.2664674   -6.7317348    5.0683191   0.01759833  0.034701656            6 
   25000    1.2588913   -6.6805398    5.4711556  0.018237185  0.034649713            2 
   26000    1.2751931   -6.6937621    5.9377879  0.019031371  0.034690391            3 
   27000    1.2341667   -6.6527391    6.4580069   0.01993212  0.034841966            3 
   28000    1.2311216   -6.6956124    6.9226768  0.020603204  0.035156259            2 
   29000    1.2564281   -6.6717756    7.3382215  0.021086843  0.035330155            4 
   30000    1.2437188    -6.676627    7.7277595  0.021465998  0.035497451            3 
   31000    1.2391313   -6.7172252    8.1680439  0.021957107  0.035534256            2 
   32000    1.2996268       -6.685    8.6029781  0.022403588  0.035636187            2 
   33000    1.2556762   -6.6901652    8.9793039  0.022675009  0.035682802            1 
   34000    1.2254451   -6.7195249    9.3161744   0.02283376  0.035639273            1 
   35000    1.2424886   -6.7119786    9.7759898  0.023276166  0.035586134            1 
   36000    1.2533672   -6.7173277    10.195368  0.023600388  0.035566959            3 
   37000    1.2653165    -6.714373     10.62841   0.02393786  0.035527821            3 
   38000    1.2390028   -6.6757837    10.919126  0.023945452  0.035427532            2 
   39000    1.2102239   -6.6739957    11.207516  0.023947684  0.035268209            2 
   40000    1.2233711   -6.7123293    11.576566  0.024117845  0.035107408            3 
   41000    1.2633801   -6.6801293    11.996996  0.024384137  0.034956264            2 
   42000    1.2363101   -6.6971988    12.479553  0.024761018  0.034829212            5 
   43000    1.2344458   -6.6827237    12.863176  0.024928636  0.034753848            3 
   44000    1.2375154   -6.7214163     13.27472  0.025141516  0.034683478            4 
   45000    1.2278133   -6.7264804     13.64328  0.025265334  0.034624786            2 
   46000    1.2839604   -6.7668609    14.127598  0.025593474  0.034552796            2 
   47000    1.2433544   -6.7014915     14.63707  0.025952252  0.034539827            1 
   48000    1.2221346   -6.6974104    15.035903  0.026103997  0.034521572            2 
   49000    1.2249569   -6.7250311    15.509913  0.026377402  0.034512662            2 
   50000    1.2617045    -6.748202    15.893315  0.026488858  0.034508062            3 
   51000    1.2413614   -6.7123291    16.177737  0.026434211  0.034471169            7 
   52000    1.2604976    -6.701019    16.533963  0.026496735  0.034421465            2 
   53000    1.2528893   -6.7474753    16.799112  0.026413698  0.034357686            4 
   54000    1.2276793   -6.7254475     17.36504  0.026797901  0.034297466            2 
   55000    1.2510984   -6.7030498    17.734279   0.02687012  0.034279617            1 
   56000    1.2936427   -6.7229461    18.144179  0.027000266  0.034239339            4 
   57000    1.2669599   -6.7457181    18.462152   0.02699145  0.034206056            1 
   58000    1.2712493   -6.7311112    18.733026  0.026915268  0.034149108            2 
   59000    1.2765189    -6.701168    19.233442  0.027165879  0.034094044            4 
   60000    1.2313112   -6.7344526    19.665889  0.027313735    0.0340489            2 
   61000      1.22505   -6.6995987    20.121097  0.027487837  0.034013865            2 
   62000    1.2561776   -6.7231849    20.574903   0.02765444  0.034001109            2 
   63000    1.2399984    -6.755277    21.017757  0.027801266  0.033995406            2 
   64000    1.2187879   -6.6603142    21.383444  0.027843026  0.033996288            3 
   65000    1.2569123   -6.7199452    21.816094  0.027969351  0.033990713            3 
   66000    1.2070925   -6.7322375    22.160832  0.027980848  0.033972595            1 
   67000    1.2443226   -6.7198894    22.559035  0.028058501    0.0339734            2 
   68000    1.2339617   -6.7353928    23.116676   0.02832926  0.033984244            1 
   69000    1.2465569   -6.7224422    23.696727  0.028619236  0.034004445            2 
   70000    1.2558956   -6.7493288    24.120146  0.028714459  0.034035278            2 
   71000    1.2509859   -6.7340112    24.519556  0.028778821   0.03406919            2 
   72000    1.2317216   -6.7595203    25.138041  0.029094955  0.034117829            4 
   73000    1.2379032   -6.7359039    25.503724   0.02911384  0.034165338            1 
   74000    1.2393881   -6.7631623    25.873951  0.029137332   0.03420592            1 
   75000     1.224195   -6.6983873    26.185688  0.029095208  0.034232669            3 
   76000    1.2358842    -6.690189    26.507497  0.029065238  0.034242007            4 
   77000    1.2576095     -6.70227    26.996452  0.029216939  0.034263193            1 
   78000    1.2460427   -6.7527898    27.620275   0.02950884  0.034283321            3 
   79000    1.2446247   -6.6796693     28.09479  0.029635854  0.034321866            3 
   80000    1.2364888   -6.7118519    28.468949  0.029655155   0.03435405            1 
   81000    1.2236085   -6.7008796    28.838262  0.029668994  0.034385941            3 
   82000    1.2544798   -6.7336289    29.484684   0.02996411  0.034420269            1 
   83000    1.2473262   -6.7476358    29.988859  0.030109296  0.034468665            1 
   84000    1.2187458   -6.7399124    30.500429  0.030258362  0.034526253            1 
   85000    1.2384316   -6.7070694    31.105538  0.030495626  0.034585367            3 
   86000    1.2342343   -6.7357938    31.488462  0.030512075  0.034646752            2 
   87000    1.2302573   -6.7606748    31.892046  0.030547937  0.034706354            1 
   88000    1.2645596   -6.7268307    32.290715  0.030578328  0.034765076            3 
   89000    1.2652713    -6.751108    32.781277  0.030694079  0.034819359            2 
   90000    1.2309206   -6.7565921    33.125911  0.030672139  0.034864144            3 
   91000    1.2251307   -6.6994909    33.531757  0.030706737  0.034902013            3 
   92000    1.2249994   -6.7226576    34.053051  0.030845155   0.03494295            2 
   93000    1.2329634   -6.7356122    34.316275   0.03074935  0.034981281            3 
   94000      1.19717   -6.7265705    34.899233  0.030939036  0.035023981            3 
   95000    1.2353659   -6.7580795    35.227077  0.030900944  0.035058107            2 
   96000    1.2091516   -6.7450447    35.614711  0.030915547  0.035085864            1 
   97000    1.2088131   -6.7110862    35.939929  0.030876227  0.035110607            1 
   98000    1.2520306   -6.7104161    36.298226  0.030865839  0.035127636            3 
   99000    1.2364631   -6.7238981    36.724913  0.030913227  0.035135908            4 
  100000    1.2311434   -6.7237365    37.249056   0.03104088  0.035148025            1 
  101000    1.2039559   -6.7239123    37.559962  0.030990067  0.035159253            4 
  102000    1.2130622   -6.7295923    37.876586  0.030944923  0.035160837            1 
  103000    1.2147966   -6.7123415    38.318535  0.031002051  0.035166278            3 
  104000    1.2266301   -6.7302818    38.770146  0.031065822  0.035160858            2 
  105000    1.2193774   -6.7096461    38.990309  0.030944689  0.035154468            3 
  106000    1.2597725    -6.701616    39.537393  0.031082856  0.035145671            2 
  107000    1.2534966   -6.7199117    39.654338  0.030883441  0.035134151            3 
  108000      1.21861   -6.7553106    39.859598  0.030755862  0.035111557            4 
  109000     1.244876   -6.7125429    40.467452  0.030938419  0.035088127            3 
  110000      1.22776   -6.7334706    40.712589  0.030842871   0.03506674            2 
  111000    1.2442969   -6.7140948    41.366351  0.031055819  0.035050858            4 
  112000    1.2298611   -6.7438716    41.797094  0.031099028  0.035039059            3 
  113000    1.2218045   -6.7293147    41.978718  0.030957757  0.035024402            6 
  114000    1.2333365   -6.7457935    42.477531  0.031050826  0.035009847            2 
  115000    1.2352851   -6.7864679    42.750293  0.030978473  0.034988913            3 
  116000    1.2380434   -6.7438651    43.277874  0.031090427  0.034969823            1 
  117000    1.2293174   -6.7460337    43.700613  0.031125793  0.034954879            2 
  118000    1.2344933   -6.7158206     44.12821   0.03116399  0.034938697            1 
  119000     1.211274    -6.728722    44.606641  0.031237144  0.034927406            1 
  120000    1.2251567   -6.7012857    45.293726  0.031453977  0.034924005            7 
  121000    1.2328374   -6.7644049    45.613502  0.031414257  0.034925669           10 
  122000    1.2517383   -6.7376359    45.972487  0.031401972  0.034930884            4 
  123000    1.2499688    -6.678983    46.666145  0.031616629  0.034931522            2 
  124000    1.2376508   -6.7618267    46.910617  0.031525952  0.034935269            3 
  125000    1.2245465     -6.72636    47.195941   0.03146396  0.034931034            3 
  126000    1.2307848   -6.7651373    47.587656  0.031473317  0.034928894            2 
  127000    1.2154604   -6.7013843    48.044395  0.031525193  0.034928387            2 
  128000    1.2402641    -6.719748    48.319979   0.03145832  0.034922886            1 
  129000    1.2363712   -6.7551891    48.905972  0.031593005   0.03492098            2 
  130000    1.2336737   -6.7631485    49.641281  0.031821334  0.034923561            7 
  131000    1.2379262   -6.7530257    49.999026  0.031805996  0.034924707            2 
  132000    1.2334288   -6.7364624    50.136389   0.03165176  0.034923922            4 
  133000     1.206062   -6.7637527    50.504832  0.031644631  0.034919926            2 
  134000    1.2266275   -6.7555081    50.859017  0.031628742  0.034915996            1 
  135000    1.2396721   -6.7446597    51.264241  0.031644593  0.034910571            2 
  136000    1.2370076   -6.7072814    51.897537  0.031799961  0.034907117            2 
  137000    1.2601481    -6.751444     51.95967  0.031605639  0.034900502            3 
  138000    1.2228564   -6.7746959    52.197671  0.031520333  0.034888503            1 
  139000     1.225297   -6.7725732    52.615727  0.031544201  0.034876707            1 
  140000    1.2485855    -6.709644    53.299844  0.031726097  0.034863161            2 
  141000    1.2302518   -6.7625891    53.395552  0.031557655  0.034845961            2 
  142000    1.2323258   -6.7538146    53.987966  0.031683079  0.034831052            4 
  143000    1.2319476   -6.7703008    54.259949  0.031620017  0.034817451            2 
  144000    1.2312759   -6.7386088     54.74587  0.031681638  0.034800632            2 
  145000     1.235892   -6.7737906    54.935114  0.031571905  0.034782335            2 
  146000    1.2440248   -6.7246596    55.279156   0.03155203  0.034765243            3 
  147000    1.2353089    -6.757606    55.491253  0.031457626  0.034742957            3 
  148000     1.249076   -6.7947852    55.779644  0.031407457  0.034720302            2 
  149000    1.2230789   -6.7623475    56.283962  0.031478726  0.034697366            3 
  150000    1.2220079   -6.7632094    56.666454  0.031481363  0.034677891            6 
  151000    1.2101027   -6.7655186    57.136655   0.03153237  0.034658439            2 
  152000    1.2152034   -6.7097169    57.577656  0.031566697  0.034638469            1 
  153000    1.2219622   -6.7467464    57.899439  0.031535642  0.034619403            1 
  154000    1.2474018    -6.749779    58.352081  0.031575801  0.034600412            1 
  155000    1.2424415   -6.7483234    58.696449   0.03155723  0.034582107            3 
  156000     1.230432   -6.7062843    59.218062   0.03163358  0.034564904            6 
  157000    1.2469778   -6.7712263    59.349046  0.031501617  0.034547916            2 
  158000     1.219618   -6.7349549    60.114055  0.031705725  0.034531403            1 
  159000     1.227152   -6.7129011    60.428919  0.031671341  0.034518703            1 
  160000    1.2186061   -6.7671858    60.695374  0.031612174  0.034502426            2 
  161000    1.2141899   -6.7791147    60.662351  0.031398732  0.034482237            3 
  162000    1.2476367   -6.7509229    61.558612  0.031665952  0.034464814            5 
  163000    1.2003403   -6.7236216    62.048068  0.031721916  0.034450723            3 
  164000    1.2125687    -6.709831    63.102501  0.032064279   0.03444118            4 
  165000    1.2018011   -6.7609503    63.106936   0.03187219  0.034435043            4 
  166000    1.2410416   -6.7583952    63.503699  0.031879367  0.034425606            1 
  167000    1.2371528   -6.7343378    63.894917  0.031883691   0.03441574            2 
  168000    1.1998429   -6.7977432    63.936749  0.031714657  0.034405794            4 
  169000    1.2399408   -6.7889048    64.284377  0.031698411  0.034392331            2 
  170000    1.2367434   -6.7462019      65.2367  0.031978774  0.034383814            3 
  171000    1.2245392   -6.7945249     65.41955  0.031880872   0.03437651            2 
  172000    1.2411764   -6.8122542    65.896652  0.031926672  0.034368614            3 
  173000    1.2505103   -6.7847519    66.229114   0.03190227    0.0343633            2 
  174000    1.2140675   -6.7556013    66.839204  0.032011113    0.0343563            8 
  175000    1.2482921   -6.7779247    67.034919   0.03192139  0.034350847            2 
  176000    1.1924428   -6.7927581    67.430992  0.031927553  0.034344397            2 
  177000    1.2430305   -6.7395403    68.018749  0.032023893   0.03433709            2 
  178000    1.2026864   -6.7630851    68.157918  0.031909137  0.034327801            3 
  179000    1.2159442   -6.8031923    68.229544   0.03176422  0.034315947            2 
  180000    1.2302701   -6.7951545    68.764604  0.031835465  0.034304824            1 
  181000    1.2122905   -6.7590463    69.716779  0.032097964  0.034297228            3 
  182000    1.2276685   -6.7788466    70.077419   0.03208673  0.034291644            4 
  183000    1.2605492    -6.776384    70.029746  0.031889684  0.034285618            7 
  184000    1.2164522   -6.7637004    70.762473  0.032048221  0.034277723            4 
  185000    1.2263353   -6.7460022    70.947622  0.031958388  0.034269765            3 
  186000    1.2125019   -6.7215258    71.689831    0.0321191  0.034263965            3 
  187000    1.2090374   -6.7612041    72.131678  0.032144241  0.034261203            3 
  188000    1.2100482   -6.7423521    72.558279  0.032162357  0.034256025            2 
  189000    1.2183214   -6.7982526     72.46503  0.031951071  0.034249137            2 
  190000    1.2162812   -6.7423187    73.118573   0.03206955  0.034242832            3 
  191000    1.2114902   -6.7712227    73.451422  0.032046868  0.034234657            2 
  192000    1.1967276   -6.8471431    73.355172  0.031838182  0.034225033            4 
  193000    1.2063008   -6.7865644    74.002094  0.031952545  0.034212691            2 
  194000    1.2462172   -6.7448116    74.460862  0.031984906  0.034200582            3 
  195000    1.2226374    -6.753865    74.697771  0.031922124  0.034187389            5 
  196000    1.2272831     -6.81113    74.872557   0.03183357  0.034175733            2 
  197000    1.2166367   -6.7749733    75.453619  0.031917775  0.034163203            2 
  198000    1.2123624   -6.7484791      75.9169  0.031951557  0.034151144            3 
  199000    1.1990885   -6.7960569    76.047601  0.031845729  0.034139336            1 
  200000    1.2154007   -6.7678724    76.722773  0.031967822  0.034128242            1 
  201000    1.2311506   -6.7673049     77.31086  0.032052595  0.034122036            3 
  202000    1.2385058    -6.745779    77.828493  0.032107464  0.034115946            2 
  203000    1.2148042   -6.7757664    78.202905  0.032102999   0.03410828            3 
  204000     1.206266   -6.8175867    78.440874   0.03204284  0.034098828            3 
  205000    1.2228079   -6.7603983    79.099297  0.032154186  0.034093677            4 
  206000    1.2262371   -6.8330996    78.747406  0.031855747  0.034085629            4 
  207000    1.2152796   -6.7440478    79.912919  0.032171062  0.034076099            3 
  208000    1.2389797   -6.8021618    79.771864  0.031959881  0.034069156            1 
  209000    1.1969911   -6.8039648    80.045199  0.031915949  0.034060213            2 
  210000    1.2344311   -6.7817938    80.386923  0.031899573  0.034049841            4 
  211000    1.2187836   -6.8178762    80.710814  0.031876309  0.034037398            2 
  212000    1.2078912   -6.7701142    81.156899  0.031901297  0.034026099            1 
  213000    1.2394963   -6.8330701    81.305465   0.03180965  0.034014511            1 
  214000    1.2321802   -6.7927288    81.761246  0.031838491  0.034003248            2 
  215000    1.2379855   -6.7445986     82.59924  0.032015209  0.033990745            1 
  216000    1.2310699    -6.761149    82.610221  0.031871227  0.033979791            5 
  217000    1.1946232   -6.7733439    83.155705  0.031933834  0.033969061            3 
  218000    1.2322885   -6.8022446    83.228557  0.031815197  0.033957138            2 
  219000    1.2091509   -6.7259012    84.204627  0.032041334  0.033946409            2 
  220000    1.2298892   -6.7732898    84.664941  0.032070053  0.033935645            2 
  221000    1.2169061   -6.8003922    84.668199  0.031926169  0.033926772            4 
  222000    1.2259358   -6.8507987    85.196972  0.031980845  0.033917283            3 
  223000    1.1943259   -6.7800706    85.956214  0.032121156  0.033909129            3 
  224000    1.2203347   -6.7875315    86.023554   0.03200281  0.033901873            2 
  225000    1.2166983   -6.7823088    86.329698  0.031973962  0.033894461            2 
  226000    1.2256641   -6.7748114    87.298022  0.032189536  0.033889691            2 
  227000    1.2030659   -6.8079508    87.218795  0.032018647  0.033882475            3 
  228000    1.2492149   -6.8281456    87.772836  0.032080715  0.033876631            3 
  229000    1.2114641   -6.7634302     88.53223  0.032216969   0.03387342            4 
  230000    1.2155228   -6.8547878    88.713219   0.03214247  0.033870977            2 
  231000    1.2293871    -6.811355    89.101884  0.032143537  0.033866932            3 
  232000    1.2477795    -6.777021     89.78989  0.032252116  0.033863375            3 
  233000    1.2284224   -6.7830885    90.236063   0.03227327  0.033860335            4 
  234000    1.2240665   -6.7114572    90.503399  0.032230555  0.033857269            2 
  235000    1.2037283   -6.8080485    90.749645  0.032180725  0.033854415            2 
  236000    1.2302513   -6.7451582    91.571995  0.032334744  0.033850002            3 
  237000    1.2459329   -6.8204732    91.309293   0.03210594  0.033845137            2 
  238000    1.2163359   -6.8033251    92.133209  0.032259527   0.03383909            3 
  239000    1.2027531   -6.7733583    92.713338  0.032326826  0.033836432            1 
  240000    1.1906098   -6.8338509    92.603466  0.032153981  0.033831852            3 
  241000    1.1791433   -6.7936221    92.898877   0.03212271  0.033826324            4 
  242000    1.1865501      -6.7693    94.043516  0.032384131  0.033822717            2 
  243000    1.2046121   -6.8345182    94.034721  0.032247847  0.033819478            2 
  244000    1.2213281   -6.7828953    94.901059  0.032411564  0.033816883            2 
  245000    1.2286871   -6.7649217    95.289535  0.032411406    0.0338149            4 
  246000    1.2043931   -6.7945027    95.088157  0.032211435  0.033812899            3 
  247000    1.1979287    -6.823361    95.692506  0.032284921  0.033810816            2 
  248000    1.2043402   -6.7741163    96.778341  0.032519604  0.033809355            2 
  249000    1.2248271   -6.7597109    97.134172  0.032508089  0.033810264            3 
  250000    1.2066848   -6.7675346    97.539556  0.032513185    0.0338131            3 
  251000    1.1814801   -6.8027164    98.106244  0.032571794  0.033815266            1 
  252000    1.1839036   -6.8115711    98.499715  0.032572657  0.033817927            1 
  253000    1.2251198   -6.7829022    98.875871   0.03256781  0.033819681            2 
  254000    1.2390654   -6.7984153    98.854313  0.032432517  0.033821378            1 
  255000    1.2436139   -6.7427539    99.566344  0.032538021  0.033822127            2 
  256000    1.2057092   -6.7922387     99.74272  0.032468333  0.033823387            4 
  257000    1.2284791    -6.833805    99.936981  0.032404987  0.033823331            2 
  258000    1.2371385   -6.8174231    100.35049  0.032412948  0.033823944            4 
  259000    1.1927953   -6.7419671    101.04274  0.032510532  0.033824916            2 
  260000     1.186394   -6.8049594     101.2248  0.032443846  0.033826375            2 
  261000    1.1968278   -6.7971995    102.09562  0.032597579  0.033826174            3 
  262000    1.2158881   -6.7551017    102.48303  0.032596385  0.033827392            5 
  263000    1.1836016   -6.8075633    102.32147  0.032421253  0.033829297            3 
  264000    1.2219857   -6.8160828    102.99578  0.032511294   0.03382855            2 
  265000    1.2089337   -6.8564867    102.85132  0.032343183  0.033829074            2 
  266000    1.1947509   -6.7933383    103.98257  0.032575992  0.033828308            1 
  267000    1.1987231   -6.7838909    104.66338  0.032666473  0.033828912            4 
  268000    1.1928741   -6.8146048    104.48651  0.032489585  0.033829732            4 
  269000    1.2079454   -6.8438447    104.92074  0.032503328  0.033829211            2 
  270000    1.2115465   -6.8395258    105.11011  0.032441393  0.033829955            7 
  271000    1.1997542   -6.7877401    106.28147  0.032681877  0.033829843            3 
  272000    1.2331402   -6.8233203    106.21148  0.032540282   0.03383172            3 
  273000    1.2214799   -6.8295908    106.94307  0.032644403  0.033833183            1 
  274000    1.2064897   -6.7715223    107.53299  0.032704682   0.03383538            2 
  275000    1.2152568    -6.780447    108.24914  0.032802771  0.033836485            2 
  276000    1.1833165   -6.7862311    108.30931  0.032702088  0.033837234            2 
  277000    1.2049449   -6.8013425    108.68328  0.032696533  0.033839042            2 
  278000    1.2099895    -6.790103    108.90096  0.032644172  0.033840647            2 
  279000    1.2136691   -6.7858887    109.53912  0.032717779  0.033841885            4 
  280000    1.2049322   -6.8171138    109.68907  0.032645556  0.033842173            3 
  281000    1.2141269   -6.8340688    109.95298  0.032607647  0.033841164            2 
  282000    1.2197355   -6.8198745    110.33073  0.032603645  0.033841394            2 
  283000    1.2145367   -6.8055542    110.87883  0.032649833  0.033841184            4 
  284000    1.1974889   -6.7946036    111.02824  0.032578709   0.03384107            1 
  285000    1.1997212   -6.8265745     111.2824  0.032538713  0.033839638            2 
  286000     1.190593   -6.7537625    111.76329  0.032565062   0.03383624            3 
  287000    1.2066475    -6.856616    111.99715  0.032519498  0.033834575            5 
  288000    1.1825027   -6.8131803    112.50821  0.032554457  0.033832826            3 
  289000    1.1934841   -6.7765309    113.07419  0.032605013  0.033831445            3 
  290000     1.208381   -6.7887542    113.30114    0.0325578  0.033830238            3 
  291000    1.2270002   -6.7612373    114.37103  0.032752301  0.033830828            3 
  292000    1.2355445   -6.7720421    114.52537   0.03268418  0.033831095            2 
  293000    1.2014364   -6.7961974    114.42808  0.032544961  0.033830657            1 
  294000    1.1974427   -6.7777029    114.69818  0.032510821  0.033828032            3 
  295000    1.1920222   -6.8152781    115.10784  0.032516339   0.03382652            2 
  296000     1.222618   -6.8126669    115.70421  0.032574384  0.033823246            1 
  297000    1.1977315   -6.8372756    115.48417  0.032402966  0.033819872            3 
  298000    1.2351951   -6.8146634    115.38974  0.032267824  0.033813783            2 
  299000    1.2253236   -6.8058001    116.50802  0.032471577  0.033808922            4 
  300000    1.2181173     -6.83805    116.64027  0.032400074  0.033803888            2 
  301000    1.2196881   -6.8157505    117.32881  0.032483058  0.033799222            2 
  302000     1.213932    -6.797538    117.99707  0.032559897   0.03379471            2 
  303000    1.1745638   -6.8282358    117.53868  0.032326369  0.033789653            4 
  304000    1.1826877   -6.8368282    118.16418  0.032391498  0.033784328            2 
  305000    1.1729763   -6.8456151    118.39513  0.032348395   0.03377747            1 
  306000    1.1821164   -6.8154589    118.85218  0.032367151  0.033770518            1 
  307000    1.2096547   -6.8515182    119.34665  0.032395943  0.033765382            2 
  308000    1.2010807   -6.8067957    119.81839  0.032418395  0.033760352            2 
  309000    1.1923265   -6.8091122     120.3381   0.03245364  0.033754814            1 
  310000    1.2135508   -6.8446399    120.57183  0.032411782  0.033749636            1 
  311000    1.1976316   -6.7854764    120.85114  0.032382407  0.033743711            4 
  312000    1.2006006   -6.8590992    120.30142  0.032131789  0.033735803            3 
  313000     1.203226   -6.8245298    120.81955  0.032167078  0.033726184            1 
  314000    1.1974791   -6.8410312    121.09644  0.032138121  0.033716038            1 
  315000    1.2056915   -6.8372878    121.53064  0.032150962  0.033706945            4 
  316000    1.1943795   -6.8560363    122.32136  0.032257742  0.033697991            3 
  317000    1.2002034   -6.8248842    122.76042  0.032271405  0.033688425            4 
  318000    1.2117211   -6.8383331    122.66435  0.032144745  0.033678961            7 
  319000    1.2008153   -6.8172776    123.43362  0.032244937  0.033669311            3 
  320000    1.1938335   -6.8305205    123.54187  0.032172363  0.033661243            1 
  321000    1.1973081   -6.7989697    124.50416  0.032321952  0.033653792            5 
  322000    1.2136182   -6.7526763    124.78555  0.032294397  0.033646202            6 
  323000    1.1954384   -6.7832207    125.67882  0.032424876  0.033640371            2 
  324000    1.1935489   -6.8233561    125.88785  0.032378561  0.033635359            3 
  325000    1.2220598   -6.8239533    126.01495  0.032311525  0.033629475            3 
  326000     1.218128   -6.8392878    126.49768  0.032335807  0.033624855            1 
  327000    1.1916756   -6.8778353    126.82591  0.032320569   0.03361816            1 
  328000    1.1778332    -6.817464    128.07789  0.032540113  0.033613443            2 
  329000    1.2102625   -6.8319145    128.33881  0.032507297  0.033609232            2 
  330000     1.213781   -6.8987111    128.30809  0.032401032  0.033605345            3 
  331000    1.2056391   -6.8470288     129.1488  0.032514805  0.033602707            3 
  332000    1.2301891    -6.815639    129.73345  0.032563616  0.033601354            4 
  333000    1.1922443   -6.8510841    129.47738  0.032401748   0.03359937            3 
  334000    1.2237902   -6.8602371    130.17841  0.032479644  0.033595546            1 
  335000    1.1870397   -6.8325436    130.38181  0.032433286  0.033592645            3 
  336000    1.1791312    -6.864157    130.65184  0.032403731  0.033589137            3 
  337000    1.1956261   -6.8162789    130.81389  0.032347649  0.033585254            2 
  338000    1.2391963   -6.8227536    131.47523  0.032414997  0.033581039            4 
  339000    1.1915252   -6.8127037    131.95116  0.032436372  0.033576427            1 
  340000    1.1777124   -6.8082018    132.16663  0.032393783  0.033572181            2 
  341000    1.2122236   -6.8426399    132.02351   0.03226381  0.033567173            4 
  342000    1.1815649    -6.831524    132.93437  0.032391415  0.033561399            1 
  343000    1.1974172   -6.8815845    132.45549  0.032180635   0.03355443            1 
  344000    1.1851918     -6.83594    133.19918  0.032267244  0.033548394            1 
  345000    1.2066421   -6.8102861    133.71951  0.032299398  0.033542652            2 
  346000    1.1833069   -6.8793905    133.12655  0.032063235  0.033533995            6 
  347000    1.1776288    -6.813116    134.02918  0.032187603  0.033525534            3 
  348000     1.177102    -6.834334     133.8421  0.032050311  0.033516943            3 
  349000    1.2033834   -6.8056811    134.51231  0.032118507  0.033508437            2 
  350000    1.1741391     -6.78361    134.94914  0.032130747  0.033500053            2 
  351000    1.1997012   -6.8335885    135.03324  0.032059173  0.033491244            1 
  352000    1.1969141   -6.8151905    135.33104  0.032038599  0.033481134            2 
  353000    1.1882558   -6.8341524    135.36837  0.031956651  0.033470958            3 
  354000    1.2015191   -6.8956291    135.93744   0.03200034  0.033459682            8 
  355000    1.1969699   -6.8601465    135.43665   0.03179264  0.033446775            3 
  356000    1.1993378   -6.8328903     136.1876   0.03187912  0.033435296            3 
  357000     1.178386   -6.8600236    137.17327  0.032019904  0.033425323            1 
  358000    1.2031688   -6.8475411     137.8176  0.032080447  0.033415627            3 
  359000    1.2001993   -6.8347257    138.03945  0.032042584   0.03340526            2 
  360000    1.1875781   -6.8645814    138.14709  0.031978493  0.033393936            4 
  361000    1.1810914   -6.7825327    138.89583   0.03206275  0.033383009            2 
  362000    1.1917733   -6.8173782    138.80923  0.031954244  0.033372549            3 
  363000    1.1906643   -6.8347653    139.08422  0.031929344  0.033361311            4 
  364000    1.2004162   -6.8237523    138.98273  0.031818392  0.033349914            1 
  365000    1.1851604   -6.8222193    139.71777  0.031899035  0.033338305            2 
  366000    1.1996333   -6.8595722    139.19061   0.03169185  0.033326019            4 
  367000    1.2065228   -6.8468808    139.96256  0.031780781  0.033312587            3 
  368000    1.2135463   -6.8723115    139.85743  0.031670614   0.03330004            2 
  369000    1.1537285   -6.8387185    141.13034  0.031872254  0.033287611            3 
  370000    1.1963156   -6.8579551    141.35587  0.031836908  0.033275799            2 
  371000      1.19864   -6.8221244    141.98687  0.031892828  0.033263809            2 
  372000      1.20406   -6.8395227    142.30994  0.031879466  0.033252676            3 
  373000    1.2056612   -6.8858528    141.68554  0.031654499  0.033240464            3 
  374000    1.1777438   -6.8511866    143.18678  0.031904364  0.033228888            5 
  375000    1.2143282    -6.825689    143.16022  0.031813383  0.033217461            2 
  376000    1.1837744   -6.8777513    142.87826   0.03166628  0.033205485            2 
  377000      1.17383   -6.8244949    143.80004  0.031786038  0.033193016            2 
  378000    1.1912968   -6.7870065    144.12987  0.031774664  0.033180427            3 
  379000    1.2145524   -6.8217196    144.23768   0.03171453  0.033167502            2 
  380000    1.2198062   -6.8682239    144.29054  0.031642661  0.033155413            7 
  381000    1.1919232   -6.8300733    145.04694  0.031725052  0.033141861            3 
  382000    1.2036229   -6.8077629    145.80087  0.031806472   0.03313015            2 
  383000    1.2144356   -6.8339234    146.03135  0.031773575  0.033119269            2 
  384000    1.2253193   -6.8570735    146.30987  0.031751274  0.033107203            2 
  385000    1.1813036    -6.888406    146.05724  0.031614121  0.033094988            2 
  386000     1.190404   -6.8485457    146.54448  0.031637408  0.033082755            2 
  387000    1.1932302   -6.8704132    147.32301  0.031723302  0.033071309            1 
  388000    1.1906798   -6.8320923    147.83591  0.031751699  0.033060256            3 
  389000    1.1787343   -6.8197834    148.32575   0.03177501  0.033049202            5 
  390000    1.2070773   -6.8317911    148.57153  0.031746054  0.033038924            2 
  391000    1.1972706   -6.8532101    148.68309  0.031688638  0.033028472            2 
  392000    1.1839602   -6.8184559    149.76449  0.031837689  0.033017285            6 
  393000    1.1696255   -6.8523392    149.94792  0.031795572  0.033006351            2 
  394000    1.2013775   -6.9051413    149.74319  0.031671571   0.03299448            3 
  395000    1.2032469    -6.840304    149.99683  0.031644902  0.032982988            2 
  396000    1.1873118   -6.8661271    149.87948  0.031540294  0.032970765            3 
  397000    1.1641009   -6.8277212    151.04384  0.031705255  0.032958117            3 
  398000    1.1817945    -6.842738    151.26757  0.031672439   0.03294636            6 
  399000    1.1763342   -6.8671054    150.96623  0.031530124  0.032935016            1 
  400000    1.1723944   -6.8647636    151.94643  0.031655506  0.032924057            3 
  401000    1.1952629   -6.8151258    152.44551   0.03168028   0.03291419            2 
  402000    1.2008878   -6.8288145    153.14029  0.031745499  0.032904461            3 
  403000    1.2061855   -6.8442724    152.87463  0.031611792  0.032894977            2 
  404000    1.1807865   -6.9000645    153.22459  0.031605731  0.032884138            2 
  405000    1.1710976   -6.8457522     154.3127  0.031751585  0.032873846            1 
  406000    1.1859689   -6.8222953    154.28942  0.031668601  0.032863978            2 
  407000    1.2052517   -6.8199739    155.21525  0.031780355  0.032854565            3 
  408000    1.1806916   -6.8713461    155.30619  0.031721035  0.032845232            3 
  409000    1.2099527   -6.8570492    155.98967  0.031782737  0.032836209            4 
  410000    1.1918027   -6.8598825    156.01898  0.031711176  0.032826991            4 
  411000    1.1788695   -6.8925193    156.20742  0.031672226  0.032817157            2 
  412000     1.203324   -6.8889722    156.48266  0.031651024  0.032807706            2 
  413000     1.203808    -6.909266    156.67117  0.031612423   0.03279825            4 
  414000    1.1620159   -6.8729107    157.70345   0.03174385  0.032789389            2 
  415000    1.2096054   -6.9086586    157.66107   0.03165885  0.032780765            1 
  416000    1.1847844   -6.8593932    158.33962  0.031718674  0.032772384            1 
  417000    1.1890978   -6.8678743    158.42225  0.031659123    0.0327635            2 
  418000    1.1579403   -6.8530594    158.79008  0.031656714  0.032754781            1 
  419000      1.20082   -6.8415894    159.26875  0.031676361  0.032745908            1 
  420000    1.1867847   -6.8973018    159.31385   0.03160989  0.032736962            2 
  421000    1.1734194   -6.8830153    159.80765  0.031632552  0.032728459            3 
  422000    1.1780026   -6.9089079     159.7092  0.031538151  0.032719043            4 
  423000    1.1626943   -6.8397389    160.37932   0.03159561  0.032709665            2 
  424000    1.1931352   -6.8199217    160.94605  0.031632477  0.032700338            2 
  425000    1.1714311   -6.8167075    161.59756  0.031685796  0.032691508            1 
  426000    1.1881594   -6.8680992    161.21843  0.031537252  0.032682235            4 
  427000    1.1853224   -6.8427435     161.7957  0.031576054  0.032673674            7 
  428000    1.1655323   -6.8478656    162.12626  0.031566639  0.032664006            3 
  429000    1.1927031   -6.9158382    162.04121  0.031476537  0.032654734            2 
  430000    1.1991266   -6.8996986    162.80907  0.031552145  0.032645573            2 
  431000    1.1890745   -6.8385295     163.3385  0.031581302  0.032636013            2 
  432000     1.180505   -6.8440683    163.28862  0.031498577  0.032626009            2 
  433000    1.1834551   -6.8468144    163.22114  0.031412845  0.032615479            2 
  434000    1.1896793   -6.8575958    164.26429  0.031540763  0.032605234            3 
  435000    1.1741235   -6.8527014    164.26124  0.031467671  0.032595465            4 
  436000    1.1837945   -6.8837752    164.00573  0.031346662  0.032584682            2 
  437000     1.175439   -6.8494101    165.08222   0.03148021  0.032574291            8 
  438000      1.17553   -6.8594753    165.00775  0.031394168  0.032563069            2 
  439000    1.1886848    -6.852566    165.96717  0.031504778  0.032552587            2 
  440000     1.168572   -6.8678079    166.08455  0.031455407  0.032542011            4 
  441000    1.1749748   -6.8534631    166.25196  0.031415714  0.032531472            5 
  442000    1.1665843   -6.8577862     166.8302  0.031453657  0.032521509            5 
  443000    1.1683098   -6.8406765    167.25267  0.031462128  0.032512496            2 
  444000    1.1562486   -6.8199678    168.16436   0.03156238  0.032503068            2 
  445000    1.2055993   -6.8430723    167.95931  0.031453055  0.032493951            3 
  446000    1.1814959   -6.8732073    168.22958   0.03143303  0.032483183            6 
  447000    1.1886558   -6.8653582    168.33034  0.031381495  0.032472438            2 
  448000    1.1719561   -6.8598985    169.46997  0.031523431  0.032462405            4 
  449000    1.1743961   -6.9038582    168.51353  0.031275711  0.032451902            2 
  450000    1.1702565   -6.9071328    169.03831  0.031303391  0.032441455            2 
  451000    1.1530996   -6.8433962    169.76667  0.031368563  0.032430845            3 
  452000    1.1902764   -6.8221275     170.4118  0.031418104  0.032420455            5 
  453000    1.1802805   -6.8841916    170.32069  0.031331989  0.032410275            2 
  454000    1.1773604   -6.8703121    169.98379  0.031201136  0.032399689            2 
  455000    1.1575822    -6.900776    170.65954  0.031256326  0.032389089            2 
  456000    1.1862161   -6.8934164    170.95713  0.031242166  0.032378281            4 
  457000     1.171771   -6.8892303    171.30732  0.031237658   0.03236705            2 
  458000    1.1850199   -6.8969074    172.16724  0.031325917  0.032356099            3 
  459000    1.1795355   -6.8771237    171.99259  0.031225961  0.032345589            3 
  460000    1.1900486   -6.9055156    172.43833  0.031238827  0.032335093            7 
  461000    1.1764284   -6.8653963    172.73503  0.031224698  0.032324709            3 
  462000    1.1552153   -6.8824385    173.42036  0.031280728   0.03231452            3 
  463000    1.1761671   -6.8957675     174.3995  0.031389398  0.032304261            3 
  464000    1.1542065   -6.8730208    174.37327  0.031317039   0.03229438            3 
  465000    1.2017553   -6.8750298    174.86821  0.031338388  0.032285081            3 
  466000    1.1720202   -6.9018029    174.95089  0.031285925  0.032276002            2 
  467000    1.1694181   -6.8357606    175.87831  0.031384424  0.032266877            3 
  468000    1.1637181   -6.9544862    175.39191  0.031230753   0.03225768            2 
  469000    1.1936624   -6.8571097    176.74361  0.031404337  0.032248652            7 
  470000    1.1628184   -6.8655278    176.55426  0.031303947  0.032240076            2 
  471000    1.1651801   -6.8630261    176.75956  0.031273807  0.032230619            4 
  472000    1.1834784    -6.814764     177.0613  0.031260823  0.032221026            7 
  473000    1.1730684     -6.84742    177.20653  0.031220319  0.032211294            3 
  474000    1.1962766   -6.8935815    177.47339   0.03120137  0.032201474            2 
  475000     1.176862     -6.89654    177.69022  0.031173723  0.032191218            3 
  476000    1.1794599    -6.853438    178.40999  0.031234242   0.03218071            1 
  477000    1.1568152   -6.9097873    178.04493  0.031104985  0.032170155            1 
  478000    1.1822593   -6.8429103    178.83827   0.03117822  0.032159746            3 
  479000    1.1807586   -6.8312266    179.88194    0.0312947  0.032150313            3 
  480000    1.1956977   -6.8438064    179.73796  0.031204507  0.032141639            3 
  481000    1.1591101   -6.9008819    179.62379  0.031119853  0.032132078            4 
  482000    1.1741093   -6.8789638    180.42817  0.031194358  0.032122926            3 
  483000    1.1754451   -6.8860813    180.00839  0.031057347  0.032113294            4 
  484000    1.1793673   -6.8875876    181.37801  0.031228996  0.032102965            4 
  485000    1.2080438   -6.9196265    180.66218  0.031041612   0.03209286            3 
  486000    1.1775089   -6.8892305    181.14166  0.031059955  0.032082714            2 
  487000    1.1900492   -6.9072401    181.81572  0.031111519  0.032073107            2 
  488000    1.1702524   -6.8701848    182.44997  0.031156074   0.03206323            2 
  489000    1.1694737   -6.8659602    182.85594  0.031161545  0.032053802            1 
  490000    1.1877068   -6.8199752    183.79312  0.031257334  0.032045345            1 
  491000    1.1483422   -6.8653831    183.66815  0.031172463  0.032036946            4 
  492000    1.1814714   -6.8873265    183.83558  0.031137462  0.032027954            3 
  493000    1.1757761   -6.8816125    185.02548  0.031275436  0.032018578            2 
  494000    1.1456786   -6.8891794    184.79755  0.031173676  0.032009327            3 
  495000    1.1509777   -6.8236905    184.90016  0.031127974  0.032001151            2 
  496000    1.1719348   -6.8967736    184.93711  0.031071423  0.031992761            3 
  497000     1.168967   -6.8898473    185.88988  0.031168658  0.031983829            1 
  498000    1.2052021   -6.9080494    185.72172  0.031077931  0.031974876           10 
  499000    1.1777852    -6.906433     186.2726  0.031107649  0.031965785            5 
  500000    1.1591078    -6.933775    186.20516  0.031034193   0.03195643            5 
  501000    1.1929745   -6.8834623    186.51704  0.031024125  0.031947071            2 
  502000     1.177398    -6.882211    187.25894  0.031085482  0.031938136            4 
  503000    1.1587859   -6.8809726    187.61748  0.031083082  0.031929393            1 
  504000    1.1610235   -6.8830791    188.66681  0.031194909  0.031921193            3 
  505000    1.1449988   -6.9299375    187.86531  0.031000876  0.031912552            7 
  506000    1.1879358   -6.9217048    187.92941  0.030950167  0.031903649            3 
  507000    1.1870537   -6.8678117    189.14891  0.031089565  0.031894767            2 
  508000    1.1833096   -6.9065002    188.93903  0.030993935  0.031885474            1 
  509000     1.171978   -6.9325844    189.33834  0.030998419  0.031875854            3 
  510000     1.142626   -6.9217352    189.80554  0.031013977  0.031865939            1 
  511000    1.1612606   -6.9104535    189.87355  0.030964375  0.031855705            3 
  512000    1.1764201   -6.9104994    190.05319  0.030933137  0.031845699            2 
  513000    1.1770278    -6.915129    190.43762  0.030935286  0.031835919            6 
  514000    1.1691752   -6.9270691    190.64916  0.030909397  0.031826225            6 
  515000    1.1578001   -6.8905895    191.53593  0.030992869  0.031816486            2 
  516000    1.1744148   -6.9119638    191.72249  0.030962935  0.031806733            2 
  517000    1.1477262    -6.876316     192.2931  0.030995019   0.03179714            1 
  518000    1.1642593   -6.9167437    192.51454  0.030970808  0.031788578            1 
  519000     1.181407   -6.8920302    193.19455  0.031020319   0.03178046            2 
  520000    1.1683606   -6.8629911     193.9118  0.031075609  0.031772628            5 
  521000    1.1467659   -6.8947315    193.23422  0.030907584  0.031763947            2 
  522000    1.1481253   -6.8743405     193.8244  0.030942593  0.031755436            5 
  523000    1.1774431   -6.8606009     194.9339  0.031060214  0.031746408            2 
  524000    1.1421285   -6.9286625    194.06838  0.030863292  0.031737152            3 
  525000    1.1771965   -6.9079371    194.51695  0.030875707  0.031728013            2 
  526000    1.1529146    -6.893754    194.91282  0.030879724  0.031719545            2 
  527000    1.1743474   -6.9304536    195.27853  0.030878958  0.031710248            6 
  528000    1.1781527   -6.9536533    195.18164  0.030805182  0.031701041            3 
  529000    1.1867655   -6.8296043    196.74334  0.030992965  0.031692144            5 
  530000    1.1696135   -6.8820954    196.65348  0.030920358  0.031683271            2 
  531000      1.17337   -6.9202609    196.61191  0.030855604  0.031674335            4 
  532000    1.1721343   -6.9376984    197.65686  0.030961287  0.031666004            1 
  533000    1.1653772   -6.9369088    197.77827  0.030922181  0.031657798            3 
  534000    1.1582433   -6.9009456    198.15371  0.030922864  0.031649846            3 
  535000    1.1669177   -6.9208021    198.10551  0.030857557  0.031641436           10 
  536000    1.1871654   -6.9193884    198.55325  0.030869598  0.031633001            1 
  537000     1.193486   -6.9076234    199.32637  0.030932087  0.031624677            2 
  538000    1.1686486   -6.8676038    200.24166  0.031016366  0.031616591            3 
  539000    1.1322625   -6.9272751    199.77125  0.030886093  0.031608897            6 
  540000    1.1616133   -6.9008106    199.66345  0.030812261  0.031600994            3 
  541000    1.1783233   -6.9848689    199.68612  0.030758799  0.031592986            3 
  542000    1.1702756    -6.900327    200.86339  0.030883054  0.031584729            2 
  543000    1.1765978   -6.9213021    202.04994  0.031008278  0.031576891            2 
  544000    1.1531825   -6.9483431    202.53292  0.031025264  0.031569507            3 
  545000    1.1712689   -6.9364999    201.93568  0.030877015   0.03156269            3 
  546000     1.152492   -6.9024803    202.88463  0.030965298  0.031555776            4 
  547000    1.1711918   -6.8869839    203.77794  0.031044781  0.031549247            2 
  548000    1.1848552   -6.8970072    204.02203  0.031025248    0.0315427            4 
  549000    1.1606729   -6.9052114    203.77147  0.030930703   0.03153622            2 
  550000    1.1676153   -6.9186509    203.70907  0.030865011  0.031529508            3 
  551000    1.1860172   -6.9713125    203.61211  0.030794331  0.031522714            3 
  552000    1.1598652   -6.8886362    204.58629  0.030885612  0.031515489            3 
  553000    1.1775051   -6.9452694      204.646  0.030838758  0.031508054            3 
  554000    1.1507268   -6.9493404     205.7176  0.030944284  0.031500461            2 
  555000    1.1632726   -6.9686716    204.94524  0.030772558  0.031493002            2 
  556000    1.1691192   -6.9123456    205.75875  0.030839141  0.031485509            3 
  557000    1.1588827   -6.9313215    206.28381   0.03086233  0.031478582            3 
  558000     1.152609   -6.9500152    205.91022  0.030751227   0.03147174            5 
  559000    1.1772216   -6.8990662    207.63458  0.030953277  0.031464819            3 
  560000     1.199705   -6.9730338    206.46592  0.030724095  0.031458029            4 
  561000    1.1585757   -6.9372551    207.03534  0.030753913  0.031451081            3 
  562000    1.1657037   -6.8552215    208.75722  0.030954511  0.031444179            3 
  563000    1.1681272   -6.9291543    208.82368  0.030909367   0.03143797            3 
  564000     1.159129   -6.8896767    208.85278  0.030858862  0.031431142            2 
  565000    1.1539977   -6.9328609     208.6738  0.030777847  0.031424527            3 
  566000    1.1645545   -6.9329028    209.94774  0.030911033  0.031418029            3 
  567000     1.152658   -6.9214283    209.74414  0.030826593  0.031410758            5 
  568000    1.1600777   -6.9176143     209.1053  0.030678595  0.031403307            3 
  569000    1.1727861   -6.9196989    209.20661  0.030639516  0.031395326            2 
  570000    1.1260498   -6.9302495    210.45768  0.030768667  0.031387553            2 
  571000     1.151181   -6.9933874    209.91627  0.030635766  0.031379809            2 
  572000    1.1671141    -6.969544    209.67867  0.030547592  0.031370759            3 
  573000    1.1528156   -6.9126391    210.44776  0.030606132  0.031362053            3 
  574000    1.1552465   -6.8965872    211.73793  0.030740118  0.031353695            6 
  575000    1.1563762   -6.9164576    211.33452  0.030628191  0.031345549            2 
  576000    1.1628352   -6.9053163    212.30437  0.030715331  0.031337567            3 
  577000    1.1615987   -6.9149213    212.00722  0.030619182  0.031329058            5 
  578000    1.1590684   -6.9694073    211.95092   0.03055809   0.03132005            4 
  579000    1.1708031   -6.9503885    211.92682  0.030501845  0.031311184           10 
  580000    1.1591012   -6.9173235    213.01555  0.030605682  0.031302309            3 
  581000    1.1323468   -6.9199219    214.22467   0.03072643  0.031293778            6 
  582000    1.1539896   -6.9124276    213.79292  0.030611815  0.031285073            5 
  583000    1.1475899   -6.9803096    213.46899  0.030513006  0.031276057            4 
  584000    1.1531442   -6.9311289    214.00678  0.030537497  0.031266778            3 
  585000    1.1659661   -6.9416211    214.38297  0.030538885  0.031257849            3 
  586000    1.1684532   -6.9721833    214.56833   0.03051313  0.031248723            3 
  587000    1.1792627   -6.9412318    214.87995  0.030505387  0.031239534            1 
  588000    1.1616237   -6.9420254    214.49711  0.030399251  0.031230703            7 
  589000    1.1952423   -6.9556609    214.85191  0.030397837  0.031221584            1 
  590000    1.1705561   -6.9601399    214.88022  0.030350313  0.031212127            3 
  591000    1.1528854   -6.9186632     216.1912  0.030483812  0.031203578            6 
  592000    1.1535707   -6.9295804    216.13412  0.030424284  0.031194616            2 
  593000    1.1645462   -6.9972397      216.854  0.030474143  0.031185731            3 
  594000    1.1710266   -6.9393958    218.17303  0.030607888  0.031176942            3 
  595000    1.1386907   -6.9733437    217.14868  0.030412981  0.031168147            2 
  596000    1.1227036    -6.962299    217.12095  0.030358075  0.031158702            3 
  597000    1.1525763   -6.9712487    217.12083  0.030307206  0.031149771            2 
  598000    1.1589338   -6.9061477    218.49389  0.030447867  0.031140551            2 
  599000    1.1765186   -6.9053088    219.01566  0.030469624  0.031131893            3 
  600000    1.1731183   -6.9661674    218.54884  0.030354006   0.03112304            3 
  601000    1.1436303   -6.9031494     219.1296  0.030384027  0.031114335            1 
  602000    1.1665119   -6.9447248    219.55943  0.030393055  0.031106238            3 
  603000    1.1580836   -6.9609662    219.62017  0.030351047  0.031097689            2 
  604000    1.1657114   -6.9345823    221.17086  0.030514744  0.031089699            2 
  605000    1.1425112   -6.9367701    220.56121  0.030380332  0.031081346            1 
  606000     1.128074   -6.9217005    221.68453  0.030484671  0.031073491            7 
  607000    1.1441513   -7.0008169    220.95322   0.03033405    0.0310656            2 
  608000    1.1647104   -6.9687531    221.39302  0.030344438  0.031057332            2 
  609000    1.1396684   -6.9251224    223.97933  0.030648512   0.03104973            2 
  610000     1.130093   -6.9142983    223.38667  0.030517304  0.031042448            2 
  611000    1.1455521   -6.9431916    223.05404  0.030421991  0.031034799            2 
  612000    1.1552218   -6.9738499    222.65912  0.030318508  0.031027085            2 
  613000    1.1343697   -6.9067918    223.71184  0.030412159  0.031019052            2 
  614000    1.1795422   -6.9571527    224.56243  0.030478071  0.031011417            5 
  615000    1.1399368   -6.9645056    224.99723  0.030487429  0.031004183            4 
  616000    1.1368208   -6.9464057    224.85569   0.03041879  0.030996451            3 
  617000    1.1498285   -6.9589465    225.31023  0.030430879  0.030989063            2 
  618000    1.1402527   -6.9242464    225.53851  0.030412421  0.030981941            7 
  619000    1.1528545   -6.9466635    226.33606  0.030470659   0.03097493            6 
  620000    1.1485357   -6.9635138    226.25018   0.03040997  0.030968393            9 
  621000    1.1711876   -6.8952671    227.33026  0.030505939  0.030961738            2 
  622000    1.1543526   -6.9814633    226.84576  0.030391983  0.030954679            2 
  623000    1.1486764   -6.9699532    227.33051  0.030408041  0.030947681            3 
  624000     1.157502   -6.9569253    228.55735   0.03052315  0.030940791            2 
  625000     1.149873   -6.9338709    229.38448  0.030584597  0.030934127            4 
  626000    1.1481552   -6.9118404    229.56372    0.0305596  0.030927804            4 
  627000    1.1323001   -6.9362868    228.82073  0.030412112  0.030921221            6 
  628000    1.1292206   -6.9601417    228.97214  0.030383776  0.030914929            3 
  629000    1.1452401   -6.9647624    229.26098  0.030373739  0.030908129            5 
  630000    1.1676234   -6.9785766    228.77645  0.030261436  0.030901429            3 
  631000     1.157641   -6.9374638    231.04637  0.030513256  0.030894978            3 
  632000    1.1370031   -6.9887559    231.37976  0.030508935  0.030888645            6 
  633000    1.1574884   -6.9772787    231.44222   0.03046896  0.030883027            2 
  634000    1.1428576   -6.9573476    231.48255  0.030426203  0.030877117            3 
  635000     1.156749   -6.9700853    232.56501  0.030520342  0.030871485            2 
  636000    1.1507331   -6.9777061    232.25316  0.030431493  0.030865816            2 
  637000    1.1458871   -6.9324638    233.30589   0.03052144  0.030860329            2 
  638000    1.1362594   -6.8964674    233.71853  0.030527499  0.030855269            2 
  639000    1.1733546    -6.956094    233.67456   0.03047399  0.030849772            5 
  640000     1.178193   -6.9497546    234.25505   0.03050196  0.030844058            5 
  641000    1.1361213    -6.974531    234.94284  0.030543791  0.030838455            3 
  642000    1.1680036   -6.9606104    235.43859  0.030560565  0.030833255            2 
  643000    1.1361278   -6.9394559    236.26326  0.030619915  0.030828515            3 
  644000    1.1733061    -7.005583    234.96033   0.03040377  0.030823285            6 
  645000     1.156206   -6.9325923    235.95672  0.030485364  0.030817992            2 
  646000    1.1415633    -6.949537    235.60561   0.03039288  0.030812397            2 
  647000    1.1207903   -6.9502242    235.87936  0.030381165  0.030806682            3 
  648000    1.1606245   -6.9330005    236.76789  0.030448546  0.030801177            2 
  649000    1.1458483   -6.9467453    236.92297  0.030421541  0.030795172            3 
  650000    1.1323379   -6.9612203    236.53425  0.030324903  0.030789839            4 
  651000    1.1594672   -6.9802339    238.28063  0.030501872  0.030783573            3 
  652000    1.1539434   -7.0102018    237.30446  0.030330325  0.030777303            2 
  653000    1.1604158   -7.0207516    238.11343  0.030387115  0.030771123            3 
  654000    1.1571595   -6.9622771    238.54402  0.030395518  0.030765082            3 
  655000    1.1707353   -6.9552516     238.8957  0.030393855  0.030759162            5 
  656000    1.1520089   -6.9846176    239.12561  0.030376729  0.030753593            3 
  657000    1.1618837   -6.9901832    239.63178  0.030394696  0.030747939            2 
  658000    1.1603235    -7.013509    239.42812   0.03032271  0.030742378            2 
  659000    1.1481842   -6.9794367    239.86238  0.030331611  0.030736718            4 
  660000    1.1310054   -6.9857056     240.7434  0.030396894   0.03073083            7 
  661000    1.1442347   -6.9513017    241.88496  0.030494826  0.030726138            2 
  662000    1.1294141   -6.9298317    243.03861  0.030593984  0.030722102            2 
  663000     1.137792   -6.9570633     242.5621  0.030487946  0.030717756            3 
  664000     1.174838   -6.9650652    241.85304  0.030353043  0.030712906            3 
  665000    1.1309075   -6.9523861    243.00561  0.030451831   0.03070749            2 
  666000    1.1751195   -6.9989456    242.40408  0.030330841  0.030701787            3 
  667000    1.1665435   -6.9558594    243.36771  0.030405761  0.030695879            2 
  668000    1.1375572   -6.9531436    243.04573  0.030320075  0.030690098            6 
  669000     1.141402   -6.9227204    243.28042  0.030303989  0.030684046            1 
  670000    1.1286998   -6.9387161    243.78974  0.030322107  0.030677853            1 
  671000    1.1322269   -6.9257639    244.08516  0.030313606  0.030671617            2 
  672000    1.1543288   -6.9558993    243.93715  0.030250142  0.030665621            4 
  673000     1.137442   -6.9694172    244.07625  0.030222418  0.030659875            5 
  674000    1.1220798   -7.0084548    244.60724  0.030243229  0.030653608            4 
  675000    1.1317618   -7.0273961     244.6927  0.030208975  0.030647376            3 
  676000     1.140362   -6.9933303    245.37753  0.030248709  0.030641558            2 
  677000    1.1332364   -6.9552186    246.43541  0.030334246  0.030635464            4 
  678000     1.138616    -6.923782    245.87721  0.030220895   0.03062961            3 
  679000     1.162149   -7.0025897    246.66568  0.030273156  0.030624028            3 
  680000    1.1577267   -6.9525457     247.4833  0.030328836  0.030618138            7 
  681000    1.1597484   -6.9626199    247.48186  0.030284124  0.030612386            1 
  682000    1.1744431   -6.9994073    247.61537  0.030256032   0.03060663            4 
  683000     1.167394   -7.0177133    247.99263  0.030257764  0.030600828            2 
  684000    1.1625795     -6.97778    248.08049  0.030224231  0.030594898            6 
  685000    1.1493732    -6.974403     248.7464   0.03026112  0.030588997            4 
  686000    1.1647635   -6.9538241    249.51023  0.030309794  0.030583429            3 
  687000    1.1416751    -7.047844    248.79324  0.030178705  0.030577901            2 
  688000     1.148166    -6.995149    249.40198  0.030208574  0.030572079            3 
  689000    1.1270025   -6.9818927    249.90254  0.030225271  0.030566495            2 
  690000    1.1182902   -6.9826295    251.38585   0.03036061  0.030560932            2 
  691000    1.1243095   -6.9709553    251.63034  0.030346158  0.030555456            3 
  692000    1.1147041   -6.9790535    251.15709  0.030245314   0.03055014            3 
  693000    1.1267592   -6.9487116    252.16165  0.030322468  0.030544988            2 
  694000    1.1169422   -6.9726058    252.79199  0.030354466  0.030540115            3 
  695000    1.1226675   -7.0026525    252.96962  0.030332088  0.030534961            2 
  696000    1.1415953    -6.996313    252.06789  0.030180543  0.030530133            2 
  697000    1.1222865   -6.9604329    252.94551  0.030242169  0.030524619            3 
  698000    1.1409649   -6.9696546    253.17792   0.03022659  0.030519554            4 
  699000     1.134952    -6.997013    253.86117  0.030264803  0.030514443            2 
  700000    1.1256315   -7.0023906    253.48845  0.030177196  0.030509518            3 
  701000    1.1284012   -7.0067831    254.43902   0.03024715  0.030504167            2 
  702000    1.1494591   -6.9595417    254.87551  0.030255877  0.030499103            2 
  703000    1.1272245   -6.9187581    256.24309  0.030374951  0.030494325            3 
  704000    1.1258985   -6.9706318    256.33018  0.030342114  0.030489787            2 
  705000    1.1247784   -6.9643979     255.4506  0.030195107  0.030485066            2 
  706000    1.1455891   -7.0269129    255.46937  0.030154552  0.030479979            3 
  707000    1.1632048   -6.9807891    256.12668  0.030189378  0.030474555            3 
  708000    1.1650691   -7.0233045    255.88161  0.030117892  0.030469303            3 
  709000    1.1465307   -7.0053769     256.4881  0.030146697  0.030463936            2 
  710000    1.1331474    -6.970525    257.90437  0.030270466  0.030458575            3 
  711000    1.1499798   -7.0388932    257.04919   0.03012766  0.030453311            5 
  712000    1.1468393   -7.0113497    257.44181  0.030131298  0.030447867            5 
  713000    1.1170931   -6.9758679    258.01427  0.030155945  0.030442483            1 
  714000    1.1456738   -7.0118797    258.49406  0.030169708  0.030437383            2 
  715000    1.1604496   -6.9522721    258.79209  0.030162248  0.030432233            2 
  716000    1.1329591   -6.9828855    259.52999  0.030206005  0.030427174            2 
  717000    1.1620678   -6.9736881    259.66705  0.030179805  0.030422062            3 
  718000    1.1284437   -7.0107839    259.62286  0.030132644  0.030417087            2 
  719000    1.1347125   -7.0019524     259.8886  0.030121534  0.030412087            4 
  720000    1.1677994   -6.9889683    260.45208  0.030144917  0.030406952            3 
  721000    1.1382479   -6.9764721    259.69306  0.030015379  0.030401116            5 
  722000    1.1518571   -7.0108628     260.1664   0.03002844  0.030395464            2 
  723000    1.1225311   -6.9913781    261.03719  0.030087274  0.030390115            2 
  724000    1.1479888   -6.9702664    261.29736  0.030075663  0.030384419            5 
  725000    1.1268069   -6.9917328    260.66426  0.029961409  0.030378527            2 
  726000    1.1580343   -7.0107409    261.46843  0.030012446  0.030372321           10 
  727000    1.1209161   -7.0151497    261.77636   0.03000646  0.030366183            6 
  728000    1.1648981   -7.0051177    261.91192   0.02998076  0.030359786            4 
  729000    1.1688585      -7.0111    262.37759  0.029992866  0.030353493            3 
  730000    1.1318081   -7.0395236    261.50177    0.0298518  0.030346982            3 
  731000    1.1448952   -6.9947745    262.80715  0.029959775  0.030340401            2 
  732000    1.1299428   -6.9986321    262.24609  0.029854974  0.030333781            3 
  733000    1.1222091   -6.9997777    262.51809  0.029845167  0.030326983            7 
  734000    1.1011758   -7.0128674    262.79957  0.029836464  0.030320003            2 
  735000    1.1557941   -6.9842688    263.31664  0.029854494   0.03031303            2 
  736000    1.1138576   -6.9919606    264.32083   0.02992763  0.030306256            2 
  737000    1.1414801   -7.0523179    263.25908  0.029766969  0.030299734            5 
  738000    1.1387339   -6.9849507     264.5813  0.029875937  0.030292768            1 
  739000    1.1198928   -6.9727903    264.90439  0.029871943  0.030286055            3 
  740000    1.1262352    -6.997348      264.313  0.029764977  0.030278775            3 
  741000    1.1510736   -7.0388636    265.14827  0.029818744  0.030271529            2 
  742000    1.1313845   -6.9926156    265.39203  0.029805933   0.03026436            6 
  743000    1.1287718   -7.0159217    264.97435  0.029718972  0.030257347            2 
  744000    1.1338575   -6.9633754    266.21552  0.029818047  0.030251069            2 
  745000    1.1233081   -7.0127563    267.11292  0.029878403  0.030244283            3 
  746000    1.1041609   -7.0081325    266.65322     0.029787   0.03023776            4 
  747000    1.1342972   -6.9608549    267.86232  0.029882008  0.030231084            2 
  748000     1.157398   -7.0277726    267.24879  0.029773706  0.030224578            6 
  749000    1.1312602   -7.0304421    266.84181  0.029688675  0.030217951            3 
  750000     1.161178    -6.989702    268.24437   0.02980493  0.030211693            5 
  751000    1.1672488   -6.9753841    268.30684  0.029772174  0.030205108            2 
  752000    1.1044894   -7.0119787    267.73227  0.029668913  0.030198267            2 
  753000    1.1232554   -6.9489317     269.7881  0.029857027  0.030191609            2 
  754000    1.1513801   -7.0411063    268.99398  0.029729662   0.03018482            3 
  755000    1.1301829   -7.0083868     269.5749  0.029754404  0.030177873            3 
  756000    1.1179176   -7.0105704    269.48344  0.029704965  0.030171008            1 
  757000    1.1157588    -7.062814    269.20965  0.029635584   0.03016365            5 
  758000    1.1136778   -7.0512865    269.25981  0.029602002  0.030156084            3 
  759000    1.1347012   -7.0370044    269.45198    0.0295841  0.030148396            6 
  760000    1.1428258   -7.0268594    270.87328  0.029701017  0.030140732            4 
  761000    1.1297214   -7.0323731    269.94716  0.029560574  0.030133127            3 
  762000    1.1113376   -6.9642446    271.03196  0.029640415  0.030125662            4 
  763000     1.119046   -7.0046148    271.94774  0.029701588  0.030118597            4 
  764000    1.1213634   -7.0352395    270.45777  0.029500193  0.030111061            2 
  765000    1.1324173   -6.9820238    272.65446  0.029700921   0.03010371            4 
  766000    1.1193897   -7.0251892     271.7802  0.029567036   0.03009642            3 
  767000    1.1140971   -6.9728868    273.12912  0.029675046  0.030089221            2 
  768000    1.1227089   -6.9738081    273.26439  0.029651083  0.030082054            2 
  769000    1.1304952   -7.0002044    273.29731  0.029616093  0.030074689            3 
  770000    1.1445317   -7.0402754    272.71275  0.029514367   0.03006732            4 
  771000    1.1192288    -6.982082    274.22911  0.029639982   0.03005966            2 
  772000    1.1413031   -7.0385351    273.61066   0.02953483   0.03005186            3 
  773000    1.1391758   -6.9894481    274.44846  0.029586941  0.030044537            2 
  774000    1.1073119   -7.0179066     274.1359  0.029515063  0.030037228           16 
  775000    1.1346056   -7.0612967    275.05187   0.02957547   0.03003003            9 
  776000    1.1191628    -7.020641    275.00506  0.029532331  0.030022634            3 
  777000     1.132869    -7.014996    275.60021  0.029558153  0.030015456            2 
  778000    1.1291214   -6.9999539    276.65521  0.029633163  0.030008406            2 
  779000    1.1127017   -7.0298378    275.59957  0.029482197  0.030001375            2 
  780000    1.1208023   -7.0437363    275.63763  0.029448465  0.029994303            3 
  781000    1.1471488   -7.0192923    277.88762  0.029650834   0.02998744            2 
  782000    1.1282864   -7.0054277    277.87389  0.029611455  0.029980731            6 
  783000    1.1467863   -7.0058443    278.11118  0.029598891  0.029973848            2 
  784000    1.1135416   -6.9815563    278.72659   0.02962655  0.029967135            8 
  785000     1.140276   -7.0525508    278.31128  0.029544722   0.02996005            2 
  786000    1.1121074   -7.0259538    278.37987  0.029514405  0.029952854            8 
  787000    1.1247682   -7.0535885    278.72936   0.02951391   0.02994588            3 
  788000    1.1481994   -6.9710785    279.93601  0.029604062  0.029938729            2 
  789000     1.141418   -6.9978583    279.33613  0.029503182  0.029931624            5 
  790000    1.1530019   -6.9988552    279.61172  0.029494907  0.029924583            3 
  791000    1.1181467   -7.0376639    279.07728  0.029401315   0.02991712            3 
  792000     1.136033   -7.0269524    279.41696  0.029399933  0.029909978            2 
  793000    1.1232382    -7.005368    280.36915   0.02946292   0.02990264            4 
  794000    1.1264963   -7.0208251    280.48036  0.029437485  0.029895235            5 
  795000     1.097153   -7.0375631    281.40972  0.029497874  0.029887929            3 
  796000    1.1153905    -7.010629     281.0275  0.029420802  0.029880647            4 
  797000    1.1406111   -7.0224229    281.49826   0.02943311  0.029872967            1 
  798000    1.1054977   -7.0274287    280.83348  0.029326804  0.029865501            2 
  799000    1.1340743    -7.010285     282.7352  0.029488444  0.029858137            2 
  800000    1.1033191   -7.0268353    282.12691   0.02938822   0.02985085            3 
  801000    1.1311136    -7.059469    281.98261  0.029336518  0.029843492            5 
  802000    1.1241273    -7.030978    282.35578  0.029338713  0.029835992            2 
  803000     1.107815   -7.0506175    282.50332  0.029317488  0.029828432            2 
  804000    1.1252893   -6.9644202    284.96863   0.02953655  0.029821173            2 
  805000    1.1249866   -7.0005976    283.75577  0.029374304  0.029813932            3 
  806000     1.129525   -7.0268848    283.48373  0.029309732  0.029806287            3 
  807000    1.1078993   -7.0079435    283.48111  0.029273143  0.029798309            3 
  808000    1.1603261   -7.0152429    284.40667  0.029332371  0.029790692            4 
  809000    1.1249015   -7.0070348    284.56349  0.029312267  0.029783021            3 
  810000    1.1273891   -7.0317077    283.64616  0.029181704  0.029775251            4 
  811000    1.1034991   -7.0495787    284.65374  0.029249254  0.029767414            5 
  812000    1.1121743   -7.0555086    284.85975  0.029234375  0.029759668            3 
  813000    1.1180555   -7.0247653    286.74238  0.029391387  0.029752343            2 
  814000    1.1398969   -7.0035106    286.45154  0.029325506  0.029745043            3 
  815000    1.1329235   -7.0337907    286.37965  0.029282173  0.029737935            3 
  816000      1.10775   -7.0048372    287.47301  0.029357946  0.029730734            4 
  817000    1.1243169   -7.0442689    286.13711  0.029185752  0.029723462            1 
  818000    1.1169822   -7.0946007    286.40463  0.029177326  0.029715724            3 
  819000    1.1509313   -7.0420991    286.69751  0.029171501  0.029708027            6 
  820000    1.1207478   -7.0184552    286.82992  0.029149383  0.029700682            3 
  821000    1.1371032    -7.074473     286.5368  0.029084125  0.029693124            4 
  822000    1.1356859    -7.018606    288.01491  0.029198592   0.02968548            3 
  823000    1.1419288   -7.0560781    287.63955  0.029125106  0.029678017            3 
  824000     1.113688    -7.045807    288.44928  0.029171651  0.029670812            2 
  825000     1.135184    -6.987597    289.39017   0.02923133  0.029663512            5 
  826000    1.0979277   -7.0409127    289.00666   0.02915725   0.02965601            3 
  827000    1.1144753   -7.0220276    289.99638  0.029221723  0.029648428            2 
  828000    1.1131576   -6.9840794    289.03521  0.029089695  0.029640544            2 
  829000    1.1229472   -7.0339212    289.64067  0.029115467   0.02963267            3 
  830000    1.1388561   -7.0891975    289.35284   0.02905149  0.029624622            5 
  831000    1.1009804    -7.058417    289.51516  0.029032808   0.02961677            5 
  832000    1.1035093   -7.0158238    289.99273  0.029045747  0.029608987            4 
  833000    1.1139858   -7.0101176    290.86753  0.029098393  0.029601546            3 
  834000    1.1370802   -7.0164793    291.83495  0.029160167  0.029594074            2 
  835000    1.1455346   -7.0285943    291.56631  0.029098434  0.029586499            4 
  836000    1.0862434   -6.9916958    293.13647  0.029220143  0.029578767            2 
  837000    1.1317495   -7.0425087    291.55991  0.029028266  0.029571238            5 
  838000    1.1084069   -7.0371498    293.01415  0.029138241  0.029563552            3 
  839000    1.0924272   -7.0653798    293.05891  0.029107956  0.029555979            3 
  840000    1.1313162   -7.0368333     293.6853  0.029135446  0.029548293            3 
  841000    1.0880475   -7.0091486     294.2348  0.029155252  0.029541092            4 
  842000    1.1374386   -7.0600293    293.77956   0.02907557  0.029533794            4 
  843000    1.1053526   -7.0887968     293.8956   0.02905255  0.029526671            5 
  844000     1.128184   -7.0512097    295.59659  0.029186077  0.029519461            4 
  845000    1.1273767   -7.0238092     296.4447  0.029235177  0.029512602            2 
  846000    1.1209697   -7.0327176     295.3069  0.029088545  0.029505828            3 
  847000    1.1222581   -7.0490399    295.89589   0.02911215  0.029498885            3 
  848000    1.1014374   -7.0658887    295.73172  0.029061686  0.029491833            1 
  849000    1.1111593   -7.0634799    296.25705  0.029079019  0.029484794            3 
  850000    1.1050938   -7.0413006    297.47489  0.029164205  0.029477987            5 
  851000    1.1326183   -7.0781165    296.69388  0.029053455  0.029470889            2 
  852000    1.0919798   -7.0057359    298.03237  0.029150271  0.029463727            6 
  853000    1.1148031    -7.055288    298.43997  0.029155917  0.029456755            3 
  854000    1.1244929   -7.0404677    299.01381  0.029177772  0.029449731            3 
  855000    1.1039013   -6.9926316    298.51743  0.029095266  0.029442607            3 
  856000    1.1136648   -7.0715453    297.24035   0.02893695  0.029435582            4 
  857000    1.1029833   -7.0309151    298.79271  0.029054134  0.029428449            6 
  858000    1.1213307   -7.0081982     299.3831  0.029077613  0.029421201            3 
  859000    1.0965203   -7.0274078     300.2326  0.029126174  0.029413912            5 
  860000    1.1152099   -7.0790751    299.54082  0.029025273  0.029406585            4 
  861000    1.1314465   -7.0936914    299.08398  0.028947346  0.029399352            2 
  862000    1.0887915   -7.0378816    300.60557  0.029060863  0.029392462            4 
  863000    1.0965353   -7.0577712    300.31541   0.02899917  0.029385748            3 
  864000    1.0958447   -7.0503459    300.97085  0.029028824  0.029379011            2 
  865000    1.1274538   -7.0196706    300.20818   0.02892179  0.029372121            3 
  866000    1.1150136    -7.008699    301.65203  0.029027331   0.02936523            6 
  867000    1.1319588   -7.0317128    301.24114  0.028954358  0.029358022            3 
  868000    1.0926488   -7.0391846    301.22979  0.028919911  0.029350926            1 
  869000    1.1268309    -7.033199    302.89631  0.029046443  0.029343616            4 
  870000      1.09639   -7.0495962    302.52829  0.028977805  0.029336472            1 
  871000    1.1067955   -7.0670734    302.31054  0.028923703  0.029329537            2 
  872000    1.1025937   -7.0592632    302.03483  0.028864185  0.029322477            4 
  873000    1.1059592   -7.0362991    303.39246  0.028960716  0.029315408            2 
  874000    1.1292767   -7.0677543    302.90333  0.028880943    0.0293081            5 
  875000    1.1006954   -7.0185534    303.28586  0.028884368  0.029300697            2 
  876000    1.1115275     -7.07448     302.9173  0.028816333  0.029293644            3 
  877000    1.1185693   -7.0842127    303.71852  0.028859609  0.029286208            7 
  878000     1.107174   -6.9942534     305.4385  0.028989987  0.029278909            3 
  879000    1.1013378    -7.028547     304.4446   0.02886278  0.029271398            2 
  880000    1.1024859   -7.0610049     304.3356  0.028819659  0.029263371            2 
  881000    1.1282038   -7.0482654    305.44248  0.028891646  0.029255788            7 
  882000    1.1041829    -7.057464    304.84512  0.028802449  0.029248502            2 
  883000    1.1219332    -7.089412    304.93781  0.028778577  0.029241141            3 
  884000    1.0968909   -7.0720936     305.6175  0.028810096  0.029233864            3 
  885000    1.0970753   -7.1064296    305.17159  0.028735555  0.029226141            4 
  886000    1.1075924   -7.0451969    306.26752    0.0288062  0.029218539            4 
  887000    1.1185393   -7.0815162    306.87359  0.028830665  0.029211433            2 
  888000    1.1252827   -7.0580982    307.01754  0.028811706  0.029204109            3 
  889000    1.1097664   -7.1157283    305.19169  0.028608145   0.02919655            7 
  890000    1.0865261   -7.0808406    306.95623   0.02874122  0.029188882            4 
  891000    1.1117772   -7.0835484    307.41174  0.028751565  0.029181364            4 
  892000    1.1048395   -7.0800846    307.59258  0.028736227  0.029173586            5 
  893000    1.1058887   -7.0748903    307.89949  0.028732688  0.029165969            4 
  894000    1.1241374   -7.0245125    309.13585  0.028815796  0.029158611            2 
  895000    1.1161513   -7.0838767    308.99794  0.028770758  0.029151073            3 
  896000    1.0922651    -7.065524    308.93155  0.028732473  0.029143485            5 
  897000    1.0956033   -7.0260385    309.85513  0.028786244  0.029136085            3 
  898000    1.1035484   -7.0916581    308.42718  0.028621676  0.029128512            6 
  899000    1.1005998   -7.1104334    308.86753  0.028630658  0.029120874            4 
  900000    1.1153008   -7.0632379    310.13255  0.028715977  0.029113525            3 
  901000    1.1277061   -7.0722426     309.6737  0.028641667  0.029106012            5 
  902000    1.0935679   -7.0548497     310.6219  0.028697514  0.029098302            5 
  903000    1.0995777   -7.1100571    309.83127  0.028592772  0.029090522            4 
  904000    1.1092466   -7.0831685    310.12138  0.028587885  0.029082674            3 
  905000    1.1092411   -7.0669011    310.77893  0.028616844  0.029075088            1 
  906000    1.1210165   -7.0505472    310.88059  0.028594609  0.029067791            3 
  907000    1.0830659   -7.0979868    310.55846  0.028533486  0.029060074            7 
  908000    1.0898788   -7.0191833    312.83127  0.028710653  0.029052393            2 
  909000    1.1009243   -7.0863837    312.73726  0.028670449  0.029044956            3 
  910000    1.1043286   -7.0757061    313.11836  0.028673843   0.02903754           10 
  911000    1.1102765   -7.0349978    313.19139  0.028649048  0.029030165            2 
  912000    1.1059812   -7.0990694    313.15055  0.028613903  0.029022595            2 
  913000     1.096826   -7.0521277    313.76509  0.028638654  0.029015158            4 
  914000    1.0952309   -7.0682203    313.55943  0.028588569  0.029007708            4 
  915000    1.1055731   -7.0724559    314.08951  0.028605602  0.029000398            3 
  916000    1.0973901   -7.0941547    313.14727  0.028488652  0.028993093            2 
  917000    1.1108029   -7.0981032    314.75742  0.028603909  0.028985664            6 
  918000    1.0929617   -7.0720806    314.96614  0.028591697  0.028978041            4 
  919000    1.1214627   -7.0831811    315.20495   0.02858224   0.02897094            5 
  920000    1.1094978   -7.0586949    316.28031  0.028648579   0.02896393            2 
  921000    1.1125024   -7.0786902    315.79652  0.028573699  0.028956696            2 
  922000    1.1174067   -7.0828533    316.13815  0.028573586  0.028949744            7 
  923000    1.1234625    -7.140632    315.61195   0.02849512  0.028942275            4 
  924000    1.1013628   -7.0965605    316.00593  0.028499813  0.028935082            7 
  925000    1.1015543   -7.0818054    316.64457  0.028526538  0.028928121            2 
  926000    1.1040068   -7.1472445    316.62279  0.028493772  0.028921009            3 
  927000    1.1062539   -7.1079452    317.03948  0.028500493  0.028913726            3 
  928000    1.1064202   -7.0462794     318.3282  0.028585507  0.028906849            3 
  929000    1.1083358   -7.0902406    318.15831  0.028539497  0.028899597            3 
  930000     1.103583   -7.1089023    318.50757  0.028540105  0.028892444            2 
  931000    1.1083225   -7.0877943    319.07651  0.028560375  0.028885692            4 
  932000    1.1159597   -7.0783652    319.32435  0.028551891  0.028878799            2 
  933000    1.1149849   -7.0494346    319.43543   0.02853121  0.028871687            5 
  934000    1.0917867     -7.14489    318.57433  0.028423834  0.028864128            4 
  935000    1.0978275   -7.0548789    319.84437  0.028506629  0.028857062            5 
  936000    1.0987427    -7.076023    319.07591  0.028407756  0.028850021            2 
  937000    1.0955986   -7.0829994    320.27922  0.028484456  0.028842783            2 
  938000    1.1284167   -7.1136411    319.21058  0.028359149  0.028835425            2 
  939000    1.0811587   -7.1116886    320.47908  0.028441523   0.02882827            3 
  940000    1.0965168   -7.0972693    320.43535  0.028407389  0.028821025            3 
  941000    1.1188608   -7.0958105    321.03413  0.028430227  0.028813697            3 
  942000    1.1325448   -7.0568206     322.4304  0.028523567  0.028806597            4 
  943000    1.1184034   -7.0793137    322.20188  0.028473125  0.028799579            5 
  944000    1.1058719   -7.0462596    323.27311  0.028537528  0.028792539            5 
  945000    1.0793317   -7.1227382    321.39059  0.028341322  0.028785507            9 
  946000    1.0869622   -7.0755463    323.48601  0.028495949  0.028778281            3 
  947000     1.109839   -7.1087693    322.65316   0.02839257  0.028771206            2 
  948000    1.0968599   -7.1239406    322.81383  0.028376743  0.028763673            1 
  949000    1.1020115   -7.0960301    322.77293   0.02834325  0.028756633            5 
  950000    1.1056612   -7.0784276     324.1816  0.028436982   0.02874927            5 
  951000    1.0811814   -7.1126034    324.44849  0.028430467  0.028742393            4 
  952000    1.1258397   -7.0885177    325.12674  0.028459973  0.028735636            4 
  953000    1.0945778   -7.1132711    323.91021  0.028323733  0.028728855            6 
  954000    1.1090231    -7.083976    324.69021  0.028362178  0.028722045            3 
  955000    1.1060496   -7.0662621    325.33378  0.028388637  0.028715102            7 
  956000    1.1229644   -7.0869151    325.21546  0.028348628  0.028708202            4 
  957000    1.1180896   -7.0911539    324.62626  0.028267699  0.028701109            7 
  958000    1.0919691   -7.0999868     324.5984  0.028235769  0.028693594            4 
  959000    1.0968838   -7.0665726    326.47073  0.028369024  0.028686312            3 
  960000    1.0805317   -7.0886179    325.70023  0.028272589  0.028679172            3 
  961000    1.0910092   -7.0864729    327.02944  0.028358432  0.028671982            3 
  962000    1.1025803   -7.1300023    326.44356  0.028278201  0.028664804            1 
  963000    1.1066207   -7.0921645    327.72206  0.028359472  0.028657675            3 
  964000    1.0537222   -7.0789365    327.60125   0.02831961  0.028650442            3 
  965000    1.0803341   -7.0888353    327.98456  0.028323364  0.028643392            5 
  966000    1.0867666    -7.116108     327.8247  0.028280253  0.028636191            3 
  967000     1.090738   -7.1391248    327.79347  0.028248317  0.028628584            7 
  968000    1.1133357   -7.1429468    328.92973  0.028316953  0.028621242            6 
  969000    1.0751696   -7.1208875    329.63374  0.028348275  0.028613707            5 
  970000    1.0661714   -7.0875244    330.16633  0.028364805  0.028606633            3 
  971000    1.0964616   -7.0660243    329.88708  0.028311627  0.028599517            3 
  972000    1.1144119   -7.0644939    330.37512  0.028324342  0.028592608            2 
  973000    1.0943318   -7.1095518    330.37256  0.028295012  0.028585568            2 
  974000    1.1113898    -7.124234    331.15313  0.028332745  0.028578633            3 
  975000    1.0889083   -7.0513611    331.95473  0.028372199  0.028572057            3 
  976000    1.0872163   -7.1157008     331.8318  0.028332633  0.028565558            2 
  977000    1.1059001   -7.1197138    331.17123   0.02824729  0.028559144            4 
  978000    1.0915259   -7.0926629    331.76804  0.028269261  0.028552663            7 
  979000    1.1039911   -7.1180407    332.39152  0.028293456  0.028546121            3 
  980000    1.1059513   -7.0617282    333.03871  0.028319619  0.028539709            5 
  981000        1.085   -7.1199225    332.54718  0.028248996  0.028533193            2 
  982000    1.0952056    -7.118992    333.43902  0.028295911  0.028526458            7 
  983000     1.100791    -7.081892     332.8844  0.028220109   0.02851974            3 
  984000    1.0910692   -7.1255857    334.13665   0.02829748  0.028513054            5 
  985000    1.0921614   -7.1086291    335.42558  0.028377798  0.028506675            6 
  986000    1.0884566   -7.0745541    335.69648  0.028371914  0.028500667            4 
  987000    1.0791709   -7.1045846    335.40429  0.028318498  0.028494469            3 
  988000    1.0853901   -7.1091577    335.11281   0.02826525  0.028487776            3 
  989000     1.106898   -7.1418095     334.9011  0.028218832  0.028481462            2 
  990000    1.0901104    -7.112119    335.55427  0.028245308  0.028475085            3 
  991000    1.0846462   -7.0787656    335.66616  0.028226216  0.028468653            2 
  992000    1.0891865   -7.1300878    336.57292  0.028273934  0.028462296            6 
  993000     1.094432   -7.0603351    337.26408  0.028303464  0.028456021            5 
  994000    1.1008393   -7.0846483    337.52985  0.028297271  0.028449748            2 
  995000    1.0954557   -7.1058639    336.79724  0.028207474  0.028443156            3 
  996000     1.118703   -7.1061876    336.33125  0.028140165  0.028436575            4 
  997000    1.0800264    -7.098161    337.80369  0.028235012  0.028430053            5 
  998000    1.0832662   -7.0828981    338.21837  0.028241347  0.028423612            6 
  999000    1.0700151   -7.1567676    337.22862  0.028130516  0.028417087            6 
 1000000    1.1152874   -7.0939501     337.7728  0.028147734  0.028410399            4 
 1001000    1.0848585   -7.1702104    337.22341  0.028073877  0.028403759            1 
 1002000    1.0963553   -7.1719921    337.90868  0.028102851  0.028397058            9 
 1003000    1.1042708   -7.1683804    337.95236  0.028078461  0.028390426            5 
 1004000    1.0804568   -7.1069651    339.55512  0.028183526  0.028383799            2 
 1005000    1.1005325   -7.0748998    340.21355  0.028210079  0.028377211            5 
 1006000    1.1026738   -7.1147454    339.44134   0.02811807  0.028371288            2 
 1007000    1.0871844   -7.1422678    339.67592   0.02810956  0.028364794            3 
 1008000    1.0852143   -7.1365015    339.81528  0.028093194  0.028357992            3 
 1009000    1.1016948   -7.0982198    341.79397  0.028228772  0.028351546            2 
 1010000    1.0999706   -7.1297613    340.99042  0.028134523  0.028344961            2 
 1011000    1.0778748   -7.0835983    340.36055  0.028054777  0.028338382            5 
 1012000    1.1064851   -7.1524146    340.65044  0.028050925   0.02833136            9 
 1013000    1.0847407   -7.1000907    341.93096  0.028128575  0.028324575            1 
 1014000    1.0738924   -7.1011699    341.28718  0.028047927  0.028317945            6 
 1015000    1.1077224   -7.0970615    342.26668  0.028100713  0.028311471           13 
 1016000     1.070978   -7.1094893    341.79351  0.028034245  0.028305013            6 
 1017000    1.0892344   -7.1214415    341.90796  0.028016057  0.028298407            2 
 1018000    1.1100345   -7.1106747     343.0612   0.02808294  0.028291763            2 
 1019000    1.0862319   -7.0864179    343.77033  0.028113373  0.028285156            2 
 1020000    1.0821001   -7.1059612    343.43203  0.028058172   0.02827853            2 
 1021000    1.0939527   -7.1400714    343.04816   0.02799936   0.02827165            2 
 1022000    1.0765096   -7.1369823    343.41951  0.028002243  0.028264594            2 
 1023000    1.0732866   -7.1072918    343.17023  0.027954564  0.028257716            3 
 1024000    1.0856517   -7.1179586    343.61478  0.027963442  0.028250905            4 
 1025000    1.0919833   -7.1545599     344.3319  0.027994463  0.028243828            5 
 1026000    1.0817352   -7.0918105    345.34205  0.028049224  0.028236923            3 
 1027000    1.0727724   -7.0852696    345.00032  0.027994183  0.028230139            3 
 1028000    1.0968859   -7.1372117    344.96475  0.027964069  0.028223336            3 
 1029000    1.0834984   -7.1283022    344.78918  0.027922674  0.028216598            5 
 1030000    1.0764331   -7.1100618    345.54344  0.027956589  0.028209939            7 
 1031000    1.0948985   -7.1011555    344.42379  0.027838974  0.028203103            4 
 1032000     1.064311   -7.0957453    346.14894  0.027951303  0.028196217            2 
 1033000     1.079182    -7.120034    347.05655  0.027997463  0.028189391            2 
 1034000     1.093745   -7.1621828    343.15077  0.027655606  0.028182218            1 
 1035000    1.0957805   -7.1007871    346.22877  0.027876712  0.028175197            2 
 1036000    1.0718802     -7.12448    346.74077  0.027890989  0.028168242            4 
 1037000    1.0894776   -7.0820757    346.20262  0.027820847  0.028161248            4 
 1038000    1.0769378   -7.1099899    347.12507  0.027868102  0.028153968            4 
 1039000    1.0803501    -7.154532     345.5504  0.027714983  0.028146902            4 
 1040000    1.0671047   -7.1606833    346.98634  0.027803393  0.028139648            2 
 1041000    1.0616823   -7.1183284    347.49304  0.027817246    0.0281326            5 
 1042000    1.0823505   -7.1069419    348.90628  0.027903574  0.028125293            5 
 1043000    1.1095684    -7.136538    348.39491  0.027835963  0.028118444            2 
 1044000    1.1135814   -7.1256141    348.06326  0.027782827  0.028111579            5 
 1045000    1.0862636   -7.1135253    349.94984  0.027906686   0.02810472            3 
 1046000    1.0899196   -7.1557589    349.04453  0.027807882   0.02809797            4 
 1047000    1.0761817   -7.1555909    348.16423  0.027711257   0.02809071            4 
 1048000    1.0792291   -7.1817594    348.52734  0.027713688  0.028083644            2 
 1049000    1.0840617   -7.1463501    349.07813  0.027731024  0.028076408            2 
 1050000    1.0876202   -7.1594205    348.74342  0.027678049  0.028069256            6 
 1051000    1.0869405   -7.1343602    348.74943   0.02765219  0.028062363            5 
 1052000    1.0985056   -7.0868494    352.55518  0.027927374  0.028055495            4 
 1053000    1.0770098   -7.0729377    351.69579  0.027832842  0.028048851            4 
 1054000    1.0511638   -7.0956634    351.66035  0.027803633  0.028042155            4 
 1055000    1.0903078   -7.1476598    351.56183  0.027769497  0.028035591            4 
 1056000    1.0963166   -7.1058547    352.08756  0.027784688  0.028028805            2 
 1057000     1.082856   -7.0745152    352.55244  0.027795052  0.028022019            4 
 1058000    1.0817265   -7.1563697    352.33741  0.027751844  0.028015121            2 
 1059000    1.0950467      -7.1161    351.62731   0.02766976  0.028008125            2 
 1060000    1.0690129   -7.1644613    351.39536  0.027625421   0.02800115            3 
 1061000    1.0946815   -7.1156647    353.24393  0.027744575  0.027994086            5 
 1062000    1.0951267   -7.1346954    353.31908  0.027724347  0.027987163            3 
 1063000    1.0775276   -7.1666795    353.02248  0.027675014  0.027980117            3 
 1064000     1.113185   -7.1194572     353.6883  0.027701151  0.027972988            2 
 1065000    1.0795669   -7.1490492    353.11939  0.027630625  0.027966036            1 
 1066000    1.0793436    -7.119728    354.04162    0.0276768  0.027958951            6 
 1067000    1.1075292   -7.1571202    354.56681  0.027691879  0.027952088            5 
 1068000     1.078374   -7.1393524    354.57922  0.027666918  0.027945125            2 
 1069000    1.0862897   -7.1782882    353.60289  0.027564927  0.027938124            3 
 1070000    1.0873673   -7.1648085    355.34623   0.02767494  0.027931198            3 
 1071000    1.0688512   -7.1342058    355.16346  0.027634879   0.02792434            4 
 1072000     1.059095   -7.1725961    355.93963  0.027669437  0.027917327            7 
 1073000    1.0730218   -7.1556546    356.01584  0.027649569  0.027910459            3 
 1074000    1.0612557   -7.1537891     354.9536  0.027541403   0.02790378            5 
 1075000    1.0916014   -7.1341642    356.68614  0.027650088  0.027896962            3 
 1076000    1.0941604   -7.1686271    357.01404  0.027649786  0.027890207            2 
 1077000     1.096201    -7.152451    356.56225  0.027589156  0.027883394            5 
 1078000     1.060905   -7.1552567    356.82583  0.027583939  0.027876726            3 
 1079000    1.0420381    -7.167501    357.75974  0.027630502  0.027869865            6 
 1080000    1.0837315   -7.1661047      358.099  0.027631096  0.027863165            2 
 1081000    1.0760856   -7.2013084    357.13168  0.027530965  0.027856492            8 
 1082000    1.0650121   -7.1616665    358.89553  0.027641368  0.027849843            8 
 1083000    1.0742954   -7.1424918    359.50273  0.027662568  0.027843466            6 
 1084000    1.0887525    -7.124787     359.9051  0.027667981  0.027837011            2 
 1085000    1.0899004   -7.1104261    361.41993  0.027758827   0.02783071            2 
 1086000    1.1031167   -7.1336557    359.86408   0.02761388  0.027824216            3 
 1087000    1.0626824   -7.1843714     358.9786  0.027520592  0.027817459            3 
 1088000    1.0493055   -7.1803879    359.08801  0.027503677  0.027810693            4 
 1089000    1.0963337   -7.1757964    360.83125  0.027611819  0.027804131            5 
 1090000    1.0653173    -7.147304    360.53751   0.02756403  0.027797533            5 
 1091000    1.0901287   -7.1945748    359.07418  0.027426992  0.027790931            6 
 1092000    1.0759573   -7.1615027    361.21026  0.027564885  0.027784267            5 
 1093000    1.0856129   -7.1327351    361.74312  0.027580293  0.027777786            1 
 1094000    1.0686771   -7.1055855    362.83249  0.027638063  0.027771458            7 
 1095000    1.0772394    -7.158171    362.07057  0.027554838   0.02776508            4 
 1096000     1.073164   -7.1418669    362.38478  0.027553587  0.027758385            2 
 1097000     1.078771   -7.1836764    362.32628  0.027524026  0.027751721            2 
 1098000    1.0899279   -7.1937226    362.02222  0.027475882  0.027744983            3 
 1099000    1.0687401   -7.1354533     363.8585   0.02759012  0.027738314            5 
 1100000    1.0792804   -7.1536022    364.39602  0.027605759  0.027731837            3 
 1101000    1.0866136   -7.1353848    364.93603  0.027621558  0.027725419            7 
 1102000    1.0718802   -7.1398212    365.29618  0.027623728  0.027719198            5 
 1103000    1.0589405   -7.1603633    364.33564  0.027526114  0.027712881            3 
 1104000    1.0881107   -7.1751872    364.64434  0.027524482  0.027706419            3 
 1105000     1.068865   -7.1505463     365.5676  0.027569201  0.027699929            4 
 1106000    1.0747517   -7.2065183    364.79525  0.027486079  0.027693559            5 
 1107000     1.072411   -7.1822698    366.16337   0.02756424  0.027687355            1 
 1108000    1.0507103   -7.1879987    366.54196  0.027567837  0.027681066            4 
 1109000    1.0737021   -7.1184982    368.30129   0.02767518  0.027674987            2 
 1110000    1.0515708    -7.142838    367.36712  0.027580114  0.027668892            4 
 1111000    1.0739365   -7.1628719    367.15298  0.027539227    0.0276626            2 
 1112000    1.0741348    -7.170481     367.7413   0.02755855  0.027656577            2 
 1113000    1.0808019   -7.1724245    367.64318  0.027526443  0.027650462            3 
 1114000    1.0899226   -7.1969181    367.21317  0.027469567  0.027644478            5 
 1115000    1.0582842   -7.1776881    366.93846  0.027424399  0.027638344            5 
 1116000    1.0917043   -7.1964694    368.13462  0.027489144  0.027632016            3 
 1117000    1.0745764   -7.1943431    369.13419  0.027539107  0.027625987            7 
 1118000    1.0649162   -7.1758014    369.74878  0.027560285  0.027619889            2 
 1119000     1.058523    -7.181914    369.25257  0.027498702   0.02761393            5 
 1120000    1.0727338   -7.1579867    369.84122  0.027517948   0.02760805            5 
 1121000    1.0937899   -7.1558983     370.9386  0.027574977  0.027602119            5 
 1122000    1.0860304   -7.1752777    370.58724  0.027524305  0.027596045            5 
 1123000    1.0691079   -7.1656197    369.69175  0.027433344  0.027590076            5 
 1124000    1.0945294   -7.2032082     370.6502  0.027479997   0.02758408            4 
 1125000     1.048403   -7.1863999    370.96681  0.027479023  0.027577914            2 
 1126000    1.0630783    -7.210574    371.12595  0.027466397  0.027571751            2 
 1127000    1.0832548    -7.186238     370.4582   0.02739265   0.02756581            3 
 1128000     1.067407   -7.1553844    371.43012  0.027440169  0.027559947            3 
 1129000    1.0769003   -7.1708906     371.5118  0.027421892  0.027554146            2 
 1130000    1.0565598   -7.1610451    372.63594  0.027480526  0.027548316            4 
 1131000    1.0553371   -7.1547513    373.02996  0.027485261  0.027542271            5 
 1132000    1.0820812   -7.1629801    372.19104  0.027399223  0.027536382            3 
 1133000    1.0568135   -7.1602726    372.89559   0.02742686  0.027530368            2 
 1134000    1.0746898   -7.1297972    375.07422  0.027562774  0.027524347            7 
 1135000    1.0672132   -7.1720479    373.55687  0.027427083  0.027518598            3 
 1136000     1.048797    -7.182541    373.67005  0.027411242  0.027512608            2 
 1137000    1.0658067   -7.1685835    375.24444  0.027502524   0.02750668            7 
 1138000     1.077756    -7.163603     373.2433  0.027331818   0.02750064            5 
 1139000     1.068256   -7.1722418    374.33613  0.027387776  0.027494689            5 
 1140000    1.0834305   -7.1797794    374.90336  0.027405216  0.027488774            2 
 1141000    1.0850284   -7.1668063    374.51037  0.027352496   0.02748303            9 
 1142000    1.0749757   -7.1899135    375.65537  0.027412097   0.02747704            4 
 1143000    1.0794608   -7.1475201     375.4857  0.027375744   0.02747111            4 
 1144000    1.0698951   -7.2025728    375.15064  0.027327407  0.027465003            5 
 1145000    1.0748398   -7.1717257    375.98498  0.027364263  0.027458774            3 
 1146000    1.0578987   -7.1701676     375.8305  0.027329152   0.02745265            3 
 1147000    1.0734767   -7.2003313    375.32674  0.027268725  0.027446327            2 
 1148000     1.069517   -7.1936364    375.20296  0.027235987  0.027439875            4 
 1149000    1.0582503   -7.2049592    376.45067  0.027302775   0.02743353            3 
 1150000    1.0808691   -7.1460527    376.40408  0.027275658  0.027427031            4 
 1151000    1.0629355    -7.182206    376.06176  0.027227177  0.027420679            6 
 1152000    1.0505765   -7.1812306     376.6487     0.027246  0.027414259            2 
 1153000    1.0701549    -7.182426    377.29355  0.027268976   0.02740779            2 
 1154000     1.032596   -7.1849537    376.48227  0.027186761  0.027401333            2 
 1155000    1.0646495   -7.1932405    377.80488  0.027258649  0.027394893            4 
 1156000    1.0497908   -7.1980303    377.36164  0.027203117  0.027388245            2 
 1157000    1.0781146   -7.1219835    378.30406  0.027247483  0.027381702            3 
 1158000    1.0713458   -7.1838558    377.53964  0.027168944  0.027375043            6 
 1159000    1.0669478   -7.2101065    377.79553  0.027163901  0.027368294            3 
 1160000    1.1023159   -7.1904042    377.93686  0.027150637  0.027361502            4 
 1161000    1.0656914   -7.1747492    378.03196  0.027134077  0.027354731            4 
 1162000    1.0850413   -7.1609098    379.29329  0.027201182  0.027348155            3 
 1163000    1.0490508   -7.2114398    376.32596  0.026965173  0.027341271            4 
 1164000    1.0650996   -7.2086567    377.89141  0.027054082  0.027334298           16 
 1165000    1.0538893   -7.1858068    378.69731  0.027088506  0.027327226            4 
 1166000    1.0554928    -7.151608      378.027  0.027017367  0.027320173            2 
 1167000    1.0558658   -7.1522662    379.92274  0.027129587  0.027313069            2 
 1168000    1.0693978   -7.2165564    377.91437  0.026963069  0.027306042            3 
 1169000    1.0808496   -7.2146669    378.40399  0.026974906  0.027298967            3 
 1170000    1.0868345   -7.2291267    377.71646  0.026902882  0.027291732            1 
 1171000    1.0756015   -7.1828867    377.70802  0.026879307  0.027284422            3 
 1172000    1.0443869   -7.1297256    380.08074  0.027025081  0.027277095            3 
 1173000    1.0811063    -7.169324    379.65428  0.026971744  0.027269933            3 
 1174000    1.0531042   -7.1657959    380.85263  0.027033832  0.027262946            3 
 1175000    1.0708917   -7.1816137    380.19615  0.026964266  0.027255868            3 
 1176000    1.0678701    -7.179711    379.19674  0.026870517  0.027248588            4 
 1177000    1.0331903   -7.1849795    379.51603  0.026870294  0.027241225            2 
 1178000    1.0630063   -7.1837594    380.47008  0.026914974  0.027233677            2 
 1179000    1.0555776   -7.1501978    381.62211  0.026973573  0.027226396            2 
 1180000    1.0567772   -7.2170776    380.05975  0.026840378  0.027219121            3 
 1181000    1.0589851   -7.1614345    381.80956  0.026941121  0.027211734            5 
 1182000    1.0400937   -7.1990032      380.737   0.02684271  0.027204187            3 
 1183000    1.0807133   -7.2330537    379.93675  0.026763648  0.027196409            6 
 1184000    1.0704857   -7.1855421    380.90537  0.026809218  0.027188825            2 
 1185000    1.0692465   -7.2125359    380.94289  0.026789232  0.027181237            2 
 1186000    1.0621108   -7.1903066    381.46779  0.026803526  0.027173627            4 
 1187000    1.0615479   -7.2094636    381.25964  0.026766332  0.027165948            5 
 1188000    1.0604694   -7.2257421     380.8752  0.026716835  0.027158387            3 
 1189000    1.0426781   -7.2196982    380.99907  0.026703047  0.027150531            5 
 1190000    1.0737783   -7.2528504    380.49345    0.0266452  0.027142808            5 
 1191000    1.0888905   -7.2083235    381.63806  0.026702915  0.027134899            4 
 1192000    1.0426237   -7.2033384    381.87415  0.026697018  0.027127001            3 
 1193000    1.0763222   -7.1910456    381.58442  0.026654402  0.027119007            2 
 1194000    1.0772085   -7.2180103    382.01707  0.026662274  0.027111029           10 
 1195000    1.0454818   -7.2199768    381.48559    0.0266029  0.027103089            3 
 1196000    1.0478562   -7.1930275    382.35404  0.026641168  0.027095048            4 
 1197000    1.0603448   -7.1744246    383.90844  0.026727126  0.027087224            6 
 1198000    1.0511805   -7.1752352    383.28386   0.02666137  0.027079466            3 
 1199000    1.0497805   -7.2175175    382.52287  0.026586243  0.027071537            4 
 1200000    1.0617154   -7.1947989    382.72165  0.026577893  0.027063539            5 
 1201000    1.0651607   -7.2435878    381.52449  0.026472696  0.027055426            3 
 1202000    1.0465317   -7.1688493    383.47508  0.026585904  0.027047408            4 
 1203000    1.0605001   -7.2407056    383.31296  0.026552574  0.027039343            4 
 1204000    1.0650792   -7.2462821    383.39485  0.026536188  0.027031173            2 
 1205000    1.0775615   -7.2498123    383.32393  0.026509262  0.027023089            4 
 1206000    1.0349488   -7.2277092    384.33198  0.026556936     0.027015            3 
 1207000    1.0686611   -7.2256695    384.88647  0.026573217  0.027007026            9 
 1208000    1.0516598   -7.1988171     384.7302  0.026540439  0.026999021            2 
 1209000    1.0358252   -7.1941818     385.9803  0.026604652  0.026991325            4 
 1210000    1.0479235   -7.2048519    384.34208  0.026469841  0.026983561            8 
 1211000    1.0565611   -7.1776279    386.68912  0.026609491  0.026975726            7 
 1212000    1.0768724   -7.2388445     386.1379  0.026549635  0.026967834            2 
 1213000    1.0408813   -7.2393998    385.98619  0.026517325  0.026959929            3 
 1214000    1.0481729   -7.1641017    386.01471   0.02649744  0.026952261            2 
 1215000    1.0579966   -7.2315819    386.37856  0.026500587  0.026944433            3 
 1216000    1.0599806   -7.1849765     386.9994  0.026521341   0.02693662            4 
 1217000    1.0656458   -7.2381753    385.99384  0.026430693  0.026928748            3 
 1218000    1.0465654   -7.1972406     388.1041  0.026553373  0.026920843            4 
 1219000    1.0765899   -7.1990587    388.09243  0.026530792  0.026913004            2 
 1220000    1.0358404   -7.2146422    386.83794  0.026423357  0.026905203            3 
 1221000    1.0551753   -7.2003746    387.80853  0.026467959  0.026897209           12 
 1222000    1.0554421   -7.2057968    387.59576  0.026431789  0.026889437            5 
 1223000    1.0670633   -7.1923481    388.68732  0.026484554  0.026881647            4 
 1224000     1.077849   -7.2166424    388.20149   0.02642984  0.026873801            3 
 1225000    1.0530009   -7.2190071    388.47535  0.026426895  0.026866004            3 
 1226000    1.0603664   -7.2074716    388.50047  0.026407047   0.02685797            6 
 1227000    1.0433388    -7.234883    388.60762  0.026392803  0.026850147            7 
 1228000    1.0520715   -7.2359628    388.59492  0.026370448  0.026842196            3 
 1229000    1.0346094   -7.2098231    389.40788  0.026404114  0.026834264            4 
 1230000    1.0760073   -7.2218753    388.69909  0.026334626  0.026826335            3 
 1231000    1.0372265    -7.242041    388.90931  0.026327465  0.026818059            4 
 1232000    1.0534881   -7.2377104    389.24509  0.026328807  0.026809982            3 
 1233000    1.0474996    -7.191836    391.36405  0.026450666  0.026801927            6 
 1234000    1.0518099   -7.2250898    390.68812  0.026383584  0.026793851            7 
 1235000    1.0704242   -7.2287243    389.88135  0.026307784  0.026785757            5 
 1236000    1.0318908   -7.2180224     389.2704  0.026245307  0.026777675            2 
 1237000    1.0472652   -7.2174397    390.77216   0.02632526  0.026769692            5 
 1238000    1.0570829   -7.2090263    392.24981  0.026403461  0.026761759            2 
 1239000    1.0650657   -7.2166792    391.80827  0.026352453  0.026753909            2 
 1240000    1.0848644   -7.1981498    392.04708   0.02634725  0.026746178            2 
 1241000    1.0607379   -7.1762722    392.70968  0.026370513  0.026738447            4 
 1242000    1.0615371   -7.2271863    392.07415  0.026306639  0.026730812            3 
 1243000    1.0450888   -7.2141629    391.94122  0.026276564  0.026722911            4 
 1244000     1.063063   -7.2218623     393.5135  0.026360765  0.026715171            8 
 1245000    1.0425383   -7.2704528    391.98984  0.026237607  0.026707213           10 
 1246000     1.061682   -7.2182775    393.20566  0.026297864  0.026699177           11 
 1247000      1.05949   -7.1905494    393.99534  0.026329547  0.026691126            6 
 1248000    1.0437227   -7.2618711    393.70674  0.026289178  0.026683246            4 
 1249000    1.0555539   -7.2083689    393.40108  0.026247737  0.026675388            3 
 1250000    1.0587347   -7.1926376    394.77683  0.026318455  0.026667619            4 
 1251000    1.0581724   -7.2438658    393.50451  0.026212664  0.026659771            6 
 1252000    1.0471816   -7.1929427    394.69628  0.026271052  0.026652009            2 
 1253000    1.0516306   -7.2372983    394.87368  0.026261884  0.026644429            3 
 1254000    1.0292198   -7.1907839    395.55032  0.026285907  0.026636656            4 
 1255000    1.0529665   -7.2264609    394.40229  0.026188731  0.026628993            3 
 1256000    1.0503583   -7.2106578    396.27087  0.026291857  0.026621287           10 
 1257000    1.0557058   -7.2655624    394.59831  0.026160058   0.02661361            5 
 1258000    1.0330033   -7.2328213    395.99943  0.026232077  0.026605921            4 
 1259000    1.0598821   -7.2414154    394.58549  0.026117652  0.026598133            5 
 1260000    1.0526216   -7.2533526    395.92524  0.026185532  0.026590451            2 
 1261000    1.0547816   -7.2204079    396.70958  0.026216599    0.0265827            2 
 1262000       1.0556   -7.2287267    397.29338  0.026234375  0.026575257            3 
 1263000    1.0511566   -7.2120782    397.45567  0.026224312  0.026567755            3 
 1264000     1.054485   -7.2606009    395.85827  0.026098251  0.026560207            5 
 1265000    1.0460346   -7.2301244    398.35056  0.026241802  0.026552698            3 
 1266000    1.0249305   -7.2103848    398.07147  0.026202704  0.026545115            4 
 1267000    1.0548777   -7.2151665      398.178  0.026189029  0.026537596            3 
 1268000    1.0648194   -7.1947255    399.00717  0.026222869  0.026530188            3 
 1269000    1.0638062   -7.2535387    398.50873  0.026169473  0.026522692            3 
 1270000    1.0441983   -7.2417654     398.1822  0.026127441  0.026514955            4 
 1271000    1.0417359   -7.2633205    397.88505  0.026087402  0.026507261            3 
 1272000    1.0413989   -7.2241803    398.65379  0.026117256   0.02649948            3 
 1273000    1.0610769   -7.2236055    400.03098  0.026186893  0.026491819            3 
 1274000    1.0312686   -7.2246376    398.68985  0.026078614  0.026483963            2 
 1275000    1.0560967   -7.2210819    399.34289  0.026100842  0.026476342            2 
 1276000    1.0531968   -7.2603098    399.42137  0.026085512  0.026468675            4 
 1277000    1.0816154   -7.2534772    399.93688  0.026098726  0.026460974            4 
 1278000    1.0453705   -7.2122461    401.07302  0.026152388  0.026453336            1 
 1279000     1.051643   -7.2436519    399.80111  0.026049069  0.026445688            6 
 1280000    1.0644967   -7.2461956    400.33795  0.026063669     0.026438            3 
 1281000    1.0500483   -7.2143464    400.27936  0.026039511  0.026430271            6 
 1282000    1.0256682   -7.2274438    400.51399  0.026034451  0.026422646            5 
 1283000    1.0600589   -7.2479272    401.96148  0.026108176  0.026414997           11 
 1284000    1.0651395   -7.2466768    399.72808  0.025942892  0.026407386            3 
 1285000    1.0588516   -7.2131457    401.81451   0.02605801  0.026399802            5 
 1286000       1.0352   -7.2217147     401.4187  0.026012098  0.026392331            2 
 1287000     1.063391   -7.2822365    400.57909  0.025937522  0.026384629            3 
 1288000    1.0514858   -7.2929738     401.8708  0.026000958  0.026376664            3 
 1289000    1.0592257   -7.2139623    402.74877  0.026037547  0.026368879            3 
 1290000    1.0340292   -7.2581521    402.03041  0.025970956  0.026361154            3 
 1291000    1.0230769   -7.2409378    402.49778  0.025981008  0.026353553            6 
 1292000    1.0469248    -7.266719    403.31397  0.026013543  0.026345885            9 
 1293000    1.0274134   -7.2065498    402.82441  0.025961872  0.026338138            5 
 1294000    1.0348453   -7.2463159    402.14387  0.025897982  0.026330549            4 
 1295000    1.0410564   -7.2542073     403.0392  0.025935598  0.026322729            3 
 1296000    1.0470749   -7.2938338    402.71421  0.025894689  0.026314818            4 
 1297000    1.0684399   -7.3090855    402.24097  0.025844318  0.026306851            7 
 1298000     1.050276    -7.283751    403.07655  0.025878053  0.026298941            5 
 1299000    1.0345047   -7.2528165    403.28474  0.025871487  0.026291004            2 
 1300000    1.0372789   -7.2647663    403.14606  0.025842696  0.026283078            3 
 1301000    1.0457861   -7.2412924    404.13043  0.025885885  0.026275273            3 
 1302000    1.0514565   -7.2435538    404.89499  0.025914938  0.026267452            3 
 1303000    1.0467367   -7.2071254    405.30945  0.025921556  0.026259746            6 
 1304000     1.039884   -7.2001229    406.10716  0.025952656  0.026252058            2 
 1305000    1.0632699   -7.2608521    405.08784  0.025867678  0.026244399            3 
 1306000    1.0427302   -7.2758971    405.48213   0.02587303  0.026236611            4 
 1307000    1.0567698   -7.2605159    404.42477  0.025785818  0.026228696            8 
 1308000    1.0329279   -7.2091915     405.8719  0.025858301  0.026220735            2 
 1309000    1.0402226   -7.2496216    406.43232  0.025874224  0.026212947            9 
 1310000    1.0352455    -7.293153    405.19863  0.025775994  0.026205029            5 
 1311000    1.0544008   -7.2294542    407.69341  0.025914913  0.026197257            3 
 1312000    1.0448176   -7.2940138    406.18885  0.025799596  0.026189558            3 
 1313000    1.0508523   -7.2644623    406.18182  0.025779501  0.026181846            5 
 1314000    1.0355149   -7.2531051    406.88133  0.025804245  0.026174142            4 
 1315000    1.0411423   -7.2567538    406.86132  0.025783354  0.026166457            3 
 1316000    1.0462134   -7.2358181    407.95695   0.02583314  0.026158819            2 
 1317000    1.0417002   -7.2975761    407.74174  0.025799908  0.026151064           10 
 1318000    1.0243298   -7.2688401    407.37802  0.025757335  0.026143374            3 
 1319000    1.0339653   -7.2417863    408.21836    0.0257909  0.026135645            2 
 1320000    1.0648765   -7.2859005    406.74364   0.02567826  0.026127862            7 
 1321000    1.0553105   -7.2227416    408.94679  0.025797804  0.026120169            6 
 1322000    1.0448006   -7.2533642    409.58533  0.025818541  0.026112637            3 
 1323000    1.0203948    -7.281969    409.22425  0.025776282   0.02610504            4 
 1324000    1.0309418   -7.2723204    408.92426  0.025737932  0.026097409            2 
 1325000    1.0414805    -7.262853     409.0175  0.025724371  0.026089895            3 
 1326000    1.0376999   -7.2508501    411.83671  0.025882146   0.02608246            7 
 1327000    1.0463334   -7.2601607    409.47847  0.025714549  0.026074962            7 
 1328000       1.0443   -7.2626358    410.37325  0.025751334  0.026067399            2 
 1329000    1.0128356   -7.2658886    410.07222  0.025713081  0.026059683            6 
 1330000    1.0408326   -7.2550635     411.8108  0.025802681  0.026052203            5 
 1331000    1.0510795   -7.2915652    410.96605  0.025730406  0.026044675            6 
 1332000    1.0400924   -7.2507425    410.39819  0.025675562  0.026037088            2 
 1333000    1.0358149   -7.2512408    411.82556  0.025745534  0.026029464            3 
 1334000     1.025858    -7.278397    412.19404  0.025749253  0.026022036            5 
 1335000    1.0465286   -7.2855509    412.50061  0.025749101  0.026014555            5 
 1336000    1.0554973   -7.2703496    411.56993  0.025671777  0.026006976            3 
 1337000    1.0187171   -7.2709856    412.59553  0.025716501  0.025999529            9 
 1338000    1.0428949   -7.2705103    412.56091  0.025695124  0.025991998            6 
 1339000    1.0393796   -7.2875878    411.68032   0.02562113  0.025984414            6 
 1340000    1.0391416   -7.2749597    413.43277  0.025710993  0.025976917            4 
 1341000    1.0376492   -7.2140265     414.6794  0.025769289  0.025969596            4 
 1342000    1.0283682   -7.2790211     412.5396  0.025617213   0.02596217            4 
 1343000    1.0373662   -7.2498233    412.86733  0.025618474  0.025954719           11 
 1344000    1.0423445   -7.2287634    414.08673  0.025675021  0.025947392            3 
 1345000    1.0231867   -7.2579652    414.65893  0.025691384  0.025939886            3 
 1346000    1.0476022   -7.2844471    413.71244  0.025613697  0.025932425            4 
 1347000    1.0295841   -7.2635226    414.01831  0.025613605   0.02592491            3 
 1348000    1.0521189   -7.2964934     412.3599  0.025492081  0.025917376            3 
 1349000    1.0596508   -7.2292058    415.18376  0.025647625  0.025909682           11 
 1350000    1.0353184   -7.2416863    415.62622   0.02565594  0.025902197            3 
 1351000     1.044911   -7.2584775    414.04794  0.025539597  0.025894641            3 
 1352000     1.032856   -7.2755241    415.98033  0.025639813  0.025886977            3 
 1353000    1.0030837   -7.2942836    414.18939  0.025510556  0.025879261            4 
 1354000    1.0362497   -7.2602482    415.60817  0.025579036  0.025871496            6 
 1355000    1.0256502    -7.248625    416.39494  0.025608545  0.025863865            8 
 1356000    1.0317245   -7.2444635    417.14935  0.025636022  0.025856345            4 
 1357000    1.0283486   -7.2722423    415.65361  0.025525277  0.025848691            3 
 1358000    1.0409346   -7.2879585    415.65805  0.025506753  0.025840998            6 
 1359000    1.0223951   -7.3136881    415.38367   0.02547116  0.025833375            4 
 1360000    1.0350558   -7.3022845    415.83973  0.025480376  0.025825754            3 
 1361000      1.00705   -7.2710504    416.87786  0.025525218  0.025818237            5 
 1362000    1.0285608   -7.2611649    417.11209  0.025520808  0.025810673            3 
 1363000    1.0434245   -7.2675676    417.46503  0.025523663   0.02580294            3 
 1364000    1.0321627   -7.2565075    417.96666  0.025535597  0.025795355            6 
 1365000    1.0155666   -7.2944582    416.86787  0.025449809  0.025787741            6 
 1366000    1.0356904   -7.2870178    416.91722  0.025434189  0.025780008            4 
 1367000    1.0216604   -7.2648297    416.53528  0.025392299  0.025772297            5 
 1368000    1.0425705   -7.2802504    416.38461  0.025364559  0.025764519            3 
 1369000    1.0200583   -7.2327562    417.30441  0.025402021  0.025756581            3 
 1370000    1.0621248   -7.2961276    416.91367  0.025359712  0.025748904            3 
 1371000    1.0624914   -7.2563852    418.22401  0.025420861  0.025741219            3 
 1372000    1.0306621   -7.2666438    417.95162  0.025385788  0.025733516            6 
 1373000    1.0153508   -7.2491254    419.06762  0.025435034  0.025725974            8 
 1374000    1.0304626   -7.2878188    418.34421  0.025372648  0.025718256            3 
 1375000    1.0354106   -7.2560044     419.2183   0.02540717  0.025710505            2 
 1376000    1.0164714    -7.285318    419.28069  0.025392483  0.025702779           11 
 1377000   0.99996384   -7.2925095    420.12424  0.025425093   0.02569516            8 
 1378000    1.0391645    -7.283669    419.30399  0.025357038  0.025687544            7 
 1379000    1.0181976   -7.2874472    419.96971   0.02537888  0.025679806            6 
 1380000    1.0362446   -7.2687654    419.76244  0.025347973  0.025672028            3 
 1381000    1.0271784   -7.2897312    419.33397  0.025303763  0.025664248            8 
 1382000     1.040577   -7.3223549     419.8806  0.025318415  0.025656514            6 
 1383000    1.0524334   -7.2848587    419.11296  0.025253854  0.025648702           15 
 1384000    1.0308753   -7.2976846    420.52634  0.025320709  0.025640795            4 
 1385000    1.0514564   -7.2848623    420.82279  0.025320264  0.025633165            3 
 1386000    1.0137765   -7.2369804     420.0905  0.025257966  0.025625547            3 
 1387000    1.0340221    -7.271993    421.34942  0.025315394  0.025617883            4 
 1388000    1.0513767   -7.3074054    419.95452  0.025213408  0.025610158            2 
 1389000    1.0295544   -7.2403229    423.45097  0.025405026  0.025602479           10 
 1390000    1.0168192   -7.2634895    422.61937  0.025336892  0.025594997            7 
 1391000    1.0344596   -7.3007543    421.37923  0.025244382  0.025587483            6 
 1392000    1.0151359   -7.2700097    422.03335  0.025265407  0.025579935            3 
 1393000    1.0303885   -7.2779941    423.85981  0.025356533  0.025572469            5 
 1394000    1.0074601   -7.2430996    424.34911  0.025367594  0.025565048            7 
 1395000    1.0319093   -7.2806398    423.66839  0.025308745  0.025557547            3 
 1396000     1.024001   -7.2791173    422.81743  0.025239818  0.025549902            4 
 1397000    1.0245901   -7.3227995    422.39512  0.025196559  0.025542261            4 
 1398000    1.0281133   -7.3123901    423.28692  0.025231695  0.025534682            3 
 1399000     1.029637   -7.2644864    423.72809  0.025239938   0.02552712            3 
 1400000    1.0011072   -7.3488904    422.55018  0.025151797  0.025519377            4 
 1401000    1.0417664   -7.3306154    423.92618   0.02521569  0.025511563            2 
 1402000     1.038842   -7.3223006    421.94484  0.025079936  0.025503804            3 
 1403000    1.0322145   -7.2994556    424.38708   0.02520712   0.02549612           11 
 1404000    1.0151864    -7.312093    425.24886  0.025240317  0.025488496            4 
 1405000    1.0186337   -7.2534934    424.80184  0.025195838  0.025480915            6 
 1406000    1.0303674   -7.3174736    423.72332  0.025113995  0.025473235            3 
 1407000     1.027523   -7.2896369    423.72005  0.025095952  0.025465359            3 
 1408000    1.0291565     -7.25903     425.8501  0.025204197  0.025457618            4 
 1409000    1.0336352   -7.3124292    424.71527   0.02511919   0.02544981            3 
 1410000    1.0253361    -7.274028    425.34511    0.0251386  0.025441931            7 
 1411000    1.0236743    -7.249592    425.17176  0.025110546  0.025434161            4 
 1412000     1.017559   -7.2743273    426.35516  0.025162604  0.025426453            5 
 1413000    1.0496743   -7.2951857    425.43259  0.025090386  0.025418753            6 
 1414000    1.0346266   -7.2924228    424.61195  0.025024278  0.025411027            3 
 1415000     1.005373    -7.352884    424.37587   0.02499269  0.025403304            4 
 1416000    1.0244085   -7.2813396    425.01125  0.025012432  0.025395484            7 
 1417000    1.0265206   -7.3288586    425.84029  0.025043536  0.025387582            4 
 1418000    1.0338535   -7.3203086     425.8753  0.025027933  0.025379732            2 
 1419000    1.0379293   -7.3169701    425.86782  0.025009855  0.025371889            7 
 1420000    1.0577198   -7.2784283    426.79622  0.025046727  0.025364086            4 
 1421000    1.0393305   -7.3098604    426.02446  0.024983841  0.025356212            4 
 1422000    1.0227796   -7.2982086    426.46115  0.024991863  0.025348222            8 
 1423000    1.0245126   -7.3091036    425.24289  0.024902957  0.025340098            8 
 1424000    1.0312151   -7.2970736     426.8031  0.024976773  0.025331957            3 
 1425000    1.0091523   -7.3031309     426.4374  0.024937859  0.025323821            3 
 1426000   0.99191346   -7.2670585    426.58306  0.024928884  0.025315763            4 
 1427000    1.0165412   -7.2874661    427.10672  0.024941995  0.025307801            3 
 1428000    1.0338311   -7.3020946    427.17077  0.024928266   0.02529978            4 
 1429000    1.0359229   -7.2993305    427.45708  0.024927518  0.025291742            4 
 1430000    1.0259442   -7.2651324    428.29816    0.0249591  0.025283732            5 
 1431000    1.0369262   -7.2973084    427.80775    0.0249131  0.025275652            5 
 1432000    1.0354845   -7.3417112     426.5229  0.024820932  0.025267489            9 
 1433000    1.0156143   -7.3625649    426.94424  0.024828114  0.025259253            6 
 1434000    1.0290618   -7.3408245    426.66549  0.024794601  0.025251051            3 
 1435000     1.017751   -7.3056256    427.23867  0.024810608  0.025242899            6 
 1436000     1.028158   -7.3496374    426.76098  0.024765609  0.025234687            4 
 1437000    1.0295774   -7.2964728    427.24674  0.024776545  0.025226334            2 
 1438000    1.0335035   -7.3217311    427.56141   0.02477755   0.02521802            3 
 1439000    1.0249433   -7.3154814    426.37066  0.024691375  0.025209753           10 
 1440000    1.0194025   -7.3171773    427.14934   0.02471929   0.02520147            5 
 1441000   0.99787234   -7.3378159    428.00216  0.024751455  0.025193221            5 
 1442000    1.0264794   -7.3117299      426.687  0.024658287  0.025184927            4 
 1443000    1.0279523   -7.3005897     429.1476  0.024783299  0.025176796            2 
 1444000    1.0135657   -7.3198595    427.96909  0.024698124  0.025168552            4 
 1445000    1.0169816   -7.3321185    427.32673  0.024643987  0.025160251            7 
 1446000    1.0325454   -7.3551099    427.69648  0.024648253   0.02515193            5 
 1447000    1.0382162   -7.3396222    429.30319   0.02472375  0.025143501            9 
 1448000     1.027406   -7.3664689    428.81392  0.024678517  0.025135109            6 
 1449000    1.0344953   -7.3496042    428.63385   0.02465113  0.025126761            8 
 1450000    1.0302666   -7.3281455    429.79196  0.024700688  0.025118358            3 
 1451000   0.98642016   -7.3013508    430.25696   0.02471037  0.025110035            3 
 1452000    1.0243073   -7.2731062    430.18686  0.024689329  0.025101696            5 
 1453000    1.0224781   -7.3140214    429.90508  0.024656176  0.025093537            4 
 1454000    1.0364339   -7.3304535    430.23941   0.02465838  0.025085304            2 
 1455000    1.0123297   -7.3117388    431.15614  0.024693937  0.025077048            6 
 1456000    1.0004657   -7.3192741    430.95384  0.024665399   0.02506878           15 
 1457000    1.0106798   -7.2936199    429.68307  0.024575787  0.025060596            2 
 1458000     1.029303   -7.3384949    430.33577  0.024596238  0.025052268            5 
 1459000    1.0104604   -7.3307363    431.83963  0.024665275  0.025043896            3 
 1460000    1.0069871    -7.352615     429.8916  0.024537192  0.025035666            7 
 1461000    1.0283291   -7.3611276    431.91975   0.02463608  0.025027391            2 
 1462000    1.0047292   -7.3632121    431.10679  0.024572891  0.025019041            7 
 1463000    1.0048081   -7.3552828    431.30554  0.024567415   0.02501073            4 
 1464000    1.0247806   -7.3726511    430.99626  0.024533029  0.025002543            7 
 1465000    1.0202865   -7.3316306    431.16178  0.024525699  0.024994248            4 
 1466000    1.0076916   -7.3315369    432.24919  0.024570782  0.024986073            7 
 1467000    1.0132254   -7.3376177    431.71029   0.02452342  0.024978027            7 
 1468000    1.0241478   -7.2911898    433.44189  0.024605012  0.024969874            9 
 1469000    1.0107201   -7.3556254    431.03484  0.024451715  0.024961786            4 
 1470000    1.0255769   -7.3372468    433.21881  0.024558889  0.024953639           11 
 1471000    1.0260061   -7.3389791    435.13743  0.024650886  0.024945513            4 
 1472000    1.0192712   -7.3130089    434.21113  0.024581699  0.024937431            4 
 1473000    1.0002845   -7.3007414    433.44959  0.024521927  0.024929398            3 
 1474000    1.0073495   -7.3013927    434.98314  0.024591991  0.024921444           13 
 1475000    1.0097588   -7.3101445    434.30326  0.024536907  0.024913444           12 
 1476000    1.0146156   -7.3366415    434.17765  0.024513192  0.024905354            2 
 1477000    1.0526931   -7.3263329     434.5121  0.024515465  0.024897258            2 
 1478000    1.0464591   -7.3387564    434.25107  0.024484161  0.024889272            4 
 1479000    1.0128446   -7.3573891    433.51005  0.024425854  0.024881075            3 
 1480000    1.0154399    -7.344859     434.0811  0.024441503  0.024873025            4 
 1481000    1.0311913   -7.3341454    434.17085   0.02443005  0.024865011            2 
 1482000    1.0146119   -7.3196618     435.3712  0.024481062  0.024856914            6 
 1483000    1.0081384   -7.3277558     435.4485  0.024468897  0.024848848            4 
 1484000    1.0270422   -7.2978818     436.4634    0.0245094  0.024840833            7 
 1485000    1.0199413   -7.3492962    435.45284  0.024436186  0.024832629            7 
 1486000    1.0029265   -7.3527956    435.15732   0.02440317  0.024824369            8 
 1487000    1.0104418   -7.3536808     435.7848  0.024421923  0.024816378           10 
 1488000    1.0059114   -7.3268016    438.07582  0.024533816  0.024808453            3 
 1489000    1.0294017   -7.3498543    435.83728  0.024392057  0.024800467            4 
 1490000    1.0188294   -7.3527735    435.76451  0.024371617  0.024792469            8 
 1491000    1.0107898   -7.3387592    436.36421  0.024388789  0.024784475            6 
 1492000    1.0326795   -7.3590053    435.60925  0.024330275  0.024776407            5 
 1493000    1.0228503   -7.3514306    436.25861  0.024350224  0.024768313            4 
 1494000    1.0080499    -7.342296     438.1613  0.024440055  0.024760284            2 
 1495000     1.014066   -7.3053364    438.69854  0.024453654  0.024752378            3 
 1496000    1.0069447   -7.3901518    436.21451  0.024298937  0.024744269            6 
 1497000    1.0031613   -7.3099429    437.92191  0.024377751  0.024736315            7 
 1498000    1.0044439   -7.3395582    437.79747  0.024354555  0.024728253           13 
 1499000    1.0074815   -7.3430025    437.79309  0.024338064  0.024720258            5 
 1500000    1.0044228   -7.3712371    436.41153  0.024245085  0.024712168            1 
 1501000    1.0135516   -7.3371931    438.52659  0.024346358  0.024704069            6 
 1502000    1.0028438   -7.3320691     439.2711  0.024371455  0.024696138            4 
 1503000    1.0316814   -7.3400155    438.70511  0.024323858  0.024688137            3 
 1504000     1.001069   -7.3892849    437.48949  0.024240331  0.024679934            4 
 1505000     0.999051   -7.3513172    438.47295  0.024278679  0.024671689            6 
 1506000    1.0121109    -7.329695    438.01716  0.024237337   0.02466353            3 
 1507000    1.0004921   -7.3595201    438.66207  0.024256916  0.024655339            9 
 1508000    1.0322197   -7.3425588    440.13316  0.024322124  0.024647247            6 
 1509000    1.0043602   -7.3512698    439.66449  0.024280124  0.024639194            6 
 1510000   0.99590957   -7.3381762    440.95323  0.024335167  0.024631255            3 
 1511000   0.99212257   -7.3050496    441.62768  0.024356258  0.024623339            5 
 1512000    1.0061492    -7.320009    440.18441  0.024260604  0.024615484            4 
 1513000    0.9943912   -7.3653109    439.87717  0.024227648  0.024607491            7 
 1514000     1.013654   -7.3515868    441.35305   0.02429288  0.024599599            6 
 1515000    1.0040706   -7.3489668    441.08184  0.024261927  0.024591495            4 
 1516000   0.99946789   -7.3452223    440.87125  0.024234348  0.024583441            3 
 1517000   0.98554454   -7.3106847    441.36289   0.02424538    0.0245755            3 
 1518000    1.0246312   -7.3045432    441.34737  0.024228556  0.024567584           10 
 1519000    1.0384989   -7.3265464    442.65756  0.024284483  0.024559694           19 
 1520000    1.0267295   -7.3586784    441.26969  0.024192417  0.024551693            7 
 1521000   0.99967376   -7.3525638    440.40647  0.024129217  0.024543602           12 
 1522000    1.0217571    -7.355941    441.76038  0.024187493  0.024535565            4 
 1523000   0.99871934   -7.3417033    441.70213  0.024168425  0.024527657            6 
 1524000    1.0067073   -7.3431905    441.74031  0.024154654  0.024519735            5 
 1525000    1.0014282   -7.3551966    441.58667  0.024130419  0.024511684            2 
 1526000    1.0072002   -7.3286837     442.4425  0.024161342  0.024503705            2 
 1527000    1.0271804   -7.3679572    443.10392  0.024181615  0.024495831            3 
 1528000   0.99713663   -7.3504265    442.82232  0.024150432  0.024487922            3 
 1529000    1.0238982    -7.296711    444.71537  0.024237812  0.024480186            9 
 1530000    1.0126649   -7.3227181    444.55106  0.024213021  0.024472428            3 
 1531000     1.025844   -7.3173008    444.24665  0.024180637  0.024464597            5 
 1532000    1.0164678   -7.3747713    443.17295  0.024106448  0.024456668           11 
 1533000    1.0050785   -7.3751956    442.45147  0.024051504  0.024448747            5 
 1534000    1.0061465   -7.3236472    444.52797   0.02414863   0.02444073            3 
 1535000   0.98018938   -7.3655526    444.95204   0.02415592  0.024432723            4 
 1536000    1.0043446   -7.3645417     442.6668  0.024016211   0.02442475            4 
 1537000    1.0019945   -7.3539298     445.1797   0.02413683  0.024416921            3 
 1538000    1.0110501   -7.3554066     444.9687  0.024109704  0.024409215            4 
 1539000    1.0194105   -7.3545451     445.0065  0.024096085  0.024401388            3 
 1540000    1.0207732   -7.3186657    445.83201  0.024125109  0.024393561            6 
 1541000    0.9926714   -7.3620357    444.07081  0.024014212   0.02438567            2 
 1542000   0.98064027   -7.3673388    443.97047  0.023993216  0.024377717            5 
 1543000    1.0199726   -7.3174069    445.68079  0.024070036  0.024369883            3 
 1544000    1.0199641   -7.3249724    446.33812  0.024089925   0.02436211            3 
 1545000    1.0163717   -7.3126936     447.0893  0.024114849  0.024354288            7 
 1546000    1.0080219   -7.3549688    445.54404  0.024015957   0.02434645            3 
 1547000    1.0049124      -7.3804    444.77465  0.023958988  0.024338535            4 
 1548000    0.9891696   -7.3688205    444.68408  0.023938635  0.024330527            9 
 1549000    1.0066081   -7.3590108    447.46595   0.02407284  0.024322581            7 
 1550000   0.99573374   -7.3125161    446.28143  0.023993625  0.024314752            4 
 1551000    1.0244736   -7.3669023    445.33385  0.023927243  0.024306869           13 
 1552000   0.98411034   -7.3165409    447.60714  0.024033888   0.02429907            7 
 1553000    1.0079164   -7.3919156    445.85163  0.023924213   0.02429124            4 
 1554000   0.99661925   -7.3997323    446.99725  0.023970251  0.024283324            4 
 1555000    1.0159508   -7.3945372    447.26207  0.023969028  0.024275364            4 
 1556000    0.9971706     -7.33776    447.86775  0.023986062  0.024267518            3 
 1557000   0.99435405   -7.3574071     447.9372  0.023974374  0.024259707            3 
 1558000   0.99731519   -7.3959054    446.76729   0.02389641  0.024251859            4 
 1559000    1.0035716   -7.3774713    447.82333  0.023937531  0.024243986            2 
 1560000    1.0068048   -7.3334975    446.33775  0.023842829  0.024236026            6 
 1561000   0.99308091   -7.3934034    447.48958  0.023889044  0.024228032            8 
 1562000    1.0021578   -7.3867284    448.31569  0.023917824   0.02422002            3 
 1563000    1.0223298   -7.3492236    448.36008  0.023904888  0.024212074            5 
 1564000    1.0220331   -7.3796744    448.24861  0.023883664   0.02420414            2 
 1565000    1.0181559   -7.3754991    447.58208  0.023832912   0.02419613            2 
 1566000   0.99383289     -7.36181    448.83559  0.023884397  0.024188023            3 
 1567000    1.0115736   -7.3321958    448.90283  0.023872731  0.024180003            3 
 1568000   0.99567732   -7.3478575    448.55747  0.023839151  0.024171973            3 
 1569000   0.98697926   -7.3852845    447.89435  0.023788738  0.024163876           11 
 1570000    1.0034927   -7.3896233    448.52794  0.023807216  0.024155724            9 
 1571000   0.97586698   -7.3602555    448.60382  0.023796086  0.024147626            4 
 1572000    0.9875387   -7.3657694    449.27873  0.023816727  0.024139606            3 
 1573000    1.0250775   -7.3616567     450.3276  0.023857152  0.024131724            2 
 1574000   0.98845046   -7.3790169    448.09615  0.023723854  0.024123803            3 
 1575000     1.023722   -7.3688979    449.96011  0.023807413  0.024115769            3 
 1576000     1.017548   -7.4058475    449.67433  0.023777196  0.024107779            6 
 1577000    1.0008506   -7.3999538    447.56611  0.023650714  0.024099676            5 
 1578000    1.0133813   -7.4298639    448.76968  0.023699286  0.024091487            7 
 1579000   0.99555791   -7.3595691    449.97448  0.023747861  0.024083358            4 
 1580000    1.0172826   -7.3920666    449.96855  0.023732518  0.024075294            3 
 1581000    1.0023706   -7.4018139    449.58692  0.023697392  0.024067121            9 
 1582000   0.96573315   -7.3947648    449.42944  0.023674117  0.024059032            6 
 1583000    1.0013898    -7.377796    450.58431  0.023719957  0.024051038            3 
 1584000    1.0014123   -7.3680669    451.47213  0.023751691  0.024043114            2 
 1585000    1.0090725   -7.3727953    449.86916  0.023652427  0.024035091            6 
 1586000    1.0041143   -7.3945019    450.84941  0.023689019  0.024027009            7 
 1587000    1.0137529   -7.4396378    450.12245   0.02363592   0.02401889            4 
 1588000    1.0083389   -7.4185035     450.0104  0.023615155    0.0240108            5 
 1589000    1.0102322   -7.4089759    451.94252  0.023701622  0.024002848            3 
 1590000   0.99552189   -7.3947678     451.3143  0.023653789  0.023994866            8 
 1591000   0.97672074   -7.4064627    451.42372  0.023644653  0.023986952            4 
 1592000    1.0199524   -7.4013968    452.53507  0.023687975  0.023978942            3 
 1593000    1.0185848    -7.350867    452.48559  0.023670516  0.023971106            4 
 1594000   0.97141739   -7.3723683    453.98535  0.023734073  0.023963167            3 
 1595000   0.98607489   -7.3649612    452.12829  0.023622168  0.023955302            3 
 1596000   0.99893199    -7.344013    453.27607  0.023667297  0.023947454            4 
 1597000    1.0052433    -7.370865    454.37272  0.023709702  0.023939517            3 
 1598000   0.99376291   -7.3994746    453.75803  0.023662809  0.023931618            4 
 1599000    1.0005367   -7.3910683    453.64527  0.023642134  0.023923803            7 
 1600000   0.99727828    -7.439141    452.06572   0.02354509  0.023915788            4 
 1601000   0.98307366   -7.3890589    453.92192     0.023627  0.023907888            3 
 1602000   0.99191505   -7.3433608    454.28557  0.023631168  0.023900056            4 
 1603000    0.9791139   -7.3848454     452.7694  0.023537606  0.023892185            7 
 1604000   0.97391982   -7.3975886    452.90648  0.023530054  0.023884283            5 
 1605000   0.98641761   -7.4086456    454.68981  0.023607986  0.023876255            7 
 1606000   0.99421181   -7.4116197    453.44547  0.023528719  0.023868375            4 
 1607000     1.006172   -7.3582171    454.37283  0.023562167  0.023860431            2 
 1608000    0.9842955   -7.3887011    454.95885  0.023577884  0.023852493            3 
 1609000   0.99364668   -7.3763152    453.24846  0.023474646  0.023844472            7 
 1610000    1.0014447   -7.4335739    453.74316  0.023485671  0.023836561            6 
 1611000   0.99923367   -7.3577174    456.60166  0.023618956  0.023828628            4 
 1612000   0.98575244   -7.3954307     454.4149  0.023491258   0.02382077            6 
 1613000   0.99525583     -7.38625    455.97949  0.023557527  0.023812838            6 
 1614000   0.99578386   -7.3650779    454.73966  0.023478917  0.023804936            3 
 1615000   0.98663676   -7.4090846    455.22536  0.023489441  0.023797019            3 
 1616000   0.96860009   -7.3801972       455.85  0.023507116  0.023789201            3 
 1617000    1.0079127   -7.3823508    454.88455  0.023442824  0.023781333            5 
 1618000   0.98874952    -7.374944    455.50913  0.023460503   0.02377338            4 
 1619000   0.98454767   -7.3547403    456.66886  0.023505706    0.0237654            3 
 1620000   0.99989154   -7.3523083    456.22988  0.023468615    0.0237575            4 
 1621000    1.0039564    -7.384742    454.61868  0.023371308  0.023749498            5 
 1622000   0.98410946   -7.4140969    455.46793  0.023400531  0.023741432            9 
 1623000   0.99081121    -7.363282    456.29846  0.023428756  0.023733324           13 
 1624000   0.99992113    -7.387721    455.82979  0.023390281  0.023725248            8 
 1625000    1.0076498   -7.4083807     455.3224  0.023349867  0.023717111            5 
 1626000   0.97343925   -7.3974972    455.37746  0.023338328  0.023709033            5 
 1627000   0.99159047   -7.4095722    455.91812  0.023351676  0.023700903            5 
 1628000   0.99140246   -7.4231103    454.98356  0.023289494  0.023692798            5 
 1629000     1.004829   -7.3909337    456.45575  0.023350509  0.023684601            5 
 1630000    1.0153612   -7.3802689    457.35346  0.023382079   0.02367654            3 
 1631000    1.0028461   -7.4433461     455.7099  0.023283767  0.023668473            6 
 1632000   0.98064242   -7.4392469    456.59599  0.023314746  0.023660371            2 
 1633000   0.98925057   -7.3986114    457.39405  0.023341194  0.023652215            5 
 1634000   0.99156148    -7.413609    458.07473  0.023361624  0.023644094            4 
 1635000    1.0186948   -7.4159491     456.4355  0.023263787  0.023636079            4 
 1636000   0.99730892   -7.4038716    457.50686  0.023304139   0.02362814            7 
 1637000   0.96743889   -7.3929805    457.78563  0.023304094  0.023620091            3 
 1638000    1.0036418   -7.3884813    457.40645  0.023270577  0.023612099            6 
 1639000   0.98892414    -7.380532    457.41411  0.023256768  0.023604094            4 
 1640000   0.98792307   -7.3766924    458.37894  0.023291613  0.023596151            3 
 1641000   0.99866488   -7.3902762    458.69382  0.023293409  0.023588199            2 
 1642000    1.0006972   -7.4020824    458.59103  0.023274007  0.023580235            5 
 1643000   0.97833773   -7.3904765    458.99916  0.023280542  0.023572348            4 
 1644000   0.98793951   -7.4224414    457.93245   0.02321231  0.023564301            4 
 1645000   0.98462432    -7.428603    459.44274  0.023274708  0.023556251            2 
 1646000   0.96870198   -7.3880154    460.44813  0.023311468  0.023548299            2 
 1647000   0.99343495   -7.3963776    460.15858  0.023282665   0.02354044            2 
 1648000   0.99698097   -7.3729675    460.00997  0.023261022  0.023532499            4 
 1649000   0.97555497   -7.4133202    459.79453  0.023236028  0.023524685            6 
 1650000   0.99864843   -7.3935094    459.57597  0.023210908  0.023516745            9 
 1651000   0.97010125    -7.430342    459.09828  0.023172738   0.02350874            4 
 1652000    1.0023301   -7.4424355    460.43857   0.02322632  0.023500762            7 
 1653000   0.99221303   -7.4347265    460.55682  0.023218231  0.023492842            6 
 1654000   0.99124595   -7.3893091    460.78915  0.023215898  0.023485007            9 
 1655000   0.98991429   -7.4400444    460.67669  0.023196208   0.02347726            7 
 1656000   0.99276635   -7.4196468    461.49011  0.023223134   0.02346947            7 
 1657000   0.97281235   -7.3977184     460.8941  0.023179144  0.023461789            5 
 1658000   0.99199875   -7.4083103    461.96475  0.023218976  0.023454078            7 
 1659000    1.0027296   -7.4338572    460.97465  0.023155247   0.02344623            5 
 1660000    1.0081734   -7.4225761    461.58503  0.023171939   0.02343833            4 
 1661000   0.98306773   -7.4508701    461.35121  0.023146258  0.023430416            9 
 1662000   0.98806162   -7.4217288    461.78554  0.023154108   0.02342244            6 
 1663000   0.98576698   -7.4312639    461.04194  0.023102924  0.023414565            5 
 1664000   0.96157078   -7.4288206    460.91752  0.023082808  0.023406705            5 
 1665000   0.98479109   -7.4318955    463.10995  0.023178676  0.023398843           13 
 1666000    1.0028412   -7.4458245    462.07921  0.023113206  0.023390908            8 
 1667000   0.99038392   -7.3949428    463.62007  0.023176368  0.023383119            5 
 1668000   0.97592308   -7.4243308      461.951  0.023079087   0.02337537            6 
 1669000   0.96918543    -7.419317    463.13376  0.023124314  0.023367556            5 
 1670000   0.96301897   -7.4306085    463.13984   0.02311077  0.023359755            3 
 1671000   0.98878649   -7.4048319    463.38893  0.023109362  0.023352025            4 
 1672000   0.97657757   -7.4083779    464.13251  0.023132601  0.023344339            2 
 1673000   0.99961509   -7.4003402     463.7997  0.023102196  0.023336654            2 
 1674000   0.98591536   -7.4214338    464.01201  0.023098965   0.02332895            6 
 1675000   0.99612442   -7.3685564    465.52245  0.023160321  0.023321289            5 
 1676000   0.99128458   -7.4554114    464.10479  0.023076014  0.023313616            4 
 1677000   0.97681674   -7.3907793    463.37611  0.023026044  0.023305896            6 
 1678000   0.99851723   -7.4158883     464.0028  0.023043445  0.023298134            3 
 1679000   0.98025592   -7.4022632    464.63679  0.023061187  0.023290386            3 
 1680000   0.96398055   -7.3808024    464.10143  0.023020904  0.023282645            4 
 1681000   0.97748825   -7.4452207     464.0196  0.023003153   0.02327498            4 
 1682000   0.99690936   -7.4149044     464.1929  0.022998063  0.023267283            4 
 1683000   0.99796748   -7.4265765     464.5811  0.023003619  0.023259705            8 
 1684000   0.96967717   -7.3948798    466.96759  0.023108056  0.023252059           11 
 1685000    0.9795067   -7.4050369    464.96006  0.022995057  0.023244302            3 
 1686000   0.97194277    -7.455678    464.99435  0.022983114  0.023236586            5 
 1687000   0.95700132    -7.446974    464.92087   0.02296586  0.023228775            5 
 1688000   0.98490118   -7.4388146     464.0945  0.022911458  0.023220903            3 
 1689000   0.95551659   -7.4400014    465.45719  0.022965127  0.023213004            4 
 1690000   0.98432915   -7.4029242     465.2347  0.022940567  0.023205143            2 
 1691000   0.97411084   -7.4277089    465.85716  0.022957676  0.023197243            8 
 1692000    0.9815471   -7.4190375    466.59356  0.022980376  0.023189429            4 
 1693000   0.97080784   -7.4474976    464.74216  0.022875672  0.023181595            2 
 1694000   0.96662455   -7.4582281    465.51855  0.022900362  0.023173776            4 
 1695000    0.9703561   -7.4515033    466.10856  0.022915858  0.023165829            3 
 1696000     0.972993   -7.4544725    464.68073   0.02283219  0.023157979            2 
 1697000   0.99013816    -7.436221    466.36463  0.022901426  0.023150195            3 
 1698000    1.0062295   -7.4557537    464.59235  0.022800959  0.023142346            3 
 1699000   0.99484358   -7.4236654    465.95466  0.022854358  0.023134471            7 
 1700000   0.99560129   -7.4153232    467.91626  0.022937072  0.023126599           10 
 1701000   0.97994541   -7.4070129    465.60993  0.022810598  0.023118741            5 
 1702000     0.966346   -7.4182157    466.11328  0.022821841  0.023110824            4 
 1703000   0.98381322   -7.4350874    465.61667  0.022784139  0.023102918           17 
 1704000   0.97550518   -7.4303145    466.22573  0.022800554    0.0230951            5 
 1705000   0.95428008   -7.4443079    466.01321  0.022776794   0.02308707            3 
 1706000   0.97871979   -7.4484362     466.1048  0.022767917  0.023079059            4 
 1707000   0.98890416   -7.4382553    466.85508  0.022791207  0.023071099            6 
 1708000   0.97878507   -7.4660091    466.53143  0.022762072  0.023063135            8 
 1709000   0.99798862   -7.4442298    465.77856  0.022712042  0.023055168            5 
 1710000   0.96606518    -7.443015    466.45873  0.022731907  0.023047199            3 
 1711000   0.98550381   -7.4583715    467.24295  0.022756816  0.023039276            5 
 1712000   0.97771549   -7.3906706    467.18761   0.02274083   0.02303143            7 
 1713000   0.99015349   -7.4273423    467.90985   0.02276269  0.023023592            5 
 1714000   0.98895796   -7.3976935    468.71763  0.022788683  0.023015675            3 
 1715000   0.98910434   -7.4633907    466.69512   0.02267712  0.023007874            3 
 1716000   0.98332409   -7.4499568    467.94587  0.022724644  0.022999952            5 
 1717000   0.98424552   -7.4371179    469.52537  0.022788069  0.022992119            3 
 1718000   0.97817593   -7.4100781    469.60273  0.022778557  0.022984356            3 
 1719000   0.97832914   -7.3967757    469.20613   0.02274608  0.022976669            5 
 1720000   0.98733896    -7.449031    470.52982  0.022796987  0.022968971            7 
 1721000   0.97050073   -7.4591481    468.72481   0.02269634  0.022961175            2 
 1722000   0.98360925   -7.4832395    468.03581  0.022649816  0.022953374            4 
 1723000   0.97084875   -7.4697669    468.97213  0.022681956  0.022945563            4 
 1724000   0.96428734   -7.4527557    468.74824  0.022657978  0.022937756            7 
 1725000   0.97321351   -7.4646412    469.85296  0.022698211  0.022929954            7 
 1726000   0.97568687    -7.427877    469.43771  0.022665011  0.022922222            4 
 1727000   0.98934718    -7.467678     469.9696  0.022677553  0.022914417           10 
 1728000   0.97207625   -7.4316753    470.50323  0.022690164  0.022906662            4 
 1729000   0.96895557   -7.4464893     469.5781  0.022632451  0.022898859            4 
 1730000   0.97052889   -7.4563417    468.80841  0.022582294  0.022891014            4 
 1731000   0.95009433   -7.4470149    469.62219  0.022608424  0.022883209            6 
 1732000   0.99211182    -7.449175    469.53636  0.022591241  0.022875433            4 
 1733000   0.97314806   -7.4390972    471.55712  0.022675376  0.022867678            7 
 1734000   0.99027371   -7.4537519    472.43669   0.02270457  0.022860056            5 
 1735000   0.99861902   -7.4358179    469.42739  0.022546945  0.022852392            3 
 1736000   0.97859718   -7.3901008    471.63304  0.022639835  0.022844901            4 
 1737000    0.9811906   -7.4479315    472.08796  0.022648626  0.022837318            2 
 1738000   0.96075708   -7.4346503    472.97008   0.02267789  0.022829606            6 
 1739000   0.96158318   -7.4512357    473.51555  0.022690989  0.022821948            5 
 1740000   0.97870372    -7.451703    471.88761  0.022599982  0.022814351            2 
 1741000   0.95995179   -7.4511562    472.51025  0.022616803  0.022806738            2 
 1742000   0.98489144   -7.4435415    472.35446  0.022596367  0.022799176            4 
 1743000   0.95402909   -7.4675649    472.85307  0.022607242  0.022791558            5 
 1744000   0.94646305   -7.4585243    473.15339  0.022608629  0.022783921            4 
 1745000   0.98563977    -7.458788    472.82971  0.022580215  0.022776298            6 
 1746000   0.96329627   -7.4490334    473.62343  0.022605166  0.022768711            5 
 1747000   0.97237013   -7.4846616    472.68809   0.02254761  0.022761033            4 
 1748000   0.96462202   -7.4751804    472.00216   0.02250201  0.022753439           10 
 1749000   0.94793018   -7.4535668    473.41351   0.02255639  0.022745921           10 
 1750000   0.96952954   -7.4634942    473.32833  0.022539444   0.02273843            7 
 1751000   0.98996953   -7.4588769    473.88395  0.022553015  0.022730925            6 
 1752000   0.96752317   -7.4547157    475.63149  0.022623264  0.022723439            3 
 1753000   0.97176135   -7.4663465    475.53149  0.022605604  0.022715949            5 
 1754000   0.96147528   -7.3751139    478.26871  0.022722762  0.022708536            2 
 1755000   0.97744867   -7.4689337    474.68582  0.022539688  0.022701094           10 
 1756000   0.97632336   -7.4511712    476.60571  0.022617963  0.022693713            6 
 1757000   0.98625843   -7.4622599    475.00616  0.022529224  0.022686253           13 
 1758000   0.96978525   -7.4369688    475.69619  0.022549118  0.022678858            4 
 1759000   0.95934929   -7.4668929    476.95299   0.02259584  0.022671383            5 
 1760000   0.95763549   -7.4682273      474.434  0.022463731  0.022663903            6 
 1761000   0.98792652   -7.4941699     474.6202  0.022459786  0.022656328            9 
 1762000   0.94598861   -7.4573307    475.78394  0.022502078  0.022648856            2 
 1763000   0.98196848   -7.4436736    476.59697  0.022527745   0.02264135            2 
 1764000     0.951172   -7.4196698     476.7933  0.022524249  0.022633902            3 
 1765000   0.96998533   -7.4406791    476.84482   0.02251392  0.022626455            4 
 1766000   0.95135219   -7.4764508     476.2306  0.022472187  0.022618969            7 
 1767000   0.96360471   -7.4625926    476.28841  0.022462196  0.022611468            6 
 1768000   0.97169431   -7.4392769    476.30649  0.022450344  0.022603989            7 
 1769000   0.94645062   -7.4865483    475.73883  0.022410912  0.022596418            5 
 1770000   0.99619027    -7.468772    475.83014  0.022402549  0.022588895            4 
 1771000   0.96953978   -7.4383868    476.77706  0.022434456  0.022581373            5 
 1772000   0.97473039   -7.4310039    476.21269  0.022395254  0.022573774            2 
 1773000   0.98458912   -7.4912026    476.35244  0.022389192  0.022566237           10 
 1774000   0.98305699   -7.4358715    476.18519  0.022368714  0.022558759            4 
 1775000   0.97706458   -7.4811878     477.6885   0.02242669  0.022551281            9 
 1776000   0.98548895   -7.4375747    477.84647  0.022421475  0.022543788            4 
 1777000   0.99363296    -7.477195    477.32361  0.022384338  0.022536338            4 
 1778000   0.96652251   -7.4507769    478.53662    0.0224286   0.02252893           13 
 1779000   0.99078868   -7.4881437     477.6695  0.022375375  0.022521505            3 
 1780000   0.95499875   -7.4753531    477.89805  0.022373504  0.022514057            7 
 1781000   0.99024002   -7.5029178    477.39353  0.022337335  0.022506545           18 
 1782000   0.95996118    -7.487252    477.23065  0.022317184  0.022499087            6 
 1783000   0.96800285   -7.4772259    477.51098  0.022317769  0.022491602            7 
 1784000   0.95680467   -7.5016627    478.30106  0.022342165   0.02248414            4 
 1785000   0.96580039   -7.4655621    479.00344  0.022362439  0.022476699            3 
 1786000   0.96031079   -7.5035645    479.69578  0.022382222  0.022469226            6 
 1787000   0.97831053   -7.5236174    479.12005  0.022342849  0.022461739            6 
 1788000   0.97794096   -7.4969198    478.04973  0.022280469  0.022454269            4 
 1789000   0.97684399   -7.4943084    478.67153  0.022296978  0.022446821            6 
 1790000   0.97414033   -7.4805481    479.15136   0.02230686  0.022439346            9 
 1791000   0.96598456    -7.524102    478.82171  0.022279067   0.02243191            5 
 1792000   0.97058485   -7.4648896    479.15371  0.022282073  0.022424511            5 
 1793000   0.94351671    -7.444059    480.05523  0.022311546  0.022417144            3 
 1794000   0.95704506   -7.4530117    480.35656  0.022313106  0.022409792            5 
 1795000   0.95870915   -7.4817597    479.39068  0.022255835  0.022402388            6 
 1796000   0.97403458   -7.4947207    480.53755  0.022296657  0.022394928            5 
 1797000   0.95675641   -7.4790892    479.87932  0.022253725  0.022387425            6 
 1798000   0.97106369   -7.4461937    480.52092  0.022271085  0.022380005            6 
 1799000   0.98597486   -7.5004839    480.22166  0.022244843  0.022372548            4 
 1800000   0.94516169   -7.4900954     479.3039  0.022189995  0.022365096            4 
 1801000     0.983239   -7.5285614    480.63457  0.022239246   0.02235768            9 
 1802000   0.93358675   -7.5162718    480.17163  0.022205495  0.022350189            8 
 1803000   0.95258444   -7.4997407    480.34329  0.022201113  0.022342669            5 
 1804000   0.96040956   -7.4532036    480.29194  0.022186435  0.022335199            3 
 1805000   0.97146513   -7.5036866     480.0616  0.022163509  0.022327778            3 
 1806000   0.98386543   -7.4712773    480.21565  0.022158345  0.022320301            5 
 1807000   0.96769752   -7.4808341    480.91566  0.022178365  0.022312823            9 
 1808000   0.96551144   -7.4749941    482.20995  0.022225753  0.022305383            6 
 1809000   0.94221106   -7.5386914    480.08723  0.022115682  0.022297981           10 
 1810000   0.97133907   -7.5259114    480.74471  0.022133734  0.022290503            5 
 1811000   0.94989306    -7.486718    479.92821  0.022083941  0.022282976            7 
 1812000   0.94475096   -7.5273458    480.07732  0.022078611  0.022275413            8 
 1813000   0.93334088   -7.4964215    480.93037  0.022105643  0.022267925            6 
 1814000   0.94871693   -7.5116004    481.29325  0.022110127  0.022260395            5 
 1815000   0.95974731   -7.5052539    482.72221  0.022163554  0.022253037            5 
 1816000   0.97906261   -7.4970732    481.78756   0.02210846   0.02224557            5 
 1817000    0.9431286   -7.5098051    480.81366  0.022051626  0.022238034            9 
 1818000   0.98759675    -7.487878    482.44465  0.022114258  0.022230533            6 
 1819000   0.96757926   -7.5038002    481.11643  0.022041251  0.022223028            6 
 1820000   0.96767468   -7.5088705    482.87192   0.02210952  0.022215558            3 
 1821000   0.98007966   -7.5008663    482.40965  0.022076224  0.022208028           10 
 1822000   0.94478095   -7.4943844    481.23035   0.02201017   0.02220052            6 
 1823000   0.96231247   -7.4849041    483.26783  0.022091234  0.022193076            3 
 1824000   0.96673714   -7.4376797    482.42595  0.022040659  0.022185604            5 
 1825000   0.97034479   -7.4580066    482.57703  0.022035481   0.02217825            5 
 1826000   0.97137007   -7.5328503     482.5495  0.022022157  0.022170806            7 
 1827000   0.94211197   -7.5192941    481.11827  0.021944822  0.022163277            4 
 1828000   0.96170052   -7.5458348    480.33223  0.021896984  0.022155629            6 
 1829000    0.9705413   -7.5443681    481.23679  0.021926225  0.022148019            3 
 1830000   0.96362708   -7.5129149    483.43952   0.02201455  0.022140372            5 
 1831000   0.94888413   -7.5058065    482.39939  0.021955188  0.022132879            4 
 1832000   0.95150062   -7.5223509      482.655  0.021954831  0.022125268            4 
 1833000    0.9665012   -7.5073007    483.03502   0.02196013  0.022117659           16 
 1834000   0.97179791   -7.4900981     482.3048  0.021914976  0.022110089            5 
 1835000   0.95864413   -7.4802296    483.41278  0.021953351  0.022102494            4 
 1836000    0.9511291   -7.5326923     482.1123  0.021882366  0.022094906           14 
 1837000   0.96539961   -7.4848979    484.76032  0.021990579  0.022087285            6 
 1838000   0.96275893   -7.4975285    483.69159  0.021930159  0.022079747            7 
 1839000   0.97061383   -7.4846776    484.28884  0.021945298  0.022072228            3 
 1840000   0.94431569    -7.476768    484.20414  0.021929535   0.02206474            6 
 1841000   0.96987631   -7.5045165    483.68327  0.021894046  0.022057305            4 
 1842000   0.95454573   -7.4603565    484.65468  0.021926107  0.022049857            5 
 1843000   0.95580758   -7.5102567    483.54731  0.021864139  0.022042405            5 
 1844000   0.96252609   -7.5164486    483.44831  0.021847809  0.022034762            3 
 1845000   0.95140457   -7.5059037    483.95466  0.021858837  0.022027109            8 
 1846000   0.98469792   -7.4986384    482.48748  0.021780764  0.022019558            6 
 1847000   0.94578339   -7.5170483    484.37966  0.021854343   0.02201199            4 
 1848000   0.94930814   -7.4935982     484.6615  0.021855227  0.022004516            3 
 1849000   0.97866289   -7.4838589    484.33418  0.021828654  0.021997075            8 
 1850000     0.955351   -7.5195781    484.85342  0.021840244  0.021989577           10 
 1851000   0.95135618   -7.5191794    484.94555  0.021832593  0.021982096            3 
 1852000   0.95757659   -7.5123147    485.36304   0.02183959    0.0219746            5 
 1853000   0.94790353   -7.5028861    485.14416   0.02181796  0.021967088            4 
 1854000   0.94627058   -7.4953826    485.57226  0.021825434   0.02195961            7 
 1855000   0.95442826   -7.5148492    485.87987  0.021827488  0.021952133            6 
 1856000   0.97146823   -7.4958476    487.96536  0.021909364   0.02194479            5 
 1857000   0.96906248   -7.5230516    485.86675   0.02180339  0.021937464            8 
 1858000   0.94535909   -7.5171371     486.2318  0.021808028  0.021930108            6 
 1859000   0.94084092   -7.5058344    486.10233  0.021790494  0.021922721            4 
 1860000   0.96267496   -7.4510311    487.63602  0.021847492  0.021915389            6 
 1861000   0.97035805   -7.5003536    486.23985  0.021773233   0.02190795            7 
 1862000   0.95579712   -7.5203857    486.17074  0.021758447  0.021900535            5 
 1863000   0.95275048   -7.5531024     486.0532   0.02174151  0.021893055            8 
 1864000   0.94999228   -7.5263419    486.08229  0.021731147  0.021885524            6 
 1865000   0.96775609   -7.4965967    487.03972  0.021762275  0.021878088            5 
 1866000   0.93866302   -7.5223191    486.99442   0.02174859  0.021870726            3 
 1867000   0.97403893   -7.5263989    487.23076   0.02174749  0.021863281            5 
 1868000   0.94177039   -7.5466248    486.67142  0.021710895  0.021855772            6 
 1869000   0.93355109   -7.5710467    487.00567  0.021714182  0.021848222            3 
 1870000   0.96387878   -7.5059932    487.89832  0.021742349  0.021840732            3 
 1871000    0.9565365   -7.5257898    486.02517  0.021647299  0.021833265            4 
 1872000   0.94119943   -7.5206378    487.15113  0.021685859  0.021825795            8 
 1873000   0.94585957   -7.5132496    488.68969  0.021742734  0.021818317            9 
 1874000   0.97003489   -7.5385274    487.70195  0.021687209  0.021810865            2 
 1875000   0.95213093   -7.4815807      487.812  0.021680533  0.021803404            3 
 1876000   0.95786965   -7.5306731    487.54464    0.0216571  0.021795903            6 
 1877000   0.94919928   -7.5367501    487.19397  0.021629994  0.021788449            3 
 1878000   0.96071179   -7.5296279    487.77559  0.021644284  0.021780951            9 
 1879000   0.94866048   -7.5526831    487.82949  0.021635156   0.02177348            3 
 1880000   0.95764145   -7.5417432    487.06046   0.02158956  0.021766001            7 
 1881000   0.93181297   -7.5824399     488.3113  0.021633497  0.021758459            6 
 1882000   0.95068353   -7.5384087    488.59445   0.02163454  0.021751033            3 
 1883000   0.95714308   -7.5423303    488.38263  0.021613676  0.021743658            5 
 1884000   0.96250463   -7.5057969    489.38656   0.02164661  0.021736302            4 
 1885000   0.94694403   -7.5290098    488.67358  0.021603606   0.02172896            6 
 1886000   0.93121547    -7.496479    490.35028  0.021666237  0.021721686            8 
 1887000   0.92984579   -7.5250984    488.24672  0.021561858  0.021714318            7 
 1888000   0.96427806   -7.5499845    489.79921  0.021618962   0.02170696            5 
 1889000   0.95706974   -7.5321516    489.65112  0.021600985  0.021699566            7 
 1890000   0.96412218   -7.5207941    490.14502  0.021611332  0.021692162            7 
 1891000   0.92646279   -7.5397956    489.04748  0.021551537  0.021684742            6 
 1892000   0.96259603   -7.5541022    488.72939  0.021526136   0.02167722            6 
 1893000   0.94548538   -7.5225895    489.83767  0.021563553  0.021669866            8 
 1894000   0.96364251   -7.4830085    490.63197  0.021587116  0.021662517            5 
 1895000   0.96000059   -7.5652583    489.39666  0.021521401  0.021655162            2 
 1896000   0.95387471   -7.5308319    489.99048   0.02153615  0.021647767           10 
 1897000   0.96297719   -7.5424773    491.64543  0.021597497  0.021640384            6 
 1898000   0.95223547   -7.5221553    490.51082  0.021536302  0.021633116            5 
 1899000   0.95649034   -7.5788651    489.89173  0.021497794  0.021625698            4 
 1900000   0.96686067   -7.5249871    490.48419  0.021512465  0.021618289            4 
 1901000   0.92937931   -7.5577119    491.21344  0.021533116  0.021610935            6 
 1902000   0.93389824   -7.5422881    490.95059  0.021510278  0.021603661            7 
 1903000   0.95538911    -7.508424    491.96221  0.021543274  0.021596396            6 
 1904000   0.95704458   -7.4910484    491.45479  0.021509751  0.021589154            7 
 1905000   0.94862489   -7.5489564    492.62061  0.021549458  0.021581979            4 
 1906000   0.96956357    -7.483985    493.99822  0.021598383  0.021574864            3 
 1907000   0.93027362   -7.5307178    492.37419  0.021516089  0.021567759            6 
 1908000   0.93394562   -7.5380927    493.55353  0.021556321  0.021560638            5 
 1909000   0.93239503   -7.5218519    493.58772  0.021546522  0.021553506            5 
 1910000   0.93641592   -7.5288401    492.28369  0.021478346   0.02154636            4 
 1911000   0.94220909   -7.5184038    493.47562  0.021519083  0.021539184            6 
 1912000   0.93851499   -7.5544471    492.80326  0.021478524  0.021531953            3 
 1913000   0.95399357   -7.5808088    492.70881  0.021463182  0.021524729            5 
 1914000   0.93399414   -7.5554355    491.87438  0.021415638    0.0215175            7 
 1915000   0.93499804   -7.5525752    493.43734  0.021472469  0.021510315            5 
 1916000   0.95972184   -7.5568444    491.98831  0.021398239  0.021503087            6 
 1917000   0.95169242   -7.5704321    492.78546  0.021421729  0.021495847            4 
 1918000   0.94929151   -7.5600491    493.39878  0.021437208  0.021488599            4 
 1919000   0.93848041   -7.5577723    494.55511  0.021476251  0.021481381            7 
 1920000   0.92909141   -7.5706242    492.94981  0.021395391  0.021474128            5 
 1921000   0.96012954   -7.5568536    492.47891  0.021363826  0.021466921            4 
 1922000   0.94001239   -7.5847007    492.35855  0.021347492  0.021459658           19 
 1923000    0.9481658   -7.5478957    493.74145  0.021396319  0.021452456            8 
 1924000   0.93967184   -7.5167373    495.38528  0.021456396  0.021445237            7 
 1925000   0.97057082   -7.5283019    494.58816  0.021410743  0.021438125            4 
 1926000   0.95392376   -7.5394859    495.40794  0.021435096  0.021431053            5 
 1927000   0.95098008   -7.5370776    495.18548  0.021414352  0.021423958            3 
 1928000    0.9659457   -7.5554398    494.68871  0.021381774  0.021416886            3 
 1929000   0.94230252   -7.5205916    497.51482  0.021492778  0.021409853            4 
 1930000   0.95775334   -7.5280413    497.31054  0.021472821   0.02140287            5 
 1931000   0.93575205   -7.5468682    496.10418   0.02140964  0.021395857            5 
 1932000   0.94560081   -7.5796838    495.04567  0.021352902  0.021388782            4 
 1933000   0.93734825   -7.5561767    496.74027  0.021414911  0.021381688            3 
 1934000   0.93741736   -7.5428324    496.83896   0.02140809  0.021374658            8 
 1935000   0.92501764   -7.4986747    497.78479   0.02143776  0.021367585            6 
 1936000    0.9619192   -7.5533822    496.09926  0.021354135  0.021360604            6 
 1937000   0.95484534   -7.5551834      495.491  0.021316942  0.021353534            5 
 1938000   0.94298263   -7.5160047    497.17116  0.021378189  0.021346463            2 
 1939000   0.94371128   -7.5363611    496.97378   0.02135868  0.021339402            3 
 1940000   0.95906054   -7.5536296     496.5866  0.021331039  0.021332243            5 
 1941000   0.92771481   -7.5381721    496.99726  0.021337681  0.021325198            8 
 1942000   0.95091893   -7.5941351    494.60737   0.02122414   0.02131805            9 
 1943000   0.93726825   -7.5386609    495.60383  0.021255954  0.021310921            6 
 1944000    0.9523855   -7.5346472    497.44584  0.021323981   0.02130378            3 
 1945000   0.93815139   -7.5572789    497.09375  0.021297933   0.02129672           10 
 1946000   0.91814712   -7.5289817    498.39276  0.021342616  0.021289616            8 
 1947000   0.91746526   -7.5708379      497.587  0.021297167  0.021282549            4 
 1948000   0.94988617   -7.6121775    495.97993  0.021217485   0.02127546            8 
 1949000   0.95183033   -7.5411296    496.35971  0.021222837  0.021268342            5 
 1950000   0.93921939   -7.5428513    496.32808  0.021210602  0.021261267            6 
 1951000   0.93672185   -7.5676263    498.24078  0.021281427  0.021254193            4 
 1952000   0.93859155   -7.5329671    497.31196  0.021230873  0.021247085            8 
 1953000   0.95031524   -7.5409196    497.88033  0.021244254  0.021239962            8 
 1954000   0.94347446   -7.5303677    498.53424  0.021261269  0.021232934            3 
 1955000   0.92563568   -7.5421907    498.50102  0.021248978   0.02122587            4 
 1956000   0.92954709   -7.5785443    498.13379  0.021222469  0.021218754            4 
 1957000    0.9465544   -7.5728767    496.68507  0.021149935  0.021211695            8 
 1958000   0.93851622   -7.6151415    497.69462    0.0211821   0.02120454            3 
 1959000   0.94649209   -7.6034667    498.04908  0.021186366  0.021197457            8 
 1960000   0.93826497   -7.5852964    496.92603  0.021127807  0.021190242            7 
 1961000   0.94340083   -7.5522883    499.35979  0.021220457  0.021183158            7 
 1962000   0.94075576   -7.5721925    498.34939  0.021166726  0.021176037            8 
 1963000   0.93619654   -7.5769589    498.23658  0.021151154  0.021168955            5 
 1964000   0.94430297   -7.5572886    497.37519  0.021103835  0.021161905            6 
 1965000   0.94400998   -7.5254671    498.04758  0.021121611  0.021154872            6 
 1966000   0.92710396   -7.5390823    499.73457  0.021182374  0.021147848            7 
 1967000   0.93663456   -7.5767032    498.34453  0.021112715   0.02114076            3 
 1968000   0.92258446   -7.6098395    497.53853  0.021067858  0.021133611            4 
 1969000    0.9506456   -7.5720512    498.84912  0.021112625  0.021126519            4 
 1970000   0.92665383   -7.5636589    499.62721  0.021134823  0.021119438            7 
 1971000    0.9478425   -7.5654209    498.98748  0.021097052  0.021112271           13 
 1972000   0.92245912   -7.5718503    500.33433   0.02114327  0.021105184            4 
 1973000   0.95696986   -7.5522073    498.92889  0.021073192  0.021098068            5 
 1974000   0.94687366   -7.5842356    497.74113  0.021012375  0.021090908            4 
 1975000   0.95680289   -7.5965016    498.78547    0.0210458  0.021083754           12 
 1976000   0.91863971    -7.616157    497.02551  0.020960928  0.021076548            7 
 1977000   0.92862316   -7.5792157    498.45331  0.021010509  0.021069362            4 
 1978000   0.93177372   -7.5555302    499.91649   0.02106153  0.021062266            5 
 1979000   0.92643224   -7.5658103    500.02502  0.021055458  0.021055179            5 
 1980000    0.9404514   -7.5804448    498.32841  0.020973418  0.021048079            9 
 1981000   0.97523108   -7.5747148    497.80518   0.02094082  0.021040933            4 
 1982000   0.93714428   -7.5562266    499.40519  0.020997527  0.021033713            7 
 1983000   0.92555239    -7.590105    499.16895  0.020977011  0.021026537           11 
 1984000   0.94074695   -7.6146113    499.77182   0.02099176  0.021019422            4 
 1985000   0.94532769   -7.5446015    500.75936  0.021022643  0.021012316            6 
 1986000   0.96091377   -7.5467145    500.61466  0.021005986  0.021005238            4 
 1987000   0.92979002   -7.6279326    498.42538  0.020903598   0.02099805            8 
 1988000   0.92797432   -7.6012477    499.36155  0.020932325  0.020990831           12 
 1989000   0.92580998    -7.587557    499.00194  0.020906735  0.020983626           10 
 1990000    0.9382993   -7.5883373    498.65578  0.020881733  0.020976477            5 
 1991000   0.92631469   -7.6156477    499.73994  0.020916622  0.020969287            3 
 1992000   0.94237402   -7.5929169    500.73156  0.020947605  0.020962139            7 
 1993000   0.90895294   -7.5731949    501.74109  0.020979306  0.020954982           10 
 1994000   0.94323759   -7.5703533     501.2987  0.020950297  0.020947858            7 
 1995000   0.94295297   -7.5634867    501.32206  0.020940771   0.02094069            5 
 1996000    0.9208175   -7.5728533    500.47384  0.020894866  0.020933476            4 
 1997000   0.94334895   -7.5873131    499.50771  0.020844088  0.020926282            3 
 1998000    0.9154157   -7.5646027    499.86753  0.020848662  0.020919097            5 
 1999000   0.95513719   -7.5752053     500.5091  0.020864978  0.020911981           14 
 2000000   0.93639962   -7.5652398    502.38312   0.02093263  0.020904852            5 
 2001000    0.9392798   -7.6000866    501.27045  0.020875831  0.020897719           15 
 2002000   0.93251135   -7.6357572    499.03247  0.020772247   0.02089049            6 
 2003000   0.93705765   -7.6229354    499.66428  0.020788163  0.020883221            5 
 2004000   0.93885126   -7.5674061    501.51438  0.020854723  0.020875972            5 
 2005000   0.94516166   -7.5589251    501.49176  0.020843382  0.020868764            2 
 2006000   0.93696069   -7.5910529     500.4799  0.020790956  0.020861547            5 
 2007000   0.93583904   -7.5802842    500.23865   0.02077058   0.02085433            5 
 2008000    0.9255196   -7.5715538    501.92168  0.020830083  0.020847169            3 
 2009000   0.92705604   -7.5866064    502.06139   0.02082551  0.020839953            8 
 2010000   0.94977227   -7.5446147     500.5464  0.020752338  0.020832721           10 
 2011000   0.92642153   -7.5820388    502.28702  0.020814148   0.02082552            6 
 2012000   0.92248128   -7.5781832    501.94134  0.020789486  0.020818377            7 
 2013000   0.93391807   -7.5772883    501.59581  0.020764854  0.020811272            4 
 2014000    0.9322076   -7.5752466    502.57894  0.020795223  0.020804138            8 
 2015000   0.95675826     -7.59152    502.60009  0.020785777  0.020796986           10 
 2016000   0.91395465   -7.6023154    501.67602   0.02073727  0.020789858            3 
 2017000   0.94183935   -7.5368032    503.86876  0.020817582  0.020782728           13 
 2018000   0.94874822   -7.5988133    500.72416   0.02067741   0.02077567           12 
 2019000   0.91674179   -7.5914099    504.17418  0.020809567  0.020768646            3 
 2020000   0.92973023   -7.5825283    504.29624    0.0208043  0.020761619            5 
 2021000   0.94687731    -7.579529    502.54414  0.020721761  0.020754551            6 
 2022000   0.92781767   -7.5765489    503.73249  0.020760488  0.020747454            5 
 2023000   0.95177105   -7.5950856    502.22803  0.020688253  0.020740372            5 
 2024000   0.94093202   -7.6241347    502.51888  0.020690007  0.020733202           13 
 2025000   0.92121676   -7.5836465    502.00493  0.020658639   0.02072605            6 
 2026000   0.94853422   -7.6520971    503.15006  0.020695544  0.020719001            2 
 2027000   0.94180243   -7.5992278    503.12063  0.020684124  0.020711919            5 
 2028000   0.91694085   -7.5900931    503.99134  0.020709703  0.020704785            8 
 2029000   0.92394735   -7.6436991    501.55485  0.020599427  0.020697577            8 
 2030000   0.93097665   -7.6001259    503.53753  0.020670671  0.020690342            4 
 2031000   0.90724612   -7.5919635      503.756  0.020669457    0.0206832            6 
 2032000   0.90685945   -7.6025903    504.43822  0.020687263  0.020676077           12 
 2033000    0.9161981   -7.6238859    503.65176   0.02064485  0.020668886            5 
 2034000   0.92134144   -7.5923542    504.13371  0.020654446   0.02066175            7 
 2035000   0.93323644   -7.6418735    504.55617  0.020661596  0.020654648            7 
 2036000   0.94205842   -7.6042163    503.46664  0.020606853  0.020647553            9 
 2037000   0.93794068   -7.6108588    504.75241  0.020649338  0.020640451           15 
 2038000    0.9371843   -7.5963359    504.59938  0.020632948  0.020633346            5 
 2039000   0.91732334   -7.6119051    503.94504  0.020596086  0.020626232            5 
 2040000   0.91672901   -7.6045339     505.6007  0.020653623   0.02061919            4 
 2041000   0.91061735   -7.6199265    505.00358  0.020619124  0.020612142           11 
 2042000   0.89896959   -7.6170376    503.39028  0.020543188  0.020605136            6 
 2043000   0.92479822   -7.6139601    504.45216  0.020576447  0.020598093            5 
 2044000   0.93876137   -7.5915812    504.98496  0.020588102  0.020591091            6 
 2045000   0.90223391   -7.5816893    506.17782  0.020626643  0.020584109            4 
 2046000   0.93648376   -7.6167534    505.80113  0.020601219  0.020577123            5 
 2047000   0.93213707   -7.6067175    504.79013  0.020549997  0.020570106            8 
 2048000   0.93563819   -7.6050077    506.66797  0.020616372   0.02056302            8 
 2049000   0.90615817   -7.5931469    506.02882  0.020580317  0.020555972            4 
 2050000   0.91697897   -7.6064419    506.15527  0.020575417  0.020548895            9 
 2051000   0.90392703   -7.5823484    505.95043  0.020557063  0.020541852            7 
 2052000   0.93034456   -7.6437463    505.03168  0.020509734  0.020534805            7 
 2053000   0.90175174    -7.611934    506.41397  0.020555852  0.020527712           11 
 2054000   0.93504812   -7.6555483    505.77774  0.020520032  0.020520685           12 
 2055000   0.91061981   -7.5635753    506.44777  0.020537217  0.020513693           11 
 2056000   0.93344724   -7.5839631    507.16368  0.020556245  0.020506747           12 
 2057000   0.92215373   -7.6156567    506.06776  0.020501854  0.020499744            2 
 2058000    0.9050393   -7.5621489    506.74867  0.020519464  0.020492756           11 
 2059000   0.93204985   -7.6153342    507.77411     0.020551   0.02048575            4 
 2060000   0.92003239    -7.636292    506.41642  0.020486101  0.020478717            4 
 2061000    0.9115358   -7.6007043    505.94279  0.020457011  0.020471713           10 
 2062000   0.92798529   -7.6114173    507.35995  0.020504362  0.020464668            9 
 2063000   0.92395678    -7.632727    505.90471   0.02043564  0.020457577            5 
 2064000   0.90811438   -7.5847431    507.90476  0.020506491  0.020450569            7 
 2065000   0.93768977   -7.5861112     507.8068  0.020492607  0.020443551            6 
 2066000   0.91757526   -7.6207445      506.735  0.020439456  0.020436584            9 
 2067000   0.91102593   -7.6201072    507.48571  0.020459834  0.020429586            6 
 2068000   0.92050751   -7.6158953    506.48312  0.020409539  0.020422551            8 
 2069000    0.9362759   -7.6185091    507.48704   0.02044011  0.020415542            5 
 2070000   0.91336259   -7.6231673    506.97584  0.020409655  0.020408537            6 
 2071000   0.91770698   -7.6211854    508.00351  0.020441152  0.020401579            6 
 2072000   0.90306706   -7.5510106    509.89533  0.020507373  0.020394611            6 
 2073000   0.91466457   -7.5857509     509.6159  0.020486248   0.02038779            5 
 2074000   0.92304214   -7.5861648     508.5257  0.020432566  0.020380875            6 
 2075000   0.92375288   -7.5915651    509.46219  0.020460329  0.020373952            6 
 2076000   0.95575267   -7.6086573    508.93862  0.020429456  0.020367104            4 
 2077000   0.94420585   -7.6077423    508.79847  0.020413997  0.020360215           10 
 2078000   0.92269408   -7.6089598    509.17214  0.020419159  0.020353261           17 
 2079000   0.92959745   -7.6075921    508.14568  0.020368193  0.020346324           10 
 2080000   0.93120049   -7.6594582    508.05625  0.020354818  0.020339301            7 
 2081000   0.91679884   -7.6473262    507.22655  0.020311811  0.020332289            3 
 2082000   0.90027735   -7.6401252    507.81726  0.020325699  0.020325313           16 
 2083000   0.91093177     -7.58685    509.84513  0.020397069  0.020318357           12 
 2084000   0.90541935   -7.6705688    508.38249  0.020328794  0.020311349           29 
 2085000   0.92007966   -7.6458604     509.1245  0.020348701  0.020304302           25 
 2086000   0.91792017   -7.6309455     507.6555  0.020280261  0.020297267           12 
 2087000   0.90137318   -7.6261536     508.6928  0.020311963  0.020290251            4 
 2088000   0.91315168   -7.6070175    509.06377  0.020317041  0.020283249           29 
 2089000   0.92542218   -7.6296466    509.14346  0.020310494  0.020276195           18 
 2090000     0.916046   -7.6041706    510.39004   0.02035048   0.02026924           23 
 2091000   0.92240735   -7.6441435    509.03084  0.020286579   0.02026224           14 
 2092000   0.91000847   -7.6393214    508.56781  0.020258437  0.020255258           11 
 2093000    0.9332285   -7.6463213    510.18364  0.020313093  0.020248318            3 
 2094000    0.9167205   -7.6148913     510.0876   0.02029957  0.020241424            7 
 2095000   0.93483538    -7.595743    511.63818  0.020351558  0.020234526            7 
 2096000   0.91389557   -7.6441096    510.18031  0.020283886  0.020227652            6 
 2097000   0.91030925   -7.6815083    508.72664  0.020216446  0.020220677            8 
 2098000   0.91447745    -7.622046    510.33943   0.02027087  0.020213748           16 
 2099000   0.89822394   -7.6190197    510.93506   0.02028486    0.0202068            7 
 2100000   0.90382433    -7.625961    509.97994  0.020237299  0.020199852            7 
 2101000    0.9015445   -7.6278307    510.88579  0.020263596  0.020192915           16 
 2102000   0.92195876   -7.6121915    510.27304  0.020229664  0.020186031           10 
 2103000   0.90874225   -7.6698632    509.07058  0.020172396   0.02017909           11 
 2104000   0.92428409   -7.6559368    510.23162  0.020208794  0.020172118           11 
 2105000   0.93435248   -7.6730054    508.51209   0.02013112  0.020165117           18 
 2106000   0.92065785   -7.6492053    509.25782  0.020151069  0.020158103           20 
 2107000   0.91524515   -7.6275627    510.71529  0.020199149  0.020151181           13 
 2108000   0.89374967   -7.6651877    509.57056  0.020144314  0.020144239            8 
 2109000   0.92151957   -7.6409019    511.83148  0.020224098  0.020137299            9 
 2110000   0.92579238   -7.6095499    512.31237  0.020233506  0.020130395            3 
 2111000   0.91710681   -7.6141616    511.99032  0.020211208  0.020123543            6 
 2112000   0.91543538    -7.641652    511.51454  0.020182866  0.020116713           10 
 2113000   0.90351905   -7.6521668    511.93105   0.02018974  0.020109919            9 
 2114000   0.91837994   -7.6359338    511.99864  0.020182854  0.020103046            5 
 2115000   0.91570882   -7.6795019    510.50804   0.02011458  0.020096138           13 
 2116000   0.90885655   -7.6454026    511.63571  0.020149485  0.020089246            5 
 2117000   0.92486383   -7.6524351    510.93103  0.020112228  0.020082364            8 
 2118000   0.89800492    -7.664675    510.95747  0.020103772  0.020075468           16 
 2119000   0.92036505   -7.6489758    513.06535  0.020177181  0.020068573            9 
 2120000   0.90819794   -7.6683557     509.9154  0.020043845  0.020061649            7 
 2121000   0.94233519   -7.6869325    510.88418  0.020072457  0.020054651           13 
 2122000   0.90525004   -7.6755655    511.38072  0.020082498  0.020047703           12 
 2123000   0.89242032   -7.6444997    511.81719  0.020090171  0.020040787            8 
 2124000   0.91961031    -7.668984    510.92451  0.020045689  0.020033841            8 
 2125000   0.91568359   -7.6619971    512.39158  0.020093787  0.020026873            8 
 2126000   0.90140918   -7.6959473    510.84748  0.020023811  0.020019949            4 
 2127000   0.91570207   -7.6653169    511.80244  0.020051812  0.020013008            9 
 2128000   0.89986725   -7.6844271    511.74003  0.020039945  0.020006044            7 
 2129000   0.91949363    -7.640209    513.37174    0.0200944  0.019999167           13 
 2130000   0.90474175   -7.6296112    513.03638  0.020071846  0.019992273            3 
 2131000    0.8902466    -7.673357     511.0834  0.019986055  0.019985327            5 
 2132000   0.93390599   -7.6282466    514.43143  0.020107545  0.019978459            6 
 2133000   0.90566881   -7.6345534    514.58678  0.020104187  0.019971633            6 
 2134000   0.90794367   -7.6348266    514.53398  0.020092705  0.019964834           11 
 2135000   0.89834795   -7.6469371    514.05906  0.020064756  0.019958033            8 
 2136000   0.92242551   -7.6747861    512.42957   0.01999179  0.019951221            7 
 2137000    0.9213256   -7.6554213    513.99766  0.020043584  0.019944432            5 
 2138000   0.91448712   -7.6852831    512.29409  0.019967808  0.019937561            3 
 2139000   0.91086924    -7.638144    513.27229  0.019996583  0.019930689           13 
 2140000   0.90288992   -7.6566204    513.40193  0.019992287  0.019923875            5 
 2141000   0.90476752   -7.6599653    513.79233  0.019998144  0.019917086            4 
 2142000   0.91626034    -7.662543    513.34172  0.019971278  0.019910339            9 
 2143000   0.91331907   -7.6706043    514.40705  0.020003385  0.019903542           12 
 2144000   0.89869318   -7.6773278    514.30799  0.019990205  0.019896819            6 
 2145000    0.9093774   -7.6408045    515.24885  0.020017438  0.019890107            6 
 2146000   0.89248615   -7.6333569    515.29394  0.020009861  0.019883358            4 
 2147000   0.89868965   -7.6668947    514.40897  0.019966192  0.019876624            8 
 2148000   0.91678952   -7.6318096    515.90393  0.020014895  0.019869882            7 
 2149000   0.89783171    -7.642418    516.34753  0.020022783  0.019863121            8 
 2150000   0.92679935   -7.6924949    514.06058  0.019924829  0.019856338            6 
 2151000   0.90612012   -7.6424719    514.66019  0.019938795  0.019849499           18 
 2152000   0.91747318   -7.6471399    513.74448  0.019894071  0.019842684            7 
 2153000   0.89224758   -7.6744172    514.65761  0.019920174  0.019835874            7 
 2154000   0.89277969   -7.6173489    515.29024  0.019935401   0.01982906            5 
 2155000   0.89050246   -7.6364433    515.50571  0.019934482  0.019822236            7 
 2156000   0.89338886   -7.6654519    513.96557  0.019865707  0.019815359           21 
 2157000   0.88824199   -7.6836298    515.07331  0.019899293  0.019808507            5 
 2158000   0.90257179   -7.6675307    514.14969  0.019854406  0.019801642            7 
 2159000   0.91291819   -7.6554587     513.9533  0.019837629  0.019794792            6 
 2160000   0.89626377   -7.6577241    515.08371  0.019872057  0.019787903            6 
 2161000   0.91433221   -7.6825771    515.26325  0.019869784  0.019781039           11 
 2162000    0.9071146   -7.6936033    514.58424  0.019834422  0.019774197            7 
 2163000   0.90443217   -7.6548916    516.90832  0.019914791  0.019767401            8 
 2164000   0.90724928   -7.6680793    515.70368  0.019859199  0.019760596           10 
 2165000   0.89892134   -7.6831141    514.17856  0.019791323  0.019753776           12 
 2166000   0.91433113   -7.6675261    515.15044  0.019819577   0.01974706            6 
 2167000     0.916057   -7.6819025    516.06425  0.019845572  0.019740336            9 
 2168000   0.90081725   -7.6961288    516.43891  0.019850819  0.019733609           20 
 2169000   0.89922689   -7.6471625    516.22879  0.019833594  0.019726917           14 
 2170000   0.91326768   -7.6966256    516.49794   0.01983479  0.019720192           29 
 2171000   0.90704241    -7.686187    516.26367  0.019816662  0.019713463           10 
 2172000    0.9101711   -7.6655165    516.55755  0.019818813  0.019706818            8 
 2173000   0.90868345   -7.6507721     519.5774  0.019925503  0.019700212           42 
 2174000   0.91708601   -7.6516808    518.16755  0.019862295  0.019693626           13 
 2175000   0.89836117   -7.6386646    518.60222  0.019869817  0.019687022            7 
 2176000    0.9297001   -7.6583058    517.98586  0.019837081   0.01968039           31 
 2177000   0.90358436   -7.6919165    517.69442  0.019816813  0.019673748           11 
 2178000   0.89553721   -7.7281793    515.63282  0.019728835  0.019667054           18 
 2179000   0.88137427    -7.721536     517.0425  0.019773692  0.019660327           14 
 2180000   0.90819236   -7.6860418    516.88637  0.019758653  0.019653645            7 
 2181000   0.87779022   -7.7057426    518.13319  0.019797233  0.019646924            6 
 2182000   0.89854637   -7.6763198    518.42591   0.01979934  0.019640282            4 
 2183000   0.89346674   -7.6965218    519.08006  0.019815241  0.019633682            4 
 2184000   0.90566896   -7.6749291    519.26261  0.019813134  0.019627099            9 
 2185000    0.8803774   -7.6760256    518.55756  0.019777176   0.01962054           25 
 2186000   0.91106994   -7.6937544    520.30645  0.019834799  0.019613952            9 
 2187000   0.89932329   -7.6512924    520.02902  0.019815158  0.019607401            7 
 2188000   0.91019834   -7.6962972    518.67455  0.019754515  0.019600788            4 
 2189000   0.90981848   -7.6756957    519.56191  0.019779272  0.019594204            8 
 2190000   0.90595379   -7.6672287    519.74974  0.019777387  0.019587593            5 
 2191000   0.89317584    -7.672119     518.8201  0.019733002  0.019580952            5 
 2192000   0.89356103   -7.6792798    520.02448  0.019769787  0.019574351            8 
 2193000   0.87253232   -7.6866482    518.36216  0.019697604  0.019567716            5 
 2194000     0.903608    -7.698705    517.82802  0.019668339  0.019561011            8 
 2195000   0.89516281   -7.6788467    519.72943  0.019731565  0.019554333            8 
 2196000   0.90123806     -7.71644    517.34091  0.019631941  0.019547621            8 
 2197000   0.91134819   -7.7092856    517.63199  0.019634046  0.019540902           11 
 2198000   0.91129417   -7.7180178      517.552   0.01962208  0.019534218           14 
 2199000   0.89883938   -7.7243767    518.62568  0.019653846  0.019527468            9 
 2200000   0.91741068    -7.688166    519.70431  0.019685769  0.019520764            4 
 2201000   0.88328356   -7.7025757    518.44615  0.019629189  0.019514091            9 
 2202000   0.93001611   -7.7193356    518.82524  0.019634622  0.019507402           12 
 2203000   0.92616258   -7.6763039    517.68045  0.019582405  0.019500764           12 
 2204000   0.89774152   -7.7180164    519.74964  0.019651756  0.019494139           12 
 2205000   0.89645462   -7.7014735    518.94189  0.019612316    0.0194875            5 
 2206000   0.87669513   -7.7483682     518.6052  0.019590707  0.019480797            6 
 2207000   0.89670769   -7.6668778    520.13972  0.019639772  0.019474106           10 
 2208000   0.89732011   -7.6737951    520.03015  0.019626742  0.019467499           12 
 2209000   0.91645131   -7.6942807    520.69347   0.01964288  0.019460934            6 
 2210000   0.90054139   -7.6862245    520.90747  0.019642061  0.019454343            8 
 2211000   0.90336328   -7.6877155    521.70408  0.019663202  0.019447764            8 
 2212000   0.89608837    -7.694834    520.30666  0.019601667  0.019441185           13 
 2213000   0.90746161   -7.6430539    520.32334  0.019593438  0.019434585            9 
 2214000   0.90026048   -7.6570593    520.99836  0.019609996  0.019427946           10 
 2215000   0.88041646   -7.6817654    521.73646  0.019628911  0.019421305           12 
 2216000   0.89844924    -7.698003    520.47212  0.019572507  0.019414731            6 
 2217000   0.89846433   -7.6920745    520.83296  0.019577243  0.019408146            5 
 2218000   0.89464508   -7.6918663    521.54216  0.019595062  0.019401578           12 
 2219000    0.8998261   -7.6534931    521.41116  0.019581311  0.019394986            3 
 2220000   0.90679972    -7.694141    521.26075  0.019566845  0.019388377            4 
 2221000   0.89882257   -7.6879174    521.57777   0.01956993  0.019381711            5 
 2222000   0.90672493   -7.6969255    521.06912  0.019542046  0.019375127           18 
 2223000   0.89780962   -7.6818843    520.63199  0.019516869  0.019368539            5 
 2224000   0.88656975   -7.6955715    519.88401  0.019480066  0.019361917            5 
 2225000   0.90746172   -7.6738952    521.61314  0.019536073   0.01935529            6 
 2226000   0.89800622   -7.6407938    522.15401  0.019547545  0.019348746           11 
 2227000   0.90106127    -7.677957    522.22419  0.019541393  0.019342162            7 
 2228000   0.88309527   -7.6712014    522.33793  0.019536876  0.019335573            5 
 2229000   0.90173797   -7.6812589    522.29203  0.019526396  0.019328988            9 
 2230000   0.89870103   -7.7040443    521.59848  0.019491722   0.01932238           13 
 2231000    0.8933606   -7.7204906    520.13456  0.019428304  0.019315748            6 
 2232000   0.89229042   -7.7392497    519.82715  0.019408123  0.019309113            6 
 2233000    0.8991877   -7.6972149     522.3516  0.019493641  0.019302506            5 
 2234000   0.86700157   -7.6768225    522.16265  0.019477867  0.019295914            5 
 2235000    0.8950526   -7.6835863    522.49416  0.019481512  0.019289392            3 
 2236000   0.90983354    -7.703854    520.88687  0.019412898  0.019282773            8 
 2237000   0.89059135   -7.7226199    522.10114  0.019449454  0.019276125           12 
 2238000   0.90182982   -7.7016535    520.17802  0.019369155  0.019269531            7 
 2239000   0.90560391    -7.704271    521.56981  0.019412305  0.019262949           11 
 2240000   0.85796443   -7.7130299    522.96384    0.0194555  0.019256355            7 
 2241000   0.87803099   -7.7233384    520.61626  0.019359522   0.01924978            7 
 2242000   0.89809024   -7.7142519    522.99147  0.019439171  0.019243183           10 
 2243000   0.91217242   -7.6555497    522.45061  0.019410411  0.019236636            9 
 2244000   0.90033359   -7.7218681    522.46251  0.019402202  0.019230126            6 
 2245000    0.8924793   -7.7010483    522.61962  0.019399392  0.019223593            5 
 2246000   0.89846416   -7.6906785    523.02084  0.019405641  0.019217073            4 
 2247000   0.89064558   -7.6814643    522.83247  0.019390019  0.019210511            7 
 2248000   0.90633773    -7.698652    522.51106  0.019369479   0.01920402            5 
 2249000   0.89986127   -7.7152393    523.20382  0.019386535  0.019197479            7 
 2250000    0.8996184   -7.6632302    523.58566  0.019392061  0.019190992            3 
 2251000   0.87717685   -7.6782632    523.16196  0.019367761  0.019184493            4 
 2252000    0.9052401   -7.7040378    523.09782  0.019356787  0.019177946            6 
 2253000   0.88734353   -7.7113414     522.4171  0.019323017  0.019171361            7 
 2254000   0.89016698   -7.7554877    521.71194  0.019288374  0.019164702            6 
 2255000   0.88401646    -7.733726    521.11797   0.01925787   0.01915804            8 
 2256000   0.88239274   -7.7501815    521.75591  0.019272898  0.019151382           13 
 2257000   0.89137796   -7.7524613    522.46828  0.019290662  0.019144765           10 
 2258000   0.90204389   -7.7347936     522.6828  0.019290035   0.01913816            9 
 2259000   0.92091335   -7.7366942    523.83704  0.019324076  0.019131566            4 
 2260000   0.91095725   -7.7191987    523.62107  0.019307562  0.019124947            9 
 2261000   0.90673355   -7.7149584     523.0633  0.019278464   0.01911833            6 
 2262000   0.88658114   -7.7650065    523.06469  0.019269993   0.01911166            8 
 2263000   0.88450982   -7.7475723     522.8053  0.019251926  0.019105048            6 
 2264000   0.89371312   -7.7170589    522.41807  0.019229169  0.019098405           15 
 2265000    0.9095202   -7.6902593    524.25136  0.019288129  0.019091821           20 
 2266000   0.89479638   -7.7051903    522.30529   0.01920805  0.019085245           18 
 2267000   0.90606584   -7.7254833    522.95001  0.019223276  0.019078602            5 
 2268000   0.89761607   -7.7001421    522.64797  0.019203703  0.019071979            7 
 2269000   0.89361028   -7.7308063     524.1444  0.019250198  0.019065388            5 
 2270000    0.8779335   -7.6991578    524.70348  0.019262242  0.019058767            7 
 2271000   0.87349588   -7.7016909    525.37277   0.01927832  0.019052211            4 
 2272000   0.89936927   -7.7300379     524.4622  0.019236436   0.01904563            6 
 2273000   0.88130747   -7.6993433    524.84371   0.01924196  0.019039065            5 
 2274000   0.87728205   -7.7041355    525.46253  0.019256176  0.019032531            5 
 2275000   0.87773651   -7.7292748    524.06857  0.019196651  0.019025953           13 
 2276000   0.87826668   -7.7165695    525.13972  0.019227435  0.019019384           10 
 2277000   0.88898744   -7.7396794    525.51509  0.019232729  0.019012811            7 
 2278000   0.87975608   -7.7180871    524.92297  0.019202625  0.019006281           13 
 2279000   0.88992077    -7.758165    524.39987  0.019175072  0.018999721           13 
 2280000   0.89596681   -7.7008586    524.72071  0.019178388  0.018993196            9 
 2281000   0.88337301    -7.696637    525.89875  0.019213019  0.018986645            8 
 2282000   0.87752152   -7.7170532    524.77618  0.019163606  0.018980102            6 
 2283000   0.87651867   -7.7193566    524.52163   0.01914592   0.01897352           10 
 2284000   0.87886212   -7.7558944    524.91158  0.019151765  0.018966888            5 
 2285000   0.87660452    -7.772902     522.6303  0.019060186  0.018960229            9 
 2286000    0.8848147   -7.7460079    522.80407  0.019058183  0.018953595            8 
 2287000   0.88228825   -7.7133717    523.73145  0.019083641  0.018946977            6 
 2288000   0.89555895   -7.7552728    524.96263  0.019120142  0.018940376           14 
 2289000   0.87739052     -7.71231     524.9938  0.019112924  0.018933801            9 
 2290000   0.86721774   -7.7180885    525.84534  0.019135566  0.018927243            8 
 2291000   0.89060969   -7.7392746    524.94922  0.019094617  0.018920686            7 
 2292000   0.90981671   -7.7575583    524.23476   0.01906031  0.018914097            6 
 2293000   0.89011481   -7.7342383    524.72284  0.019069735  0.018907495           13 
 2294000   0.85338755   -7.6967489     526.3718  0.019121324  0.018900941            5 
 2295000   0.86533023   -7.7061359     526.5385  0.019119045   0.01889437            4 
 2296000    0.8822698   -7.7348672    524.66623  0.019042764  0.018887779           10 
 2297000    0.8790178   -7.7141828    527.66678  0.019143331  0.018881226            4 
 2298000   0.89326096    -7.739385    524.65365  0.019025734  0.018874655           11 
 2299000   0.87862978   -7.7359335    525.94338  0.019064209  0.018868119           11 
 2300000   0.88421902   -7.7450397    525.86282  0.019053001  0.018861546           13 
 2301000   0.89062819   -7.7559691    524.68011  0.019001887  0.018854972            5 
 2302000   0.86650033   -7.7529964    526.36549  0.019054644  0.018848409           21 
 2303000   0.88004462    -7.764875    526.06439  0.019035475  0.018841867            4 
 2304000   0.88639371   -7.7426461    526.18947  0.019031737  0.018835359            6 
 2305000   0.86663564   -7.7410463    525.94169  0.019014523  0.018828841            6 
 2306000   0.87984637   -7.7777017    526.32713  0.019020206  0.018822286            8 
 2307000   0.89559092   -7.7778748    525.22739  0.018972236  0.018815699           12 
 2308000   0.88324468   -7.7928108    525.86635  0.018987086  0.018809072            7 
 2309000   0.88464874   -7.7471225    525.85567  0.018978478  0.018802513           11 
 2310000   0.90040489   -7.7465707    525.76573  0.018967018  0.018795963            5 
 2311000   0.88831761   -7.7431073    525.66056  0.018955018  0.018789469            6 
 2312000   0.87835809   -7.7270862    526.65011  0.018982487  0.018782911            7 
 2313000   0.88722262   -7.7269935    526.33234  0.018962831  0.018776404            5 
 2314000   0.87085739   -7.7552171    525.61726  0.018928884  0.018769912            6 
 2315000   0.89344902   -7.7600019    526.35321    0.0189472  0.018763373            4 
 2316000   0.89528071   -7.7256724    526.12955  0.018930971   0.01875686           19 
 2317000   0.86758655   -7.7685432    526.54954  0.018937906  0.018750351            8 
 2318000   0.88698981   -7.7510457    526.35274  0.018922661  0.018743775            8 
 2319000   0.87969105    -7.781509     527.0867  0.018940876  0.018737198            6 
 2320000   0.86970435   -7.7664721    526.64681  0.018916911  0.018730642            7 
 2321000   0.88552538   -7.7515796    527.04506   0.01892306  0.018724112           17 
 2322000   0.87383021    -7.775768    527.45029  0.018929453  0.018717581            7 
 2323000   0.87964769   -7.7831482    526.62264  0.018891614  0.018711068            7 
 2324000   0.88876716   -7.7822888    527.14673  0.018902278  0.018704569            7 
 2325000   0.88497317   -7.7443007     526.9622  0.018887534  0.018698091           13 
 2326000   0.88917049   -7.7564651    526.98164   0.01888011  0.018691615            5 
 2327000   0.87958507   -7.7758962    526.89363  0.018868845  0.018685153            7 
 2328000   0.86789154   -7.7644579    526.64131  0.018851708  0.018678689           13 
 2329000   0.88197859   -7.7498044    528.79272  0.018920593  0.018672183            9 
 2330000   0.87527045   -7.7798976    527.29649  0.018858959    0.0186657            5 
 2331000   0.87973018    -7.788659    526.92627  0.018837633  0.018659156           13 
 2332000   0.87503092   -7.7630609    526.87622  0.018827767  0.018652637           16 
 2333000   0.87270355   -7.7841753    526.64335  0.018811378  0.018646128           15 
 2334000   0.87757311   -7.7827034     527.5714  0.018836454  0.018639573           10 
 2335000   0.87535264   -7.7869227    528.03553  0.018844951  0.018633028           25 
 2336000   0.86383297   -7.8017409    527.62908  0.018822384  0.018626487           13 
 2337000   0.88057293   -7.7746273    528.59126   0.01884864  0.018619965           21 
 2338000    0.8944534   -7.7750858    526.35869  0.018761003  0.018613453           13 
 2339000   0.88763436    -7.798974    526.36338  0.018753149  0.018606924           18 
 2340000    0.8713298   -7.7800581    528.19942  0.018810521  0.018600369           13 
 2341000   0.87738415   -7.8013661    527.51716  0.018778199  0.018593817           13 
 2342000   0.87486943   -7.7542503    527.37152  0.018764999  0.018587258            9 
 2343000    0.8749108   -7.7852005     528.4921  0.018796845  0.018580731           11 
 2344000   0.86788089   -7.7603333    529.00432  0.018807036  0.018574208            8 
 2345000   0.87811842   -7.7965855    526.91448  0.018724751  0.018567701           11 
 2346000   0.87058315   -7.7510897    528.42655   0.01877048  0.018561263           10 
 2347000   0.88980356   -7.7720422    528.59948  0.018768622  0.018554784            7 
 2348000    0.8889919    -7.759202    527.99498  0.018739174  0.018548267            7 
 2349000   0.89013919   -7.7293221    529.31991    0.0187782  0.018541819           10 
 2350000   0.87556966   -7.7207879    528.76662  0.018750589  0.018535366            7 
 2351000   0.86293271   -7.7304033     528.1561  0.018720973  0.018528931            6 
 2352000   0.87398421   -7.7570169    528.01409  0.018707982  0.018522457           12 
 2353000   0.87775202   -7.7570872    528.50494  0.018717415  0.018515959            9 
 2354000   0.87310674   -7.7716784    528.14508  0.018696725  0.018509504            8 
 2355000   0.86145964   -7.7925672    528.07469  0.018686295  0.018503005           12 
 2356000    0.8692334     -7.78476     528.8408  0.018705461  0.018496497           13 
 2357000   0.86058537   -7.7703777    527.85327   0.01866261  0.018489966           21 
 2358000    0.8632302   -7.7630166    529.47134  0.018711879  0.018483441            5 
 2359000   0.87650497   -7.7594391    528.70859  0.018677003  0.018476948            6 
 2360000   0.86346763   -7.7687942    527.72078  0.018634208  0.018470454            7 
 2361000   0.85177109   -7.7317719    529.40959  0.018685924  0.018463961            6 
 2362000   0.85083717   -7.7386928    528.09202  0.018631528   0.01845749            3 
 2363000   0.87951134   -7.7670048    529.11257  0.018659634  0.018451037            8 
 2364000   0.87567979   -7.7640877    528.77962  0.018640004  0.018444585           10 
 2365000   0.87559068   -7.7453015    529.13143  0.018644518  0.018438166           11 
 2366000   0.88806798   -7.7764693    530.18166  0.018673629  0.018431691           12 
 2367000   0.86200384   -7.8277129     528.0985  0.018592399  0.018425174            9 
 2368000   0.86210702   -7.7806992    530.06527  0.018653761  0.018418683           13 
 2369000   0.88534635   -7.7692873    529.52683  0.018626946  0.018412214           10 
 2370000   0.87079731   -7.7655654    529.75977  0.018627277  0.018405796            6 
 2371000   0.86848121   -7.7530975    528.96388  0.018591448  0.018399387            9 
 2372000   0.89222737   -7.7571489    530.35676  0.018632545   0.01839299            5 
 2373000   0.86750706   -7.7543829    530.39662  0.018626093  0.018386553            6 
 2374000   0.88679666   -7.7878004    529.43863  0.018584619   0.01838009            7 
 2375000   0.85768263   -7.7433478    529.74779  0.018587642  0.018373625            5 
 2376000   0.88120923   -7.7540241    530.40156  0.018602748  0.018367195            6 
 2377000   0.86623677   -7.7584471    530.44647  0.018596497  0.018360742            7 
 2378000   0.86562149   -7.7571145    531.58411  0.018628543  0.018354366           14 
 2379000   0.85227008   -7.7770229    528.83748  0.018524502  0.018347926            7 
 2380000   0.88894884    -7.746972    532.25497  0.018636379  0.018341535            7 
 2381000    0.8795522   -7.7877025    530.08195  0.018552497  0.018335135            7 
 2382000   0.88642626    -7.755693    529.96819  0.018540729  0.018328705           16 
 2383000   0.86081172   -7.7585579    531.99879  0.018603958  0.018322278            4 
 2384000   0.87330572   -7.7327418    530.86879  0.018556655  0.018315856            7 
 2385000   0.86915536   -7.7630119     531.1324  0.018558085   0.01830942            6 
 2386000   0.86984426   -7.7904241    530.81928  0.018539371  0.018303007            8 
 2387000   0.87352857    -7.798088    530.42418  0.018517811  0.018296526            7 
 2388000   0.87046842    -7.802933    529.83257  0.018489411  0.018290018            7 
 2389000   0.86847149   -7.7989021     529.1455  0.018457706  0.018283486            7 
 2390000   0.85311353   -7.8017185    529.79368  0.018472583  0.018276939           12 
 2391000   0.83973327   -7.7910301    529.70762  0.018461858  0.018270446            9 
 2392000   0.86292313   -7.8078364    529.22714    0.0184374  0.018263938           14 
 2393000   0.86486207   -7.7974458    529.95755  0.018455131  0.018257429            5 
 2394000   0.87280757   -7.7872161    530.36714   0.01846168  0.018250962            8 
 2395000   0.88589787   -7.8105572    530.58336  0.018461495  0.018244488           11 
 2396000   0.85426849   -7.7945302    530.22704  0.018441397  0.018238007           15 
 2397000   0.86888552   -7.8083137    531.01818  0.018461208  0.018231532           17 
 2398000   0.88922647   -7.7972817     529.3842  0.018396727  0.018225055            4 
 2399000   0.86514068   -7.7921956    530.06099  0.018412567  0.018218602            4 
 2400000    0.8943373   -7.8081398    529.77656   0.01839502  0.018212118            9 
 2401000   0.87301558   -7.7955643    530.15674  0.018400553  0.018205585           17 
 2402000   0.87023027   -7.7674247    532.05676  0.018458811  0.018199107           13 
 2403000   0.84606395    -7.800269    530.58595  0.018400123  0.018192597            9 
 2404000   0.88780636   -7.7904895    530.54855  0.018391173  0.018186122           10 
 2405000   0.86235092   -7.7638322    532.11437  0.018437781   0.01817971            9 
 2406000   0.89814168   -7.7878495    532.03797  0.018427472   0.01817326            9 
 2407000   0.86572512   -7.7975609    529.92044  0.018346505   0.01816683            8 
 2408000   0.86091577   -7.7958253    530.93898  0.018374134  0.018160337           10 
 2409000   0.87544807   -7.8559261    529.88765  0.018330139  0.018153819           13 
 2410000   0.85407071   -7.7920679    530.61914  0.018347826    0.0181473            7 
 2411000   0.88534092   -7.7890737    531.27626  0.018362929  0.018140825           11 
 2412000   0.85151575   -7.7893689    530.60996  0.018332296  0.018134317            5 
 2413000   0.87933602    -7.813313    529.79303  0.018296485  0.018127798            5 
 2414000   0.87248437    -7.838188    530.48418  0.018312765  0.018121326            3 
 2415000   0.85283244   -7.8122302    529.76624  0.018280409  0.018114784            7 
 2416000   0.85270478   -7.7755257    529.51012  0.018264008  0.018108271            6 
 2417000    0.8866967   -7.7868866    531.28945  0.018317799  0.018101785           10 
 2418000   0.86230977   -7.7840923    529.82231   0.01825966  0.018095234           21 
 2419000   0.85466588   -7.8145888    530.45519  0.018273914  0.018088698            7 
 2420000   0.86017044   -7.8132005    529.92855  0.018248228  0.018082154            9 
 2421000    0.8667805   -7.8047248    530.08534  0.018246088  0.018075619            6 
 2422000   0.83879782   -7.8440304    530.91945  0.018267253  0.018069065           11 
 2423000   0.83949612   -7.8596576    529.49209  0.018210624  0.018062474           20 
 2424000   0.86575861   -7.8533593     530.1477   0.01822565  0.018055871            7 
 2425000    0.8913584   -7.8213113    529.65008  0.018201034    0.0180493           14 
 2426000   0.83888306   -7.8307291    529.90426  0.018202262  0.018042707            9 
 2427000   0.85642593   -7.8092019    529.36496  0.018176245  0.018036118           13 
 2428000   0.85087947   -7.8214102    531.14184  0.018229745  0.018029515           10 
 2429000   0.88375012   -7.8294807    530.92158  0.018214683  0.018022974           10 
 2430000    0.8580695    -7.839919    529.96269  0.018174304  0.018016413           24 
 2431000   0.87448859   -7.8335397    529.88863  0.018164289  0.018009831            9 
 2432000   0.87208637   -7.8520322    529.67494  0.018149498  0.018003233            6 
 2433000   0.86529029   -7.8211915      530.584  0.018173174  0.017996659            7 
 2434000   0.84214276   -7.8447071    529.46108  0.018127263  0.017990069            6 
 2435000   0.87745395   -7.8265409    531.65313  0.018194837   0.01798346           12 
 2436000   0.87436381   -7.8118462    531.02027  0.018165718  0.017976876           13 
 2437000   0.87755915   -7.8333422    530.24312  0.018131689  0.017970325           17 
 2438000   0.87389586   -7.8129799    530.19411  0.018122577  0.017963801           19 
 2439000   0.87017852   -7.8229405    530.56686  0.018127882  0.017957282           16 
 2440000   0.85909218   -7.8319781    530.86355  0.018130586  0.017950727            7 
 2441000   0.85951562   -7.8282373    531.76239  0.018153844  0.017944195            9 
 2442000   0.86119526   -7.8605341    530.55554  0.018105226  0.017937623            9 
 2443000   0.86175011   -7.8462191    529.63431  0.018066391  0.017931043            9 
 2444000   0.87740152   -7.8559022    531.79968  0.018132831  0.017924486           13 
 2445000   0.85666823   -7.8430524    530.49153  0.018080829   0.01791792           23 
 2446000   0.83631869   -7.8365231    530.39509  0.018070151  0.017911293           19 
 2447000   0.85213862   -7.8483178    530.45879  0.018064936  0.017904703           14 
 2448000    0.8569442   -7.8591438    530.22977  0.018049761  0.017898128           14 
 2449000   0.84859005   -7.8089477    531.30003  0.018078809  0.017891574           13 
 2450000   0.87064803   -7.8130802     532.0664  0.018097497  0.017885019            9 
 2451000   0.87701021   -7.7878392     532.9394  0.018119794  0.017878521           21 
 2452000   0.84760494   -7.8444469    531.22563  0.018054161   0.01787203           10 
 2453000   0.85677116   -7.8369178    532.28074  0.018082645  0.017865509           12 
 2454000   0.86084278    -7.833004    532.19207  0.018072265  0.017859042           25 
 2455000   0.85073113   -7.8274266    531.07558  0.018027005  0.017852563            8 
 2456000   0.85382557   -7.8445582    532.30064  0.018061232  0.017846064           16 
 2457000   0.83434437   -7.8285444    531.07429  0.018012288  0.017839553           18 
 2458000   0.87004767   -7.8622642    530.99109  0.018002139  0.017833058           17 
 2459000    0.8626166   -7.8109527    532.34204    0.0180406  0.017826566           16 
 2460000   0.87254328   -7.7923743     532.1959  0.018028316  0.017820061           15 
 2461000   0.86498207   -7.8289974    533.17932  0.018054291  0.017813573           21 
 2462000   0.86182796   -7.7941197    532.63858  0.018028655  0.017807121           26 
 2463000   0.84371143   -7.8201106    532.66572  0.018022253  0.017800673           10 
 2464000   0.85272214   -7.8042154    531.98808  0.017992021  0.017794173            6 
 2465000   0.83331246   -7.8040624    533.91843  0.018049981  0.017787705            5 
 2466000   0.86467318   -7.8127662    531.91271  0.017974882  0.017781235            6 
 2467000   0.84761561   -7.8248772    533.27447  0.018013595  0.017774734            5 
 2468000   0.86910923   -7.8377652    532.02377  0.017964066  0.017768209            8 
 2469000   0.84392998   -7.8186177     532.4035  0.017969607  0.017761669            5 
 2470000   0.86045251   -7.8746747    531.16973  0.017920706  0.017755143            7 
 2471000   0.82812654   -7.8088875    533.34306  0.017986748  0.017748638            4 
 2472000    0.8586776   -7.8593014    531.11118  0.017904234  0.017742142           10 
 2473000   0.86148185   -7.8548084    531.84349   0.01792167  0.017735636            8 
 2474000   0.85114511    -7.840068    531.31901   0.01789676  0.017729132           19 
 2475000   0.86809023   -7.8326461    533.02931  0.017947115  0.017722606           17 
 2476000   0.85908462    -7.816837    533.04852  0.017940513  0.017716104           15 
 2477000   0.87062089   -7.8376688    531.76466  0.017890078  0.017709609           11 
 2478000   0.84941196   -7.8439182    532.41596  0.017904761  0.017703062            9 
 2479000   0.86310934   -7.8501288    530.87469  0.017845727  0.017696492           16 
 2480000   0.85194983   -7.8430553    532.94992  0.017908263  0.017689968           35 
 2481000   0.85989251    -7.835072    532.23979  0.017877193   0.01768344           16 
 2482000   0.83312013   -7.8612888    531.33832  0.017839723  0.017676917           21 
 2483000   0.85511284   -7.8577766    532.34178  0.017866216  0.017670357           23 
 2484000    0.8559241   -7.8659705     532.2765  0.017856834  0.017663804           23 
 2485000   0.85314986   -7.8562482    531.41117  0.017820629  0.017657288           19 
 2486000   0.86983199   -7.8465201    531.98805  0.017832799  0.017650776           18 
 2487000    0.8643257   -7.8350001    532.22973  0.017833726  0.017644244           21 
 2488000   0.85139154   -7.8312486    531.37207  0.017797832  0.017637742           13 
 2489000   0.85852537   -7.8519723    533.16253  0.017850627   0.01763122           16 
 2490000   0.84857372   -7.8482827    532.24403  0.017812718  0.017624707            9 
 2491000    0.8552892   -7.8278168    531.62901  0.017784993  0.017618175           10 
 2492000   0.84576152   -7.8754165    532.55315   0.01780876  0.017611673           33 
 2493000   0.84607161    -7.843887     531.9016  0.017779837  0.017605125           27 
 2494000    0.8560471   -7.8802795    533.79526  0.017835982  0.017598574           36 
 2495000   0.85513478   -7.8899371    532.03825  0.017770148  0.017592028           10 
 2496000   0.85947338   -7.8523312    531.55527  0.017746904   0.01758549           29 
 2497000    0.8654447   -7.8947178    532.32634   0.01776553  0.017578952           13 
 2498000     0.840948   -7.8481966    533.38496  0.017793734  0.017572415            9 
 2499000   0.86523717   -7.8545094    534.13903  0.017811759  0.017565911           19 
 2500000   0.84511079   -7.8761318      531.392  0.017713067  0.017559405           28 
 2501000    0.8381193   -7.8899215    531.40239  0.017706331  0.017552873           19 
 2502000   0.84591423     -7.88994    532.17607  0.017725022  0.017546317           18 
 2503000   0.84393393   -7.8609691    532.22212  0.017719474  0.017539782           11 
 2504000   0.85255579   -7.8901537    532.22472  0.017712484  0.017533243           17 
 2505000    0.8659534   -7.8874813    531.20515  0.017671495  0.017526719           68 
 2506000   0.83262819   -7.8335781    532.73425  0.017715292   0.01752019           31 
 2507000   0.83074791   -7.8789229    533.11207  0.017720784  0.017513653           16 
 2508000   0.85883362   -7.8603388    532.93947  0.017707984  0.017507138            6 
 2509000   0.85990975   -7.8636164    531.93618  0.017667603  0.017500615           13 
 2510000   0.82751245   -7.8681065    533.02769  0.017696803   0.01749411           11 
 2511000   0.86973181     -7.83066    534.02986  0.017723014  0.017487635            6 
 2512000   0.84861562   -7.8630135    532.91177  0.017678867  0.017481177           10 
 2513000   0.86055471   -7.8914709    531.92097  0.017638976  0.017474683           14 
 2514000    0.8469782   -7.8491205     533.4647  0.017683131  0.017468182            7 
 2515000   0.84973038   -7.8665717    532.07564  0.017630074  0.017461696           19 
 2516000    0.8535272   -7.8677934    532.46915  0.017636101  0.017455204           10 
 2517000   0.85458154   -7.8704303    533.26162  0.017655331  0.017448681           18 
 2518000   0.84333697   -7.8889419    531.92501  0.017604084  0.017442132           12 
 2519000   0.83572797   -7.9200598    530.84346  0.017561316  0.017435547            9 
 2520000   0.84768906   -7.8956566    532.36567  0.017604685  0.017428969           10 
 2521000   0.84351431    -7.872829    532.90004  0.017615365  0.017422408           10 
 2522000   0.84692748   -7.8588393    533.28879  0.017621226  0.017415904            9 
 2523000   0.83905818   -7.8435863    533.72248  0.017628567  0.017409406            7 
 2524000   0.85019833   -7.8797404    531.48631  0.017547752  0.017402921            7 
 2525000   0.85733204   -7.8440957    533.16399  0.017596171  0.017396446            6 
 2526000   0.83155081   -7.8959187    532.06179  0.017552843  0.017389993           11 
 2527000   0.84563403   -7.8187186    533.38191  0.017589431  0.017383537           19 
 2528000   0.84351942   -7.8541702    534.02093  0.017603538  0.017377068           13 
 2529000   0.83562598    -7.858475    532.96306  0.017561719  0.017370604            7 
 2530000    0.8540111   -7.8622096    533.45541  0.017570995  0.017364151            8 
 2531000   0.85141587   -7.8918013    533.86261   0.01757746  0.017357735            4 
 2532000   0.84054711   -7.8298208    533.93968  0.017573054  0.017351308            8 
 2533000    0.8336902   -7.8611735    533.66697  0.017557145  0.017344842           11 
 2534000   0.83433672   -7.8609209    533.67035  0.017550327  0.017338393           13 
 2535000   0.85014306    -7.915593     532.5792  0.017507535   0.01733191           11 
 2536000   0.84753114   -7.8761637    534.39574  0.017560323  0.017325459           13 
 2537000   0.84329738   -7.8513376    534.31927  0.017550889  0.017319036           14 
 2538000    0.8416889   -7.8470578    535.23014  0.017573882  0.017312607           16 
 2539000   0.83070853   -7.8767931    534.36432  0.017538543  0.017306174           13 
 2540000   0.86500609   -7.9139407    533.68759  0.017509435  0.017299694            8 
 2541000   0.85181131    -7.877849    533.65133  0.017501355  0.017293246           19 
 2542000     0.846158   -7.8794608    533.13419  0.017477517  0.017286818           10 
 2543000   0.84642835   -7.8682874    533.91522  0.017496239  0.017280386           14 
 2544000    0.8368323   -7.8575997    534.53652  0.017509713  0.017273912            7 
 2545000   0.85454478   -7.8988095    534.76896  0.017510444   0.01726747            5 
 2546000   0.84525054   -7.9054111    534.48974  0.017494427  0.017261044           11 
 2547000   0.83950117   -7.8478552    535.22167  0.017511506  0.017254653            9 
 2548000   0.84974208     -7.85923    534.70848  0.017487849  0.017248252           15 
 2549000   0.85252053   -7.8588631    535.92197  0.017520661  0.017241847           13 
 2550000   0.81061578   -7.8643918    536.01236  0.017516744  0.017235475           10 
 2551000   0.84134262    -7.894621    534.82025  0.017470935  0.017229116            8 
 2552000   0.84843728   -7.8645351    535.92523  0.017500171  0.017222738            9 
 2553000   0.83789428   -7.8855039    533.49262  0.017413913  0.017216348           22 
 2554000   0.83895794   -7.8526015    534.68946  0.017446145  0.017209968            7 
 2555000   0.85829582   -7.9212981    534.81746  0.017443492  0.017203574           23 
 2556000   0.82556499   -7.8780025    534.49044  0.017426006  0.017197188           16 
 2557000   0.85655351   -7.8801704    534.93007  0.017433518  0.017190828            9 
 2558000   0.84386583   -7.8603864    536.10525  0.017464987  0.017184485            9 
 2559000   0.85136016   -7.8778054    535.34072  0.017433266   0.01717817           11 
 2560000   0.83963027   -7.8956947    534.06422  0.017384903  0.017171795            5 
 2561000   0.83070815   -7.9133181    533.03551  0.017344641  0.017165393           10 
 2562000   0.83122763   -7.8661193    535.04816  0.017403336  0.017158984           16 
 2563000   0.83167839   -7.9056768    534.26793  0.017371177  0.017152595           21 
 2564000   0.85629176   -7.9191184    533.08279  0.017325884  0.017146191           19 
 2565000   0.82339405   -7.8794257    534.79559  0.017374775  0.017139776            9 
 2566000   0.82528835   -7.9152166    533.68342  0.017331886  0.017133353           25 
 2567000   0.83973921   -7.8985887    535.37681  0.017380107  0.017126959           12 
 2568000   0.85255166   -7.8871719      536.103  0.017396904  0.017120568           16 
 2569000   0.83860254    -7.893134    535.43348  0.017368414  0.017114182           21 
 2570000   0.83223558   -7.9070673    533.40751  0.017295963   0.01710779            9 
 2571000   0.82754568   -7.9055022    535.82104  0.017367465  0.017101438           10 
 2572000   0.84958469   -7.8664007    536.19221  0.017372739  0.017095095           14 
 2573000   0.82791132   -7.8847411    535.07352  0.017329755  0.017088743           10 
 2574000   0.83104505   -7.9140425     533.6151  0.017275806   0.01708237           14 
 2575000   0.84577023   -7.9086412    535.38032  0.017326224  0.017075982           10 
 2576000   0.84808805   -7.9254634    535.00488  0.017307352  0.017069603           12 
 2577000   0.85584973   -7.9036752    534.81119  0.017294373  0.017063233           12 
 2578000   0.83451622   -7.8788928    536.17981  0.017331905  0.017056877            9 
 2579000    0.8123433   -7.9190249    534.27016  0.017263479  0.017050508           23 
 2580000   0.81141297   -7.8921333    532.69011  0.017205753  0.017044129           16 
 2581000   0.81718509   -7.8946181    535.49503   0.01728965  0.017037765           29 
 2582000    0.8392478   -7.8903647    536.67251  0.017320956   0.01703144            8 
 2583000   0.84610121    -7.842805    537.39438   0.01733754  0.017025146            8 
 2584000   0.83726001   -7.9060762    534.92997  0.017251354  0.017018825           10 
 2585000   0.84527267   -7.9004524    534.94483  0.017245159  0.017012495            6 
 2586000   0.84036399   -7.8679229    536.22073  0.017279606  0.017006158           10 
 2587000   0.82380468   -7.8847619     536.4025  0.017278782  0.016999838            7 
 2588000   0.84680962   -7.8772293    536.36981  0.017271053  0.016993532           12 
 2589000   0.83730471   -7.8797538    535.90873  0.017249541  0.016987239            8 
 2590000   0.85192892   -7.8525057    536.24196  0.017253602  0.016980942           13 
 2591000   0.84981474   -7.8824784    537.00594  0.017271515   0.01697464           11 
 2592000   0.82413441   -7.9151815    536.04027  0.017233805  0.016968328            7 
 2593000   0.83379233    -7.892044     535.7663  0.017218354  0.016961989           25 
 2594000   0.84557601   -7.9329779    535.37573  0.017199169  0.016955654           13 
 2595000    0.8378319   -7.9077255    536.44253  0.017226799  0.016949306           41 
 2596000   0.84660325   -7.9002719     535.7082  0.017196591  0.016942984           16 
 2597000   0.84879048   -7.8976424    536.94522  0.017229663   0.01693668           18 
 2598000   0.82365684    -7.900272    535.88419  0.017188998  0.016930377           21 
 2599000   0.83211728   -7.8900748    537.53526  0.017235323  0.016924081           10 
 2600000   0.81936107   -7.9343146    535.51853  0.017164055  0.016917771           12 
 2601000   0.85361202   -7.8903231    535.26734  0.017149409  0.016911486            6 
 2602000   0.85278015   -7.9426523    535.85454  0.017161624  0.016905148           28 
 2603000   0.84897186   -7.9493845    534.45294  0.017110159  0.016898797           22 
 2604000   0.82825974   -7.9377446     536.0194  0.017153719  0.016892455           25 
 2605000    0.8300311   -7.9462486    534.75343  0.017106636  0.016886101           28 
 2606000   0.82971452   -7.9171956    535.66149  0.017129109  0.016879756            7 
 2607000   0.83501399   -7.8979102    536.93925  0.017163382  0.016873442           11 
 2608000   0.82738049   -7.8843145    537.41371  0.017171961  0.016867156           12 
 2609000    0.8324482   -7.9104687    536.96879  0.017151169  0.016860862           10 
 2610000   0.84530438    -7.921944    537.64349   0.01716614  0.016854585           20 
 2611000   0.85217743   -7.9371317      536.082  0.017109728  0.016848298           24 
 2612000   0.84414342   -7.8802315    536.59607  0.017119579  0.016842028           17 
 2613000   0.82092502   -7.8714484    536.55907  0.017111847  0.016835772            8 
 2614000   0.83820764   -7.8671116    538.40466  0.017164137  0.016829594           20 
 2615000   0.83659176   -7.8942356    536.54478  0.017098304  0.016823392           12 
 2616000   0.85137574   -7.8941976    536.26913  0.017082987  0.016817204           11 
 2617000   0.82244121   -7.8928566    538.44449  0.017145729  0.016810978           16 
 2618000   0.82283261   -7.8809484    538.92334  0.017154423  0.016804795           14 
 2619000   0.83083452   -7.9062631    539.43792  0.017164246  0.016798581           27 
 2620000   0.82861165   -7.9158867    537.81743  0.017106152  0.016792361           13 
 2621000   0.82195938   -7.8925086    538.07103  0.017107689  0.016786148           14 
 2622000    0.8434322   -7.9218384    536.77673  0.017060028  0.016779887           15 
 2623000   0.83573456    -7.911459    536.58293  0.017047367  0.016773633            9 
 2624000   0.81408487   -7.9266626    536.45902  0.017036935  0.016767401            9 
 2625000   0.83746345   -7.8900963    537.13493  0.017051903  0.016761159           11 
 2626000   0.82355641    -7.900816    537.71648  0.017063864  0.016754918           10 
 2627000   0.84420447   -7.9061096    536.45064  0.017017213  0.016748698           20 
 2628000   0.85111541   -7.8954207    538.45808  0.017074394  0.016742501            8 
 2629000   0.81702498   -7.9180066    537.78639  0.017046608  0.016736273           13 
 2630000   0.82966839    -7.891849    539.30027  0.017088095  0.016730049           11 
 2631000    0.8538829   -7.9111052    538.08304  0.017043046  0.016723838           19 
 2632000   0.83106693   -7.9191838    537.94756  0.017032281   0.01671764           15 
 2633000   0.83053717   -7.8888049    537.73558  0.017019103  0.016711444           14 
 2634000   0.84597353   -7.9090823    537.90622   0.01701804  0.016705231           19 
 2635000   0.84543676   -7.9270043    537.34576  0.016993857  0.016699031            7 
 2636000   0.83532542   -7.8882109    538.07667  0.017010517  0.016692826           15 
 2637000   0.83160388   -7.9092857    538.01644  0.017002163  0.016686653            8 
 2638000   0.85456384   -7.9127598    537.66269  0.016984543  0.016680486           17 
 2639000   0.82776725   -7.8786741     538.0907  0.016991622  0.016674288           10 
 2640000   0.82582156   -7.9153566    538.07271  0.016984618  0.016668101           13 
 2641000    0.8301375   -7.9131592     537.9455  0.016974173  0.016661883            8 
 2642000   0.82535843   -7.9009213    537.91018  0.016966634  0.016655683            8 
 2643000   0.83186002   -7.8852636    537.64212  0.016951763  0.016649508            8 
 2644000    0.8143595   -7.8904439    537.61515  0.016944502  0.016643307           11 
 2645000   0.82704964   -7.9189101    538.72288  0.016972996  0.016637103            9 
 2646000   0.84979188    -7.910925    539.28695  0.016984346  0.016630915            5 
 2647000   0.81434309    -7.909453    536.62172  0.016894022  0.016624704           10 
 2648000   0.84637717   -7.8940064    538.08618  0.016933729  0.016618498           10 
 2649000   0.81672814   -7.9614711     538.3053   0.01693423  0.016612306           14 
 2650000   0.83774404    -7.922246    538.37585  0.016930058  0.016606065           14 
 2651000   0.82934285     -7.91789    538.37292   0.01692358  0.016599856           10 
 2652000   0.79683628   -7.8898174    537.61432  0.016893361   0.01659364            6 
 2653000   0.82853054   -7.9185747    538.25976  0.016907267  0.016587431           27 
 2654000   0.83480019   -7.9612368    536.21837  0.016836799  0.016581205            8 
 2655000   0.81012397   -7.9229132    536.92541  0.016852649  0.016574981            7 
 2656000   0.82852462   -7.9272152    537.00613  0.016848837  0.016568751           13 
 2657000    0.8323245   -7.9099098    537.75452  0.016865968  0.016562535           12 
 2658000   0.82903657   -7.9744168    536.46568  0.016819215  0.016556308            6 
 2659000   0.80987353   -7.9527163    537.95713  0.016859632  0.016550066           23 
 2660000   0.83115183   -7.9063304    537.24027  0.016830836  0.016543831           22 
 2661000   0.82235948   -7.9339014    537.15968  0.016821987  0.016537623           29 
 2662000   0.81799289   -7.9270922    537.68265  0.016832039  0.016531396           16 
 2663000   0.82512577   -7.9059758    538.26006  0.016843787  0.016525183           10 
 2664000   0.82552902   -7.9330904    535.98649  0.016766344  0.016518938           19 
 2665000   0.80779477   -7.9202504    537.19573  0.016797865   0.01651269           45 
 2666000   0.82645978   -7.9499043    536.73725  0.016777233  0.016506435           24 
 2667000   0.81673471   -7.9633389    536.48606  0.016763094  0.016500175           19 
 2668000   0.83477538   -7.9392075    537.51691  0.016789009  0.016493926            7 
 2669000   0.82362583   -7.9567482    536.66748  0.016756197  0.016487663           16 
 2670000   0.83260842   -7.9431956    537.34104  0.016770944  0.016481431           11 
 2671000   0.81295509   -7.9647569    537.09773  0.016757074  0.016475206            7 
 2672000   0.83823755   -7.9494302     537.0509  0.016749342  0.016468972           12 
 2673000   0.83685635   -7.9273678    537.19016  0.016747417  0.016462739           14 
 2674000   0.82560247   -7.9190921    538.36135  0.016777654  0.016456525           16 
 2675000   0.83492533   -7.9179713    538.48688  0.016775292  0.016450355           23 
 2676000   0.82573704   -7.9161407     538.0523   0.01675549  0.016444154           12 
 2677000   0.82263729   -7.9192824     537.6015  0.016735198  0.016437961           31 
 2678000    0.8092814   -7.9611146    537.56967  0.016727958  0.016431749           12 
 2679000   0.81711465   -7.9526799    537.07613  0.016706362  0.016425516           13 
 2680000    0.8123919   -7.9655437    539.04155  0.016761242  0.016419292           16 
 2681000   0.81776398   -7.9402535    538.57057  0.016740351  0.016413067            9 
 2682000   0.81833388   -7.8898429    538.39556  0.016728671  0.016406841           13 
 2683000   0.82275325   -7.9378023    537.69082  0.016700547  0.016400654           12 
 2684000   0.82635235    -7.954291    536.81609  0.016667166  0.016394473           17 
 2685000   0.82609455   -7.9256195    539.97651  0.016759048  0.016388298           12 
 2686000   0.82736252   -7.9292586     538.3613  0.016702696  0.016382147           15 
 2687000   0.83053535   -7.9316641     538.5745  0.016703092  0.016375957           18 
 2688000   0.84361539   -7.9429219    537.98331   0.01667855  0.016369758           12 
 2689000   0.82343335   -7.9491701    537.09726  0.016644888  0.016363551           21 
 2690000   0.83281198   -7.9636339    538.11659  0.016670279  0.016357333           13 
 2691000    0.8115109   -7.9441325    538.01733   0.01666101  0.016351081           12 
 2692000   0.82116734   -7.9681653    538.39132  0.016666398  0.016344845           17 
 2693000    0.8179235   -7.9704806     536.7902  0.016610663  0.016338624           12 
 2694000    0.8170093   -7.9679656    537.65086   0.01663112  0.016332367            8 
 2695000   0.83573211   -7.9718439    536.57289  0.016591617  0.016326099            8 
 2696000   0.82238257   -7.9634604    536.79751  0.016592406  0.016319866           13 
 2697000   0.83141416   -8.0153231    535.73788  0.016553513  0.016313599           30 
 2698000   0.81929198   -7.9807045    536.13977   0.01655979  0.016307318           21 
 2699000   0.82020909   -8.0054019    537.92981  0.016608924  0.016301056           13 
 2700000    0.8294575   -8.0112698    536.22008  0.016550002  0.016294804           13 
 2701000   0.81610024   -7.9575009    537.35831  0.016578993  0.016288576           36 
 2702000   0.83167392   -7.9679835    536.20833   0.01653739  0.016282331           31 
 2703000   0.80573518   -7.9513794    537.66228  0.016576097   0.01627612           24 
 2704000   0.81065962   -7.9520474    537.72566   0.01657192  0.016269918           35 
 2705000   0.80793159   -7.9821295    539.17197   0.01661035  0.016263708           27 
 2706000     0.808778   -7.9379047    537.59933  0.016555781  0.016257513           22 
 2707000   0.83335674   -7.9875479    537.22144  0.016538032    0.0162513           15 
 2708000   0.80819649    -7.998534     536.7368  0.016517011  0.016245105           21 
 2709000   0.80183124    -7.968867     537.1031  0.016522182  0.016238908           12 
 2710000   0.81148478    -7.987587    537.82657  0.016538332   0.01623273            9 
 2711000    0.8194402   -7.9592878    538.18497  0.016543249  0.016226547           12 
 2712000   0.80833398   -7.9579076    537.99606  0.016531344  0.016220368            9 
 2713000   0.81103089   -7.9591471    538.39494  0.016537503  0.016214209            8 
 2714000   0.81819764   -7.9556379    539.62613  0.016569213  0.016208069            6 
 2715000   0.80920817   -7.9619021     538.3793   0.01652484  0.016201892           16 
 2716000   0.82005346   -7.9570248    538.21262  0.016513642  0.016195714           14 
 2717000   0.82503651   -7.9641219    537.74348  0.016493175  0.016189531            8 
 2718000   0.80245025   -7.9534453    540.29881  0.016565453  0.016183379            9 
 2719000   0.82211769   -7.9296246    539.11682  0.016523134  0.016177212            8 
 2720000   0.82849245   -7.9699974    537.75912  0.016475463   0.01617108           18 
 2721000    0.8102161   -7.9488551    538.36457  0.016487951  0.016164939           20 
 2722000   0.81843717   -7.9616869    538.46106  0.016484848  0.016158823           25 
 2723000   0.81514327   -7.9590454    538.01333  0.016465092  0.016152702           19 
 2724000   0.81978862   -7.9164284    540.31066  0.016529328  0.016146621           26 
 2725000   0.81469304   -7.9572854    539.72807  0.016505445  0.016140523           11 
 2726000   0.81662339   -7.9338865    539.79499  0.016501437  0.016134452           24 
 2727000   0.82909679   -7.9156146    539.40151  0.016483361  0.016128382           13 
 2728000   0.84093456   -7.9390635    539.35138  0.016475787  0.016122295           14 
 2729000   0.81717879   -7.9336915    539.21478  0.016465579   0.01611622            9 
 2730000   0.80549654   -7.9468326    539.07621  0.016455318  0.016110147            9 
 2731000   0.81654671   -7.9448831    539.29401  0.016455938  0.016104085            7 
 2732000   0.82012769   -7.9492989    538.12235  0.016414176  0.016097982           16 
 2733000   0.81281866   -7.9349447    539.81588  0.016459808  0.016091884           14 
 2734000    0.8148148   -7.9638327    538.57199  0.016415874  0.016085794           17 
 2735000   0.81898017   -7.9510693    538.85466  0.016418485  0.016079706           12 
 2736000   0.80572376   -7.9552618    539.07637  0.016419236  0.016073614           18 
 2737000   0.80845111   -7.9630672    540.11109  0.016444741  0.016067522           32 
 2738000   0.80465753   -7.9341583    540.13936  0.016439596  0.016061447           11 
 2739000   0.82429812   -7.9635003    538.88459  0.016395418  0.016055362           11 
 2740000   0.81375674   -7.9713529    539.10668  0.016396189  0.016049275           14 
 2741000   0.81333971   -7.9844217    539.44663  0.016400542  0.016043199           23 
 2742000   0.81415896   -7.9668539    539.14164  0.016385292   0.01603714           14 
 2743000   0.81923592   -7.9688079    539.86202  0.016401204  0.016031087           21 
 2744000    0.7998298    -7.988677    539.51706   0.01638475  0.016024995            7 
 2745000   0.79805659    -7.981807    537.86101  0.016328507  0.016018902           11 
 2746000   0.81161526   -8.0034329    537.61466  0.016315084  0.016012779           17 
 2747000   0.79122207   -7.9916167    538.97214  0.016350326  0.016006667           18 
 2748000   0.80675794   -8.0329359     537.9555  0.016313546  0.016000547           26 
 2749000   0.82431659   -7.9952801    538.78023  0.016332613  0.015994398           11 
 2750000   0.82063724   -8.0054564    538.91655  0.016330805  0.015988277           23 
 2751000   0.79316278   -8.0036853    538.20045  0.016303176  0.015982138           48 
 2752000   0.80556579   -7.9784743     539.6777  0.016341985  0.015976042           28 
 2753000   0.82122222   -7.9882306    538.34115  0.016295591  0.015969958           44 
 2754000   0.81528493   -7.9847945    540.09168  0.016342643  0.015963888           20 
 2755000   0.81662696   -7.9908249    539.66643  0.016323848  0.015957805           22 
 2756000    0.8291227    -8.009989     537.9169  0.016265025  0.015951682           12 
 2757000   0.82123083   -7.9922663     538.8861   0.01628842   0.01594559           28 
 2758000   0.82761309   -7.9845444     539.7048  0.016307252  0.015939515           39 
 2759000   0.82596452   -8.0118046     538.3398  0.016260112  0.015933441           18 
 2760000   0.80430036    -7.992173     539.5893  0.016291948   0.01592737           20 
 2761000   0.80085498   -7.9648923    540.65445  0.016318195  0.015921309           18 
 2762000   0.82452328   -7.9896242    540.10858  0.016295818  0.015915243           29 
 2763000   0.81451902   -7.9891043    538.98328   0.01625598  0.015909175           28 
 2764000   0.82005667   -7.9568416    540.31643  0.016290293  0.015903124            9 
 2765000   0.82059337   -7.9677058    539.56681  0.016261809  0.015897074            6 
 2766000   0.80974449   -8.0443336    538.50393  0.016223907  0.015890977           23 
 2767000   0.80922589    -7.977442    540.73356  0.016285193  0.015884908            8 
 2768000   0.80384947   -8.0070742    539.36074   0.01623798  0.015878829            9 
 2769000   0.80726157   -8.0351328    537.32111  0.016170733  0.015872737           16 
 2770000   0.81823982   -8.0182686    539.00678  0.016215607   0.01586666           13 
 2771000   0.81764616   -8.0156613    538.46958    0.0161936  0.015860571           18 
 2772000   0.81453534   -8.0510374    538.40527  0.016185825  0.015854473           14 
 2773000   0.80787806   -8.0314592    537.80329  0.016161897  0.015848382           38 
 2774000   0.81047014   -7.9844499    540.25346  0.016229676  0.015842308           22 
 2775000   0.80106676   -8.0256271    539.81982  0.016210805  0.015836244           14 
 2776000   0.81948919    -8.016845     539.8315  0.016205316  0.015830133           22 
 2777000   0.80727062   -8.0092426    539.96176   0.01620339  0.015824043           15 
 2778000   0.80247333   -8.0251722     537.6549  0.016128357  0.015817951           14 
 2779000   0.78523453   -7.9954165    539.79281  0.016186662  0.015811881           18 
 2780000   0.79224225   -8.0078721    539.79903  0.016181026  0.015805819            9 
 2781000    0.8035893   -8.0157723    538.68209  0.016141738  0.015799766           19 
 2782000   0.80005927   -8.0306551    538.04469  0.016116843  0.015793675           18 
 2783000     0.814037   -8.0288442    537.22008   0.01608636  0.015787571           20 
 2784000   0.79590656   -8.0414987    538.85139  0.016129412   0.01578147           25 
 2785000   0.79415302   -8.0096905    538.06183  0.016099995  0.015775361           22 
 2786000   0.80253083   -7.9946701    538.73059   0.01611422  0.015769286           34 
 2787000   0.81201682   -8.0156987    540.39188  0.016158112  0.015763216           19 
 2788000   0.79591798    -8.025207    539.02458  0.016111447  0.015757143           25 
 2789000   0.80588527   -8.0202633     539.2428  0.016112191  0.015751081            9 
 2790000   0.78727656   -8.0160735    538.71839  0.016090752  0.015745001           33 
 2791000   0.82425926    -8.004168    539.46866  0.016107389  0.015738923           28 
 2792000   0.82293507   -8.0137992    540.32571    0.0161272  0.015732868           16 
 2793000    0.8043182    -8.007635    539.94421  0.016110043  0.015726825           25 
 2794000   0.81498793   -8.0273168    538.77388  0.016069371  0.015720752           23 
 2795000   0.81173462   -8.0104319    539.62334  0.016088949  0.015714702           28 
 2796000   0.79680981   -8.0146414    539.54389  0.016080826  0.015708627           26 
 2797000   0.80761508   -8.0400194    538.76369  0.016051832  0.015702579           15 
 2798000   0.80791318   -7.9889925    539.73941  0.016075155  0.015696543           33 
 2799000   0.82858767   -8.0268117    539.80749  0.016071439  0.015690507           24 
 2800000   0.79949651   -8.0212801    539.98563  0.016071001  0.015684461           12 
 2801000   0.80523824   -8.0147698    538.82542  0.016030746  0.015678417           30 
 2802000   0.80651704   -7.9987322    540.01696  0.016060462  0.015672392           24 
 2803000   0.81697339   -8.0228705    539.52026  0.016039965  0.015666373           38 
 2804000   0.80653101   -8.0134604    539.36486  0.016029626  0.015660346           29 
 2805000    0.7985326   -8.0097048    540.62772   0.01606143  0.015654286           29 
 2806000   0.79199627   -7.9969554    540.28001  0.016045379  0.015648263           36 
 2807000   0.79862298   -7.9974192    538.69591  0.015992635  0.015642235           39 
 2808000   0.81126918   -8.0196923    538.99461  0.015995804  0.015636195           54 
 2809000   0.80260196   -7.9921186    539.85537  0.016015645   0.01563017           48 
 2810000   0.80134798    -7.990546    540.44449  0.016027417  0.015624147           59 
 2811000    0.8014484   -8.0246403     539.9131  0.016005962  0.015618088           58 
 2812000   0.82550106   -8.0370621    537.19069  0.015919591  0.015612007           60 
 2813000   0.77972223   -8.0259091    538.08078  0.015940301   0.01560592           42 
 2814000   0.79940034   -8.0455921    539.59706  0.015979539  0.015599847           65 
 2815000   0.78619039   -8.0307116    539.36455  0.015966979  0.015593801           58 
 2816000   0.79922741   -8.0407851    538.51346  0.015936123  0.015587773           55 
 2817000   0.81383043   -8.0093742    539.66939  0.015964661  0.015581735           50 
 2818000   0.79670051   -8.0206504    540.46025  0.015982383  0.015575719           66 
 2819000   0.79474952   -8.0194385    538.41547  0.015916267  0.015569684           48 
 2820000   0.81452709   -8.0155719     539.9036  0.015954598  0.015563663           46 
 2821000   0.80585544   -8.0510893    539.15623  0.015926865  0.015557627           38 
 2822000   0.79953759     -8.06421    538.26571  0.015894924   0.01555157           47 
 2823000   0.78492592   -8.0704831    537.11868  0.015855434  0.015545514           63 
 2824000   0.77639931   -8.0428909    538.62833  0.015894367  0.015539447           53 
 2825000   0.79413595   -8.0528595    538.47915  0.015884341  0.015533365           69 
 2826000   0.81004562   -8.0425672    539.72785  0.015915542  0.015527307           77 
 2827000   0.79764049    -8.074384    536.91774  0.015827076  0.015521231           85 
 2828000   0.79837534   -8.0881082    538.35044  0.015863697  0.015515139           67 
 2829000    0.8042332   -8.0401216    538.66599  0.015867385  0.015509057           70 
 2830000   0.80407489   -7.9922896    538.75809   0.01586449  0.015503022           79 
 2831000   0.79680479   -8.0487134    537.61568  0.015825258  0.015497004          106 
 2832000   0.79340583   -8.0315895    539.57855  0.015877429  0.015490961          110 
 2833000   0.81060105    -8.047384    538.82765  0.015849737  0.015484922           98 
 2834000   0.80612055   -8.0358855     539.8847  0.015875226  0.015478874           59 
 2835000   0.81945414   -8.0371327    538.09978   0.01581716  0.015472804           62 
 2836000   0.79002919   -8.0454663    539.18059  0.015843341  0.015466736          122 
 2837000   0.79393571   -8.0815348     537.9338  0.015801134  0.015460674           98 
 2838000   0.79885174   -8.0674311     537.4192  0.015780456  0.015454623          134 
 2839000   0.79651189   -8.0235154    539.08109  0.015823679  0.015448602          128 
 2840000    0.7867084   -8.0259355    538.94972  0.015814252  0.015442567          101 
 2841000   0.79896279   -8.0522922    539.93439  0.015837569   0.01543655          133 
 2842000   0.80120226   -8.0381251    539.35078  0.015814883  0.015430528           95 
 2843000   0.80835976   -8.0095712    539.85671   0.01582415  0.015424525          101 
 2844000   0.80518777   -8.0368288    539.18857  0.015799009  0.015418528          106 
 2845000   0.81360854   -8.0217868    538.78404  0.015781606  0.015412528          112 
 2846000   0.79640998   -8.0464722    539.95458  0.015810336   0.01540655          131 
 2847000   0.78712648   -8.0475641    538.58564  0.015764713  0.015400546           96 
 2848000   0.79316737   -8.0263464    539.43396  0.015783999  0.015394533          105 
 2849000   0.78680353   -8.0634092    538.77207  0.015759099  0.015388532           97 
 2850000   0.80078428   -8.0545847    538.21661  0.015737328  0.015382521           65 
 2851000   0.80311178   -8.0755716    538.97207  0.015753889   0.01537651           61 
 2852000   0.78377288   -8.0268459    538.42475  0.015732374  0.015370524           99 
 2853000   0.79768958   -8.0510058    538.25747  0.015721973  0.015364529           97 
 2854000   0.81657334   -8.0115832    539.51928  0.015753308  0.015358544          105 
 2855000   0.80142743   -8.0086757    540.80748  0.015785391  0.015352605           84 
 2856000    0.7902215   -8.0234527    540.40768  0.015768198  0.015346691           88 
 2857000   0.80508629   -8.0208819    540.12925  0.015754557  0.015340746          112 
 2858000   0.82242675   -8.0252273    540.32441  0.015754736  0.015334789          107 
 2859000   0.79593411   -8.0370362    539.16816  0.015715523  0.015328839          147 
 2860000   0.77048363   -8.0439214    540.19856  0.015740051  0.015322869          135 
 2861000    0.7834597   -8.0342172    540.23913  0.015735732  0.015316912          131 
 2862000   0.80063918   -8.0523101    539.09465  0.015696909  0.015310953          121 
 2863000   0.77258845   -8.0448929    539.22043  0.015695088  0.015305002          151 
 2864000   0.77571079   -8.0454974    539.37293  0.015694045  0.015299029          160 
 2865000   0.79981426   -8.0490361    540.27216  0.015714723  0.015293077          207 
 2866000   0.79849044   -8.0693362    538.68798  0.015663177  0.015287141          192 
 2867000   0.79280677   -8.0424752     539.9349  0.015693957  0.015281192          163 
 2868000   0.80297007   -8.0856131    539.10622  0.015664407  0.015275232          200 
 2869000   0.77913622   -8.0814514    538.77527  0.015649334  0.015269256          163 
 2870000    0.8124112    -8.054591    539.66923  0.015669838  0.015263262          179 
 2871000   0.77861091   -8.0895665    539.58243  0.015661861  0.015257287          186 
 2872000    0.8028875   -8.0994171    539.04111  0.015640701   0.01525128          220 
 2873000   0.79463252   -8.0988165    538.40448  0.015616791  0.015245266          209 
 2874000   0.79856586   -8.1078128    537.20275  0.015576512  0.015239227          249 
 2875000   0.78369915   -8.0731209    539.35986  0.015633619   0.01523321          209 
 2876000   0.79811284   -8.0854397     537.3901  0.015571109  0.015227211          209 
 2877000   0.78922478    -8.077121    537.51413  0.015569289  0.015221198          206 
 2878000   0.79308597   -8.0863022    538.52654  0.015593194  0.015215189          245 
 2879000   0.77766425   -8.0928982    538.97607  0.015600789  0.015209171          251 
 2880000    0.7999569   -8.1038054    538.18713  0.015572544  0.015203157          230 
 2881000   0.78636472   -8.1061953    538.14426  0.015565899  0.015197141          293 
 2882000   0.79175783   -8.0410024    539.25391  0.015592583  0.015191134          302 
 2883000   0.77382672    -8.092479    537.54845  0.015537879  0.015185133          362 
 2884000   0.78374271   -8.0540327    538.76377  0.015567608  0.015179129          269 
 2885000   0.81220389   -8.0869212    537.86236  0.015536174   0.01517312          302 
 2886000   0.78400662    -8.110721     538.5281  0.015550014  0.015167088          269 
 2887000    0.7922471   -8.1130478    536.73409  0.015492844  0.015161046          234 
 2888000   0.78395753   -8.1225465    537.88163  0.015520592  0.015154999          239 
 2889000   0.80116087   -8.1077184    537.40886  0.015501583  0.015148945          292 
 2890000   0.79647515   -8.1404679    536.52892  0.015470845  0.015142885          277 
 2891000    0.7855412   -8.1127014     538.2583  0.015515344   0.01513682          319 
 2892000   0.79463681   -8.1198588    537.61029  0.015491306  0.015130764          368 
 2893000   0.79762562   -8.1137825    537.74825  0.015489925  0.015124713          345 
 2894000   0.79673515   -8.1444647    536.26611  0.015441894  0.015118674          345 
 2895000   0.78571552   -8.0947521    537.74451  0.015479117  0.015112634          325 
 2896000   0.78159167   -8.0919227    537.50841  0.015466978  0.015106606          310 
 2897000   0.77784304   -8.0830739     538.8037  0.015498898  0.015100578          387 
 2898000   0.78851789   -8.1033923    537.10442  0.015444686   0.01509456          400 
 2899000   0.79195247   -8.1270608    538.20944  0.015471123   0.01508853          465 
 2900000   0.79056656   -8.1370019    538.12714  0.015463423  0.015082488          524 
 2901000   0.77462569     -8.13142    537.96387  0.015453403  0.015076455          432 
 2902000   0.79530294   -8.1173688    536.85043  0.015416105  0.015070417          515 
 2903000   0.78497773   -8.1217117    537.34627  0.015425028  0.015064358          451 
 2904000   0.77900312   -8.1474417    536.86455  0.015405893  0.015058301          433 
 2905000     0.786787   -8.1441316     536.9182  0.015402129  0.015052262          508 
 2906000    0.7873861   -8.1409397    536.49446  0.015384677  0.015046225          581 
 2907000   0.79495373   -8.1006916    537.97747  0.015421897  0.015040185          468 
 2908000   0.80812875   -8.1101995    537.12716  0.015392227  0.015034148          505 
 2909000    0.7908859    -8.109555    537.88964  0.015408778  0.015028116          613 
 2910000   0.76436718   -8.1230605    536.65686   0.01536818  0.015022072          629 
 2911000   0.76413669   -8.1330187    535.62778  0.015333441  0.015016043          583 
 2912000   0.78226017   -8.1057607    537.42015  0.015379469  0.015010033          591 
 2913000    0.7782865   -8.1428734    537.09674  0.015364937  0.015003987          514 
 2914000   0.77500243   -8.1300114    537.10426  0.015359879  0.014997959          607 
 2915000   0.79309651   -8.0955503    537.76812  0.015373588  0.014991965          598 
 2916000   0.78253196   -8.1243285    538.35561  0.015385106  0.014985952          490 
 2917000   0.77825563    -8.106862    538.40313  0.015381189  0.014979946          477 
 2918000   0.79399464   -8.1483749    535.93398  0.015305403   0.01497393          539 
 2919000   0.79281037   -8.1223643    537.39458  0.015341857  0.014967918          517 
 2920000   0.78563672   -8.1244745     537.0071  0.015325545  0.014961919          586 
 2921000   0.77676961   -8.1583632    537.52886  0.015335184  0.014955915          622 
 2922000   0.79820565   -8.1291025     536.5946  0.015303291  0.014949899          528 
 2923000   0.77275082   -8.1509448    536.67779  0.015300427  0.014943873          579 
 2924000   0.79594836   -8.1816439    535.99015  0.015275597   0.01493783          683 
 2925000   0.78752227   -8.1544392    537.27839  0.015307077  0.014931785          648 
 2926000   0.76653632   -8.1515011    536.81684    0.0152887   0.01492575          702 
 2927000   0.77125611   -8.1470454    536.60077  0.015277325  0.014919695          684 
 2928000   0.79141915   -8.1374115    537.85321  0.015307753  0.014913635          728 
 2929000   0.79236311   -8.1525791    535.58394  0.015237963  0.014907568          738 
 2930000     0.806722   -8.1536631    536.84366  0.015268591  0.014901539          717 
 2931000   0.77997449   -8.1678274    536.56078  0.015255339  0.014895492          754 
 2932000   0.79783273   -8.1720214    535.84863  0.015229895  0.014889436          805 
 2933000   0.78926975   -8.1916217    537.07499  0.015259546  0.014883369          856 
 2934000    0.7712016   -8.1750005    536.43086   0.01523605  0.014877295          763 
 2935000   0.79090159   -8.1990378    535.36485  0.015200592  0.014871198          795 
 2936000   0.78637387    -8.200349     534.7483  0.015177915   0.01486511          933 
 2937000   0.79938894   -8.1980968    535.59341  0.015196726  0.014859016          849 
 2938000     0.774779   -8.1970164    535.32629  0.015183977  0.014852935          891 
 2939000   0.78555944   -8.2234276    534.66121  0.015159953  0.014846848          864 
 2940000   0.76572765   -8.2034572    536.20043  0.015198425  0.014840766          948 
 2941000   0.78067593   -8.1832717    536.53229   0.01520266   0.01483468          959 
 2942000   0.78118254   -8.2182909     534.6485  0.015144134  0.014828589          919 
 2943000   0.78291093    -8.217152    535.87638  0.015173756  0.014822504          991 
 2944000   0.78663306   -8.2077803    534.07572  0.015117633  0.014816393          994 
 2945000   0.78694587    -8.206725    534.56815  0.015126433  0.014810273         1037 
 2946000   0.78220331   -8.2202973    535.87632  0.015158303  0.014804143         1084 
 2947000   0.77220465   -8.1970805    534.58488  0.015116641  0.014798029         1015 
 2948000   0.76582459   -8.2319485     533.9626  0.015093923  0.014791891         1004 
 2949000   0.78800494   -8.2255246    535.39204  0.015129197  0.014785762         1020 
 2950000   0.78459018   -8.2773246    533.66416  0.015075259  0.014779621         1061 
 2951000   0.77569856   -8.2158207    534.68369  0.015098941  0.014773462         1166 
 2952000    0.7809642   -8.2553565     533.8584  0.015070528   0.01476732         1201 
 2953000   0.77839167   -8.2523604    533.81743  0.015064269  0.014761174         1277 
 2954000   0.76012789   -8.2804895    532.06871  0.015009837  0.014755005         1384 
 2955000   0.79772819   -8.2441609    533.59689  0.015047854  0.014748834         1478 
 2956000   0.76299859   -8.2960466    533.39914  0.015037188  0.014742658         1500 
 2957000   0.77667433   -8.3001277    532.22022  0.014998879  0.014736475         1560 
 2958000   0.76222936   -8.2902184    534.11588  0.015047213  0.014730283         1577 
 2959000   0.79492704   -8.3098248    532.38691  0.014993436  0.014724095         1619 
 2960000   0.77633985   -8.3190576    532.79291    0.0149998  0.014717883         1622 
 2961000   0.76911481   -8.3122083    532.29376  0.014980687  0.014711668         1639 
 2962000   0.77491011   -8.3309385    532.17418  0.014972265  0.014705438         1742 
 2963000   0.77541393   -8.3461999    532.35426  0.014972276  0.014699207         1830 
 2964000   0.77359648   -8.3306469    532.35448  0.014967231   0.01469298         1768 
 2965000   0.77244757   -8.3483952    532.63533  0.014970077  0.014686749         1768 
 2966000   0.77553246   -8.3340552    531.90455  0.014944497  0.014680509         1824 
 2967000   0.78153557   -8.3323608    531.01475  0.014914469  0.014674277         1931 
 2968000   0.76978624   -8.3611417    530.04444    0.0148822  0.014667997         2167 
 2969000   0.77807521   -8.3693668    529.59855  0.014864672  0.014661703         2107 
 2970000   0.76643251   -8.4272038    529.79311  0.014865127  0.014655393         2144 
 2971000   0.76412782   -8.3890316    529.91496  0.014863541  0.014649089         2140 
 2972000   0.75802789   -8.4030513    530.59804  0.014877693  0.014642783         2254 
 2973000   0.77894731   -8.3895014    531.07451  0.014886044  0.014636473         2318 
 2974000   0.78039011   -8.4302117    530.64234  0.014868929  0.014630154         2376 
 2975000    0.7672819   -8.4275105    529.83602  0.014841345   0.01462384         2471 
 2976000   0.78846128   -8.4352562    528.91998  0.014810707  0.014617506         2582 
 2977000   0.76653478   -8.4417445    529.06796  0.014809874  0.014611155         2586 
 2978000   0.78974358   -8.4492884    528.02298   0.01477566  0.014604789         2756 
 2979000   0.78577156    -8.465053    528.27721  0.014777812  0.014598391         2759 
 2980000   0.77394589    -8.487006    528.53238  0.014779988  0.014591983         2937 
 2981000   0.75954963   -8.4874118    527.27996  0.014740019  0.014585566         2937 
 2982000   0.79398516   -8.4995484    528.29806  0.014763527   0.01457913         2941 
 2983000   0.78661724    -8.499206    526.77508  0.014716032  0.014572682         3028 
 2984000   0.75380174   -8.5048886    527.16602  0.014722018  0.014566234         3004 
 2985000    0.7663771   -8.5164284    526.22592  0.014690841  0.014559776         3031 
 2986000   0.78525298   -8.5567846     525.4235  0.014663527  0.014553323         3077 
 2987000   0.78107236   -8.5316669    525.60207    0.0146636  0.014546828         3139 
 2988000   0.77802344   -8.5732279    526.24635  0.014676661  0.014540336         3207 
 2989000   0.77155358   -8.5585087    525.59957  0.014653718  0.014533833         3291 
 2990000   0.77440425   -8.5865776    526.02118  0.014660568  0.014527312         3343 
 2991000    0.7753286   -8.5962431    525.58854  0.014643612  0.014520788         3314 
 2992000   0.79344284   -8.5827912    523.87806  0.014591078  0.014514265         3352 
 2993000   0.78522937   -8.5703882    525.96769  0.014644384  0.014507746         3426 
 2994000   0.78442523   -8.6042919    525.23904  0.014619212  0.014501233         3396 
 2995000    0.7777334   -8.5771669    524.68961  0.014599043  0.014494714         3379 
 2996000   0.77732181   -8.5840045    526.08516  0.014632987  0.014488198         3385 
 2997000   0.79249166   -8.5838723    525.62822  0.014615399   0.01448168         3336 
 2998000   0.78373659   -8.6071865    525.04653  0.014594355   0.01447517         3416 
 2999000   0.77209941   -8.5903933    524.05673  0.014561985  0.014468654         3425 
 3000000   0.76818935   -8.5921832    524.62595  0.014572943  0.014462139         3456 
 3001000   0.75669255   -8.5880426    525.26038  0.014585704  0.014455628         3334 
 3002000   0.76710408   -8.6113593    525.13496  0.014577364  0.014449114         3434 
 3003000   0.76425782   -8.5930565    524.68737  0.014560089  0.014442608         3377 
 3004000   0.74590684   -8.6196027    524.77173  0.014557582  0.014436095         3482 
 3005000   0.78587744   -8.6108346    524.30512  0.014539798  0.014429585         3480 
 3006000    0.7675007   -8.5879038    525.23266  0.014560675  0.014423076         3498 
 3007000   0.77756314   -8.6043695    524.68301    0.0145406  0.014416566         3450 
 3008000   0.75906219   -8.5854164    523.90194  0.014514127  0.014410058         3460 
 3009000   0.79522674    -8.628536    524.38899  0.014522792  0.014403549         3499 
 3010000   0.75834897   -8.6655428    524.31601  0.014515947  0.014397035         3479 
 3011000   0.75241038    -8.603933    524.78223  0.014524029  0.014390525         3481 
 3012000   0.77470998   -8.6297115    523.63311  0.014487415  0.014384004         3563 
 3013000   0.76567002   -8.6248311    524.41026  0.014504101  0.014377491         3524 
 3014000   0.77112542   -8.6181591    523.70185  0.014479702  0.014370972         3536 
 3015000    0.7713154   -8.6224381    524.78887  0.014504944   0.01436446         3520 
 3016000   0.77384731   -8.6410405    523.67199  0.014469275  0.014357949         3583 
 3017000   0.77096149   -8.6324675    524.38236    0.0144841  0.014351448         3547 
 3018000   0.74866001   -8.6451443    523.56341  0.014456688  0.014344936         3569 
 3019000   0.73538894   -8.6333585    524.43929  0.014476076  0.014338428         3536 
 3020000   0.77840662   -8.6369754    524.27847  0.014466845   0.01433192         3496 
 3021000   0.77569041   -8.6514958    523.74835  0.014447433  0.014325417         3587 
 3022000   0.76424181   -8.6593146    522.91234  0.014419599  0.014318923         3595 
 3023000   0.76806577   -8.6555412    522.28569  0.014397554  0.014312418         3499 
 3024000   0.75202631   -8.6530742    523.85428   0.01443602  0.014305921         3552 
 3025000   0.76107663   -8.6288498    523.03437   0.01440866  0.014299421         3629 
 3026000   0.76640587   -8.6332919    523.34148  0.014412356   0.01429293         3597 
 3027000   0.76789148   -8.6137124    523.09542  0.014400821  0.014286439         3603 
 3028000   0.77237026   -8.6500141    523.26502  0.014400733  0.014279958         3641 
 3029000   0.75423671   -8.6429073    522.63299   0.01437859  0.014273467         3607 
 3030000   0.76146791   -8.6443239    524.15159   0.01441561  0.014266968         3609 
 3031000   0.75339549   -8.6582726    524.19483  0.014412043  0.014260481         3605 
 3032000   0.78712172    -8.654663    522.90635  0.014371876  0.014254001         3623 
 3033000   0.77083059   -8.6419439    523.02722  0.014370459  0.014247513         3605 
 3034000   0.75300765   -8.6674542     523.0373  0.014365999  0.014241019         3622 
 3035000   0.77033705   -8.6587903    523.05661  0.014361796  0.014234526         3654 
 3036000   0.77241242   -8.6509392    523.80266  0.014377543  0.014228053         3608 
 3037000   0.77068938   -8.6560461    523.43626  0.014362755  0.014221576         3611 
 3038000   0.74899824   -8.6553024    523.55375  0.014361251  0.014215105         3625 
 3039000   0.76277111   -8.6453923    522.85341  0.014337321  0.014208638         3534 
 3040000   0.76763449   -8.6649036    523.05402  0.014338103  0.014202174         3606 
 3041000   0.76531994   -8.6600687    522.53223   0.01431909  0.014195706         3622 
 3042000    0.7461182   -8.6537592    523.57178   0.01434286  0.014189237         3647 
 3043000   0.75132179   -8.6894162    522.43428  0.014306996  0.014182766         3674 
 3044000   0.78912743   -8.6622043    523.91539  0.014342844  0.014176305         3663 
 3045000   0.76970816   -8.6775756    522.65139  0.014303541  0.014169849         3687 
 3046000   0.77804068    -8.660637    523.27146  0.014315809  0.014163389         3685 
 3047000   0.75872362   -8.6795954    523.09041  0.014306159  0.014156927         3638 
 3048000   0.76085452   -8.6571918    523.48583  0.014312277  0.014150472         3625 
 3049000   0.77040549    -8.665751    522.87667  0.014290933  0.014144025         3701 
 3050000    0.7579916    -8.698626    522.55649    0.0142775  0.014137572         3732 
 3051000   0.75061632   -8.6840399    521.85325  0.014253612  0.014131122         3682 
 3052000   0.76980612   -8.6757502    524.15312  0.014311739  0.014124682         3683 
 3053000   0.77626012    -8.667122    522.54738  0.014263221  0.014118235         3685 
 3054000   0.75146309   -8.6681848    524.07067  0.014300117  0.014111795         3699 
 3055000    0.7581066   -8.6780193    522.39211  0.014249648  0.014105362         3687 
 3056000   0.75890695    -8.659973    524.24658  0.014295555  0.014098933         3674 
 3057000   0.74575109   -8.6678515    523.12265   0.01426024  0.014092508         3669 
 3058000   0.77784621   -8.6722761    523.32696  0.014261145  0.014086087         3652 
 3059000   0.75698479   -8.6600226    522.19055  0.014225524  0.014079665         3674 
 3060000   0.76864189   -8.6956162    522.94566  0.014241439  0.014073245         3718 
 3061000   0.74712205    -8.682522    522.58643  0.014227007  0.014066819         3689 
 3062000   0.75843529   -8.6671725    523.15712  0.014237892  0.014060411         3614 
 3063000   0.77696387   -8.6829843    522.86871  0.014225398  0.014053992         3709 
 3064000   0.77802056    -8.690961    523.02551  0.014225019  0.014047578         3707 
 3065000   0.77014086   -8.6348814    522.62438  0.014209472  0.014041164         3655 
 3066000   0.76289613    -8.655651    523.13187  0.014218631  0.014034757         3645 
 3067000   0.76350599   -8.6802399     522.7595  0.014203877   0.01402835         3743 
 3068000   0.74324682   -8.6847334    522.76733   0.01419946   0.01402194         3718 
 3069000   0.75152955   -8.6924889    520.83526  0.014142371  0.014015526         3708 
 3070000   0.76919402   -8.6811731    522.31826   0.01417802  0.014009118         3748 
 3071000   0.75778509   -8.6669444    523.71737  0.014211369  0.014002712         3653 
 3072000   0.76505301   -8.7041438    522.95238  0.014185991  0.013996326         3719 
 3073000   0.73252408   -8.6811803    523.59734  0.014198865  0.013989924         3718 
 3074000   0.75225529   -8.7152322      522.137  0.014154657  0.013983525         3709 
 3075000   0.76525934   -8.6664935    523.28391  0.014181136  0.013977132         3672 
 3076000   0.75701193   -8.6891668    522.93063  0.014166955  0.013970746         3703 
 3077000   0.78140626   -8.7001369    522.23874  0.014143612   0.01396436         3719 
 3078000    0.7719999   -8.6900434    521.90723  0.014130042  0.013957979         3756 
 3079000   0.76455245   -8.7063568      521.327  0.014109749  0.013951599         3748 
 3080000   0.77568413   -8.6877166    522.44648  0.014135457  0.013945227         3673 
 3081000   0.76319088   -8.6740304     522.6499  0.014136371  0.013938864         3691 
 3082000   0.75741731   -8.6817778    522.13959  0.014117986  0.013932497         3708 
 3083000   0.75242744   -8.6903588     522.7359  0.014129525  0.013926128         3733 
 3084000   0.76980435   -8.6804773    522.67372  0.014123263  0.013919769         3677 
 3085000   0.75186057   -8.6860029    522.22035  0.014106439  0.013913419         3681 
 3086000    0.7669103   -8.6700627    523.15999  0.014127241  0.013907067         3683 
 3087000   0.75066231   -8.6742235     522.5896  0.014107267  0.013900726         3732 
 3088000   0.75229865   -8.7044549    522.51192  0.014100602  0.013894392         3693 
 3089000   0.76154484   -8.7033364    522.77179  0.014103048  0.013888047         3760 
 3090000   0.74662104   -8.6963969    522.89232  0.014101735  0.013881706         3776 
 3091000   0.76146419   -8.6868133    521.98503  0.014072712  0.013875363         3709 
 3092000   0.76689636   -8.6713498    522.36207  0.014078322  0.013869029         3719 
 3093000   0.75583797    -8.678604    521.70116  0.014055964  0.013862697         3734 
 3094000   0.76718611   -8.6750571    522.78708  0.014080669  0.013856367         3732 
 3095000   0.73280849   -8.6719813    522.71136  0.014074081  0.013850041         3722 
 3096000   0.75205407   -8.7201376     522.1011  0.014053109  0.013843706         3750 
 3097000   0.75222567    -8.673324    523.16778  0.014077273  0.013837385         3725 
 3098000   0.75607986    -8.718184    522.66983  0.014059335  0.013831068         3694 
 3099000   0.75187271   -8.6985462    520.91356  0.014007571  0.013824744         3738 
 3100000   0.74395736   -8.7126771    520.71081  0.013997602  0.013818432         3751 
 3101000   0.77172144   -8.7006957    522.85872  0.014050809  0.013812115         3703 
 3102000   0.75096015   -8.6970726    521.78094  0.014017326  0.013805805         3675 
 3103000   0.74133427   -8.6899453    522.97055  0.014044756  0.013799497         3739 
 3104000   0.73992499   -8.6762709    521.59804  0.014003384  0.013793186         3674 
 3105000   0.75809525   -8.7074008    521.86089  0.014005928  0.013786894         3746 
 3106000   0.75930183   -8.6989292    522.34422  0.014014387  0.013780599         3689 
 3107000   0.73708703   -8.7230468    521.80173  0.013995326  0.013774305         3735 
 3108000   0.74877407   -8.6974481    522.29229  0.014003976   0.01376801         3745 
 3109000   0.75137183   -8.7146069    522.82567  0.014013768  0.013761726         3768 
 3110000   0.76445505   -8.7266902    523.02891  0.014014708  0.013755437         3736 
 3111000   0.76399286   -8.7234828    522.53778  0.013997048  0.013749156         3777 
 3112000   0.74473583   -8.7375093     521.5959  0.013967328  0.013742877         3739 
 3113000    0.7499646   -8.6941863    521.99097  0.013973417  0.013736601         3750 
 3114000    0.7599695   -8.7166136    521.65433  0.013959921  0.013730328         3716 
 3115000   0.75085412   -8.7269343    521.47597  0.013950668   0.01372406         3756 
 3116000   0.74890566   -8.7201058    521.96642  0.013959307  0.013717795         3760 
 3117000   0.76242473   -8.7046143     522.5171  0.013969551  0.013711538         3713 
 3118000   0.75747441   -8.7034698     522.3472   0.01396053  0.013705296         3712 
 3119000   0.76365228   -8.7065874    521.61013  0.013936361  0.013699043         3703 
 3120000   0.75686623   -8.7218453    522.69816  0.013960955  0.013692785         3699 
 3121000   0.75261944   -8.6903833     522.2457  0.013944401  0.013686529         3708 
 3122000   0.75548649    -8.739177    522.23342  0.013939607   0.01368028         3704 
 3123000   0.74228036   -8.7118695    522.11542  0.013931994  0.013674031         3702 
 3124000   0.74288041   -8.7176388    522.73425  0.013944042  0.013667792         3727 
 3125000   0.74999784    -8.727926    520.94221  0.013891792  0.013661542         3700 
 3126000   0.75651828   -8.6921463    521.92779  0.013913622  0.013655302         3738 
 3127000   0.75254176   -8.7273554    521.29678  0.013892356  0.013649058         3729 
 3128000   0.73820982   -8.7256518    522.00791   0.01390686  0.013642817         3715 
 3129000    0.7566333   -8.7071455    521.99312  0.013902022  0.013636581         3725 
 3130000   0.77029727   -8.7225209    521.23239  0.013877327  0.013630343         3706 
 3131000   0.75487005   -8.7261946    521.08288  0.013868915   0.01362412         3706 
 3132000   0.73027631   -8.7109972    521.58328  0.013877801   0.01361789         3678 
 3133000   0.73888197   -8.7157721    522.19437  0.013889626  0.013611674         3681 
 3134000   0.75257127   -8.7195611    522.74326  0.013899789   0.01360546         3751 
 3135000   0.73574583    -8.719678    521.42005  0.013860182  0.013599245         3694 
 3136000    0.7506261   -8.7329343    521.03287  0.013845474  0.013593041         3729 
 3137000   0.75312958   -8.7063313      521.757  0.013860296  0.013586837         3717 
 3138000   0.74479931   -8.7180557    522.53952   0.01387666  0.013580633         3759 
 3139000   0.74672776   -8.7259975    522.58784  0.013873522  0.013574431         3729 
 3140000   0.74070692   -8.7262437     521.8582   0.01384974  0.013568231         3737 
 3141000    0.7486251   -8.6971318    520.90946   0.01382016  0.013562036         3736 
 3142000   0.72877109   -8.7430423    521.57032  0.013833289  0.013555835         3753 
 3143000   0.73868321   -8.7276986    522.03247  0.013841141   0.01354964         3729 
 3144000   0.76166303   -8.7256992    521.78652  0.013830219  0.013543448         3745 
 3145000   0.73434874    -8.720156    521.58119  0.013820381   0.01353726         3773 
 3146000   0.75964176   -8.7304137    521.40698  0.013811374  0.013531078         3743 
 3147000   0.74572583    -8.697829    522.07714  0.013824731  0.013524896         3730 
 3148000   0.73806351   -8.7449602    522.07791   0.01382036  0.013518716         3780 
 3149000   0.75242692   -8.7174194    521.74451  0.013807148  0.013512548         3734 
 3150000   0.74717578   -8.7347531    520.99643  0.013782974  0.013506376         3705 
 3151000   0.74893649     -8.73238    521.40056  0.013789288  0.013500215         3720 
 3152000   0.75870689   -8.7060382    521.15868  0.013778518  0.013494053         3722 
 3153000   0.73455525   -8.7056356    521.75609  0.013789938    0.0134879         3763 
 3154000   0.73746424   -8.7475312    521.03995  0.013766644  0.013481735         3713 
 3155000   0.73919874   -8.7519119    521.01291  0.013761567  0.013475578         3738 
 3156000   0.73266648   -8.7176774     521.6837  0.013774918  0.013469423         3723 
 3157000   0.75173028   -8.6988692    522.64522  0.013795935  0.013463283         3706 
 3158000   0.75115097   -8.7243033    522.04995  0.013775859  0.013457152         3699 
 3159000    0.7398908   -8.7553148    521.44988  0.013755669  0.013451003         3718 
 3160000   0.74031127   -8.7412132    520.15937  0.013717283  0.013444862         3750 
 3161000   0.74379845   -8.7439907    521.31394  0.013743381  0.013438721         3730 
 3162000   0.72666969   -8.7642431    520.63809  0.013721223  0.013432592         3759 
 3163000   0.75550192   -8.7123171    521.77223  0.013746765  0.013426459         3721 
 3164000    0.7380686   -8.7496701    520.49198  0.013708702  0.013420334         3706 
 3165000   0.74121526    -8.717426    521.90373  0.013741541  0.013414214         3689 
 3166000    0.7551982   -8.7269567    520.64392  0.013704041  0.013408103         3726 
 3167000   0.75280898   -8.7249398    521.41962  0.013720125  0.013401996         3698 
 3168000   0.73736663   -8.7124624    521.96249  0.013730074  0.013395882         3718 
 3169000   0.74848232   -8.7295877    521.46413  0.013712636  0.013389771         3708 
 3170000   0.73647281   -8.7599633    521.35023  0.013705316  0.013383667         3708 
 3171000   0.74134625   -8.7478678    520.78894  0.013686244  0.013377566         3685 
 3172000   0.74066836   -8.7268788    521.22466  0.013693376  0.013371467         3688 
 3173000    0.7382462   -8.7310629    521.46405  0.013695347  0.013365372         3732 
 3174000   0.74350055   -8.7326774    521.69597  0.013697122  0.013359273         3718 
 3175000   0.72937226   -8.7365104    521.49201  0.013687454  0.013353181         3773 
 3176000   0.75722105   -8.7366792    520.90464  0.013667733  0.013347097         3739 
 3177000   0.74725859   -8.7435341    520.98176  0.013665454  0.013341002         3734 
 3178000    0.7607616   -8.7221968    521.33446  0.013670402   0.01333491         3730 
 3179000   0.74345682   -8.7564512    520.51008  0.013644492  0.013328825         3745 
 3180000    0.7371278   -8.7406702    520.93693  0.013651387  0.013322738         3741 
 3181000   0.74444541   -8.7581203    520.73812  0.013641887  0.013316659         3765 
 3182000   0.73930479    -8.759466    520.96929  0.013643654  0.013310585         3774 
 3183000   0.73774637   -8.7238044    520.76333  0.013633976  0.013304508         3755 
 3184000   0.74542188   -8.7286301    520.76648  0.013629776  0.013298431         3725 
 3185000   0.73975759   -8.7575132    520.38018  0.013615389  0.013292349         3762 
 3186000   0.76287029   -8.7409106    520.78547  0.013621717   0.01328628         3761 
 3187000    0.7273361   -8.7125466    521.45331  0.013634905   0.01328021         3734 
 3188000    0.7473488   -8.7437234    520.25514  0.013599308  0.013274147         3743 
 3189000   0.77108852   -8.7413795    521.51955  0.013628085  0.013268096         3762 
 3190000    0.7572612   -8.7696628    520.12131  0.013587286  0.013262038         3784 
 3191000    0.7259988   -8.7478105    520.37882  0.013589753  0.013255988         3711 
 3192000   0.73852518   -8.7494854    521.16599  0.013606046  0.013249946         3754 
 3193000   0.74508398   -8.7518005    521.07558  0.013599425  0.013243898         3729 
 3194000   0.74525203   -8.7382455    520.77325   0.01358728  0.013237856         3787 
 3195000   0.75076095   -8.7253425    521.35817  0.013598283  0.013231817         3747 
 3196000   0.73318792   -8.7595319    520.84054  0.013580531  0.013225785         3753 
 3197000   0.75088581   -8.7569338    521.06307  0.013582084  0.013219751         3735 
 3198000   0.73364763   -8.7610809    521.61922  0.013592329  0.013213719         3784 
 3199000   0.74272267   -8.7598828    519.90005  0.013543296   0.01320769         3742 
 3200000   0.72899397   -8.7413639    520.45519  0.013553521  0.013201668         3763 
 3201000   0.73376004   -8.7494217    521.03805   0.01356446  0.013195647         3765 
 3202000   0.73165133   -8.7373847    520.79811  0.013553979   0.01318963         3770 
 3203000   0.73444992   -8.7564563    520.73282  0.013548049  0.013183615         3771 
 3204000   0.73460694   -8.7666274    520.23629  0.013530907  0.013177606         3794 
 3205000   0.73685287   -8.7547162    521.20803  0.013551951  0.013171599         3804 
 3206000     0.741706   -8.7452492    521.31964  0.013550625  0.013165586         3776 
 3207000   0.74497356   -8.7601131    519.99925  0.013512089  0.013159588         3780 
 3208000   0.74410497   -8.7665176    521.05397  0.013535276  0.013153589         3765 
 3209000   0.73598989   -8.7599464     520.9693  0.013528859  0.013147595         3796 
 3210000   0.74236499   -8.7634815    521.10581  0.013528188  0.013141591         3801 
 3211000   0.73520677   -8.7875918    520.11371  0.013498228  0.013135577         3834 
 3212000   0.74520261   -8.7675822    520.81874  0.013512317  0.013129569         3818 
 3213000   0.74604435   -8.7877233    518.89958  0.013458335  0.013123563         3829 
 3214000   0.72531805   -8.7711285    520.35036  0.013491764  0.013117556         3846 
 3215000   0.74545971   -8.7712107    520.06316  0.013480123   0.01311155         3841 
 3216000   0.74895234   -8.7943511    520.48849  0.013486953  0.013105543         3815 
 3217000     0.733478   -8.8014357     519.9813  0.013469622  0.013099547         3883 
 3218000   0.74052878   -8.7898493    521.30862  0.013499809  0.013093541         3866 
 3219000   0.72907459   -8.7999608      520.067  0.013463472  0.013087544         3863 
 3220000   0.73637395   -8.7988411    519.11321  0.013434607  0.013081551         3864 
 3221000    0.7231609   -8.7829268    519.47991  0.013439923  0.013075556         3867 
 3222000   0.72432152   -8.8032637    519.04937  0.013424616   0.01306956         3852 
 3223000   0.72897465   -8.7902713    520.22963  0.013450968  0.013063572         3812 
 3224000   0.74528164   -8.7677016    520.64699  0.013457583  0.013057591         3790 
 3225000   0.73790471   -8.8017344    519.91846  0.013434586  0.013051614         3842 
 3226000   0.72637591   -8.7787302    521.09598  0.013460838  0.013045641         3869 
 3227000   0.73372707   -8.7923274    519.88076  0.013425286  0.013039669         3818 
 3228000   0.71131921   -8.7958777    519.64391  0.013415012  0.013033702         3826 
 3229000   0.73481631   -8.8118267    519.75512  0.013413728  0.013027743         3850 
 3230000   0.74741388   -8.7993191    520.89365  0.013438949  0.013021781         3845 
 3231000    0.7222486   -8.7724754    519.18141  0.013390627  0.013015814         3846 
 3232000   0.74389026   -8.7979586    519.94706  0.013406226  0.013009857         3820 
 3233000    0.7364441   -8.7927268    519.94216  0.013401953  0.013003902         3831 
 3234000   0.74407439   -8.7615191    520.88751  0.013422168  0.012997954         3864 
 3235000   0.75513112   -8.8064102    519.27892  0.013376582   0.01299201         3845 
 3236000   0.73599786   -8.8040335    520.38399  0.013400906  0.012986069         3837 
 3237000    0.7326218   -8.7830424    520.42529  0.013397829   0.01298013         3841 
 3238000   0.70831223   -8.8093433    519.00927  0.013357249  0.012974187         3835 
 3239000   0.73193126   -8.7876145    520.64539  0.013395219  0.012968248         3859 
 3240000    0.7243628   -8.7872506    519.94061  0.013372958  0.012962316         3811 
 3241000   0.74790037   -8.8228768    518.38983  0.013328958  0.012956389         3850 
 3242000   0.72240177   -8.7939693    520.67346  0.013383546  0.012950467         3837 
 3243000   0.73830374   -8.7965493    519.76501  0.013356075  0.012944542         3857 
 3244000   0.75209042   -8.8087967    519.39196  0.013342375  0.012938621         3831 
 3245000   0.73824734   -8.7888856    519.81881  0.013349225  0.012932706         3847 
 3246000   0.72922595     -8.81095    520.22256  0.013355478  0.012926796         3816 
 3247000   0.74695158   -8.8074698    520.17176  0.013350061  0.012920883         3817 
 3248000   0.73131281   -8.8195546    519.62517  0.013331927  0.012914972         3860 
 3249000   0.73510853   -8.7930391    520.43262  0.013348533  0.012909065         3807 
 3250000   0.72820212   -8.8055938    519.67431  0.013324982  0.012903159         3808 
 3251000   0.72774129   -8.8252994    519.93916  0.013327673   0.01289726         3847 
 3252000   0.72940945   -8.8063737    519.71458  0.013317819  0.012891368         3824 
 3253000   0.72920512   -8.8162254    520.24757  0.013327379  0.012885479         3798 
 3254000   0.72975367   -8.7786881    518.99245   0.01329114  0.012879594         3830 
 3255000   0.72169421   -8.7993912    518.78806  0.013281824  0.012873707         3834 
 3256000   0.73599718   -8.8070741    519.54338  0.013297077   0.01286783         3832 
 3257000   0.72125931   -8.8021595    520.19885  0.013309765  0.012861955         3803 
 3258000   0.73779621   -8.8057646    520.03301  0.013301438   0.01285608         3811 
 3259000    0.7306683   -8.8212058    520.66683  0.013313563  0.012850212         3863 
 3260000   0.75450489   -8.7775004    519.79529  0.013287201  0.012844346         3826 
 3261000   0.73568607    -8.833837    519.30003   0.01327047  0.012838484         3850 
 3262000    0.7162208   -8.8149262    520.03545  0.013285189  0.012832622         3803 
 3263000   0.72953386   -8.7967952    519.89381    0.0132775  0.012826763         3879 
 3264000   0.72790781   -8.8097553     519.8095   0.01327128  0.012820911         3838 
 3265000   0.72669555   -8.8105429    519.61644  0.013262288   0.01281505         3838 
 3266000   0.73883166   -8.8096068     519.6517  0.013259127    0.0128092         3871 
 3267000   0.72805156   -8.8236085    519.37568  0.013248028  0.012803352         3862 
 3268000   0.73091685   -8.8120971    519.42945  0.013245345  0.012797514         3860 
 3269000   0.74078513   -8.8096067    518.83209  0.013226065  0.012791665         3846 
 3270000   0.72014761   -8.8046279    519.16623  0.013230536  0.012785828         3845 
 3271000   0.72724104   -8.8310769    518.89573    0.0132196  0.012779994         3851 
 3272000   0.72886095   -8.8053924    519.11517  0.013221148  0.012774162         3834 
 3273000    0.7260913    -8.809135    518.99206  0.013213974  0.012768332         3852 
 3274000   0.74418685   -8.8187717    520.12023  0.013238654  0.012762504         3868 
 3275000   0.72512588   -8.8023909    519.18795  0.013210889  0.012756681         3852 
 3276000   0.72942148    -8.830754    519.09134  0.013204399  0.012750861         3822 
 3277000   0.73677693   -8.8075143     519.9429  0.013222025  0.012745041         3849 
 3278000   0.73377599    -8.821838    519.37829  0.013203638  0.012739232         3870 
 3279000   0.72652733   -8.8113364    519.20763  0.013195274  0.012733421         3833 
 3280000   0.72434658   -8.8108172    519.76394  0.013205385  0.012727614         3836 
 3281000   0.72718229   -8.8319316    519.99047  0.013207113  0.012721814         3845 
 3282000   0.73176827   -8.8029961     520.0005  0.013203344  0.012716015         3847 
 3283000   0.72692663   -8.8328548    519.04817  0.013175149   0.01271022         3865 
 3284000   0.72175229   -8.8144618    519.35545  0.013178934  0.012704429         3858 
 3285000   0.72028777   -8.8190108    518.71051  0.013158562  0.012698641         3820 
 3286000   0.73011312   -8.8216505    519.54198  0.013175644  0.012692848         3829 
 3287000   0.71683814   -8.7996642    518.78556  0.013152458  0.012687059         3829 
 3288000   0.73309325   -8.8134642    520.84702  0.013200705  0.012681283         3852 
 3289000   0.73301817   -8.8354295    519.21925  0.013155449  0.012675504         3838 
 3290000     0.727578   -8.8540275    518.52202   0.01313379  0.012669725         3810 
 3291000     0.719268   -8.8581194    518.85304  0.013138181  0.012663951         3849 
 3292000   0.71671834   -8.8283109    519.60828  0.013153308  0.012658179         3850 
 3293000   0.71105417   -8.8214235    520.23783  0.013165245   0.01265241         3794 
 3294000   0.72177938   -8.8194772    518.69706  0.013122269  0.012646649         3858 
 3295000   0.71712166   -8.8109777    519.42125  0.013136602  0.012640895         3838 
 3296000    0.7221948   -8.8406635    519.32699  0.013130233  0.012635148         3832 
 3297000    0.7216223   -8.8274171    518.83555   0.01311383  0.012629393         3846 
 3298000    0.7270852   -8.8190201    519.31686  0.013122015  0.012623646         3852 
 3299000    0.7157941   -8.8322009    518.12843  0.013088017  0.012617898         3877 
 3300000   0.71456036   -8.8309093    519.49638  0.013118595  0.012612156         3877 
 3301000   0.72147337    -8.804344    519.68923   0.01311949  0.012606421         3849 
 3302000   0.73232192   -8.8445137    518.10803  0.013075612  0.012600679         3850 
 3303000   0.71797327   -8.8212305    519.64562  0.013110446  0.012594943         3819 
 3304000   0.72772662   -8.8304022    518.96247  0.013089247  0.012589219         3840 
 3305000   0.72749609   -8.8532453    519.48617  0.013098491  0.012583495         3859 
 3306000   0.71806914   -8.8378821    519.56953  0.013096631  0.012577761         3841 
 3307000   0.72960609   -8.8253197    519.27965  0.013085366  0.012572039         3843 
 3308000   0.71905709   -8.8414751    519.15487  0.013078267  0.012566322         3864 
 3309000   0.72463675   -8.8343398    518.45526  0.013056695    0.0125606         3861 
 3310000   0.72026873    -8.818738    519.01332  0.013066801  0.012554886         3841 
 3311000   0.70724191   -8.8079052    518.81438  0.013057847  0.012549174         3853 
 3312000   0.71631213   -8.8397471    519.37474  0.013068004  0.012543465         3868 
 3313000   0.71712378   -8.8109236    518.77517  0.013048978  0.012537758         3822 
 3314000   0.73184964   -8.8173736    518.53487  0.013038998  0.012532053         3859 
 3315000   0.72640114    -8.835929    518.32045  0.013029674  0.012526357         3847 
 3316000   0.71320237    -8.824903    519.06679  0.013044501  0.012520661         3868 
 3317000   0.70757564   -8.8323384    520.30598  0.013071701  0.012514972         3874 
 3318000   0.71726819    -8.819473    519.33238  0.013043309  0.012509281         3872 
 3319000   0.72808509   -8.8568973    519.10397  0.013033644  0.012503591         3890 
 3320000   0.73376148    -8.832495    518.95037  0.013025863  0.012497907         3844 
 3321000   0.71379364   -8.8256467    519.87833  0.013045226  0.012492231         3862 
 3322000   0.71184203   -8.8320408    518.94597   0.01301791  0.012486555         3862 
 3323000   0.70866131   -8.8162773    518.90797   0.01301304  0.012480877         3854 
 3324000   0.72296909   -8.8363041     517.7793  0.012980829  0.012475199         3875 
 3325000   0.71620958   -8.8344154    518.94227  0.013006072  0.012469532         3891 
 3326000   0.72004416   -8.8472327    519.92209  0.013026711   0.01246386         3862 
 3327000   0.71279802   -8.8223293    518.92661  0.012997861  0.012458197         3851 
 3328000    0.7170881   -8.8540925      518.764  0.012989884  0.012452531         3859 
 3329000   0.71307583   -8.8381733    518.53854  0.012980338  0.012446866         3833 
 3330000   0.72569714   -8.8402398    519.53725  0.013001433   0.01244121         3875 
 3331000   0.71654779   -8.8522122    518.96282  0.012983159  0.012435553         3864 
 3332000   0.70335509   -8.8430189    518.71509  0.012973066  0.012429903         3846 
 3333000   0.72134877   -8.8435008    518.48123  0.012963327  0.012424259         3854 
 3334000   0.71303014    -8.860072     519.0109  0.012972678  0.012418621         3851 
 3335000   0.71429777   -8.8812176    519.23485  0.012974384  0.012412974         3872 
 3336000   0.70745605    -8.845217    518.97966   0.01296412  0.012407339         3845 
 3337000   0.71516385   -8.8444308    519.73453  0.012979086  0.012401703         3862 
 3338000   0.71362979   -8.7985371    520.45927  0.012993291  0.012396084         3854 
 3339000   0.71527947   -8.8424188    518.52697  0.012941174  0.012390464         3847 
 3340000    0.7211336   -8.8209816    519.23528  0.012954972  0.012384837         3837 
 3341000   0.71251537   -8.8162791    518.82178  0.012940781  0.012379209         3854 
 3342000   0.72831513   -8.8320285     518.5752   0.01293076  0.012373591         3829 
 3343000    0.7154273   -8.8616266    519.47226  0.012949254  0.012367977         3866 
 3344000   0.71000296   -8.8474194    518.50492  0.012921275  0.012362364         3853 
 3345000   0.71094048   -8.8191661    518.43298   0.01291562  0.012356755         3865 
 3346000    0.7313386    -8.820445    518.64085  0.012916937  0.012351144         3853 
 3347000    0.7167897   -8.8557636    518.40715  0.012907259  0.012345539         3856 
 3348000    0.7051547   -8.8339639    519.68058    0.0129351  0.012339935         3894 
 3349000   0.70761018   -8.8700026    517.91756  0.012887368  0.012334332         3876 
 3350000   0.70101123   -8.8579572    518.74978  0.012904223  0.012328735         3859 
 3351000   0.71407397   -8.8368377    519.00895  0.012906818  0.012323142         3864 
 3352000   0.72672049   -8.8488471    519.01119  0.012903023   0.01231755         3861 
 3353000    0.7186321   -8.8615603    519.60907  0.012914034  0.012311964         3871 
 3354000   0.70654964   -8.8546195    519.30716  0.012902682  0.012306379         3871 
 3355000   0.71781611   -8.8333407    519.34777  0.012899845  0.012300801         3871 
 3356000   0.70588594   -8.8279612    518.54512  0.012876071  0.012295229         3878 
 3357000   0.71528433   -8.8453488    518.18443  0.012863281  0.012289655         3853 
 3358000   0.72527566   -8.8414379    518.31922  0.012862796  0.012284082         3850 
 3359000   0.69411409   -8.8459509    518.92041  0.012873881  0.012278508         3883 
 3360000   0.72281355   -8.8459669    519.93203   0.01289514   0.01227294         3854 
 3361000   0.72090937    -8.853997    519.04846  0.012869396  0.012267373         3895 
 3362000   0.70419556   -8.8524634    517.93024  0.012837851  0.012261806         3853 
 3363000   0.71253995   -8.8658175    518.58416  0.012850237  0.012256247         3866 
 3364000   0.69728833   -8.8839651    518.51521  0.012844709  0.012250684         3862 
 3365000   0.72115661   -8.8580274    517.37988  0.012812776  0.012245128         3881 
 3366000   0.71172455   -8.8530241    518.53342  0.012837528  0.012239581         3869 
 3367000   0.71709238   -8.8601421    518.66654   0.01283701  0.012234031         3875 
 3368000   0.71762852    -8.860012    518.43953  0.012827581  0.012228484         3857 
 3369000   0.72273067   -8.8459096    519.30121  0.012845088  0.012222942         3862 
 3370000   0.72732694     -8.86075    519.53593   0.01284708  0.012217403         3856 
 3371000   0.70247541     -8.85021    518.79237  0.012824888  0.012211864         3863 
 3372000   0.71046027   -8.8544139    518.97376  0.012825567  0.012206328         3883 
 3373000   0.70431296   -8.8505774    519.19841  0.012827315  0.012200799         3885 
 3374000   0.69801988   -8.8606759    518.12256  0.012796941  0.012195276         3870 
 3375000    0.7158764   -8.8536157    518.51537  0.012802849  0.012189749         3870 
 3376000   0.70582585   -8.8479554    518.29815  0.012793695  0.012184226         3872 
 3377000   0.73521598   -8.8500284    518.58202  0.012796911  0.012178706         3869 
 3378000   0.71650816   -8.8650631    518.21794  0.012784141   0.01217319         3879 
 3379000   0.70695834   -8.8540088    518.06531  0.012776593  0.012167684         3871 
 3380000   0.70416257   -8.8806528    518.17265   0.01277546  0.012162176         3868 
 3381000   0.68326811    -8.869615    519.82621  0.012812437  0.012156675         3863 
 3382000   0.70180751   -8.8478716    518.30808  0.012771242  0.012151172         3848 
 3383000   0.70228731    -8.857858    518.36973  0.012768985  0.012145678         3851 
 3384000   0.71534689   -8.8485297    518.18452  0.012760651  0.012140185         3864 
 3385000   0.71335379   -8.8566145    517.58549  0.012742134  0.012134694         3852 
 3386000   0.69917483    -8.861872    517.78743  0.012743341  0.012129204         3858 
 3387000   0.70492501   -8.8946683    517.89117  0.012742131  0.012123712         3852 
 3388000   0.71779185   -8.8439972    518.42581   0.01275152  0.012118226         3859 
 3389000   0.70426649   -8.8669349      518.738  0.012755434  0.012112742         3849 
 3390000   0.70671452   -8.8638151    518.19442  0.012738309  0.012107266         3869 
 3391000   0.72068504   -8.8489012    519.03782  0.012755279  0.012101788         3873 
 3392000   0.72993592    -8.886537    518.17064  0.012730214  0.012096315         3877 
 3393000   0.70112179   -8.8544505    518.63493  0.012737865  0.012090845         3865 
 3394000   0.69091452   -8.8821518    518.21657   0.01272384  0.012085377         3860 
 3395000   0.71429728   -8.8488431    518.60993  0.012729748  0.012079904         3857 
 3396000   0.72592401   -8.8682242    517.63002  0.012701954  0.012074438         3902 
 3397000   0.69847238   -8.8434833    518.85677  0.012728309   0.01206898         3863 
 3398000   0.71677698   -8.9036884    516.88786  0.012676277   0.01206352         3871 
 3399000    0.7090846   -8.8572002    518.58734  0.012714213  0.012058058         3887 
 3400000   0.70183974   -8.8713022    517.98552  0.012695723  0.012052604         3842 
 3401000   0.70879304   -8.8820111    518.65003  0.012708273  0.012047151         3872 
 3402000   0.69324651   -8.8705081    518.53356  0.012701684  0.012041695         3863 
 3403000   0.70595501   -8.8748695    518.45909  0.012696128  0.012036254         3864 
 3404000   0.70853061   -8.8583802    518.45368  0.012692266   0.01203081         3885 
 3405000   0.70330936   -8.8675923    517.75257   0.01267138  0.012025379         3871 
 3406000    0.7101226   -8.8792422    517.05085  0.012650491   0.01201994         3869 
 3407000   0.70220444   -8.8606943    518.47686  0.012681657  0.012014501         3871 
 3408000   0.70874686   -8.8742962    517.38506  0.012651239  0.012009077         3853 
 3409000   0.70386666   -8.8723016    518.41089  0.012672604  0.012003657         3862 
 3410000   0.71464875   -8.8379208    519.23604  0.012689053  0.011998237         3862 
 3411000   0.69777965   -8.8684286     518.4859  0.012667006  0.011992813         3865 
 3412000   0.70490125     -8.86774    518.49199  0.012663443  0.011987397         3882 
 3413000   0.71084383   -8.8769421    518.33797  0.012655972  0.011981987         3866 
 3414000   0.68750547     -8.87333    517.91264  0.012641883  0.011976579         3859 
 3415000   0.69378423   -8.8667645    517.85906  0.012636873  0.011971173         3829 
 3416000   0.69728031   -8.8784036    516.98275  0.012611796  0.011965762         3864 
 3417000   0.70513101   -8.8669207    517.99071  0.012632687  0.011960358         3873 
 3418000   0.70725328   -8.8837497    517.40864    0.0126148  0.011954956         3874 
 3419000    0.7093093   -8.8652578    519.21062  0.012655031  0.011949557         3863 
 3420000     0.700045    -8.898637    517.41438  0.012607563  0.011944159         3862 
 3421000   0.71206854   -8.8774391    517.22408  0.012599242  0.011938761         3867 
 3422000   0.68973343   -8.8718357    518.30411  0.012621861  0.011933368         3860 
 3423000   0.70302992   -8.8788903    517.64363  0.012602094  0.011927984         3864 
 3424000   0.68841216   -8.8451791    517.95647  0.012606028  0.011922594         3879 
 3425000   0.70657533   -8.8641048    518.10148  0.012605875   0.01191721         3842 
 3426000   0.71182004   -8.8761807    518.02829  0.012600416   0.01191183         3850 
 3427000    0.7033578   -8.8525859     518.7209  0.012613581  0.011906466         3821 
 3428000   0.70608371   -8.8538212    518.05433  0.012593697  0.011901098         3858 
 3429000   0.71087028   -8.8601444    518.92749  0.012611244  0.011895734         3829 
 3430000   0.70087812    -8.873439    517.95002   0.01258382  0.011890369         3824 
 3431000   0.69127005   -8.8829509     517.9829  0.012580951  0.011885008         3891 
 3432000   0.69703817   -8.8543533     517.9356  0.012576136  0.011879647         3866 
 3433000   0.69691801   -8.8766836    517.69337  0.012566593  0.011874295         3821 
 3434000   0.69231719   -8.8715165    518.37115  0.012579381  0.011868944         3874 
 3435000   0.71238514   -8.8771926    517.92759  0.012564958  0.011863591         3854 
 3436000   0.69649479   -8.8748826    517.57196  0.012552677  0.011858246         3877 
 3437000   0.69420022   -8.9021871    517.50366  0.012547368  0.011852898         3864 
 3438000   0.70310535   -8.8677904    518.70791  0.012572908  0.011847557         3871 
 3439000   0.69707679    -8.862485    518.36948  0.012561052  0.011842221         3877 
 3440000   0.71303708   -8.8676917    518.88149  0.012569804  0.011836889         3859 
 3441000   0.67201947    -8.878429    517.39639  0.012530185  0.011831559         3897 
 3442000    0.6910544   -8.8986712    518.42524  0.012551454   0.01182623         3878 
 3443000   0.69826908   -8.8772297    517.83305  0.012533475  0.011820902         3817 
 3444000   0.70210724   -8.8813232    518.14026  0.012537269  0.011815576         3850 
 3445000   0.69490481   -8.8723881    517.94031  0.012528793  0.011810256         3838 
 3446000   0.69886391   -8.8532527    517.67908   0.01251884  0.011804941         3848 
 3447000   0.69762317   -8.8780163    517.63589  0.012514164   0.01179963         3874 
 3448000   0.69849421   -8.8958003    516.81886  0.012490788  0.011794316         3879 
 3449000   0.69837317   -8.8670725    518.37782  0.012524834   0.01178901         3870 
 3450000   0.70435673   -8.8688862    517.33173  0.012495935  0.011783708         3825 
 3451000   0.71114829   -8.8496581    518.35279  0.012516971  0.011778409         3834 
 3452000   0.70145778   -8.8773754    517.63714  0.012496068  0.011773111         3841 
 3453000   0.68731614   -8.8708073    517.59617  0.012491461  0.011767817         3871 
 3454000    0.6925892   -8.8809678    517.83027  0.012493492  0.011762525         3862 
 3455000   0.70059367   -8.8781054    517.38863  0.012479224  0.011757237         3875 
 3456000   0.69489152   -8.8847856    518.20743  0.012495357  0.011751946         3851 
 3457000   0.68842466   -8.8811897    517.74736  0.012480652  0.011746664         3876 
 3458000   0.70055016   -8.8696453    517.50219  0.012471134  0.011741385         3867 
 3459000   0.71007905   -8.8901362    517.78403  0.012474319    0.0117361         3877 
 3460000   0.69824144   -8.8985185    516.63633  0.012443072  0.011730819         3876 
 3461000   0.68842322   -8.8883473    517.31669  0.012455858  0.011725549         3881 
 3462000   0.70063292   -8.8963409    518.69606  0.012485463  0.011720269         3853 
 3463000   0.69698036   -8.9058524    517.10375   0.01244354     0.011715         3867 
 3464000   0.70758663   -8.8753027    517.37402   0.01244645  0.011709733         3871 
 3465000   0.69631962   -8.8879004    516.97511  0.012433264   0.01170447         3892 
 3466000    0.6877944   -8.8838401    516.92736  0.012428529  0.011699216         3884 
 3467000   0.69683327   -8.8784262    517.58179  0.012440674  0.011693962         3845 
 3468000   0.69507156   -8.8700757    517.22053  0.012428406   0.01168871         3879 
 3469000   0.68365679   -8.8546692    518.02762  0.012444211   0.01168346         3875 
 3470000   0.69216405   -8.8929433    517.35822  0.012424549  0.011678208         3874 
 3471000   0.69114695   -8.8890244    517.85614  0.012432924  0.011672967         3842 
 3472000   0.69464037   -8.8617797    518.43621  0.012443265  0.011667728         3867 
 3473000    0.6978106   -8.8816682    517.62797  0.012420289  0.011662491         3897 
 3474000   0.68779185   -8.8965854    516.54517   0.01239074  0.011657256         3881 
 3475000    0.6945106   -8.8691961    518.45067   0.01243287  0.011652023         3857 
 3476000   0.68870168   -8.8852614    518.57679  0.012432317  0.011646794         3882 
 3477000   0.69426912   -8.8658006    517.79253  0.012409945  0.011641568         3855 
 3478000   0.70047401   -8.9030564     517.4064  0.012397125  0.011636344         3887 
 3479000   0.69663783   -8.8777989    517.04565   0.01238492  0.011631127         3879 
 3480000    0.7096086    -8.866499    517.37253  0.012389189  0.011625918         3865 
 3481000   0.70434306   -8.9152245    518.07781  0.012402514   0.01162071         3866 
 3482000   0.69336214   -8.8893218    517.73938  0.012390852  0.011615494         3873 
 3483000   0.69769746   -8.8961351    517.45541  0.012380501  0.011610291         3844 
 3484000   0.69930216   -8.9037085    517.60622  0.012380555  0.011605079         3857 
 3485000   0.70672051    -8.890342    517.02412  0.012363083  0.011599877         3862 
 3486000    0.6949147   -8.9074754    517.06164  0.012360433  0.011594672         3859 
 3487000    0.6947545   -8.8717236    518.08985  0.012381461  0.011589474         3830 
 3488000   0.69285723   -8.9090758      517.113  0.012354573  0.011584274         3844 
 3489000   0.70278861   -8.9018075    517.22967  0.012353819  0.011579083         3868 
 3490000   0.68745936   -8.8826216    518.30739  0.012376012  0.011573896         3843 
 3491000   0.67292695   -8.8862161    517.48851   0.01235292   0.01156871         3849 
 3492000   0.68803791    -8.901423    517.30811  0.012345077  0.011563526         3839 
 3493000   0.69554037   -8.8934621    517.52452  0.012346706  0.011558346         3852 
 3494000   0.67263293   -8.8757343    518.53581  0.012367292  0.011553175         3863 
 3495000   0.69865543   -8.8890778    518.05108  0.012352196     0.011548         3889 
 3496000   0.68123049   -8.9034359    517.36151  0.012332225   0.01154283         3842 
 3497000   0.69684781   -8.8887276    518.49775  0.012355775  0.011537659         3853 
 3498000   0.70038904    -8.880691    516.87153  0.012313501  0.011532498         3867 
 3499000   0.69824453   -8.8784638    517.17739  0.012317267  0.011527333         3832 
 3500000   0.68744926   -8.8942837    518.08265  0.012335301  0.011522169         3839 
 3501000   0.68701893   -8.8872856    516.86799  0.012302866  0.011517012         3860 
 3502000   0.70745125   -8.9053872    517.69832  0.012319111  0.011511854         3861 
 3503000   0.69168168    -8.907293    517.22763  0.012304397  0.011506699         3866 
 3504000   0.69080993   -8.9075903     517.2714  0.012301926  0.011501555         3856 
 3505000   0.68511806   -8.9125147    517.10278  0.012294408  0.011496407         3876 
 3506000   0.69662347   -8.8902198    517.52006  0.012300819  0.011491264         3852 
 3507000   0.67482933   -8.8978307    517.07976  0.012286849  0.011486118         3844 
 3508000   0.69266623   -8.8894756    516.86562   0.01227826  0.011480981         3869 
 3509000   0.68279062   -8.8926335    517.72302  0.012295122  0.011475845         3807 
 3510000   0.67239828   -8.9070123    517.33315  0.012282364  0.011470713         3837 
 3511000   0.69059155   -8.8937207    518.14262  0.012298078   0.01146558         3832 
 3512000   0.68376589   -8.9036926    516.83717    0.0122636  0.011460456         3855 
 3513000   0.69158694   -8.9139179     517.5018  0.012275875  0.011455328         3847 
 3514000   0.68790096   -8.9012969    517.48348  0.012271947  0.011450206         3849 
 3515000   0.70529072   -8.8861213    517.95485  0.012279631  0.011445086         3829 
 3516000   0.69338654   -8.8942629    515.88806  0.012227153  0.011439972         3862 
 3517000   0.68954792   -8.9004592    516.94691  0.012248766  0.011434859         3881 
 3518000   0.69897507   -8.8801119    517.57686  0.012260206  0.011429748         3877 
 3519000   0.69766939   -8.9012464    518.00933  0.012266963  0.011424645         3851 
 3520000   0.67832206   -8.9024625    517.12056  0.012242437  0.011419547         3853 
 3521000    0.6870627   -8.9086758    516.94134  0.012234719  0.011414444         3863 
 3522000   0.68232519   -8.8853432    518.06124  0.012257743  0.011409344         3862 
 3523000   0.69161662   -8.9175618     517.8206  0.012248571  0.011404247         3835 
 3524000   0.70058441   -8.8812443    517.17974  0.012229941  0.011399155         3881 
 3525000    0.6794775   -8.9148461    515.67407  0.012190876  0.011394063         3874 
 3526000   0.68619013   -8.8963666    516.94528  0.012217463  0.011388974         3850 
 3527000   0.68008647   -8.9043939    516.83322  0.012211351  0.011383888         3862 
 3528000   0.69532773   -8.8970886    516.92986  0.012210172  0.011378813         3871 
 3529000   0.68690211   -8.8896603    517.41507   0.01221817  0.011373734         3874 
 3530000   0.68459784   -8.9104125     517.7381  0.012222335  0.011368657         3859 
 3531000   0.67583309   -8.9019952    518.49767    0.0122368  0.011363584         3868 
 3532000   0.68790218   -8.9032924    518.30567  0.012228805  0.011358519         3884 
 3533000   0.69217459   -8.9006368    517.35029  0.012202809  0.011353455         3853 
 3534000   0.69004011   -8.8950766    516.03385  0.012168314  0.011348398         3841 
 3535000   0.68339516   -8.8764097    517.31093  0.012194977  0.011343341         3848 
 3536000   0.68240128   -8.8808012    516.72603  0.012177744  0.011338286         3857 
 3537000   0.68880851   -8.9055053     517.0473   0.01218187  0.011333237         3864 
 3538000   0.67926228   -8.9059169    517.71323  0.012194112  0.011328183         3866 
 3539000    0.6731745   -8.9088351    516.72305  0.012167351  0.011323126         3866 
 3540000   0.68721108   -8.8926767    518.35822  0.012202406  0.011318077         3844 
 3541000   0.67782644   -8.9119788    517.91368  0.012188498  0.011313032         3886 
 3542000   0.70331578   -8.9255723     516.9716  0.012162893  0.011307992         3896 
 3543000   0.66661339   -8.9364756    516.27042  0.012142968  0.011302951         3871 
 3544000   0.68513464   -8.9109021    516.53753  0.012145822  0.011297915         3863 
 3545000   0.68564049   -8.9013875    517.06701  0.012154843  0.011292879         3881 
 3546000   0.68839881    -8.905935    516.72438  0.012143363  0.011287855         3882 
 3547000   0.68189658   -8.8846303    517.76802  0.012164459  0.011282826         3861 
 3548000   0.68418366   -8.9125122    517.52412  0.012155302  0.011277803         3893 
 3549000   0.67990842   -8.9275436    516.17354  0.012120164  0.011272782         3856 
 3550000   0.67466152   -8.9022267    517.89346  0.012157123  0.011267764         3860 
 3551000   0.69205208   -8.8923933    517.39951  0.012142108  0.011262748         3864 
 3552000   0.68572872   -8.9029574    517.17546  0.012133433  0.011257734         3852 
 3553000   0.69806014   -8.9565188    516.90067  0.012123573  0.011252722         3903 
 3554000   0.69532637   -8.8990166    516.42194  0.012108937  0.011247717         3885 
 3555000   0.68452794   -8.9121855     517.3506    0.0121273  0.011242712         3862 
 3556000   0.68596082   -8.8967841     516.5162  0.012104335   0.01123771         3892 
 3557000   0.68936001   -8.9291561    517.04907  0.012113416  0.011232718         3862 
 3558000   0.70182341   -8.8911367    516.59166  0.012099299  0.011227724         3902 
 3559000    0.6707125   -8.9118355    517.32951  0.012113176  0.011222734         3851 
 3560000    0.6746796   -8.9123133    516.60454  0.012092803  0.011217748         3831 
 3561000   0.67851408     -8.91641    516.20127   0.01207997  0.011212762         3852 
 3562000    0.6843771   -8.9209363    516.67008  0.012087546  0.011207775         3886 
 3563000   0.70118189   -8.9110811    515.61541  0.012059487  0.011202795         3890 
 3564000   0.68791864   -8.9358991    516.45306  0.012075689  0.011197814         3881 
 3565000     0.671503   -8.9188188    516.69047  0.012077851  0.011192836         3876 
 3566000   0.68557971   -8.9111617    517.53424  0.012094182  0.011187863         3893 
 3567000   0.68609541   -8.9050023    516.19061  0.012059401  0.011182896         3851 
 3568000   0.67047457   -8.9167081    516.84191  0.012071233  0.011177925         3855 
 3569000   0.68123887   -8.9143898    515.84153  0.012044493   0.01117296         3841 
 3570000    0.6817031   -8.9138432    516.67324  0.012060533  0.011168001         3850 
 3571000   0.68207645   -8.9112236    516.37185  0.012050122  0.011163037         3869 
 3572000   0.66751301   -8.9004064    517.96363  0.012083885  0.011158083         3874 
 3573000   0.67343219   -8.9037251    516.96371  0.012057181  0.011153124         3890 
 3574000   0.68120796   -8.9359586    516.47235  0.012042351  0.011148171         3882 
 3575000   0.66824931   -8.9143638    517.31006   0.01205851  0.011143222         3856 
 3576000   0.67589381    -8.921084    517.08986  0.012050006  0.011138278         3887 
 3577000   0.68964444   -8.8889407    517.31232   0.01205182  0.011133337         3848 
 3578000   0.67465974   -8.8903748    517.81374   0.01206013  0.011128401         3860 
 3579000   0.68839724   -8.9024738    517.26018  0.012043871  0.011123461         3847 
 3580000   0.67124785   -8.9276787    516.99472  0.012034328  0.011118529         3866 
 3581000   0.67283587   -8.8960287    516.83322  0.012027209  0.011113602         3871 
 3582000   0.68025418   -8.9201345    516.28949  0.012011202  0.011108669         3865 
 3583000    0.6830688   -8.9180812    517.87041  0.012044618  0.011103742         3865 
 3584000   0.67420586   -8.9010102    516.80803  0.012016556  0.011098816         3850 
 3585000   0.67741664   -8.9337527    516.23318  0.011999841  0.011093895         3872 
 3586000   0.69035634    -8.902574    517.15439  0.012017903  0.011088975         3865 
 3587000   0.68722526   -8.9016325    516.55386  0.012000601  0.011084056         3849 
 3588000   0.66940552   -8.9380259    516.57404  0.011997725  0.011079139         3876 
 3589000   0.68694476   -8.9042554    516.66464  0.011996486  0.011074228         3884 
 3590000   0.67261065   -8.9222465    516.92185  0.011999114  0.011069319         3858 
 3591000    0.6725545   -8.9293726    517.40941  0.012007087  0.011064414         3856 
 3592000   0.65623364   -8.9324068    516.37603  0.011979771  0.011059515         3880 
 3593000   0.66430536   -8.9298588    516.69857  0.011983917  0.011054614         3872 
 3594000   0.67672994   -8.9164209    515.92872  0.011962732   0.01104972         3871 
 3595000   0.67844392   -8.9356677    516.23381  0.011966477   0.01104483         3879 
 3596000   0.68294587   -8.8946249    516.59783  0.011971585  0.011039944         3858 
 3597000   0.68680395   -8.9116828    516.62741  0.011968942  0.011035057         3866 
 3598000   0.69306817   -8.9064344    517.31674  0.011981581  0.011030175         3888 
 3599000   0.65788614   -8.9286196    516.27393  0.011954106  0.011025294         3862 
 3600000   0.67100528   -8.8906696    517.75402  0.011985047  0.011020415         3876 
 3601000   0.67733316    -8.916883     517.7915  0.011982586  0.011015541         3859 
 3602000   0.67148184   -8.9000821    517.23934  0.011966485  0.011010661         3867 
 3603000   0.68230875   -8.9314205    517.15577  0.011961231  0.011005788         3887 
 3604000      0.68358   -8.9189376     516.2754  0.011937556   0.01100092         3880 
 3605000   0.66939407   -8.9270649    516.82871  0.011947034  0.010996053         3887 
 3606000   0.67554075   -8.9080215    517.71918    0.0119643  0.010991187         3874 
 3607000   0.66634879   -8.9241759    516.85308  0.011940973  0.010986326         3863 
 3608000   0.69065499   -8.9077533    516.65368  0.011933058  0.010981465         3862 
 3609000   0.68281743   -8.9202897    516.82867  0.011933792  0.010976605         3896 
 3610000   0.68012802   -8.9465116    515.90689  0.011909208  0.010971747         3869 
 3611000   0.67203596    -8.917908    516.32833  0.011915636  0.010966893         3892 
 3612000   0.67802526   -8.9262085    517.50816  0.011939557  0.010962044         3879 
 3613000   0.68099979   -8.9448729    516.14338  0.011904774  0.010957197         3873 
 3614000   0.66487003   -8.9138227    515.24247  0.011880706  0.010952353         3876 
 3615000   0.66838797    -8.927747    517.36282  0.011926298  0.010947515         3880 
 3616000   0.66185018   -8.9362272    515.88734  0.011888997  0.010942679         3872 
 3617000   0.68201828   -8.9219352     516.0234  0.011888844   0.01093784         3870 
 3618000   0.68028235   -8.9412564    515.76946  0.011879709  0.010933007         3851 
 3619000   0.66535154   -8.9389532    515.90115  0.011879459   0.01092818         3849 
 3620000   0.67038583   -8.9324972    516.65939  0.011893632  0.010923355         3893 
 3621000   0.67296352   -8.9410102    515.96093  0.011874274  0.010918531         3889 
 3622000   0.68461026    -8.948433    516.10712  0.011874358  0.010913712         3889 
 3623000   0.66915443   -8.9405217    515.38979  0.011854582  0.010908897         3869 
 3624000   0.66854569   -8.9326215    516.68647  0.011881127   0.01090408         3854 
 3625000   0.69132645   -8.9255942    516.68208  0.011877749  0.010899272         3870 
 3626000   0.66063855   -8.9107042    516.48428  0.011869927  0.010894462         3871 
 3627000   0.68092984   -8.9623244    515.61737  0.011846737  0.010889655         3913 
 3628000   0.68221649   -8.9293866    516.86111  0.011872039  0.010884852         3877 
 3629000   0.65606021   -8.9180574    515.30719  0.011833085  0.010880051         3845 
 3630000   0.68077549    -8.934592    515.29928  0.011829644  0.010875252         3887 
 3631000   0.66040964    -8.952043    516.77867  0.011860339  0.010870455         3883 
 3632000    0.6740865   -8.9421284    517.67627  0.011877668  0.010865662         3865 
 3633000   0.67424905   -8.9396232    515.96845  0.011835224  0.010860875         3878 
 3634000   0.65889442   -8.9356302     516.0185  0.011833115  0.010856091         3865 
 3635000   0.66990512   -8.9242474    516.31307  0.011836613  0.010851303         3851 
 3636000   0.67937473   -8.9118389    517.11188  0.011851666  0.010846521         3843 
 3637000   0.67572217   -8.9393023    515.76322  0.011817506  0.010841744         3868 
 3638000   0.67685396     -8.93864    516.28962  0.011826315  0.010836968         3878 
 3639000   0.65949563   -8.9439434    516.98752  0.011839047  0.010832193         3871 
 3640000   0.66323946   -8.9492527    516.77846  0.011831009   0.01082742         3888 
 3641000   0.67420786   -8.9049829    515.70531  0.011803198   0.01082265         3866 
 3642000   0.67662688   -8.9243886    515.53254  0.011796003  0.010817883         3867 
 3643000   0.68112816   -8.9248935    516.70794  0.011819653  0.010813118         3881 
 3644000   0.67334077   -8.9203513    516.32491   0.01180765  0.010808357         3853 
 3645000   0.66519212   -8.9446375    516.70298  0.011813054  0.010803598         3861 
 3646000   0.67221475   -8.9469261    515.21639  0.011775836  0.010798842         3870 
 3647000   0.67460421   -8.9380327    516.33233  0.011798107  0.010794088         3854 
 3648000    0.6660432   -8.9503533    516.44427  0.011797429  0.010789336         3880 
 3649000   0.67298163   -8.9276029    516.20647  0.011788766  0.010784584         3858 
 3650000   0.67664476   -8.9251085    516.11124  0.011783362  0.010779837         3874 
 3651000   0.66891727   -8.9429773    515.54371   0.01176718  0.010775094         3883 
 3652000   0.66530917   -8.9322049    516.06424  0.011775836  0.010770356         3878 
 3653000   0.66837876   -8.9365835    516.31879  0.011778419  0.010765621         3876 
 3654000   0.68107089   -8.9483582    516.22158  0.011772979  0.010760883         3881 
 3655000    0.6702428   -8.9546335    515.26388  0.011747922  0.010756145         3866 
 3656000   0.66082378     -8.93578    516.92762  0.011782632  0.010751412         3882 
 3657000   0.66138098   -8.9422817       517.15  0.011784477  0.010746685         3873 
 3658000   0.67181507   -8.9287446     516.9076  0.011775733  0.010741954         3868 
 3659000   0.64870587   -8.9500294    515.35944  0.011737256  0.010737229         3880 
 3660000    0.6649553     -8.93936    515.57715  0.011739006   0.01073251         3874 
 3661000   0.66168918   -8.9430213    516.22517   0.01175055  0.010727795         3876 
 3662000   0.67576487   -8.9480195    516.18987  0.011746538  0.010723079         3869 
 3663000   0.64739748   -8.9395414    516.31587  0.011746198   0.01071837         3869 
 3664000   0.66513969   -8.9375918    515.56527   0.01172592  0.010713658         3879 
 3665000   0.65678578   -8.9379153    515.92439  0.011730887  0.010708946         3868 
 3666000   0.66335472   -8.9447213    516.43022  0.011739185  0.010704242         3883 
 3667000   0.65758835   -8.9511534    516.20945  0.011730966  0.010699544         3876 
 3668000   0.65880887   -8.9371038    515.31371  0.011707418  0.010694847         3865 
 3669000   0.66263138   -8.9368503      516.321  0.011727105  0.010690156         3863 
 3670000   0.66185553   -8.9385475    515.93691  0.011715189  0.010685464         3889 
 3671000   0.66892348   -8.9493478    516.52249   0.01172529  0.010680778         3879 
 3672000   0.68061216   -8.9428364    515.88553  0.011707642   0.01067609         3875 
 3673000   0.65506066    -8.945328     516.9805  0.011729297  0.010671409         3867 
 3674000   0.66299321   -8.9441227    516.34846  0.011711769  0.010666726         3871 
 3675000   0.66774974   -8.9370646    516.12402  0.011703492  0.010662045         3894 
 3676000   0.64757729   -8.9270135    515.77662  0.011692433  0.010657366         3900 
 3677000   0.66950651   -8.9382279    516.47619  0.011705108  0.010652685         3862 
 3678000   0.66628842   -8.9414419    515.58853  0.011681814  0.010648011         3894 
 3679000   0.66660242   -8.9331298    516.49091  0.011699078  0.010643344         3869 
 3680000   0.66799378    -8.952327    517.04381   0.01170842  0.010638676         3884 
 3681000   0.66364894   -8.9180282    515.53432  0.011671066  0.010634016         3853 
 3682000   0.66593229   -8.9368151    515.99244  0.011678265  0.010629351         3867 
 3683000   0.65909707   -8.9547351    515.89654  0.011672924  0.010624691         3872 
 3684000   0.64577432   -8.9287573    516.07518  0.011673796  0.010620035         3852 
 3685000   0.66818276   -8.9599305    516.17711  0.011672933   0.01061538         3875 
 3686000    0.6677887   -8.9566294    515.52098  0.011654933  0.010610726         3867 
 3687000   0.64940396   -8.9576053    516.60999  0.011676385  0.010606075         3885 
 3688000   0.67388266   -8.9360271    516.14751  0.011662769  0.010601431         3884 
 3689000    0.6666299   -8.9551989    515.62897  0.011647894  0.010596782         3899 
 3690000   0.65569538   -8.9432264    516.07222  0.011654748  0.010592145         3860 
 3691000   0.64514763   -8.9520094    515.68408  0.011642827  0.010587508         3875 
 3692000   0.65385317   -8.9270806    514.90061  0.011621989  0.010582872         3858 
 3693000   0.66509806   -8.9518745    515.31101  0.011628103  0.010578241         3871 
 3694000     0.650905    -8.939212    516.20881  0.011645209   0.01057361         3866 
 3695000   0.64878702   -8.9565069    515.01429  0.011615117  0.010568973         3878 
 3696000   0.66235686   -8.9475606    515.74889  0.011628537  0.010564344         3864 
 3697000    0.6647542   -8.9475781    514.83065  0.011604694  0.010559725         3863 
 3698000   0.67222481   -8.9716764    515.89416  0.011625522  0.010555102         3883 
 3699000   0.66022402   -8.9776685     517.3046  0.011654154  0.010550485         3901 
 3700000   0.65572975   -8.9656417    516.02627  0.011622213   0.01054587         3890 
 3701000   0.64977806   -8.9367908    515.27598  0.011602179  0.010541253         3891 
 3702000   0.65322472   -8.9570679    515.33203  0.011600307  0.010536645         3907 
 3703000   0.66800234   -8.9281664    516.71743  0.011628351  0.010532039         3885 
 3704000   0.65502923   -8.9269978     515.5979  0.011600025  0.010527432         3869 
 3705000   0.64210677   -8.9434574    515.53581  0.011595497  0.010522832         3864 
 3706000   0.65482373   -8.9337836    515.77803  0.011597815  0.010518232         3895 
 3707000   0.66072654   -8.9646317    515.32964  0.011584607  0.010513636         3897 
 3708000    0.6505579   -8.9509165    515.76626  0.011591295  0.010509046         3884 
 3709000   0.63987076   -8.9457947    516.35054  0.011601297  0.010504457         3859 
 3710000   0.67004157   -8.9415281    515.99513  0.011590187  0.010499868         3906 
 3711000   0.66227152   -8.9448486    515.94472  0.011585932  0.010495285         3890 
 3712000   0.65675517   -8.9587712    515.60588  0.011575204    0.0104907         3922 
 3713000   0.65561862   -8.9445722    515.88981  0.011578459  0.010486116         3860 
 3714000   0.64791572   -8.9505884    516.00455  0.011577916   0.01048153         3882 
 3715000   0.65900711    -8.958443    515.23593  0.011557558  0.010476946         3874 
 3716000   0.64535075   -8.9725705    515.36785  0.011557406   0.01047237         3899 
 3717000    0.6443829   -8.9678214    515.91119  0.011566478  0.010467796         3895 
 3718000   0.64924119    -8.958453    515.80972  0.011561093  0.010463222         3892 
 3719000   0.65708165    -8.962428    515.63472  0.011554063  0.010458658         3882 
 3720000   0.65641652   -8.9605792    515.39425   0.01154557  0.010454092         3883 
 3721000   0.65319515   -8.9687932    515.59208  0.011546898  0.010449535         3899 
 3722000   0.65531942   -8.9323562    515.82184   0.01154894  0.010444977         3875 
 3723000   0.65968531   -8.9658455    516.39792  0.011558732  0.010440423         3887 
 3724000   0.64852315   -8.9473701    515.60638  0.011537916  0.010435873         3889 
 3725000   0.66810493   -8.9395488    516.11964  0.011546301  0.010431327         3885 
 3726000   0.65510213   -8.9391207    515.64656  0.011532621  0.010426779         3903 
 3727000   0.66529593   -8.9422342     515.1991  0.011519522  0.010422234         3872 
 3728000   0.65635679   -8.9456704    515.84005  0.011530759   0.01041769         3911 
 3729000    0.6557745   -8.9607226    515.25001  0.011514481   0.01041315         3871 
 3730000   0.64417166    -8.978658    516.02114  0.011528622  0.010408611         3913 
 3731000   0.66808212   -8.9498799    516.19544  0.011529426  0.010404074         3858 
 3732000   0.64860289   -8.9585343    515.57397  0.011512459  0.010399543         3880 
 3733000   0.64441856   -8.9609645    516.03331  0.011519629  0.010395019         3883 
 3734000   0.65410522    -8.951117    516.17613  0.011519732  0.010390493         3885 
 3735000   0.65194294    -8.969455    515.70823  0.011506208  0.010385969         3876 
 3736000   0.66079693   -8.9702302    515.97674  0.011509117  0.010381453         3877 
 3737000   0.66512815   -8.9589475    515.75255  0.011501038  0.010376937         3888 
 3738000    0.6521957   -8.9605759    515.68617  0.011496481  0.010372418         3897 
 3739000   0.64465837    -8.944226    516.64157    0.0115147  0.010367902         3896 
 3740000   0.66226138   -8.9507307    515.53976  0.011487071  0.010363394         3898 
 3741000    0.6457123   -8.9406802    515.94234  0.011492968  0.010358887         3870 
 3742000   0.64861168   -8.9493467    516.57507  0.011503988  0.010354381         3861 
 3743000   0.66366394   -8.9696893    515.97133  0.011487473  0.010349875         3879 
 3744000   0.65380721   -8.9682416    516.03876  0.011485905  0.010345373         3894 
 3745000   0.65659013   -8.9385504    515.94033  0.011480648  0.010340878         3900 
 3746000   0.64945397   -8.9586579    515.00504  0.011456777  0.010336382         3896 
 3747000   0.66772502   -8.9867304    514.89708  0.011451318  0.010331887         3903 
 3748000   0.65755196   -8.9401224    515.97936  0.011472327  0.010327395         3867 
 3749000   0.64921429   -8.9586034     515.9918  0.011469543  0.010322906         3919 
 3750000   0.64126586   -8.9741254    515.08277  0.011446284  0.010318417         3892 
 3751000   0.66237852   -8.9601956    516.68105   0.01147874   0.01031393         3879 
 3752000   0.65024129   -8.9677474    514.70098  0.011431703  0.010309453         3904 
 3753000   0.66295698   -8.9407883     515.6917  0.011450655  0.010304974         3868 
 3754000   0.65566348   -8.9582764    515.83119  0.011450701    0.0103005         3899 
 3755000   0.64539492    -8.964597    515.34454  0.011436852  0.010296027         3882 
 3756000   0.63473903   -8.9728937    515.51434  0.011437574   0.01029156         3863 
 3757000   0.64906714   -8.9659318    516.03214  0.011446015  0.010287091         3869 
 3758000   0.65112711   -8.9723402    515.45932  0.011430267  0.010282626         3891 
 3759000    0.6568892   -8.9748368    515.14908  0.011420348  0.010278167         3899 
 3760000   0.66074085   -8.9682115    515.72274  0.011430025  0.010273704         3914 
 3761000   0.63264592   -8.9726792    514.63823  0.011402956  0.010269246         3879 
 3762000   0.63746801   -8.9619885     515.8553  0.011426885  0.010264792         3882 
 3763000   0.64794005     -8.97945    515.31533  0.011411891  0.010260338         3897 
 3764000   0.63656269   -8.9667232    515.04592  0.011402894  0.010255885         3911 
 3765000     0.632641   -8.9608358    515.59701  0.011412063  0.010251438         3883 
 3766000   0.63603226    -8.944891    515.75399  0.011412506  0.010246991         3903 
 3767000   0.65898879    -8.959261    515.65785   0.01140735  0.010242545         3905 
 3768000   0.64078418   -8.9442201    515.47494  0.011400277  0.010238104         3893 
 3769000   0.65658438   -8.9511033    515.32799  0.011394003  0.010233667         3894 
 3770000   0.65048569   -8.9708245    515.40503  0.011392684  0.010229235         3886 
 3771000   0.64864652   -8.9721003    514.74197   0.01137501    0.0102248         3883 
 3772000   0.64958463   -8.9625138    516.01081  0.011400027  0.010220365         3897 
 3773000   0.65140851   -8.9814468    514.93288  0.011373197  0.010215932         3896 
 3774000    0.6465891   -8.9667183    515.80627  0.011389469  0.010211503         3895 
 3775000   0.65131922   -8.9936241    514.72911  0.011362674  0.010207079         3906 
 3776000   0.64176194   -8.9638493    515.00968  0.011365856  0.010202657         3889 
 3777000   0.64609692    -8.971105    515.04441  0.011363613  0.010198238         3905 
 3778000   0.64267088   -8.9906155    514.92186  0.011357902  0.010193817         3902 
 3779000   0.64125755   -8.9831438    515.30904  0.011363435  0.010189403         3902 
 3780000   0.66696909   -8.9630776    515.59158  0.011366658  0.010184992         3900 
 3781000    0.6547025   -8.9588194    514.53379  0.011340337   0.01018058         3903 
 3782000   0.63430947   -8.9690498     514.9145  0.011345728  0.010176168         3907 
 3783000   0.64583311   -8.9709455     515.2375  0.011349844  0.010171763         3901 
 3784000    0.6362011   -8.9742512    514.73834  0.011335851  0.010167358         3892 
 3785000   0.64698875   -8.9836872    515.62244  0.011352321  0.010162958         3906 
 3786000   0.64320785   -8.9775611    515.13387  0.011338569  0.010158557         3920 
 3787000   0.66130205   -8.9789207    516.78436  0.011371894  0.010154165         3895 
 3788000    0.6452861   -8.9751549    515.38253  0.011338053  0.010149769         3886 
 3789000   0.62987782   -8.9928797    514.36492   0.01131268  0.010145378         3907 
 3790000   0.64206763   -8.9696387    514.74677  0.011318091  0.010140989         3918 
 3791000   0.65720834   -8.9859512    514.26232  0.011304456  0.010136608         3903 
 3792000   0.64486533   -8.9846141    514.80113  0.011313316   0.01013222         3905 
 3793000   0.63474259   -8.9620902    515.90749   0.01133464  0.010127839         3876 
 3794000   0.64810194   -8.9682552    515.19521  0.011316008   0.01012346         3882 
 3795000   0.63476145   -8.9542565    515.37288  0.011316927  0.010119087         3899 
 3796000   0.64743611   -8.9826873    515.19731  0.011310092  0.010114718         3894 
 3797000   0.63634796   -8.9842576      514.859  0.011299688   0.01011035         3908 
 3798000   0.63988564   -8.9939021    513.78772  0.011273208  0.010105983         3880 
 3799000   0.64274229   -8.9868313    515.03014  0.011297494  0.010101615         3879 
 3800000   0.63815338   -8.9808875      515.462  0.011303991   0.01009725         3921 
 3801000    0.6417487   -8.9840574     514.2182  0.011273748   0.01009289         3894 
 3802000   0.65570951   -8.9729419    515.17766  0.011291813  0.010088529         3879 
 3803000   0.65316948   -8.9699687     514.1639  0.011266629   0.01008417         3886 
 3804000   0.64136751   -8.9730925    514.57675  0.011272712  0.010079814         3908 
 3805000   0.64595041   -8.9643987    514.47089  0.011267431   0.01007546         3887 
 3806000   0.64512773   -8.9561635     514.9848  0.011275722  0.010071108         3910 
 3807000   0.63747634   -8.9811911    515.98263  0.011294603  0.010066761         3889 
 3808000   0.65571087   -8.9725905    515.40191  0.011278928  0.010062416         3901 
 3809000   0.64608878   -8.9898041    514.35844  0.011253138  0.010058071         3903 
 3810000   0.64725891   -8.9725937     514.6431  0.011256411  0.010053735         3895 
 3811000   0.64162682   -8.9857241    514.10083    0.0112416  0.010049396         3889 
 3812000   0.63713982    -8.991489    514.52795  0.011247988  0.010045062         3908 
 3813000   0.63726206   -8.9909619    514.04865  0.011234563  0.010040727         3906 
 3814000   0.63238616   -8.9575472    516.25721  0.011279873    0.0100364         3889 
 3815000   0.63825064   -8.9847039    515.43961  0.011259057  0.010032075         3913 
 3816000   0.63881321   -8.9727926    515.07038  0.011248043  0.010027751         3889 
 3817000   0.63786423   -8.9835358    515.06902  0.011245066  0.010023429         3906 
 3818000   0.63086775   -8.9595584    515.87055  0.011259616  0.010019107         3884 
 3819000   0.64090132   -8.9649155    515.95225   0.01125845  0.010014793         3883 
 3820000   0.65177758   -8.9680704    514.74243  0.011229111  0.010010477         3893 
 3821000   0.63331823   -8.9801438    513.75297  0.011204592  0.010006167         3903 
 3822000    0.6342544    -8.975872    515.48374  0.011239398  0.010001858         3916 
 3823000   0.63589572   -8.9940258    514.90766    0.0112239 0.0099975517         3914 
 3824000   0.65510734   -8.9713145    514.60282  0.011214322 0.0099932476         3879 
 3825000   0.64117342   -8.9801121    514.93225  0.011218568 0.0099889473         3903 
 3826000   0.65034723   -8.9858235    515.57918  0.011229726 0.0099846517         3892 
 3827000     0.641308   -8.9910619    514.25118  0.011197874 0.0099803553         3890 
 3828000   0.63099016   -8.9830805    515.36573  0.011219212 0.0099760569         3905 
 3829000   0.64036928   -8.9808209    514.70311  0.011201861 0.0099717655         3902 
 3830000   0.64061924   -8.9877939     514.6392  0.011197546 0.0099674763         3889 
 3831000   0.63096132   -8.9729847    515.31485   0.01120932 0.0099631903         3889 
 3832000   0.63351628   -8.9712182    515.31517  0.011206402 0.0099589075         3914 
 3833000   0.64742343   -8.9783814    516.39172  0.011226883 0.0099546232         3904 
 3834000   0.62568846   -8.9610271    514.80088  0.011189378 0.0099503431         3860 
 3835000   0.64362624   -8.9842903    513.83128  0.011165391 0.0099460593         3881 
 3836000   0.63889642   -8.9956545    515.08698  0.011189759 0.0099417813         3900 
 3837000   0.63265696   -9.0112836    515.75953  0.011201449 0.0099375048         3914 
 3838000   0.64706642   -8.9940094    515.04449  0.011183005 0.0099332319         3897 
 3839000   0.62865646   -9.0052953    515.02898  0.011179755 0.0099289637         3895 
 3840000   0.62855296   -8.9920239    514.47887  0.011164906 0.0099246986         3915 
 3841000   0.65162921   -8.9927881    514.52417  0.011162982 0.0099204377         3900 
 3842000   0.62038934   -8.9985158    513.27449  0.011132971 0.0099161749         3893 
 3843000   0.64325947   -9.0087432    514.60226  0.011158866 0.0099119143         3910 
 3844000   0.64212954   -8.9928026    514.96009   0.01116372 0.0099076589         3872 
 3845000   0.65708875   -8.9919086    515.26083  0.011167335 0.0099034077         3891 
 3846000   0.63043753   -8.9854949    513.83694  0.011133579 0.0098991559         3893 
 3847000   0.64561766   -8.9927648    514.81392  0.011151848 0.0098949091         3903 
 3848000   0.64120251    -9.035194    513.87223  0.011128557 0.0098906636         3884 
 3849000   0.64063752   -8.9732095    514.87379   0.01114735 0.0098864221         3895 
 3850000   0.64001304   -9.0172831    514.21736  0.011130246 0.0098821802         3901 
 3851000   0.64305656   -9.0182702    515.13252  0.011147159 0.0098779428         3919 
 3852000   0.63443528   -8.9883062    515.03465  0.011142148 0.0098737058         3892 
 3853000   0.63940272   -8.9946914    514.03165  0.011117563 0.0098694749         3887 
 3854000   0.63158522   -9.0111481     515.6623  0.011149937 0.0098652445         3900 
 3855000   0.64654962   -8.9818109    514.98359  0.011132373 0.0098610124         3887 
 3856000    0.6387863   -8.9776851    514.85831  0.011126779 0.0098567871         3896 
 3857000   0.65041243   -8.9755394    514.25783   0.01111092 0.0098525656         3906 
 3858000   0.62233607   -9.0005072    514.16235  0.011105978 0.0098483434         3871 
 3859000    0.6420338   -8.9968573    514.96895  0.011120518 0.0098441221         3895 
 3860000   0.63801269   -9.0026614    514.54132  0.011108405 0.0098399074         3924 
 3861000   0.64272581   -8.9914755     513.8597  0.011090816 0.0098356891         3920 
 3862000   0.65530128   -8.9974964    514.47046  0.011101123 0.0098314745         3874 
 3863000   0.63796553   -9.0025819    514.47353  0.011098316 0.0098272613         3907 
 3864000   0.63545421    -8.998161    514.72693  0.011100909  0.009823053         3908 
 3865000    0.6341902   -8.9753267    515.78996  0.011120956 0.0098188506         3899 
 3866000   0.61508541   -8.9878914    514.70661  0.011094728 0.0098146517         3891 
 3867000   0.62730332   -9.0052127    514.22514  0.011081483 0.0098104486         3889 
 3868000   0.63657202   -8.9851489    514.38173  0.011081992 0.0098062475         3889 
 3869000   0.62393192   -8.9909873    513.94133  0.011069642   0.00980205         3892 
 3870000   0.63726242   -8.9829608    514.71351  0.011083409 0.0097978554         3895 
 3871000    0.6366493   -9.0127418     515.0803  0.011088442 0.0097936666         3907 
 3872000   0.62837253   -8.9932797    514.33185   0.01106947 0.0097894756         3885 
 3873000   0.64216199    -9.002276    514.41112  0.011068317 0.0097852906         3910 
 3874000   0.63050944   -8.9855985    513.98109   0.01105621 0.0097811059         3891 
 3875000   0.63765305   -8.9767425    515.48744  0.011085751 0.0097769255         3914 
 3876000   0.63364256   -9.0244345    514.57447  0.011063263 0.0097727447         3913 
 3877000   0.62543814   -9.0093019    514.01785  0.011048445 0.0097685662         3908 
 3878000   0.63187782    -8.994392    514.55421  0.011057122 0.0097643909         3904 
 3879000   0.62237988   -9.0095258    514.62163  0.011055719 0.0097602182         3906 
 3880000   0.62436784   -9.0187061    514.43954  0.011048959 0.0097560511         3911 
 3881000   0.61768831   -9.0090311    513.77425  0.011031827 0.0097518829         3909 
 3882000   0.63427103   -8.9857886     514.9143  0.011053458 0.0097477172         3909 
 3883000   0.61607357   -8.9627798    515.21784  0.011057126 0.0097435517         3903 
 3884000   0.63934692   -8.9904396    514.84743  0.011046332 0.0097393916         3901 
 3885000   0.61774683   -8.9987279    514.24506  0.011030568 0.0097352334         3907 
 3886000   0.62486971   -9.0041887    514.63255  0.011036038 0.0097310797         3899 
 3887000    0.6272067   -8.9991096    514.74197  0.011035545 0.0097269255         3914 
 3888000   0.62226109   -9.0208179    514.00948  0.011017007 0.0097227718         3912 
 3889000   0.62112978   -8.9965086    514.37299  0.011021963 0.0097186219         3901 
 3890000   0.63203493   -8.9944115    514.75571  0.011027329 0.0097144734         3921 
 3891000   0.62108337    -8.989102     514.6228  0.011021648 0.0097103212         3902 
 3892000   0.63327723   -9.0184355    514.24499  0.011010727 0.0097061827         3906 
 3893000   0.62200594   -9.0071267    514.85969  0.011021057 0.0097020401         3915 
 3894000   0.62496437   -9.0030349    514.41688   0.01100875 0.0096979017         3886 
 3895000   0.63030722   -9.0133958     514.2321   0.01100197 0.0096937687         3903 
 3896000   0.61677099   -9.0065527     513.8458  0.010990884 0.0096896379         3894 
 3897000   0.63462546   -8.9835504    514.56103  0.011003358 0.0096855078         3904 
 3898000    0.6402819   -9.0031697     514.2841  0.010994615 0.0096813805         3923 
 3899000   0.63617533   -9.0136086    514.28481   0.01099181 0.0096772553         3907 
 3900000   0.62191097   -9.0013415    514.57234  0.010995135 0.0096731341         3888 
 3901000   0.62801297    -8.993665    514.34695  0.010987502 0.0096690118         3874 
 3902000    0.6236308   -9.0048696    514.45883  0.010987076 0.0096648928         3916 
 3903000   0.62695851   -9.0001645    514.51357  0.010985429 0.0096607783         3911 
 3904000   0.61809371   -8.9962101    515.08881  0.010994894 0.0096566644         3901 
 3905000   0.61661272   -9.0280687     514.0128  0.010969117 0.0096525511         3896 
 3906000    0.6290141   -9.0070712    514.45943  0.010975837 0.0096484389         3889 
 3907000   0.62595886   -9.0006889     514.8745  0.010981881 0.0096443282         3898 
 3908000   0.63313397   -8.9951167    514.90031  0.010979621 0.0096402213         3888 
 3909000   0.63880927   -9.0121608    514.40644  0.010966284 0.0096361169         3899 
 3910000   0.62221136   -9.0136927    514.86979  0.010973355 0.0096320162         3897 
 3911000   0.63267409    -8.997478    514.68962   0.01096671 0.0096279145         3906 
 3912000   0.63479272   -9.0069642    514.45816  0.010958976 0.0096238158         3893 
 3913000   0.63748741   -9.0131256    513.69431  0.010939908 0.0096197207         3896 
 3914000   0.63511966   -9.0194547    514.21229  0.010948141 0.0096156245         3899 
 3915000   0.62825596   -9.0160453    514.55324  0.010952602 0.0096115337         3892 
 3916000    0.6350539   -8.9880089    514.18831  0.010942039 0.0096074468         3905 
 3917000    0.6193768   -9.0168983    515.02281     0.010957 0.0096033621         3892 
 3918000   0.61099007   -8.9983863    515.23289  0.010958671 0.0095992821         3877 
 3919000   0.63345227   -9.0050692    514.44413  0.010939103 0.0095952042         3868 
 3920000   0.63657088   -9.0135892    514.31634  0.010933596 0.0095911282         3918 
 3921000   0.63359577   -8.9967718    514.35863  0.010931706 0.0095870559         3908 
 3922000   0.62517483   -8.9957609    514.57313  0.010933476 0.0095829829         3919 
 3923000   0.63498225   -9.0018485    514.22641  0.010923324 0.0095789104         3907 
 3924000   0.62489483   -9.0180679    514.48376  0.010926006 0.0095748419         3885 
 3925000   0.61734044   -9.0180788     514.5978  0.010925643 0.0095707723         3918 
 3926000   0.62280892   -9.0058551    514.63808  0.010923715 0.0095667071         3918 
 3927000   0.62397155   -9.0001196    514.43379  0.010916599 0.0095626438         3884 
 3928000   0.63204263   -9.0182256    513.96957  0.010903971 0.0095585794         3896 
 3929000   0.62681396   -9.0068985    513.98466  0.010901516 0.0095545198         3908 
 3930000   0.62123002   -9.0124038    514.17996  0.010902883  0.009550465         3908 
 3931000   0.63125321   -9.0291518     514.9333  0.010916079 0.0095464083         3912 
 3932000   0.63222687   -9.0009873    515.00616  0.010914847 0.0095423561         3912 
 3933000   0.62095158   -9.0203704    514.48808  0.010901095 0.0095383079         3900 
 3934000   0.62201967    -9.026818        515.4  0.010917641 0.0095342621         3897 
 3935000   0.62759993   -9.0177182    514.91641  0.010904625 0.0095302163         3859 
 3936000   0.61305105   -9.0040764    514.78907  0.010899159 0.0095261761         3912 
 3937000   0.61986392   -9.0266878    514.55853  0.010891511 0.0095221379         3889 
 3938000   0.62114923   -9.0131103    513.51324  0.010866625 0.0095180999         3919 
 3939000   0.62557863   -8.9855208    513.46644  0.010862876 0.0095140677         3895 
 3940000   0.63351133   -9.0009964    513.52315  0.010861319 0.0095100376         3904 
 3941000   0.62444964   -9.0024774    514.70835  0.010883624 0.0095060096         3914 
 3942000   0.63349036   -9.0053703     514.6218  0.010879033 0.0095019804         3933 
 3943000   0.61035132   -8.9976469    514.39826   0.01087155 0.0094979588         3875 
 3944000   0.63101152   -9.0109205    513.64719  0.010852924  0.009493934         3913 
 3945000   0.62890266    -9.029208    513.44357  0.010845872 0.0094899125         3903 
 3946000   0.62281373   -9.0119244     513.4953  0.010844216  0.009485895         3889 
 3947000   0.63541862   -9.0167412    514.50675  0.010862823 0.0094818797         3907 
 3948000   0.62065645   -9.0039456    514.10971  0.010851691  0.009477866         3905 
 3949000   0.62081112   -9.0127642    514.52476  0.010857702 0.0094738541         3905 
 3950000   0.60915149   -8.9974807    514.63918  0.010857367 0.0094698452         3920 
 3951000   0.60830252   -9.0356187    513.74248  0.010835706 0.0094658384         3901 
 3952000   0.62144412   -9.0015651    513.95902   0.01083753 0.0094618338         3910 
 3953000   0.61973301   -9.0026751     515.3067  0.010863199  0.009457835         3909 
 3954000   0.61172916    -9.013952    513.13869  0.010814759  0.009453836         3907 
 3955000   0.62551367    -9.011221    514.08702  0.010832006 0.0094498411         3897 
 3956000   0.62160477   -9.0217454    515.15159  0.010851693 0.0094458479         3901 
 3957000    0.6261853   -9.0296444    514.25222  0.010830011 0.0094418524         3901 
 3958000   0.60425932   -9.0036763    514.68133  0.010836309 0.0094378584         3873 
 3959000   0.61405867   -9.0154396    515.16708  0.010843796 0.0094338669         3922 
 3960000   0.62046751   -9.0261735    513.69436  0.010810066 0.0094298816         3913 
 3961000   0.61348389   -9.0005151    514.82613  0.010831148 0.0094258944         3925 
 3962000   0.61797495   -9.0142791    513.90631  0.010809068 0.0094219104         3911 
 3963000   0.62566461   -9.0334468    513.96746  0.010807626 0.0094179288         3878 
 3964000   0.61448536    -9.031939    513.77472  0.010800848 0.0094139529         3915 
 3965000   0.64045831   -9.0162949    514.61445  0.010815772 0.0094099781         3912 
 3966000   0.61924508   -9.0331301    514.29248   0.01080628 0.0094060054         3914 
 3967000   0.61255925   -9.0223014    514.29563  0.010803622  0.009402031         3917 
 3968000   0.61488389   -9.0346592    514.76437  0.010810744 0.0093980626         3902 
 3969000   0.61713972   -9.0199713    513.40757  0.010779532 0.0093940939         3921 
 3970000   0.61771295    -9.016938    513.74755  0.010783954 0.0093901266         3896 
 3971000   0.61319788   -9.0159321    513.66911  0.010779592 0.0093861625         3916 
 3972000   0.62237765   -9.0261041    513.91931  0.010782127 0.0093822019         3918 
 3973000   0.60737266   -9.0109547    513.43957  0.010769351 0.0093782434         3900 
 3974000   0.61535139   -9.0226059    514.32866  0.010785285 0.0093742901         3909 
 3975000   0.61349778   -9.0436702    514.02846  0.010776278 0.0093703341         3896 
 3976000   0.60288895   -9.0180901    514.22915  0.010777774 0.0093663818         3903 
 3977000   0.61246968    -9.035264    513.92152  0.010768618 0.0093624291         3921 
 3978000   0.61905285   -9.0211052     514.3647  0.010775195 0.0093584791         3896 
 3979000   0.61426611   -9.0185526    515.30422  0.010792163 0.0093545322         3886 
 3980000   0.61485077   -9.0329357    514.63739   0.01077549 0.0093505857         3916 
 3981000   0.62002718   -9.0242962    513.73168  0.010753824 0.0093466458         3913 
 3982000    0.6231051   -9.0236102      513.322   0.01074255 0.0093427073         3921 
 3983000   0.61933221   -9.0316538    513.70164  0.010747796 0.0093387681         3889 
 3984000   0.60478751    -9.023972    513.80024   0.01074716 0.0093348357         3905 
 3985000   0.59285127    -9.023682    513.81915  0.010744859 0.0093309009         3926 
 3986000   0.61696932   -9.0116999    514.45991  0.010755559   0.00932697         3906 
 3987000   0.62065654   -9.0320783    512.99062  0.010722152 0.0093230395         3905 
 3988000   0.61453152   -9.0540207    514.08066   0.01074224 0.0093191135         3910 
 3989000   0.60342454   -9.0119153    514.53466  0.010749032 0.0093151915         3901 
 3990000   0.59869808   -9.0233589    514.54008  0.010746451 0.0093112693         3884 
 3991000   0.61429963   -9.0227078    514.47683  0.010742438 0.0093073509         3904 
 3992000   0.61001501   -9.0229878    513.44245  0.010718154 0.0093034318         3889 
 3993000   0.61730797   -9.0186645    513.45753  0.010715785 0.0092995191         3896 
 3994000   0.61302174   -9.0306496    513.75256  0.010719257 0.0092956078         3912 
 3995000   0.61722928   -9.0311337    514.32382   0.01072849 0.0092916927         3903 
 3996000   0.60453324   -9.0446061    513.81081  0.010715107 0.0092877872         3890 
 3997000   0.59067125   -9.0288218    514.08396  0.010718121 0.0092838833         3912 
 3998000   0.60569421   -9.0161878    513.88082  0.010711206 0.0092799801         3904 
 3999000   0.61400927   -8.9993242    514.19034  0.010714977  0.009276082         3896 
 4000000   0.60962284   -9.0120317    514.00013  0.010708336 0.0092721829         3906 
 4001000   0.62052106   -9.0343143    513.68115  0.010699016 0.0092682831         3895 
 4002000   0.59293581   -9.0466744    513.74855  0.010697746 0.0092643888         3904 
 4003000    0.6065689    -9.023263    514.20323  0.010704539 0.0092604969         3898 
 4004000   0.61223886    -9.035456    512.90527  0.010674852 0.0092566036         3900 
 4005000   0.60079309   -9.0345205    513.19771  0.010678271 0.0092527137         3917 
 4006000   0.60188794   -9.0396381    514.13074  0.010695015 0.0092488254         3898 
 4007000   0.60494296   -9.0153959    513.93924  0.010688363 0.0092449394         3893 
 4008000   0.61741306    -9.013832    513.89267  0.010684728 0.0092410599         3898 
 4009000   0.60263888   -9.0326531    513.65722  0.010677169 0.0092371854         3924 
 4010000   0.61113756   -9.0436961    514.15492  0.010684849  0.009233312         3923 
 4011000   0.61041377   -9.0636391    513.41397  0.010666791  0.009229438         3918 
 4012000   0.61452188   -9.0237622    513.99554  0.010676212 0.0092255686         3904 
 4013000   0.60554536   -9.0312013    513.86528  0.010670846    0.0092217         3917 
 4014000   0.61076459   -9.0430205    513.31095   0.01065668  0.009217835         3912 
 4015000   0.60708633   -9.0408798    514.13977  0.010671228 0.0092139739         3895 
 4016000     0.619253   -9.0271436    514.36194  0.010673181 0.0092101092         3902 
 4017000   0.61832704   -9.0338875    513.47855  0.010652198 0.0092062484         3899 
 4018000    0.6052203   -9.0254031    514.57132  0.010672211  0.009202388         3902 
 4019000   0.60342499   -9.0376756    514.16187  0.010661066 0.0091985289         3918 
 4020000   0.60512119   -9.0573672     513.9421  0.010653858 0.0091946718         3930 
 4021000   0.59319392   -9.0349814    513.61642  0.010644459 0.0091908209         3903 
 4022000   0.60420923   -9.0321194    515.18409  0.010674293 0.0091869715         3896 
 4023000   0.60438219    -9.044115    513.57172  0.010638241 0.0091831226         3908 
 4024000    0.6074539   -9.0438985    513.00833   0.01062393 0.0091792756         3894 
 4025000   0.61310559   -9.0291408    513.09787  0.010623144 0.0091754301         3888 
 4026000   0.61150433    -9.051627    513.74527  0.010633906 0.0091715858         3902 
 4027000   0.60360955   -9.0382358    514.21125  0.010640908 0.0091677473         3908 
 4028000   0.60654241   -9.0402517    513.04839  0.010614209 0.0091639075         3902 
 4029000   0.60081325   -9.0348129    513.21035  0.010614924 0.0091600728         3912 
 4030000   0.59924095   -9.0495575    513.44278  0.010617096 0.0091562395         3928 
 4031000   0.61635429   -9.0255925    514.05486  0.010627116 0.0091524101         3896 
 4032000   0.61586971   -9.0247422    513.91904  0.010621673 0.0091485837         3906 
 4033000   0.60636734   -9.0349403    513.65414  0.010613566 0.0091447558         3898 
 4034000   0.61804111   -9.0530868    513.23389  0.010602254 0.0091409357         3904 
 4035000   0.60860918   -9.0213291    514.02348  0.010615933 0.0091371179         3904 
 4036000   0.61399962   -9.0581633    512.92902  0.010590705 0.0091332966         3894 
 4037000   0.59586288   -9.0177196    514.28481  0.010616068 0.0091294761         3901 
 4038000   0.60283301   -9.0431214    514.03043   0.01060819 0.0091256627         3900 
 4039000   0.60617968    -9.038795    514.00619  0.010605063 0.0091218504         3882 
 4040000   0.63738076   -9.0477442    514.03201  0.010602971 0.0091180409         3906 
 4041000   0.60717865     -9.02273    513.61048  0.010591654 0.0091142302         3905 
 4042000   0.60540786   -9.0443342    513.80193  0.010592981 0.0091104207         3905 
 4043000    0.5946668   -9.0460352    514.38552  0.010602389 0.0091066134         3907 
 4044000   0.61838779   -9.0491595    513.47563  0.010581018 0.0091028084         3906 
 4045000   0.60566027   -9.0432835    513.70881  0.010583206 0.0090990026         3898 
 4046000    0.5983064    -9.063194    512.76187  0.010561086 0.0090952029         3917 
 4047000   0.60261621   -9.0465604    513.89077  0.010581723 0.0090914038         3891 
 4048000   0.60232103   -9.0481216    513.67436  0.010574653 0.0090876051         3900 
 4049000    0.6080037   -9.0321268    513.39749  0.010566343 0.0090838139         3902 
 4050000   0.60122269   -9.0398619    513.73821  0.010570745 0.0090800239         3879 
 4051000   0.59857292   -9.0243879    513.26797  0.010558462 0.0090762333         3906 
 4052000   0.59133064   -9.0454863    514.03789  0.010571691  0.009072447         3910 
 4053000   0.61028019   -9.0452222    513.68932  0.010561915 0.0090686598         3887 
 4054000   0.58967623   -9.0390665     514.4395  0.010574731  0.009064876         3885 
 4055000    0.6019374   -9.0497262    513.57221    0.0105543 0.0090610974         3911 
 4056000   0.62295329   -9.0615246    514.00624  0.010560615 0.0090573174         3902 
 4057000   0.59803026    -9.028062    513.49324  0.010547474 0.0090535401         3892 
 4058000   0.60960004    -9.021754    513.39407  0.010542839 0.0090497654         3908 
 4059000   0.60850384   -9.0607143     514.3268  0.010559391 0.0090459917         3900 
 4060000   0.60976302   -9.0521098    513.37968   0.01053735 0.0090422223         3910 
 4061000   0.61049191   -9.0473935     513.0036  0.010527038  0.009038453         3918 
 4062000    0.6038465   -9.0539361    513.14721  0.010527392  0.009034687         3885 
 4063000   0.60656257    -9.047344    513.35562  0.010529076 0.0090309228         3903 
 4064000   0.60242449   -9.0545684    512.89602  0.010517061 0.0090271617         3877 
 4065000   0.60006711   -9.0363381    513.51025  0.010527065 0.0090234008         3904 
 4066000   0.61246398     -9.04416    513.68483  0.010528054 0.0090196401         3893 
 4067000   0.60199245   -9.0378283    512.90727  0.010509533 0.0090158846         3916 
 4068000   0.60044936   -9.0420852    514.12782  0.010531953 0.0090121267         3886 
 4069000   0.60522126   -9.0574686    513.03812  0.010507048  0.009008377         3915 
 4070000   0.59934299   -9.0517205    513.03826  0.010504469 0.0090046294         3898 
 4071000   0.60732302   -9.0313707    513.36783  0.010508635 0.0090008803         3902 
 4072000    0.6092343   -9.0577395    513.92769  0.010517512 0.0089971361         3885 
 4073000   0.61568235   -9.0459173    514.31792  0.010522914 0.0089933924         3898 
 4074000   0.59422611   -9.0591114    513.96531  0.010513118 0.0089896534         3903 
 4075000   0.59907645   -9.0659002    512.72497  0.010485173 0.0089859124         3912 
 4076000   0.60083199   -9.0381625    514.09319  0.010510574 0.0089821753         3909 
 4077000   0.61053861   -9.0340122     513.5936  0.010497784 0.0089784415         3902 
 4078000   0.60502862   -9.0458913    514.09791  0.010505515 0.0089747093         3909 
 4079000   0.58584297   -9.0593895    513.63092    0.0104934 0.0089709727         3899 
 4080000   0.59669786   -9.0506066    513.98073  0.010497972 0.0089672415         3910 
 4081000   0.59999412   -9.0414908    512.94431  0.010474236 0.0089635142         3892 
 4082000   0.59550978   -9.0400702    513.30105  0.010478953 0.0089597923         3899 
 4083000   0.60380579   -9.0276905    513.00003  0.010470243 0.0089560668         3915 
 4084000   0.58890652   -9.0551398    514.01522  0.010488394 0.0089523432         3916 
 4085000   0.60130363   -9.0316718    513.54385  0.010476211 0.0089486212         3889 
 4086000   0.60110524   -9.0399358    513.36571  0.010470014 0.0089449024         3913 
 4087000   0.59448999   -9.0563328    513.64527  0.010473152 0.0089411843         3903 
 4088000   0.59558656   -9.0641604    513.24692   0.01046247 0.0089374711         3903 
 4089000   0.58800379   -9.0259853    513.37657  0.010462553 0.0089337624         3897 
 4090000   0.60506817   -9.0487043    512.47276   0.01044158 0.0089300517         3910 
 4091000   0.60215634   -9.0653921    513.19444  0.010453729 0.0089263414         3904 
 4092000    0.5988516   -9.0437007    513.16672  0.010450609 0.0089226318         3916 
 4093000   0.60742101   -9.0289095    513.24766  0.010449704 0.0089189255         3890 
 4094000   0.60412568    -9.051621    513.52772  0.010452852 0.0089152238         3894 
 4095000   0.58911775   -9.0488008    512.54026  0.010430205 0.0089115219         3899 
 4096000   0.60689268   -9.0651314    512.95002  0.010435995  0.008907821         3907 
 4097000   0.59283229   -9.0547929    513.18703  0.010438268 0.0089041239         3885 
 4098000   0.60961362    -9.052242    513.81442  0.010448479 0.0089004301         3908 
 4099000   0.59415197    -9.050333    514.07556  0.010451239 0.0088967382         3905 
 4100000   0.59857614   -9.0458851    513.24856  0.010431881 0.0088930478         3907 
 4101000   0.59644375   -9.0538513     513.7376  0.010439275 0.0088893559         3913 
 4102000   0.58152851   -9.0447684    513.87629  0.010439548 0.0088856699         3913 
 4103000   0.59308807   -9.0391747    513.50344  0.010429431 0.0088819831         3926 
 4104000   0.60200015   -9.0575925    513.04908  0.010417663 0.0088783046         3926 
 4105000   0.59195743   -9.0527311    513.19494  0.010418086 0.0088746262         3913 
 4106000   0.59378485   -9.0661628    513.30242  0.010417731 0.0088709506         3908 
 4107000   0.58934194   -9.0684379     512.9841  0.010408735  0.008867276         3903 
 4108000   0.60020626   -9.0443858    513.46469   0.01041595 0.0088636025         3912 
 4109000   0.59878771   -9.0791613    513.28022  0.010409674 0.0088599282         3890 
 4110000   0.59793972   -9.0615738    513.48703  0.010411335 0.0088562595         3904 
 4111000   0.60391087   -9.0455029    513.16863  0.010402348 0.0088525948         3912 
 4112000   0.59035453   -9.0294785    513.70902   0.01041077 0.0088489324         3900 
 4113000   0.59826815   -9.0550421    512.68397   0.01038747 0.0088452686         3887 
 4114000   0.58070877   -9.0587655     514.0646  0.010412911 0.0088416055         3922 
 4115000   0.59510221   -9.0481896    512.67465  0.010382233 0.0088379484         3931 
 4116000    0.5905269   -9.0758079     512.9773  0.010385838 0.0088342922         3910 
 4117000   0.58794848   -9.0618544    513.89851  0.010401962 0.0088306361         3917 
 4118000   0.60640436   -9.0568665    513.62478  0.010393896 0.0088269816         3917 
 4119000   0.59540503   -9.0462303     513.0834   0.01038042 0.0088233311         3893 
 4120000    0.5938272   -9.0552885    512.87576  0.010373701 0.0088196834         3895 
 4121000   0.59305017   -9.0536126    513.20584  0.010377858 0.0088160332         3917 
 4122000   0.59345592   -9.0517791    513.60275  0.010383365 0.0088123892         3908 
 4123000   0.58858617   -9.0519794    513.60459  0.010380883 0.0088087462         3894 
 4124000   0.58940654   -9.0571946    514.01324  0.010386624 0.0088051033         3895 
 4125000   0.60003576   -9.0750043    512.89047  0.010361424 0.0088014664         3923 
 4126000   0.59116286   -9.0695017    512.28769  0.010346738 0.0087978301         3904 
 4127000    0.5933782    -9.073223    512.55505  0.010349629 0.0087941916         3915 
 4128000    0.5962892   -9.0458189       513.57  0.010367611 0.0087905573         3924 
 4129000   0.57975607   -9.0504458     513.2653  0.010358951 0.0087869239         3923 
 4130000   0.58505402   -9.0644673    512.60275  0.010343074 0.0087832951         3903 
 4131000   0.58229194   -9.0652471    512.81117  0.010344775 0.0087796682         3919 
 4132000   0.59284748   -9.0657129    512.29761  0.010331914 0.0087760458         3906 
 4133000   0.58718024   -9.0541887    512.75356  0.010338607 0.0087724227         3931 
 4134000   0.58569664   -9.0654529    512.04506  0.010321824 0.0087687989         3884 
 4135000   0.59340744   -9.0626851    513.31337  0.010344889 0.0087651804         3903 
 4136000   0.58576492   -9.0740015    513.10756  0.010338241 0.0087615655         3922 
 4137000   0.59091349   -9.0572802    514.01321  0.010353985 0.0087579531         3921 
 4138000   0.56580946   -9.0526833     513.5558  0.010342271 0.0087543374         3898 
 4139000   0.57829334    -9.064893    512.97594  0.010328097 0.0087507258         3896 
 4140000   0.58767345   -9.0640255    512.03142  0.010306591  0.008747114         3891 
 4141000   0.58068638   -9.0585247    512.38643  0.010311246 0.0087435064         3921 
 4142000   0.58603652   -9.0426459    513.51539   0.01033147 0.0087399021         3900 
 4143000   0.59801195   -9.0619731    512.88674  0.010316332 0.0087362966         3912 
 4144000   0.58015776    -9.044974    512.33549  0.010302757 0.0087326952         3925 
 4145000   0.58828983   -9.0595611    512.94531  0.010312531 0.0087290967         3910 
 4146000     0.586861    -9.064323    512.90209  0.010309175 0.0087254987         3893 
 4147000   0.58114196   -9.0640264    513.31241  0.010314935 0.0087219024         3888 
 4148000   0.58473501    -9.063236     512.8177  0.010302509  0.008718307         3905 
 4149000   0.58967727   -9.0591702    513.21347  0.010307975 0.0087147132         3899 
 4150000   0.59579472   -9.0586065    513.28249  0.010306877 0.0087111209         3908 
 4151000    0.5907504   -9.0526754    513.52834   0.01030933 0.0087075347         3904 
 4152000   0.60233824   -9.0645668    512.26986  0.010281588 0.0087039502         3913 
 4153000   0.58400032   -9.0664612    512.16744  0.010277058 0.0087003671         3909 
 4154000   0.58883029   -9.0696641    513.08414  0.010292973 0.0086967872         3912 
 4155000   0.58986692   -9.0413863    513.30985  0.010295023 0.0086932062         3901 
 4156000   0.57582485   -9.0857933    512.97617  0.010285855 0.0086896305         3887 
 4157000    0.5795386    -9.055398    512.48013  0.010273437 0.0086860542         3895 
 4158000   0.59327326   -9.0894261    512.23504  0.010266054 0.0086824776         3904 
 4159000   0.58886747   -9.0485437    513.39292  0.010286786  0.008678906         3904 
 4160000   0.60231493    -9.060991    512.44342  0.010265293 0.0086753343         3897 
 4161000   0.58547787   -9.0742983     512.9782  0.010273536 0.0086717661         3886 
 4162000    0.5840036   -9.0639579    512.73203  0.010266139 0.0086681982         3889 
 4163000    0.5790171   -9.0334687    512.76778  0.010264388 0.0086646347         3884 
 4164000   0.59163642   -9.0640471    512.65904  0.010259747 0.0086610679         3900 
 4165000    0.5820957   -9.0725891    512.50631  0.010254228 0.0086575104         3903 
 4166000   0.58481019    -9.051179    512.36886  0.010249017 0.0086539502         3873 
 4167000   0.58311997   -9.0770171    512.61043  0.010251389 0.0086503956         3893 
 4168000   0.57472124   -9.0544631    512.09955  0.010238715 0.0086468437         3885 
 4169000    0.5940252   -9.0714583    512.06852  0.010235638 0.0086432929         3885 
 4170000   0.59030574   -9.0792287    512.86276  0.010249056 0.0086397449         3900 
 4171000   0.59613893   -9.0599649    512.71843  0.010243715 0.0086361966         3891 
 4172000    0.5828214   -9.0633539    512.87999  0.010244487 0.0086326552         3884 
 4173000   0.57316596   -9.0701772    512.54326  0.010235308 0.0086291068         3903 
 4174000   0.59295753   -9.0651958    513.24098  0.010246785 0.0086255631         3896 
 4175000   0.57868745   -9.0566574    512.59357  0.010231409 0.0086220206         3904 
 4176000   0.57390267   -9.0773026    512.26069  0.010222316 0.0086184807         3892 
 4177000   0.60052504   -9.0724314    513.27315  0.010240068 0.0086149431         3889 
 4178000   0.59349687   -9.0734205    513.15281  0.010235216 0.0086114075         3888 
 4179000   0.58278144   -9.0560111    513.64543  0.010242591 0.0086078735         3892 
 4180000   0.57449133   -9.0865054    512.67589  0.010220811 0.0086043396         3911 
 4181000   0.57879493   -9.0856284    512.72675   0.01021938 0.0086008071         3896 
 4182000   0.58393309   -9.0769701    513.06393  0.010223656 0.0085972762         3913 
 4183000   0.58731628   -9.0865465    512.82071  0.010216366 0.0085937518         3894 
 4184000    0.5660252   -9.0655619    512.65411  0.010210606 0.0085902269         3885 
 4185000   0.58652093   -9.0779966    511.93469  0.010193841 0.0085867076         3891 
 4186000   0.58924974   -9.0928655    512.24305  0.010197544 0.0085831862         3910 
 4187000     0.581306   -9.0574373    512.60644  0.010202341 0.0085796704         3929 
 4188000   0.57724844   -9.0711276    512.70141  0.010201795 0.0085761537         3911 
 4189000   0.57192332   -9.0750636    512.23604  0.010190102 0.0085726385         3901 
 4190000   0.57950187   -9.0796596    512.58283  0.010194567  0.008569127         3886 
 4191000   0.56933624   -9.0778511    513.33777  0.010207146 0.0085656169         3895 
 4192000   0.57913259   -9.0792704    513.20502  0.010202072 0.0085621089         3897 
 4193000    0.5730806   -9.0792869    511.75671  0.010170854 0.0085586025         3929 
 4194000   0.58051888   -9.0899111    512.22109  0.010177656 0.0085550988         3915 
 4195000   0.59501392   -9.0751024     512.7079  0.010184901 0.0085515936         3886 
 4196000   0.57279558   -9.0994459    512.64121  0.010181149 0.0085480929         3889 
 4197000   0.57948777   -9.0892696     512.8412  0.010182694 0.0085445951         3907 
 4198000   0.57279145   -9.0761898    513.69858  0.010197288 0.0085410977         3889 
 4199000   0.58489953   -9.0728598    512.91706   0.01017935 0.0085375989         3900 
 4200000   0.57929178   -9.0854788    511.31116  0.010145063 0.0085341034         3916 
 4201000   0.57894999    -9.073928    511.66543  0.010149675 0.0085306134         3916 
 4202000   0.58717727   -9.0647676    512.65456  0.010166876 0.0085271215         3913 
 4203000   0.57985023   -9.1006512    512.06053  0.010152679 0.0085236367         3921 
 4204000   0.57525399    -9.085487    512.35889  0.010156178 0.0085201489         3911 
 4205000   0.57431817   -9.0853531    512.29721  0.010152541 0.0085166638         3897 
 4206000   0.58348553   -9.0879446    513.02767  0.010164599 0.0085131806         3911 
 4207000   0.58333746   -9.0878205    512.45277  0.010150796 0.0085097011         3909 
 4208000   0.57713583   -9.0583565    512.59262  0.010151153 0.0085062234         3907 
 4209000   0.58401888   -9.0733085    513.26427  0.010162039 0.0085027481         3908 
 4210000   0.57738239   -9.0882496    511.99951   0.01013459 0.0084992728         3909 
 4211000    0.5697219   -9.0914767    511.37686  0.010119862 0.0084957976         3910 
 4212000   0.57345476   -9.0954365    512.43716  0.010138437 0.0084923242         3911 
 4213000   0.58641134   -9.0826273    512.66288  0.010140495 0.0084888521         3895 
 4214000   0.57336664   -9.1005469    511.48258  0.010114748 0.0084853821         3935 
 4215000   0.57402305   -9.0657246    512.16287  0.010125798 0.0084819142         3912 
 4216000   0.57127015   -9.0806856    513.58097  0.010151426 0.0084784468         3916 
 4217000   0.57839284   -9.0711372    512.68792  0.010131371 0.0084749847         3912 
 4218000   0.57756474   -9.0908385    512.23162  0.010119955 0.0084715249         3900 
 4219000   0.57171223   -9.0918613    513.15516  0.010135798 0.0084680634         3918 
 4220000   0.57871172   -9.0922993    512.08428  0.010112249 0.0084646038         3917 
 4221000   0.57619459   -9.0860776    512.90069  0.010125971 0.0084611505         3925 
 4222000   0.56329521   -9.0858171    512.89841  0.010123528 0.0084576964         3913 
 4223000   0.57090934   -9.0772579     512.6807  0.010116834 0.0084542433         3899 
 4224000   0.58248853   -9.0854821    512.59433  0.010112735 0.0084507938         3898 
 4225000   0.56732228   -9.0840834    512.52425   0.01010896 0.0084473461         3925 
 4226000   0.56797431   -9.0858612    512.14831  0.010099154 0.0084439013         3919 
 4227000    0.5750481   -9.0954034    513.13703  0.010116257 0.0084404605         3901 
 4228000   0.56485748   -9.0819164    512.27886   0.01009695 0.0084370167         3924 
 4229000   0.56718905   -9.0736907    511.80305  0.010085187  0.008433574         3902 
 4230000   0.57827225   -9.0960303    512.85176  0.010103463 0.0084301383         3914 
 4231000   0.56410396   -9.0790105    512.47138  0.010093583 0.0084267034         3922 
 4232000    0.5826557   -9.1154209    511.59559  0.010073952 0.0084232674         3912 
 4233000   0.58039332   -9.0934051    512.81679  0.010095614  0.008419837         3906 
 4234000   0.57504247   -9.0818019     512.4132  0.010085286 0.0084164067         3910 
 4235000   0.57812117   -9.0855578     513.1594  0.010097588 0.0084129765         3896 
 4236000   0.55585272   -9.0752477     512.6368  0.010084923 0.0084095458         3891 
 4237000   0.57242524   -9.0969765    512.35388  0.010076978 0.0084061217         3902 
 4238000   0.57096048   -9.0731981    511.86503  0.010064988 0.0084026997         3932 
 4239000   0.56688577   -9.0854733    512.09592  0.010067153 0.0083992816         3877 
 4240000   0.57269904   -9.0975147    512.24454  0.010067699 0.0083958625         3915 
 4241000   0.57069434   -9.1034118    512.01534  0.010060822 0.0083924463         3923 
 4242000   0.56060292   -9.0805247     511.6328  0.010050935 0.0083890314         3899 
 4243000   0.57335845   -9.0937048    512.58354  0.010067239 0.0083856187         3904 
 4244000   0.56060643    -9.100512     511.8075  0.010049629 0.0083822049         3908 
 4245000    0.5799566   -9.0836124    511.64199  0.010044012 0.0083787935         3930 
 4246000     0.580656   -9.0784155    512.62836  0.010061006 0.0083753853         3909 
 4247000   0.58101255   -9.0845777    511.78756  0.010042139 0.0083719796         3932 
 4248000    0.5742465   -9.0956669    512.28253  0.010049485 0.0083685755         3908 
 4249000   0.56628372   -9.0823484    512.63476  0.010054028 0.0083651716         3897 
 4250000   0.57952756   -9.1119853    511.91493  0.010037548 0.0083617703         3922 
 4251000   0.55931531   -9.1079731    511.37601  0.010024622 0.0083583694         3905 
 4252000   0.57637236   -9.0972404    512.34815  0.010041317 0.0083549726         3932 
 4253000   0.57159445   -9.1014304    512.08996  0.010033897 0.0083515788         3911 
 4254000   0.57535055   -9.0779993    510.79228  0.010006117  0.008348184         3922 
 4255000   0.57115167   -9.0882471    512.56852  0.010038553 0.0083447949         3916 
 4256000   0.56737942   -9.0946372     512.6306   0.01003741 0.0083414063         3926 
 4257000   0.56058596   -9.0882491    512.49734  0.010032443 0.0083380166         3914 
 4258000   0.56204255   -9.1085249    513.01679  0.010040253 0.0083346311         3918 
 4259000    0.5710394   -9.1098758    512.94429  0.010036477 0.0083312455         3913 
 4260000    0.5575341   -9.0875883    512.10897  0.010017781 0.0083278634         3924 
 4261000   0.57431248   -9.0883749    512.02558  0.010013799 0.0083244821         3900 
 4262000   0.56295651   -9.1071448    511.96166    0.0100102 0.0083211038         3908 
 4263000   0.56030689   -9.1194517    512.40629  0.010016543 0.0083177245         3921 
 4264000   0.56650924   -9.1151466    512.36541  0.010013395 0.0083143502         3899 
 4265000   0.57571325   -9.1132872    511.51156 0.0099943643 0.0083109778         3910 
 4266000    0.5752914   -9.1039233    512.23472  0.010006148 0.0083076057         3916 
 4267000   0.57084843   -9.0987619    512.40306  0.010007091 0.0083042365         3903 
 4268000   0.57204194   -9.1009197    512.00419 0.0099969579 0.0083008658         3921 
 4269000   0.57606323    -9.109881    512.06006 0.0099957067 0.0082974999         3913 
 4270000   0.57069807   -9.1048429    511.70889 0.0099865123  0.008294138         3905 
 4271000   0.56707659   -9.0981129    511.40892 0.0099783213 0.0082907752         3922 
 4272000   0.57204072   -9.0935165    512.69799  0.010001131 0.0082874135         3911 
 4273000   0.57211399    -9.100015    511.86039 0.0099824556 0.0082840578         3906 
 4274000   0.55702092   -9.1049563    512.13263  0.009985428 0.0082807014         3917 
 4275000   0.56793638   -9.0818974    512.95617 0.0099991457 0.0082773468         3910 
 4276000    0.5837314   -9.0889901    512.54731 0.0099888391 0.0082739953         3898 
 4277000   0.55518298   -9.0950137    511.13053  0.009958899  0.008270642         3910 
 4278000   0.56007941   -9.1203538    512.22551 0.0099779007 0.0082672937         3937 
 4279000   0.56518802   -9.0979715    512.85535 0.0099878351 0.0082639478         3905 
 4280000   0.56330941   -9.0873045    512.09147 0.0099706284 0.0082605997         3910 
 4281000   0.56603879   -9.1052214    512.65039 0.0099791791 0.0082572534         3912 
 4282000   0.56862174   -9.0861893    512.18417 0.0099677754  0.008253912         3920 
 4283000   0.56702403    -9.109743    511.96515 0.0099611867 0.0082505688         3908 
 4284000    0.5836071   -9.1021073    512.19762 0.0099633834 0.0082472298         3922 
 4285000   0.56487747   -9.0982648    512.42952 0.0099655683  0.008243894         3920 
 4286000   0.56134394   -9.1258333    512.08604 0.0099565648 0.0082405609         3917 
 4287000   0.56959721    -9.096255    511.83157 0.0099492958 0.0082372276         3906 
 4288000   0.55987868   -9.1013543    512.15414 0.0099532444 0.0082339011         3917 
 4289000   0.55919052   -9.1031091    512.65711 0.0099606962 0.0082305702         3917 
 4290000   0.55840068   -9.1087307    512.34255 0.0099522641 0.0082272407         3905 
 4291000   0.56382076   -9.0764868     513.0668 0.0099640099 0.0082239168         3887 
 4292000   0.56252289   -9.0955471     510.8942 0.0099195053 0.0082205924         3918 
 4293000   0.56042106   -9.1141816    511.64683 0.0099318042 0.0082172707         3911 
 4294000   0.56619222   -9.1023939    511.54494  0.009927514 0.0082139487         3908 
 4295000   0.56578683   -9.1153497    512.67465 0.0099471217 0.0082106323         3905 
 4296000   0.56797933   -9.1141707    511.50358   0.00992209 0.0082073132         3933 
 4297000   0.57034273   -9.0853462    511.72843 0.0099241415 0.0082039979         3908 
 4298000   0.56075002   -9.1045399    512.53522 0.0099374753 0.0082006831         3912 
 4299000   0.56640422   -9.1050111     511.6053 0.0099171377 0.0081973715         3902 
 4300000   0.57076722   -9.1307697    511.73461 0.0099173374 0.0081940588         3906 
 4301000   0.56257824   -9.0877234    512.12163 0.0099225303 0.0081907518         3890 
 4302000   0.56380595   -9.1155347    511.41292 0.0099064954 0.0081874429         3912 
 4303000   0.56177387   -9.0989304    511.06344  0.009897425 0.0081841381         3894 
 4304000   0.55697938   -9.0903632    511.50099 0.0099035973 0.0081808346         3913 
 4305000   0.57086246   -9.1029213    511.85196 0.0099080906 0.0081775319         3905 
 4306000   0.55919812    -9.103874    512.15034  0.009911564 0.0081742302         3901 
 4307000   0.56872643   -9.1176701    512.25863 0.0099113581 0.0081709319         3925 
 4308000   0.56074405   -9.0966611    512.46302 0.0099130111 0.0081676345         3924 
 4309000   0.55630835   -9.1159377    511.70698 0.0098960891  0.008164339         3907 
 4310000   0.56224268   -9.0941284    511.77412 0.0098950913  0.008161045         3914 
 4311000   0.54613577   -9.1086114    511.29971 0.0098836255 0.0081577526         3917 
 4312000   0.55574737   -9.1189723     511.9726 0.0098943375 0.0081544619         3913 
 4313000   0.56926219     -9.11651    511.29055 0.0098788652 0.0081511719         3908 
 4314000   0.56069269   -9.1095392    512.15157 0.0098932077 0.0081478867         3919 
 4315000    0.5651864   -9.1097569    512.13737 0.0098906406 0.0081446003         3923 
 4316000   0.56815043   -9.1222138    511.67401 0.0098794024 0.0081413133         3946 
 4317000   0.56144434   -9.1118026    511.58239 0.0098753454 0.0081380286         3920 
 4318000   0.56862596   -9.1295012     511.7995 0.0098772484 0.0081347454         3935 
 4319000   0.57156844   -9.1210215    511.85959 0.0098761209 0.0081314687         3894 
 4320000   0.55432428   -9.1097674    511.46696 0.0098662608 0.0081281908         3894 
 4321000   0.56061651   -9.1010199    511.72423 0.0098689392 0.0081249122         3906 
 4322000   0.57658882   -9.1190626    511.45262 0.0098614187 0.0081216382         3914 
 4323000   0.56275627   -9.1172678    511.51169 0.0098602762  0.008118366         3912 
 4324000   0.57057263   -9.1005999    512.57427 0.0098784741 0.0081150984         3926 
 4325000   0.56053144   -9.1202829    511.94322 0.0098640313 0.0081118291         3917 
 4326000   0.55484321   -9.1169739    511.11593 0.0098458146 0.0081085642         3905 
 4327000   0.56852482   -9.0971866    511.77184 0.0098561714 0.0081053021         3902 
 4328000     0.560228   -9.1332473    511.42464 0.0098472088 0.0081020391         3918 
 4329000   0.55441616   -9.1152419    512.39354 0.0098635855 0.0080987785         3899 
 4330000   0.55461879   -9.1249587    511.56856 0.0098454303 0.0080955177         3932 
 4331000   0.55687411   -9.1321605    511.19339 0.0098359385 0.0080922601         3915 
 4332000   0.56527498      -9.1055     512.3034 0.0098550207 0.0080890039         3924 
 4333000   0.56676012   -9.1190342     511.7855 0.0098427861 0.0080857501         3918 
 4334000   0.54255111   -9.1115681    512.02914 0.0098451995 0.0080824993         3917 
 4335000     0.560867   -9.1292539    511.50218 0.0098327985 0.0080792497         3913 
 4336000   0.57183645   -9.1275213    512.25331 0.0098449668 0.0080760005         3902 
 4337000   0.56406386   -9.1040673    512.18363 0.0098413578  0.008072757         3908 
 4338000   0.55670188   -9.1148862    511.48495 0.0098256676 0.0080695137         3923 
 4339000    0.5637958   -9.1179065    511.97181 0.0098327535 0.0080662687         3929 
 4340000   0.57095286   -9.1306515    511.33164 0.0098181959 0.0080630261         3912 
 4341000   0.55131038   -9.1165256    512.21694  0.009832929 0.0080597863         3892 
 4342000   0.54585358   -9.1328994    511.62174 0.0098192411 0.0080565467         3918 
 4343000    0.5450953   -9.1252457    512.36744 0.0098312887 0.0080533085         3922 
 4344000   0.55463321   -9.1280083    510.91008 0.0098010682 0.0080500755         3925 
 4345000   0.55116667   -9.1182904    511.47477 0.0098096428 0.0080468429         3905 
 4346000   0.56489868   -9.1186366    511.58459 0.0098094912 0.0080436131         3889 
 4347000   0.54980026   -9.1386874     510.5947 0.0097882583 0.0080403826         3915 
 4348000   0.55710156   -9.1335859    511.28855 0.0097993052 0.0080371564         3911 
 4349000   0.55493128   -9.1172089    511.26657 0.0097966309 0.0080339317         3914 
 4350000   0.54706446   -9.1261492    512.27328 0.0098136645 0.0080307082         3911 
 4351000   0.55348566   -9.1233934    511.54606 0.0097974806 0.0080274853         3915 
 4352000   0.55377327   -9.1249878    511.99561 0.0098038376 0.0080242618         3914 
 4353000   0.55307866   -9.1215472     510.9811 0.0097821636 0.0080210414         3902 
 4354000   0.56352221   -9.1266367    511.16345  0.009783407 0.0080178272         3929 
 4355000     0.559138   -9.1397185    511.20328 0.0097819226 0.0080146088         3909 
 4356000   0.54743386   -9.1119262     512.2703 0.0098000899 0.0080113953         3912 
 4357000   0.56711693   -9.1248789    510.58204 0.0097655505 0.0080081808         3922 
 4358000   0.55325178     -9.12302    511.01891 0.0097716634 0.0080049677         3919 
 4359000   0.54917792   -9.1296463     511.5029 0.0097786744 0.0080017591         3922 
 4360000   0.55562082   -9.1488725    510.66032 0.0097603272 0.0079985499         3910 
 4361000   0.55947401   -9.1248451    511.17637 0.0097679502 0.0079953415         3930 
 4362000    0.5580701   -9.1198794    511.26756  0.009767453 0.0079921379         3911 
 4363000    0.5465037   -9.1294182    512.20022 0.0097830282 0.0079889372         3929 
 4364000   0.56166253   -9.1364873    511.37109 0.0097649536 0.0079857371         3909 
 4365000   0.54953435   -9.1377025    511.14152 0.0097583337 0.0079825361         3920 
 4366000   0.53521807   -9.1092979    511.65443 0.0097658885 0.0079793394         3903 
 4367000   0.55555692   -9.1277922    510.37573 0.0097392513 0.0079761427         3897 
 4368000   0.55646112   -9.1316608    511.20356 0.0097528151 0.0079729508         3894 
 4369000   0.55365829   -9.1329253    510.61473 0.0097393518  0.007969758         3921 
 4370000   0.54308653   -9.1409334    511.88646 0.0097613741 0.0079665677         3912 
 4371000   0.54401557   -9.1200787     511.2293 0.0097466121 0.0079633793         3917 
 4372000   0.55587601   -9.1328805    511.51425 0.0097498142 0.0079601962         3918 
 4373000   0.55631003   -9.1131232    511.46889 0.0097467202 0.0079570113         3939 
 4374000   0.56876261   -9.1206344    511.86586 0.0097520549 0.0079538295         3904 
 4375000   0.55355284   -9.1366884    511.26801 0.0097384382 0.0079506521         3916 
 4376000   0.54562989   -9.1298331    510.15993 0.0097151115 0.0079474735         3930 
 4377000   0.56291229   -9.1286869    511.56179 0.0097395817 0.0079442962         3906 
 4378000   0.54919574   -9.1414512     511.0067 0.0097267911 0.0079411218         3922 
 4379000   0.54750804   -9.1175617    510.96434 0.0097237637 0.0079379503         3905 
 4380000   0.56313448   -9.1182759    511.41902 0.0097301944 0.0079347819         3909 
 4381000   0.54690075   -9.1286659    510.95539 0.0097191544 0.0079316102         3908 
 4382000    0.5571024   -9.1257098    511.89386 0.0097347836 0.0079284441         3919 
 4383000   0.55856695   -9.1332769    511.38098 0.0097228112 0.0079252778         3930 
 4384000   0.55899541   -9.1175558    511.05795 0.0097144532 0.0079221132         3901 
 4385000   0.54686482   -9.1172921    511.45022 0.0097196925 0.0079189519         3934 
 4386000   0.54848295   -9.1068265    512.35154 0.0097346014 0.0079157913         3903 
 4387000   0.53478367    -9.122655    511.91005 0.0097239961 0.0079126332         3917 
 4388000   0.54131787   -9.1544692    511.88714 0.0097213449 0.0079094727         3923 
 4389000   0.54893789   -9.1480952     510.7971 0.0096984336 0.0079063142         3913 
 4390000   0.54957733   -9.1479966    511.46505 0.0097089037 0.0079031575         3906 
 4391000   0.54697103   -9.1423003    511.74395 0.0097119858 0.0079000035         3912 
 4392000   0.54714402   -9.1279154    510.82137 0.0096922694 0.0078968491         3901 
 4393000   0.54529796   -9.1264976    511.24911 0.0096981772 0.0078936971         3917 
 4394000   0.53887345   -9.1403957     510.2881 0.0096777443  0.007890549         3917 
 4395000   0.54284378   -9.1354446    511.37941 0.0096962346  0.007887401         3915 
 4396000   0.54733978   -9.1425107    511.52829  0.009696851  0.007884254         3904 
 4397000   0.55856838   -9.1297917     511.2096 0.0096886059 0.0078811085         3920 
 4398000   0.54572234   -9.1258037    511.10232 0.0096843702 0.0078779648         3928 
 4399000    0.5535887   -9.1436044    511.74539 0.0096943508 0.0078748253         3915 
 4400000   0.54320811   -9.1312304    511.36426 0.0096849292 0.0078716892         3888 
 4401000   0.53682637   -9.1327042    511.47486 0.0096848229 0.0078685517         3909 
 4402000   0.54485854   -9.1319938    511.30311 0.0096793713 0.0078654181         3905 
 4403000   0.55319813   -9.1455651    511.01783 0.0096717736 0.0078622848         3904 
 4404000   0.53665026   -9.1346863    510.79436 0.0096653489 0.0078591546         3909 
 4405000   0.54320513   -9.1281878    511.41324 0.0096748627 0.0078560268         3911 
 4406000   0.55280925   -9.1219427    511.86661 0.0096812417 0.0078528982         3935 
 4407000   0.53302936   -9.1111477    511.57763 0.0096735804 0.0078497709         3908 
 4408000   0.53074044   -9.1469128    511.48895 0.0096697095 0.0078466457         3926 
 4409000   0.55150027   -9.1367303    511.80149 0.0096734235 0.0078435234         3923 
 4410000   0.54220002   -9.1325733    511.25159 0.0096608388 0.0078404034         3919 
 4411000   0.54125166   -9.1261207    511.66176 0.0096663977 0.0078372834         3905 
 4412000   0.53625891   -9.1321217    510.97401 0.0096512166 0.0078341661         3913 
 4413000   0.55819008   -9.1376257    511.26815  0.009654584 0.0078310502         3913 
 4414000   0.55120624   -9.1393148    511.86473 0.0096636597 0.0078279356         3911 
 4415000   0.55255495   -9.1504654    511.05225 0.0096461353 0.0078248193         3924 
 4416000   0.53213507    -9.146468     511.1674 0.0096461239 0.0078217054         3914 
 4417000   0.53988285    -9.122169    511.71464 0.0096542646 0.0078185954         3913 
 4418000   0.55148893    -9.127195    510.99087 0.0096384274 0.0078154869         3931 
 4419000   0.54391619   -9.1367777    511.25565 0.0096412396 0.0078123787         3922 
 4420000   0.54113407   -9.1293084    510.78056 0.0096301011 0.0078092753         3913 
 4421000   0.54477627   -9.1496566    510.20264 0.0096170294 0.0078061726         3926 
 4422000   0.54334307   -9.1610583    511.76856 0.0096443645 0.0078030687         3933 
 4423000   0.54049322   -9.1475633    511.11376 0.0096298471 0.0077999676         3933 
 4424000   0.53778247   -9.1386177    511.66859 0.0096381214 0.0077968672         3915 
 4425000    0.5429141   -9.1361144       511.47 0.0096322034  0.007793771         3911 
 4426000   0.55541974   -9.1282092    511.65183 0.0096334507 0.0077906757         3894 
 4427000    0.5338191   -9.1462706    511.51798 0.0096287549 0.0077875828         3891 
 4428000   0.54566271   -9.1490217     511.5464 0.0096271153 0.0077844926         3910 
 4429000   0.53312581   -9.1455703    511.38023 0.0096218152  0.007781403         3923 
 4430000   0.53416813    -9.150361    510.84574 0.0096095889 0.0077783139         3910 
 4431000   0.53934152   -9.1537386    510.78404 0.0096062598  0.007775227         3915 
 4432000   0.52041326   -9.1564409    511.37659 0.0096152337 0.0077721407         3915 
 4433000   0.54521959    -9.141788    511.63818 0.0096179821 0.0077690571         3906 
 4434000   0.53607373   -9.1587031    510.67787 0.0095977649 0.0077659761         3907 
 4435000   0.53673358   -9.1386249    510.81981 0.0095982678  0.007762895         3920 
 4436000   0.53859452   -9.1412429    511.14518 0.0096022163 0.0077598168         3904 
 4437000   0.54312311   -9.1534819    511.26176 0.0096022417  0.007756742         3922 
 4438000   0.55053813   -9.1329746    510.85215 0.0095923867 0.0077536697         3911 
 4439000    0.5451442   -9.1366756    510.79376 0.0095891298 0.0077505952         3926 
 4440000   0.53964526   -9.1523897    511.15582 0.0095937655 0.0077475233         3934 
 4441000   0.53582998   -9.1408501    511.12538 0.0095910338 0.0077444549         3928 
 4442000   0.54894808   -9.1463881    511.48941  0.009595704 0.0077413872         3925 
 4443000   0.53566871   -9.1380604    510.80931 0.0095807882 0.0077383211         3917 
 4444000    0.5389707   -9.1649108    511.41435  0.009589978 0.0077352573         3928 
 4445000    0.5529659   -9.1383518    511.87714 0.0095964967 0.0077321948         3913 
 4446000   0.52871356   -9.1305085    511.49778 0.0095872279 0.0077291309         3939 
 4447000   0.54141668   -9.1315972    510.94393 0.0095746933 0.0077260711         3909 
 4448000   0.55678523   -9.1495146    510.98619 0.0095733325 0.0077230139         3920 
 4449000   0.52319879   -9.1314128    511.15482 0.0095743391 0.0077199571         3923 
 4450000   0.53954093   -9.1395709    510.77021 0.0095649852 0.0077168998         3925 
 4451000   0.54064117   -9.1547761    511.11713 0.0095693315 0.0077138451         3916 
 4452000   0.53259385   -9.1362428    511.36987 0.0095719128 0.0077107914         3919 
 4453000   0.55480226   -9.1507855    511.14393 0.0095655351  0.007707743         3923 
 4454000   0.54032173   -9.1390554    510.87883 0.0095584275 0.0077046927         3916 
 4455000   0.55032852   -9.1371412    511.01198 0.0095587725 0.0077016467         3935 
 4456000   0.53807842   -9.1496455     511.0255 0.0095568802 0.0076986001         3922 
 4457000   0.53419581   -9.1393498    510.98354 0.0095539515 0.0076955584         3903 
 4458000   0.53975561    -9.155413    511.61878 0.0095636829 0.0076925158         3912 
 4459000   0.53925581   -9.1405627    510.90103 0.0095481242  0.007689476         3931 
 4460000   0.52883208   -9.1511808    511.53716 0.0095578692 0.0076864382         3918 
 4461000   0.53443562   -9.1486978    510.53674 0.0095370383  0.007683403         3911 
 4462000    0.5385211   -9.1651637    510.33779 0.0095311853 0.0076803685         3911 
 4463000   0.53658081   -9.1525555    510.60419  0.009534024 0.0076773361         3917 
 4464000   0.53990293   -9.1479597    511.66277 0.0095516498 0.0076743062         3910 
 4465000   0.52737446   -9.1610711      510.514 0.0095280703 0.0076712778         3920 
 4466000   0.53722817   -9.1533179    511.09645 0.0095368049 0.0076682517         3924 
 4467000   0.54031079   -9.1622349    511.12299  0.009535165 0.0076652245         3936 
 4468000   0.54643405   -9.1335401    510.88389 0.0095285715 0.0076622008         3921 
 4469000   0.52811036   -9.1448261     511.2909 0.0095340289 0.0076591772         3914 
 4470000   0.53777405   -9.1517111    511.19721 0.0095301494 0.0076561556         3912 
 4471000     0.542389   -9.1360203    511.08228 0.0095258757 0.0076531361         3923 
 4472000   0.54622374   -9.1503245    511.33547 0.0095284636 0.0076501177         3929 
 4473000   0.55028818   -9.1487216    511.47249 0.0095288861 0.0076471014         3916 
 4474000   0.53469214   -9.1467251    511.36579 0.0095247688 0.0076440869         3916 
 4475000   0.53821366   -9.1453292    510.93898 0.0095146924 0.0076410731         3920 
 4476000    0.5493094   -9.1543306    510.27171 0.0095001435 0.0076380614         3918 
 4477000   0.54837357   -9.1474818    510.81157 0.0095080704  0.007635051         3930 
 4478000   0.54051785   -9.1356777    511.41964 0.0095172628 0.0076320405         3910 
 4479000    0.5242643   -9.1642111    510.79374  0.009503493 0.0076290314         3922 
 4480000   0.53826308    -9.156767    509.96772 0.0094860066 0.0076260258         3906 
 4481000   0.53129489   -9.1477849    511.42578 0.0095110053 0.0076230199         3921 
 4482000   0.53654051   -9.1363878    510.91765 0.0094994356 0.0076200164         3917 
 4483000   0.53081087   -9.1357767    511.29638 0.0095043569 0.0076170148         3920 
 4484000   0.53607928   -9.1540382    511.05006 0.0094976595 0.0076140132         3896 
 4485000   0.55073072   -9.1504025    510.40088 0.0094834797 0.0076110156         3918 
 4486000   0.53687211   -9.1425919    511.00031 0.0094925009 0.0076080177         3916 
 4487000   0.53215811   -9.1592335    511.04701 0.0094912527 0.0076050211         3928 
 4488000   0.52505387   -9.1520529    510.57114 0.0094803019 0.0076020275         3909 
 4489000   0.53430505   -9.1573682    510.85783 0.0094835121 0.0075990386         3923 
 4490000   0.53683119   -9.1564265    510.09069  0.009467162  0.007596047         3891 
 4491000   0.53479033   -9.1604355    510.22743 0.0094675913 0.0075930579         3918 
 4492000   0.53677221   -9.1649732    510.52629 0.0094710279 0.0075900662         3922 
 4493000   0.52650045     -9.15387    510.90178 0.0094758843 0.0075870811         3909 
 4494000   0.53666803   -9.1654505    510.34307 0.0094634154 0.0075840977         3919 
 4495000      0.54532   -9.1439267     509.9451 0.0094539321 0.0075811157         3913 
 4496000   0.53617583    -9.148258    510.70695 0.0094659503 0.0075781374         3912 
 4497000   0.53845475   -9.1521105    510.69422 0.0094636095 0.0075751585         3925 
 4498000   0.53345492   -9.1464365    511.34112 0.0094734904 0.0075721833         3922 
 4499000   0.51921196   -9.1570882    511.33851 0.0094713364 0.0075692078         3921 
 4500000   0.52272728   -9.1653886    510.49488 0.0094536088 0.0075662305         3910 
 4501000    0.5296946   -9.1561376    511.20143   0.00946459 0.0075632564         3899 
 4502000   0.53272276    -9.167367    510.37456  0.009447182 0.0075602823         3922 
 4503000   0.53181534   -9.1554144    510.79371 0.0094528409 0.0075573107         3914 
 4504000   0.52773063   -9.1436441    510.43914 0.0094441819 0.0075543396         3903 
 4505000   0.53343076   -9.1639993    509.78338 0.0094299553  0.007551373         3896 
 4506000   0.54803454   -9.1671665    510.20997 0.0094357518 0.0075484064         3919 
 4507000   0.53167027   -9.1738111    510.03256 0.0094303779 0.0075454392         3906 
 4508000   0.52453727   -9.1598486    510.65699  0.009439829  0.007542477         3926 
 4509000   0.51963459   -9.1711694    511.08872 0.0094457145 0.0075395148         3911 
 4510000   0.54205923   -9.1617378     510.7119 0.0094366574 0.0075365539         3908 
 4511000   0.54080553   -9.1491809    510.56517 0.0094318549  0.007533596         3930 
 4512000   0.52589801   -9.1693796    510.24135 0.0094237838 0.0075306398         3921 
 4513000   0.53477484   -9.1543482     509.9233 0.0094158229  0.007527682         3920 
 4514000   0.53718802   -9.1707448    510.93314 0.0094323796 0.0075247275         3904 
 4515000   0.51476134   -9.1684509    511.06149 0.0094326595 0.0075217734         3911 
 4516000   0.52280776   -9.1616868    510.20586 0.0094147819 0.0075188229         3924 
 4517000   0.52867917   -9.1785383    510.93696 0.0094261856 0.0075158726         3933 
 4518000    0.5237832   -9.1695696    510.67913 0.0094193436 0.0075129256         3919 
 4519000   0.53494462   -9.1463425    511.22465  0.009427319 0.0075099787         3907 
 4520000   0.53106695   -9.1515142    510.05157 0.0094036056  0.007507033         3916 
 4521000   0.52632233   -9.1660795    509.37024 0.0093889671 0.0075040869         3920 
 4522000   0.52889234    -9.162579    510.46462 0.0094070585 0.0075011436         3910 
 4523000   0.53224019   -9.1461945    510.89335 0.0094128777 0.0074982027         3912 
 4524000   0.53868433   -9.1727746    510.64059 0.0094061411 0.0074952655         3901 
 4525000    0.5296626   -9.1570766    510.64777 0.0094041947 0.0074923273         3907 
 4526000   0.53287553   -9.1676917    511.09113 0.0094102801  0.007489391         3906 
 4527000   0.53844623    -9.161175    509.70465 0.0093826789 0.0074864566         3912 
 4528000   0.51532403   -9.1455298     511.0345 0.0094050813 0.0074835226         3906 
 4529000    0.5336179   -9.1555479    510.66374 0.0093961827  0.007480593         3914 
 4530000   0.53198133   -9.1524305     510.9547  0.009399461 0.0074776626         3919 
 4531000   0.53328008   -9.1722827    509.38126  0.009368448 0.0074747371         3922 
 4532000   0.53403833   -9.1731691    510.69623 0.0093905603 0.0074718118         3925 
 4533000   0.51274956   -9.1947285    510.71465 0.0093888274 0.0074688844         3926 
 4534000   0.51831804   -9.1765879    510.43259 0.0093815724 0.0074659586         3906 
 4535000   0.52539123   -9.1683943     509.8933  0.009369594 0.0074630361         3918 
 4536000   0.52311131   -9.1594868    510.83396 0.0093848096 0.0074601169         3921 
 4537000   0.52523035   -9.1540032    510.46776 0.0093760151 0.0074571978         3912 
 4538000   0.51882198   -9.1729651    509.57006  0.009357464 0.0074542804         3926 
 4539000   0.53247115    -9.184619    510.29844 0.0093687751 0.0074513628         3932 
 4540000   0.53366629   -9.1537606    510.26556  0.009366108 0.0074484481         3901 
 4541000   0.51838373   -9.1640587      509.823 0.0093559238 0.0074455364         3945 
 4542000   0.51631196   -9.1684367    510.41304 0.0093646895 0.0074426258         3925 
 4543000   0.52856413   -9.1693835    511.10402  0.009375303 0.0074397162         3927 
 4544000   0.51849829   -9.1603685    509.74209  0.009348263 0.0074368085         3935 
 4545000   0.51633586   -9.1617731    510.93361  0.009368053 0.0074339022         3922 
 4546000   0.52577355   -9.1754708    510.66298 0.0093610313 0.0074309971         3919 
 4547000    0.5241003   -9.1593231    509.85172 0.0093441046 0.0074280932         3923 
 4548000   0.53991834   -9.1824918    510.46628 0.0093533106 0.0074251909         3935 
 4549000   0.52170499    -9.149036    510.48106 0.0093515253 0.0074222921         3924 
 4550000   0.52940644   -9.1637956    510.71687 0.0093537888 0.0074193926         3903 
 4551000   0.52258978   -9.1593761    510.14702  0.009341299 0.0074164941         3921 
 4552000   0.51396136   -9.1663009    509.45986 0.0093266671  0.007413598         3923 
 4553000   0.51857065   -9.1764517    509.66099 0.0093282997 0.0074107026         3915 
 4554000   0.52628462    -9.172084    510.07356  0.009333801 0.0074078095         3911 
 4555000   0.52864413   -9.1744508    510.19368 0.0093339495 0.0074049162         3919 
 4556000   0.53038746   -9.1871902    510.26955 0.0093332885 0.0074020261         3924 
 4557000   0.52005999   -9.1786449    511.15122 0.0093473633 0.0073991352         3916 
 4558000   0.51666861   -9.1593454    510.27855 0.0093293578 0.0073962467         3930 
 4559000   0.52460973    -9.147064    510.18259 0.0093255573 0.0073933591         3915 
 4560000   0.52345186   -9.1557853    510.71298 0.0093332051 0.0073904757         3916 
 4561000   0.52361618   -9.1830352    509.92879 0.0093168309 0.0073875918         3917 
 4562000    0.5198601   -9.1756744    510.18755 0.0093195153  0.007384713         3925 
 4563000   0.53257062   -9.1636099    510.62312 0.0093254277 0.0073818337         3909 
 4564000   0.51597718    -9.155987    510.73916 0.0093255033 0.0073789586         3909 
 4565000   0.53310596   -9.1755207    511.09901 0.0093300294 0.0073760836         3920 
 4566000   0.53153665   -9.1679286    510.82571  0.009322998 0.0073732083         3906 
 4567000    0.5249708   -9.1920013     510.6146 0.0093171045 0.0073703327         3917 
 4568000   0.51850338   -9.1734972     509.8954 0.0093019447 0.0073674589         3916 
 4569000   0.51001568   -9.1824341    510.20589 0.0093055718 0.0073645896         3923 
 4570000   0.51213274   -9.1726865    510.43543 0.0093077212 0.0073617213         3913 
 4571000   0.52356618   -9.1875906    510.48484 0.0093065857 0.0073588539         3928 
 4572000   0.50123551   -9.1603692    510.21284 0.0092995924 0.0073559883         3908 
 4573000   0.51952029   -9.1618773    510.38299 0.0093006595 0.0073531213         3912 
 4574000     0.519402   -9.1757138    510.76725 0.0093056269 0.0073502581         3924 
 4575000   0.52284485    -9.174731    510.49729 0.0092986756 0.0073473966         3919 
 4576000    0.5220734   -9.1750058    510.26775 0.0092924634 0.0073445358         3942 
 4577000   0.52967053   -9.1769522    509.79671 0.0092818569 0.0073416771         3931 
 4578000   0.52799651   -9.1756533    510.35701 0.0092900286 0.0073388203         3920 
 4579000   0.53157866   -9.1685977    511.07115 0.0093009963 0.0073359656         3928 
 4580000   0.53170565   -9.1676209    510.18831 0.0092829023 0.0073331111         3931 
 4581000   0.52432509   -9.1908649     509.9091 0.0092757967 0.0073302568         3928 
 4582000    0.5251843   -9.1732395     510.0889 0.0092770424 0.0073274053         3922 
 4583000   0.51632018   -9.1887633    509.89639 0.0092715177 0.0073245582         3911 
 4584000   0.52494002   -9.1685774    509.52237 0.0092626959   0.00732171         3903 
 4585000   0.52887549   -9.1777928    510.61689 0.0092805687 0.0073188627         3906 
 4586000   0.50931244   -9.1566808    510.85009 0.0092827826 0.0073160182         3926 
 4587000   0.52028893   -9.1801343    509.86235 0.0092628144 0.0073131749         3908 
 4588000   0.52439265   -9.1887413    509.74816 0.0092587212 0.0073103309         3928 
 4589000   0.51331173   -9.1687406    510.16566 0.0092642852 0.0073074893         3928 
 4590000    0.5108085   -9.1869112     510.3253 0.0092651653 0.0073046498         3921 
 4591000   0.51145475    -9.182852    510.39906 0.0092644859 0.0073018111         3911 
 4592000   0.51390479   -9.1844678    510.42995 0.0092630289 0.0072989783         3909 
 4593000   0.51160229   -9.1882015    509.96317 0.0092525432 0.0072961434         3916 
 4594000   0.52279337   -9.1703344    510.57794 0.0092616808 0.0072933098         3905 
 4595000   0.51997886   -9.1784305    509.75832 0.0092448008 0.0072904788         3941 
 4596000   0.51520724   -9.1850162    510.62507 0.0092585051 0.0072876504         3916 
 4597000   0.52594609   -9.1924639    509.54655 0.0092369398 0.0072848226         3922 
 4598000    0.5083531   -9.1968452    509.36117 0.0092315711 0.0072819966         3913 
 4599000   0.50515425   -9.2010353    509.30441 0.0092285354 0.0072791737         3915 
 4600000   0.50776613    -9.185526    510.50792 0.0092483319 0.0072763515         3929 
 4601000   0.51097889    -9.182165     510.4506 0.0092452837 0.0072735322         3921 
 4602000   0.51346389   -9.1850305    510.11505 0.0092371984 0.0072707139         3922 
 4603000   0.51973611   -9.1794861    510.22414 0.0092371667  0.007267897         3930 
 4604000   0.51404214   -9.1637425    510.15184 0.0092338517   0.00726508         3926 
 4605000   0.51470126   -9.1914408    509.39233 0.0092181022 0.0072622659         3922 
 4606000   0.52169025   -9.1919199    509.41825 0.0092165699 0.0072594519         3929 
 4607000   0.51144521    -9.174191    510.39728 0.0092322785  0.007256642         3921 
 4608000   0.50950069   -9.1835226    510.45217 0.0092312675  0.007253829         3925 
 4609000   0.49693381    -9.181944    509.50275 0.0092120986 0.0072510192         3909 
 4610000   0.52140931   -9.1838895    510.26457 0.0092238714 0.0072482109         3904 
 4611000    0.5284117   -9.1782861    510.10956 0.0092190696 0.0072454051         3929 
 4612000   0.50863419   -9.1776998     510.8643  0.009230708 0.0072426015         3911 
 4613000   0.51728183   -9.1789027    509.54959 0.0092049568 0.0072397985         3918 
 4614000    0.5129818   -9.1843477    509.97483 0.0092106421 0.0072369959         3935 
 4615000     0.502644   -9.1813879     510.7183 0.0092220711 0.0072341968         3923 
 4616000    0.5167226   -9.1913717    510.08206 0.0092085871 0.0072313984         3920 
 4617000   0.50706084    -9.190906    509.73812 0.0092003848 0.0072286016         3923 
 4618000   0.51811928   -9.1838801    509.84673 0.0092003525 0.0072258063         3904 
 4619000   0.51623451   -9.1916076    509.85514 0.0091985124 0.0072230124         3919 
 4620000   0.50745265   -9.1885784    509.24572 0.0091855288 0.0072202189         3916 
 4621000   0.50953898   -9.1950333    509.65254 0.0091908776 0.0072174259         3912 
 4622000   0.50786488   -9.1879404     509.6173 0.0091882537 0.0072146372         3923 
 4623000   0.50948212   -9.1941426    510.01558 0.0091934455 0.0072118491         3926 
 4624000   0.50036526   -9.1929272    510.33217 0.0091971627 0.0072090635         3921 
 4625000   0.52230202   -9.1768314    510.18717 0.0091925615 0.0072062794         3905 
 4626000   0.50754437   -9.1908453    509.43255 0.0091769806 0.0072034958         3921 
 4627000   0.50861613   -9.1970713    509.42519 0.0091748648 0.0072007118         3925 
 4628000   0.51160419   -9.1826033    509.98628 0.0091829854 0.0071979307         3914 
 4629000   0.50958023    -9.184677    510.12305 0.0091834639 0.0071951501         3923 
 4630000   0.51642301   -9.1834861    510.23333 0.0091834653 0.0071923715         3912 
 4631000   0.51208118   -9.1860814    510.31362 0.0091829271 0.0071895956         3895 
 4632000   0.51749246   -9.2046747    509.42337 0.0091649283 0.0071868191         3913 
 4633000   0.50509499   -9.1864925    509.45853 0.0091635824 0.0071840432         3923 
 4634000   0.50448629   -9.1958151    509.59014 0.0091639717 0.0071812706         3910 
 4635000     0.510816   -9.1993823    510.40255  0.009176601 0.0071784994         3912 
 4636000   0.51208955   -9.1720567     510.1683 0.0091704109 0.0071757283         3919 
 4637000   0.52141163   -9.1895335    509.82392 0.0091622442   0.00717296         3911 
 4638000   0.50354874   -9.2010857    509.74469 0.0091588452 0.0071701925         3909 
 4639000   0.50902496    -9.179848    510.60715 0.0091723639 0.0071674263         3921 
 4640000   0.51056487   -9.1995097    509.86051 0.0091569776 0.0071646622         3917 
 4641000   0.51273604   -9.1950373     509.5977 0.0091502856 0.0071618986         3925 
 4642000   0.51411073   -9.1914563    509.91348 0.0091539832 0.0071591366         3924 
 4643000   0.50540649   -9.1887658    509.15326 0.0091383671 0.0071563744         3928 
 4644000   0.50605733   -9.2142942    509.81183 0.0091482169 0.0071536144         3915 
 4645000   0.50005451   -9.1952537    508.98863 0.0091314788 0.0071508568         3909 
 4646000   0.50750836   -9.1885854    509.37865  0.009136509  0.007148099         3910 
 4647000   0.51214472   -9.1840643    509.66608 0.0091396972 0.0071453418         3921 
 4648000   0.51654453   -9.2065325    509.76801 0.0091395584 0.0071425881         3941 
 4649000   0.50648211   -9.1889774    509.68419   0.00913609 0.0071398353         3900 
 4650000    0.5000347   -9.1916043    509.43437 0.0091296482 0.0071370831         3911 
 4651000   0.51113314   -9.2138501    509.01741 0.0091202145 0.0071343338         3921 
 4652000   0.51262563   -9.1896286    509.67333 0.0091300037  0.007131586         3902 
 4653000   0.50499996   -9.1996188    510.07355 0.0091352093 0.0071288376         3910 
 4654000    0.5021864   -9.1908938    510.53903 0.0091415813  0.007126091         3893 
 4655000   0.52001203   -9.2019831    509.48356 0.0091207226 0.0071233475         3926 
 4656000   0.49385367   -9.1987946    509.74562  0.009123454 0.0071206039         3920 
 4657000   0.50766007   -9.1996913    509.38717 0.0091150807 0.0071178627         3878 
 4658000   0.51420671   -9.1915816    508.96799 0.0091056245 0.0071151241         3924 
 4659000   0.49896245    -9.187548    509.41107 0.0091115952 0.0071123843         3915 
 4660000   0.51337645   -9.2015998    508.93091 0.0091010534   0.00710965         3915 
 4661000    0.4972225   -9.1979412    510.02808  0.009118717 0.0071069157         3916 
 4662000   0.50481454   -9.2009308    509.47406 0.0091068579 0.0071041826         3920 
 4663000   0.51901823   -9.1924179     509.9196 0.0091128672 0.0071014507         3937 
 4664000   0.51082768   -9.1829855    509.49134 0.0091032615 0.0070987207         3931 
 4665000   0.51442428   -9.1979501    509.64567  0.009104067 0.0070959907         3901 
 4666000   0.49124911   -9.1916715    509.76169  0.009104188 0.0070932621         3911 
 4667000   0.50217754    -9.201456    509.23246 0.0090927874 0.0070905343         3904 
 4668000   0.51010327   -9.2081945    510.78265 0.0091185135 0.0070878082         3925 
 4669000   0.50898069   -9.1943467    509.93004  0.009101343 0.0070850851         3924 
 4670000   0.50439756   -9.2213555    509.20569 0.0090864684 0.0070823619         3923 
 4671000   0.51224539   -9.2005314    509.31546 0.0090864815 0.0070796385         3928 
 4672000   0.51087545   -9.1771701    509.28279 0.0090839539 0.0070769209         3918 
 4673000   0.51622004   -9.1976067     509.6531 0.0090886137 0.0070742039         3926 
 4674000   0.50602265   -9.2047934    509.93094 0.0090916228 0.0070714884         3931 
 4675000   0.50197919   -9.1986926    508.82427 0.0090699514 0.0070687723         3922 
 4676000   0.50211486   -9.2081657    509.94833 0.0090880441 0.0070660579         3919 
 4677000   0.50469909   -9.2111443    509.34978 0.0090754361  0.007063343         3928 
 4678000     0.500343   -9.2216932    509.80966 0.0090816884 0.0070606309         3918 
 4679000   0.50171691   -9.1923034    508.80886 0.0090619232 0.0070579204         3921 
 4680000   0.49753296   -9.2098399    509.21574 0.0090672319 0.0070552119         3923 
 4681000   0.50330261   -9.2005041    508.97855 0.0090610722 0.0070525052         3919 
 4682000   0.51679001    -9.214576    508.81611 0.0090562457 0.0070497995         3910 
 4683000    0.4981548   -9.1850184    508.95049 0.0090567031 0.0070470935         3916 
 4684000   0.48527754   -9.1960645    509.63986 0.0090670342 0.0070443893         3909 
 4685000    0.5086172   -9.1935366    509.12286 0.0090559028 0.0070416868         3927 
 4686000   0.49752002   -9.2032333     509.3001 0.0090571223 0.0070389883         3922 
 4687000   0.50639748   -9.2075937    509.81513  0.009064347 0.0070362867         3908 
 4688000   0.50972727   -9.2004339    509.52872 0.0090573222 0.0070335904         3933 
 4689000   0.49932868   -9.2090614    508.89655 0.0090441556 0.0070308936         3905 
 4690000   0.49644667   -9.2053797    510.24837 0.0090662468 0.0070281979         3930 
 4691000    0.5126076    -9.198997    509.66087 0.0090538774 0.0070255045         3921 
 4692000   0.50164338   -9.1896567     508.9676 0.0090396348 0.0070228118         3920 
 4693000   0.49480094    -9.194436    509.26004 0.0090429015 0.0070201203         3913 
 4694000   0.49448896    -9.217617    509.63431 0.0090476195 0.0070174322         3923 
 4695000   0.49854232   -9.1828069    509.29433 0.0090396579 0.0070147432         3920 
 4696000   0.51203295   -9.2045082     509.6392 0.0090438529 0.0070120575         3914 
 4697000    0.5019679   -9.2026582    509.20501 0.0090342241  0.007009373         3921 
 4698000   0.50041993   -9.2056043    509.72097 0.0090414532 0.0070066875         3901 
 4699000   0.49404004   -9.2034592    509.06421 0.0090278819 0.0070040065         3913 
 4700000   0.49530583   -9.1990279    509.47235 0.0090331976 0.0070013263         3928 
 4701000   0.49505116   -9.2021335    509.76927 0.0090365396 0.0069986464         3910 
 4702000   0.50539825   -9.2155548    508.77736 0.0090170382 0.0069959705         3928 
 4703000   0.49678058    -9.197968    509.13047 0.0090213777 0.0069932936         3912 
 4704000   0.50319387   -9.2069102    508.83512 0.0090142277 0.0069906189         3915 
 4705000   0.49744577   -9.1946008    509.45202 0.0090232381 0.0069879431         3909 
 4706000   0.48521387   -9.2038605    509.46011 0.0090214639 0.0069852707         3908 
 4707000   0.50590895   -9.2027051    509.55135 0.0090211626 0.0069825981         3924 
 4708000   0.49069066   -9.2196982    509.07805 0.0090108689 0.0069799277         3936 
 4709000   0.49300543   -9.2157892    509.62465 0.0090186283 0.0069772581         3942 
 4710000   0.48926201   -9.2027204    509.60902  0.009016437 0.0069745901         3925 
 4711000    0.4947239    -9.214594    508.91529 0.0090022516 0.0069719225         3906 
 4712000   0.49755754   -9.2004494    509.41497 0.0090091782 0.0069692578         3924 
 4713000   0.49768125   -9.2120439    509.95448  0.009016806 0.0069665941         3920 
 4714000   0.49505948   -9.1917921    509.46907 0.0090063122 0.0069639316         3929 
 4715000    0.5043308   -9.2071183    508.90491 0.0089944311 0.0069612697         3915 
 4716000   0.49745775   -9.2035139    508.99104 0.0089940458 0.0069586103         3937 
 4717000   0.49302289   -9.2175041    509.75673 0.0090056662 0.0069559542         3927 
 4718000   0.49933141   -9.2052683    508.88276 0.0089883206  0.006953298         3911 
 4719000    0.5069676   -9.2127676    509.09089 0.0089900913 0.0069506405         3929 
 4720000   0.49316027   -9.2045194     510.1531 0.0090069403 0.0069479849         3909 
 4721000   0.49398745   -9.2086485    509.34021 0.0089906836 0.0069453328         3922 
 4722000   0.50302895   -9.2088911    509.67709 0.0089947248 0.0069426827         3896 
 4723000   0.49656549   -9.2140482    509.21302 0.0089846323 0.0069400344         3895 
 4724000   0.49143022   -9.1925599    509.31043 0.0089844488 0.0069373869         3902 
 4725000   0.48698158   -9.2143288     509.2462 0.0089814145 0.0069347407         3915 
 4726000   0.48598676   -9.2212029    508.85693 0.0089726501 0.0069320944         3914 
 4727000   0.50441593   -9.2008931    509.08817 0.0089748285 0.0069294511         3919 
 4728000   0.49413894   -9.2075925    509.42969 0.0089789498 0.0069268077         3936 
 4729000   0.48546947   -9.2145967    509.29548  0.008974686 0.0069241661         3902 
 4730000   0.49109674   -9.2176802     509.3588 0.0089739042  0.006921526         3916 
 4731000   0.49079755   -9.2161222     509.9382  0.008982213 0.0069188871         3911 
 4732000   0.49009511   -9.2207886    509.31138 0.0089692763 0.0069162497         3885 
 4733000   0.49694887   -9.2236226    509.26296 0.0089665286 0.0069136141         3924 
 4734000   0.49292752    -9.221322    509.03118 0.0089605545 0.0069109787         3916 
 4735000   0.48897404   -9.2160149    508.88621 0.0089561106 0.0069083446         3925 
 4736000   0.49660824   -9.2105008    509.31694 0.0089617986 0.0069057137         3930 
 4737000    0.4980178   -9.2169745    509.26309 0.0089589595 0.0069030809         3908 
 4738000   0.49086186   -9.2111742    509.01372 0.0089526825  0.006900451         3929 
 4739000    0.4925892   -9.2213384    509.59361 0.0089609905 0.0068978233         3923 
 4740000   0.49134391    -9.228237    508.94238 0.0089476509 0.0068951973         3895 
 4741000   0.49638493   -9.2064909    509.28774  0.008951834 0.0068925702         3930 
 4742000   0.48309291   -9.2296793    508.66819 0.0089390587 0.0068899464         3918 
 4743000   0.49149835   -9.2067839    510.00688 0.0089606944 0.0068873242         3904 
 4744000   0.50030732   -9.1995595    508.79328 0.0089374873 0.0068847047         3921 
 4745000     0.492234   -9.2306311    509.09938 0.0089409797 0.0068820852         3901 
 4746000   0.49830502   -9.2095023    509.23062 0.0089414001 0.0068794681         3924 
 4747000   0.48700441   -9.2158668    508.68051 0.0089298594 0.0068768502         3934 
 4748000   0.48866951   -9.2184643    509.52576 0.0089428139 0.0068742348         3929 
 4749000   0.49866904   -9.2258138     509.1488 0.0089343159 0.0068716224         3923 
 4750000   0.50015314   -9.2210925    508.87603 0.0089276496 0.0068690101         3929 
 4751000   0.49432191   -9.2244205      508.978 0.0089275591 0.0068664012         3938 
 4752000   0.49292284   -9.2057922    510.32882  0.008949369 0.0068637922         3930 
 4753000   0.50491399   -9.2094626    509.38568 0.0089309503 0.0068611859         3901 
 4754000   0.49373922   -9.2307756    508.85239 0.0089197235 0.0068585807         3931 
 4755000   0.48354505   -9.2092734    509.44373 0.0089282113 0.0068559751         3927 
 4756000   0.48942068   -9.2278892    508.27878  0.008905922 0.0068533697         3932 
 4757000   0.49201877   -9.2095355    509.70337 0.0089290059 0.0068507675         3934 
 4758000   0.48661752   -9.2256728    509.60336 0.0089253775 0.0068481699         3943 
 4759000   0.49636239   -9.2052396    508.53927 0.0089048692 0.0068455694         3907 
 4760000   0.49596011   -9.2123001    509.09406 0.0089127111 0.0068429712         3917 
 4761000   0.49058332   -9.2183114    509.04516 0.0089099831 0.0068403726         3933 
 4762000   0.49334019   -9.2243497     509.0483  0.008908167 0.0068377756         3928 
 4763000   0.49164696   -9.2298482    509.46704 0.0089136231  0.006835181         3918 
 4764000    0.4852426   -9.2250411    508.69976 0.0088983305 0.0068325881         3932 
 4765000   0.48244792   -9.2179908    508.96866 0.0089011658 0.0068299956         3927 
 4766000   0.49435302    -9.233784    509.43404 0.0089074354 0.0068274055         3922 
 4767000   0.49344667   -9.2295255     509.0112  0.008898175  0.006824816         3924 
 4768000   0.49190496   -9.2320499     509.2582 0.0089006257 0.0068222286         3915 
 4769000   0.48882829   -9.2184791    508.43833  0.008884433 0.0068196412         3900 
 4770000   0.49033618   -9.2318831    508.94264 0.0088913808  0.006817057         3915 
 4771000   0.47604793   -9.2339036     508.6548 0.0088844896 0.0068144712         3940 
 4772000   0.49174692   -9.2254907    508.64892 0.0088825251 0.0068118863         3918 
 4773000    0.4878207   -9.2302482    508.57982 0.0088794577 0.0068093043         3924 
 4774000   0.48847036   -9.2285833    508.77282 0.0088809667 0.0068067222         3925 
 4775000     0.490323   -9.2157838    508.43756 0.0088732559 0.0068041409         3928 
 4776000   0.49026012   -9.2308443    508.58667 0.0088739997 0.0068015624         3932 
 4777000    0.4893944   -9.2230404    508.60432 0.0088724499 0.0067989861         3918 
 4778000   0.47887271   -9.2335946    509.62078 0.0088883211 0.0067964102         3914 
 4779000   0.48722488   -9.2058362    509.60822 0.0088862423 0.0067938361         3938 
 4780000   0.49107693   -9.2356899    508.25587 0.0088608067 0.0067912643         3925 
 4781000   0.48061531    -9.213262    508.51066 0.0088633943 0.0067886942         3911 
 4782000   0.48536407   -9.2153831    508.66434 0.0088642189 0.0067861242         3924 
 4783000   0.48875066   -9.2190106    508.54828 0.0088603436 0.0067835556         3926 
 4784000   0.48669295   -9.2300885    508.54097 0.0088583641 0.0067809876         3931 
 4785000   0.48099384   -9.2281114    508.86271 0.0088621162 0.0067784218         3931 
 4786000   0.49456353   -9.2387291    508.74122 0.0088581491 0.0067758581         3916 
 4787000   0.48389542   -9.2148436    508.19804 0.0088468428  0.006773296         3920 
 4788000   0.47848946   -9.2184566    508.62114 0.0088523591 0.0067707336         3926 
 4789000   0.48756939   -9.2382562    508.97869 0.0088567323 0.0067681726         3929 
 4790000    0.4787923   -9.2298168    509.31919 0.0088608071 0.0067656139         3926 
 4791000   0.47834878   -9.2193523    508.88761 0.0088514509 0.0067630559         3921 
 4792000   0.47899952   -9.2400915    509.03099 0.0088520971 0.0067604976         3936 
 4793000   0.48461389   -9.2391637    509.02899 0.0088502153 0.0067579403         3924 
 4794000   0.48799631   -9.2363693    509.27581 0.0088526597 0.0067553871         3917 
 4795000   0.48610312   -9.2423807    509.23567 0.0088501159 0.0067528341         3919 
 4796000   0.48342763   -9.2298961    509.44865 0.0088519713 0.0067502828         3917 
 4797000   0.47649212   -9.2342504    508.87499 0.0088401604 0.0067477331         3911 
 4798000   0.48755587   -9.2285769    508.14033  0.008825558 0.0067451827         3926 
 4799000   0.48391877   -9.2233151    508.40154 0.0088282548 0.0067426337         3919 
 4800000   0.48633478   -9.2352155    508.49833 0.0088280959 0.0067400874         3927 
 4801000   0.47929729    -9.237501    509.28541 0.0088399189 0.0067375438         3918 
 4802000   0.48359896   -9.2197867    509.29121 0.0088381787 0.0067349995         3911 
 4803000   0.49015605   -9.2289471    508.19035 0.0088172383 0.0067324569         3916 
 4804000   0.47392893    -9.232478    509.33613 0.0088352784 0.0067299153         3922 
 4805000   0.48200635   -9.2250499     509.0386 0.0088282796 0.0067273751         3921 
 4806000   0.48867187   -9.2288789    508.63604 0.0088194625 0.0067248361         3915 
 4807000   0.48767001   -9.2308003    508.82072 0.0088208294 0.0067222981         3920 
 4808000   0.48648506   -9.2456977    508.29846 0.0088099428 0.0067197599         3917 
 4809000    0.4800686   -9.2287562    508.72467 0.0088154965 0.0067172257         3932 
 4810000   0.48385458    -9.227323    509.27667 0.0088232272 0.0067146905         3932 
 4811000    0.4778314   -9.2091475    508.38672 0.0088059779 0.0067121572         3928 
 4812000    0.4807467   -9.2253236    508.56079 0.0088071625 0.0067096245         3923 
 4813000   0.47428918   -9.2247518    509.52858 0.0088220891  0.006707095         3931 
 4814000   0.47659859   -9.2347563    508.66847 0.0088053674 0.0067045668         3924 
 4815000   0.47335127   -9.2376101    508.86231 0.0088068935 0.0067020402         3912 
 4816000   0.46825493   -9.2404562     508.0922 0.0087917393 0.0066995143         3913 
 4817000   0.47884799   -9.2266885    507.65587 0.0087823658   0.00669699         3933 
 4818000   0.47574627   -9.2501323    508.29815  0.008791652 0.0066944656         3919 
 4819000   0.48577949   -9.2350009    508.80992 0.0087986774 0.0066919456         3925 
 4820000   0.48132681   -9.2441647    508.38159 0.0087894466 0.0066894246         3929 
 4821000   0.47823724   -9.2305507     509.1392 0.0088007191 0.0066869018         3916 
 4822000   0.47794801   -9.2269134     508.8605 0.0087940775 0.0066843809         3922 
 4823000   0.47461163   -9.2353852    509.19456 0.0087980261 0.0066818631         3931 
 4824000   0.47219596   -9.2166611     508.7687 0.0087888456 0.0066793464         3916 
 4825000   0.48097764    -9.251649    509.51024 0.0087998314 0.0066768311         3929 
 4826000   0.47867793   -9.2295498    508.41051 0.0087790184 0.0066743167         3919 
 4827000    0.4817521   -9.2375676    508.87775  0.008785266 0.0066718029         3922 
 4828000   0.47287435   -9.2423637    508.32505 0.0087739065 0.0066692907         3925 
 4829000   0.48699693   -9.2336819    509.00516 0.0087838261 0.0066667801         3929 
 4830000   0.48817554   -9.2276282     508.7051 0.0087768305  0.006664273         3931 
 4831000    0.4854527   -9.2277015    508.25961 0.0087673292 0.0066617668         3916 
 4832000   0.47955863   -9.2486992    507.87791 0.0087589319 0.0066592583         3935 
 4833000    0.4822543    -9.231826    509.06494 0.0087775871 0.0066567532         3926 
 4834000   0.46923491   -9.2367241    508.32623 0.0087630366 0.0066542487         3924 
 4835000   0.47181431   -9.2368623    509.26596 0.0087774209 0.0066517467         3924 
 4836000   0.48459397   -9.2281888    508.99236 0.0087708912 0.0066492454         3921 
 4837000    0.4736358    -9.230232      508.338 0.0087578044 0.0066467464         3924 
 4838000   0.46996716   -9.2322432     508.9377 0.0087663238 0.0066442472         3927 
 4839000   0.47883446   -9.2376655    508.51218 0.0087571844 0.0066417496         3925 
 4840000   0.48546903    -9.239895    509.01514 0.0087640348 0.0066392544         3924 
 4841000   0.47523344    -9.239845    508.54157 0.0087540724 0.0066367594         3924 
 4842000   0.48437095   -9.2422836    508.54167  0.008752266 0.0066342654         3923 
 4843000    0.4768857   -9.2572771    508.64767 0.0087522829 0.0066317727         3928 
 4844000   0.49390023   -9.2329664    507.64477 0.0087332227 0.0066292815         3933 
 4845000   0.46566186   -9.2289072    508.55932 0.0087471503 0.0066267931         3941 
 4846000   0.47855147   -9.2368782    508.60468 0.0087461254 0.0066243035         3923 
 4847000   0.47329775   -9.2449317    508.77708  0.008747285 0.0066218163         3919 
 4848000   0.47899554   -9.2286143     508.5731 0.0087419743 0.0066193324         3909 
 4849000   0.47460743   -9.2363651    508.36888 0.0087366618 0.0066168473         3926 
 4850000   0.48018928   -9.2281508    508.46462 0.0087365055 0.0066143638         3921 
 4851000   0.47902918   -9.2280033    507.83137 0.0087238261 0.0066118805         3932 
 4852000   0.47353198   -9.2384954    508.27137 0.0087295852 0.0066093981         3930 
 4853000    0.4799167   -9.2305286     508.8081 0.0087370029 0.0066069197         3920 
 4854000   0.48298159   -9.2418994    508.66722 0.0087327842 0.0066044403         3930 
 4855000     0.473036   -9.2522473    508.15353 0.0087221684 0.0066019629         3925 
 4856000    0.4650453   -9.2486024    508.46316 0.0087256857 0.0065994873         3927 
 4857000   0.46960212   -9.2474824    508.50765 0.0087246525 0.0065970126         3926 
 4858000   0.47084598   -9.2421466    508.54157 0.0087234384 0.0065945384         3916 
 4859000   0.48171636   -9.2389683    508.66712 0.0087237964 0.0065920688         3929 
 4860000   0.46413654   -9.2458811    508.24468 0.0087147579 0.0065895972         3931 
 4861000   0.45967871   -9.2373736    508.95433 0.0087251308 0.0065871281         3932 
 4862000   0.48719283   -9.2286991    508.62948 0.0087177684 0.0065846607         3939 
 4863000   0.46611211   -9.2261881    509.14159 0.0087247514 0.0065821944         3928 
 4864000   0.46755963   -9.2402361    508.76952 0.0087165831 0.0065797293         3924 
 4865000   0.46702879   -9.2472864    508.05389 0.0087025333  0.006577264         3917 
 4866000   0.48381802   -9.2397542    508.59562 0.0087100222 0.0065748022         3927 
 4867000    0.4742134   -9.2470716    507.93595 0.0086969377 0.0065723403         3936 
 4868000    0.4769167    -9.224501    508.92854  0.008712143 0.0065698807         3929 
 4869000   0.48239525    -9.256764    508.88337 0.0087095804 0.0065674217         3918 
 4870000   0.47792541   -9.2521913    508.31645 0.0086980912 0.0065649644         3930 
 4871000    0.4656728   -9.2296743    508.20103 0.0086943308 0.0065625078         3925 
 4872000   0.46942537    -9.236542     508.8688 0.0087039682 0.0065600534         3934 
 4873000   0.48794051   -9.2402151    508.67441 0.0086988579 0.0065575997         3928 
 4874000   0.47190155   -9.2351389    509.17752 0.0087056751 0.0065551468         3930 
 4875000   0.46743963   -9.2478105    507.84368 0.0086810886 0.0065526954         3917 
 4876000   0.46175818   -9.2343434    507.86649 0.0086796981 0.0065502441         3931 
 4877000   0.47290344   -9.2509696     507.7832  0.008676495 0.0065477957         3917 
 4878000   0.47878745   -9.2483224    508.07554 0.0086797106 0.0065453479         3931 
 4879000   0.46919577   -9.2425998    508.42715 0.0086839371 0.0065429017         3921 
 4880000   0.47314213   -9.2379912    508.48942 0.0086832209 0.0065404555         3933 
 4881000   0.46179061   -9.2420049    508.41649 0.0086801969 0.0065380095         3921 
 4882000   0.47654376   -9.2487637    507.98881 0.0086711186 0.0065355667         3916 
 4883000   0.46977693   -9.2368006    508.66991 0.0086809664 0.0065331262         3938 
 4884000   0.46737232   -9.2459467    508.59801 0.0086779622 0.0065306861         3936 
 4885000   0.46572582   -9.2543617    508.01042  0.008666162 0.0065282462         3913 
 4886000   0.46724046   -9.2487292    508.08028 0.0086655799  0.006525808         3923 
 4887000   0.46826775   -9.2555853    507.56833 0.0086550769 0.0065233711         3925 
 4888000   0.46373783   -9.2672221    508.59579 0.0086708229 0.0065209357         3940 
 4889000   0.46953252   -9.2382854    508.28095  0.008663683 0.0065185008         3938 
 4890000   0.46761613   -9.2344283     508.1692 0.0086600068 0.0065160675         3933 
 4891000   0.47283465   -9.2346991    507.51602 0.0086471072 0.0065136362         3910 
 4892000   0.46858577   -9.2389677    508.38623 0.0086601633 0.0065112041         3901 
 4893000   0.46876468   -9.2425602    508.41099 0.0086588151 0.0065087739         3913 
 4894000   0.48118891   -9.2492696    508.62694 0.0086607229 0.0065063457         3920 
 4895000   0.46902622   -9.2333872    508.56456 0.0086578918 0.0065039192         3926 
 4896000   0.46347993   -9.2473047    508.22269 0.0086503045 0.0065014948         3920 
 4897000   0.47069505   -9.2547178    508.86893 0.0086595353 0.0064990704         3935 
 4898000   0.46886905   -9.2515667    507.74452 0.0086386368 0.0064966454         3911 
 4899000   0.47241317   -9.2512752    507.99727 0.0086411729 0.0064942234         3936 
 4900000   0.45957131    -9.244162    507.53073  0.008631475 0.0064918022         3917 
 4901000   0.47249141   -9.2481043    508.18223 0.0086407915 0.0064893824         3939 
 4902000    0.4720892   -9.2469586    508.62286 0.0086465194 0.0064869648         3929 
 4903000   0.47780011   -9.2568957    508.62945 0.0086448679 0.0064845478         3924 
 4904000    0.4573933   -9.2527498    508.23654 0.0086364285 0.0064821303         3931 
 4905000   0.46733738   -9.2604778    508.44072 0.0086381366 0.0064797146         3922 
 4906000   0.47230884   -9.2638523    508.01034 0.0086290654 0.0064773006         3924 
 4907000   0.47446056   -9.2565142    509.13653 0.0086464324 0.0064748856         3930 
 4908000   0.46737906   -9.2605383    508.65915 0.0086365654 0.0064724737         3942 
 4909000   0.46737696   -9.2592887    508.25452 0.0086279371 0.0064700624         3931 
 4910000   0.47278255   -9.2507057     508.1551 0.0086244925 0.0064676521         3915 
 4911000   0.46160468   -9.2560232    508.45241 0.0086277814 0.0064652445         3920 
 4912000   0.46733541   -9.2492241    508.58941 0.0086283492 0.0064628383         3919 
 4913000   0.47214102   -9.2593145    508.01305 0.0086168168 0.0064604331         3937 
 4914000   0.45610576   -9.2611786    508.40087 0.0086216401 0.0064580306         3935 
 4915000   0.46544203   -9.2530841    508.02705 0.0086135478 0.0064556263         3937 
 4916000   0.46908094   -9.2531345    508.10372 0.0086130953 0.0064532245         3934 
 4917000   0.45643118   -9.2596338    507.81766 0.0086064955 0.0064508232         3921 
 4918000    0.4815254   -9.2522734    508.32992 0.0086134255 0.0064484227         3930 
 4919000   0.45729961   -9.2628734    508.22771  0.008609943 0.0064460254         3915 
 4920000    0.4592863   -9.2650705    508.12207 0.0086064037 0.0064436269         3935 
 4921000    0.4644201   -9.2575193    508.12818 0.0086047581 0.0064412289         3922 
 4922000    0.4640199   -9.2693626    508.11428 0.0086027746 0.0064388349         3923 
 4923000   0.46712804   -9.2570996    508.25668 0.0086034376 0.0064364412         3926 
 4924000    0.4702714   -9.2400224    508.68515 0.0086089417 0.0064340492         3928 
 4925000   0.46270404   -9.2642968    507.51736 0.0085874342 0.0064316584         3921 
 4926000    0.4653896   -9.2703213       508.01 0.0085940249 0.0064292683         3918 
 4927000   0.46360507   -9.2586229    508.07836 0.0085934368 0.0064268804         3934 
 4928000    0.4682458   -9.2623809    508.22745 0.0085942141 0.0064244933         3932 
 4929000   0.46269654   -9.2650141    508.09821 0.0085902856 0.0064221068         3928 
 4930000   0.46858373   -9.2593478     507.7952 0.0085834212  0.006419722         3929 
 4931000    0.4594097   -9.2513561    507.35952 0.0085743175 0.0064173381         3930 
 4932000   0.46576695   -9.2714539    507.76815 0.0085794834 0.0064149548         3923 
 4933000   0.44818781   -9.2507331    507.29144 0.0085696912 0.0064125725         3916 
 4934000   0.45171031   -9.2648815     508.4891 0.0085881823 0.0064101906         3925 
 4935000   0.46536636   -9.2702507     508.3698 0.0085844275 0.0064078112         3926 
 4936000   0.46502013   -9.2508385    508.14565 0.0085789042 0.0064054327         3927 
 4937000   0.46176351    -9.254296    508.17783 0.0085777097 0.0064030558         3932 
 4938000    0.4630344   -9.2529867    508.16749  0.008575798 0.0064006809         3925 
 4939000   0.45641047   -9.2506911    508.02294 0.0085716228 0.0063983065         3922 
 4940000   0.46286488   -9.2659605    507.78436 0.0085658629 0.0063959335         3919 
 4941000   0.46397096   -9.2665997    507.74618 0.0085634855 0.0063935612         3899 
 4942000   0.45743498   -9.2653153    508.29835 0.0085710635 0.0063911893         3929 
 4943000    0.4511966   -9.2632935    507.38369 0.0085539094 0.0063888194         3918 
 4944000   0.47014424   -9.2671352    507.92569  0.008561315 0.0063864512         3927 
 4945000   0.46557361   -9.2514631    508.31959 0.0085662216 0.0063840857         3921 
 4946000   0.46344018      -9.2634    507.20894 0.0085457768 0.0063817195         3926 
 4947000   0.46433614   -9.2610608    507.48401 0.0085486829 0.0063793538         3941 
 4948000   0.45743655   -9.2588712    508.23262 0.0085595632 0.0063769897         3943 
 4949000    0.4614617   -9.2605649    507.87133   0.00855175  0.006374627         3926 
 4950000   0.45474162   -9.2648538    508.19934 0.0085555444 0.0063722678         3929 
 4951000   0.46006789   -9.2688967    508.71544 0.0085625032 0.0063699093         3928 
 4952000   0.46158956   -9.2632587     508.1931  0.008551984 0.0063675522         3946 
 4953000   0.46481421   -9.2656648    507.26841 0.0085346998 0.0063651953         3921 
 4954000   0.45181299   -9.2599447    507.55036 0.0085377197 0.0063628373         3920 
 4955000   0.46045918   -9.2657898     508.1996 0.0085469156 0.0063604818         3934 
 4956000   0.46645552   -9.2615644    507.73314 0.0085373476 0.0063581269         3931 
 4957000   0.45925306   -9.2657963    508.26128 0.0085445041 0.0063557745         3933 
 4958000   0.45786442   -9.2711944    508.09081 0.0085399154 0.0063534225         3925 
 4959000   0.45493524   -9.2542737    507.80445 0.0085333812 0.0063510719         3931 
 4960000   0.45272384   -9.2728734    506.97664 0.0085177527 0.0063487208         3949 
 4961000   0.45189534   -9.2775609     507.6308 0.0085270241 0.0063463719         3922 
 4962000    0.4493214   -9.2596916    508.60205  0.008541617 0.0063440248         3937 
 4963000   0.45786637   -9.2600315    508.44636 0.0085372818 0.0063416782         3924 
 4964000   0.45046531   -9.2581735    508.35637 0.0085340513 0.0063393345         3932 
 4965000   0.46747022   -9.2577572    508.17315 0.0085292574  0.006336992         3931 
 4966000   0.46002347   -9.2809829     507.9375 0.0085235853 0.0063346485         3929 
 4967000   0.46213055   -9.2690659     507.1945 0.0085094037  0.006332309         3932 
 4968000   0.46739558   -9.2555276    508.00433 0.0085212751 0.0063299692         3919 
 4969000   0.45944794    -9.262634    508.00228 0.0085195257  0.006327632         3916 
 4970000   0.46457528   -9.2539146    507.70249 0.0085127848 0.0063252957         3936 
 4971000   0.45478234   -9.2719854     508.0819 0.0085174327  0.006322958         3928 
 4972000   0.45044419   -9.2666634    508.22011 0.0085180361 0.0063206227         3926 
 4973000   0.45597379   -9.2739085     507.9515 0.0085118221 0.0063182877         3936 
 4974000   0.45656536   -9.2578294    507.58354 0.0085039462 0.0063159531         3924 
 4975000   0.45558564   -9.2606227    508.79895 0.0085225955 0.0063136205         3914 
 4976000   0.46467307   -9.2655755    507.59887 0.0085007849   0.00631129         3936 
 4977000   0.45759867   -9.2742402    506.97657 0.0084886573 0.0063089591         3922 
 4978000   0.44420929   -9.2626905    507.89782 0.0085023741 0.0063066321         3929 
 4979000   0.46495505   -9.2644228    508.01229 0.0085025823 0.0063043053         3927 
 4980000   0.44034513   -9.2754381    508.33814 0.0085063276 0.0063019802         3931 
 4981000   0.45747578   -9.2806927    508.07149 0.0085001588 0.0062996553         3917 
 4982000   0.45324859   -9.2664521    507.46691 0.0084883399 0.0062973327         3929 
 4983000   0.45040444    -9.262231     508.3198 0.0085008997 0.0062950123         3923 
 4984000   0.46030788   -9.2792486    507.97507 0.0084934301 0.0062926908         3927 
 4985000   0.44851654   -9.2597428    507.75409 0.0084880322 0.0062903698         3928 
 4986000   0.45516876   -9.2679202    507.28866  0.008478551 0.0062880515         3921 
 4987000   0.45517615   -9.2713577    508.14943 0.0084912344 0.0062857326         3937 
 4988000   0.46214923    -9.269429    507.74762 0.0084828191 0.0062834154         3925 
 4989000   0.45996365   -9.2692064    507.39008 0.0084751466 0.0062811002         3920 
 4990000   0.45388922   -9.2739853    507.78559 0.0084800532 0.0062787875         3924 
 4991000   0.46054582   -9.2712551    507.07304 0.0084664569 0.0062764741         3929 
 4992000   0.46164886   -9.2828466     507.5428 0.0084726028 0.0062741619         3923 
 4993000   0.44863493   -9.2866268    508.12634 0.0084806452 0.0062718512         3928 
 4994000   0.45026257   -9.2726605    507.47644 0.0084681024 0.0062695411         3937 
 4995000   0.44672115   -9.2697182    508.01192 0.0084753406 0.0062672318         3933 
 4996000   0.44857076   -9.2595941    508.24878 0.0084775951 0.0062649232         3934 
 4997000   0.44892256   -9.2658832    508.48751 0.0084798798 0.0062626169         3916 
 4998000   0.44937537   -9.2757593    508.16442 0.0084727961 0.0062603123         3942 
 4999000   0.43500536   -9.2666675    508.06277 0.0084694067 0.0062580089         3928 
 5000000   0.45729573   -9.2680644    507.96933 0.0084661555 0.0062557058         3923 
 5001000    0.4463481   -9.2648733    507.07599 0.0084495766 0.0062534043         3922 
 5002000   0.45334077   -9.2748625    507.68374 0.0084580125 0.0062511033         3936 
 5003000   0.45323942   -9.2703167    508.02846 0.0084620637  0.006248805         3934 
 5004000      0.45275    -9.278861    507.24666 0.0084473532 0.0062465075         3934 
 5005000   0.44519898   -9.2848489    507.23599 0.0084454876 0.0062442102         3921 
 5006000   0.46509259   -9.2830335    507.70562 0.0084516185 0.0062419143         3940 
 5007000   0.45328664   -9.2830889    507.17863 0.0084411595 0.0062396184         3929 
 5008000   0.45035173   -9.2844092    507.68923 0.0084479704 0.0062373232         3932 
 5009000   0.44465541   -9.2881011    507.54424 0.0084438717 0.0062350311         3913 
 5010000   0.44968618   -9.2927555    507.24191 0.0084371575 0.0062327387         3929 
 5011000   0.44281186   -9.2727873    506.92606 0.0084302212 0.0062304474         3944 
 5012000   0.44484179   -9.2769851    507.36112 0.0084357729 0.0062281583         3940 
Loop time of 13250.2 on 48 procs for 5000000 steps with 4000 atoms

Performance: 65206.701 tau/day, 377.354 timesteps/s
99.4% CPU use with 48 MPI tasks x no OpenMP threads

MPI task timing breakdown:
Section |  min time  |  avg time  |  max time  |%varavg| %total
---------------------------------------------------------------
Pair    | 1018       | 1106.9     | 1223.8     | 158.7 |  8.35
Neigh   | 94.672     | 98.088     | 102.46     |  17.1 |  0.74
Comm    | 818.55     | 938.02     | 1038       | 176.2 |  7.08
Output  | 17.367     | 17.372     | 17.467     |   0.3 |  0.13
Modify  | 10930      | 10970      | 11010      |  19.1 | 82.79
Other   |            | 120        |            |       |  0.91

Nlocal:        83.3333 ave          89 max          75 min
Histogram: 1 0 7 2 1 12 5 14 2 4
Nghost:        2465.73 ave        2485 max        2450 min
Histogram: 1 2 8 4 19 7 1 2 2 2
Neighs:        17195.4 ave       19796 max       14747 min
Histogram: 2 3 6 9 8 4 6 2 5 3
FullNghs:      34391.5 ave       36823 max       30557 min
Histogram: 1 1 2 6 1 9 10 10 3 5

Total # of neighbors = 1650791
Ave neighs/atom = 412.69775
Neighbor list builds = 265975
Dangerous builds = 0

#clear
#
#next RN
#
#jump SELF
Total wall time: 3:40:53
