
units lj                  # Use reduced LJ style units
atom_style atomic         # Uncharged point particles
atom_modify map hash      # Needed for indexing of clusters etc
                          # Used to be able to find where atoms are in relation to each other.

lattice fcc 1.0 spacing 1 1 1
Lattice spacing in x,y,z = 1.5874011 1.5874011 1.5874011
region box block 0 10 0 10 0 10 units lattice
create_box 2 box
Created orthogonal box = (0.0000000 0.0000000 0.0000000) to (15.874011 15.874011 15.874011)
  3 by 4 by 4 MPI processor grid
create_atoms 1 box
Created 4000 atoms
  using lattice units in orthogonal box = (0.0000000 0.0000000 0.0000000) to (15.874011 15.874011 15.874011)
  create_atoms CPU = 0.015 seconds
set type 1 type/fraction 2 0.82 78393
Setting atom values ...
  3266 settings made for type/fraction
mass 1 1.0
mass 2 1.0
pair_style lj/cut  3.5
pair_modify tail  yes
pair_coeff 1  1  1.0  1.0   # Intearaction between 1 and 1 set with epsilon = 1 and sigma = 1
pair_coeff 1  2  1.5  0.8
pair_coeff 2  2  0.5  0.88

write_data data.0
System init for write_data ...
Neighbor list info ...
  update every 1 steps, delay 10 steps, check yes
  max neighbors/atom: 2000, page size: 100000
  master list distance cutoff = 3.8
  ghost atom cutoff = 3.8
  binsize = 1.9, bins = 9 9 9
  1 neighbor lists, perpetual/occasional/extra = 1 0 0
  (1) pair lj/cut, perpetual
      attributes: half, newton on
      pair build: half/bin/atomonly/newton
      stencil: half/bin/3d
      bin: standard
WARNING: Not all mixed pair coeffs generated from mixing. Use write_data with 'pair ij' option to store all pair coeffs. (../write_data.cpp:312)


#############################
#   M E L T   S Y S T E M   #
#############################

velocity all create 2.4 6583654 mom yes dist gaussian # Assign velocities
                                                    # Temperature 2.4, random number seed, zero linear momentum
                                                                                # Gaussian distribution

timestep 0.002   # simulation timestep
thermo 1000       # output thermodynamic data every 1000 steps bf 100

# Define a fix  in this case with index 1 applied to all
# particles in the simulation. This fix is for simulations
# in the anisotropic NPT ensemble. Note that we use the MTK
# correction.
fix 1 all npt temp 2.4 2.4 0.1 iso 5.68 5.68 0.5 mtk yes tchain 5 pchain 5 # Use NPT ensemble
                                                                         # Set temperature and pressure and damping
                                                                         # Numbers of thermostats in chain and in barostat
run 10000          # run for 10000 steps
Per MPI rank memory allocation (min/avg/max) = 3.642 | 3.644 | 3.648 Mbytes
Step Temp E_pair E_mol TotEng Press Volume 
       0          2.4    -3.598932            0 0.00016796869   -3.1561227         4000 
    1000    2.4402438    -2.908358            0   0.75109263    5.5875022    3834.5261 
    2000     2.381051   -2.8815909            0   0.68909275    5.6785373    3840.3691 
    3000    2.3902548   -2.8918771            0   0.69260873    5.4961969    3849.7547 
    4000    2.4557491    -2.874531            0   0.80817172    5.7464467     3844.409 
    5000    2.3985227   -2.9094511            0    0.6874335    5.8837482    3812.6345 
    6000    2.4181951    -2.877787            0   0.74859886    6.1237075    3786.0352 
    7000    2.4153022   -2.8889009            0   0.73314666    5.4964154         3854 
    8000    2.4555632   -2.9040659            0   0.77835802    5.7105267    3818.8095 
    9000    2.3967762   -2.8988609            0   0.69540458    5.5962254    3848.7616 
   10000     2.458735    -2.877446            0   0.80973448    5.3925913    3877.0867 
Loop time of 2.6039 on 48 procs for 10000 steps with 4000 atoms

Performance: 663619.925 tau/day, 3840.393 timesteps/s
99.6% CPU use with 48 MPI tasks x no OpenMP threads

MPI task timing breakdown:
Section |  min time  |  avg time  |  max time  |%varavg| %total
---------------------------------------------------------------
Pair    | 1.1571     | 1.203      | 1.2751     |   2.6 | 46.20
Neigh   | 0.21075    | 0.22069    | 0.2343     |   1.0 |  8.48
Comm    | 0.80381    | 0.88784    | 0.9712     |   3.8 | 34.10
Output  | 0.00024988 | 0.00025478 | 0.00033371 |   0.0 |  0.01
Modify  | 0.23188    | 0.27683    | 0.3275     |   4.9 | 10.63
Other   |            | 0.01528    |            |       |  0.59

Nlocal:        83.3333 ave          93 max          78 min
Histogram: 11 2 8 5 6 5 7 2 0 2
Nghost:        1668.29 ave        1686 max        1651 min
Histogram: 4 3 7 8 6 3 3 3 3 8
Neighs:        9846.65 ave       11457 max        8919 min
Histogram: 3 6 10 10 9 5 2 0 1 2

Total # of neighbors = 472639
Ave neighs/atom = 118.15975
Neighbor list builds = 912
Dangerous builds = 247

# Equilibrate just above the melting temperature to avoid step fn in T

fix 1 all npt temp 1.25 1.25 0.1 iso 5.68 5.68 0.5 mtk yes tchain 5 pchain 5
run 2000
Per MPI rank memory allocation (min/avg/max) = 3.644 | 3.645 | 3.649 Mbytes
Step Temp E_pair E_mol TotEng Press Volume 
   10000     2.458735    -2.877446            0   0.80973448    5.3925913    3877.0867 
   11000    1.2525959    -4.290975            0   -2.4125509    5.7359132    2941.6548 
   12000    1.2631935   -4.3093038            0   -2.4149872    5.9072822    2926.1231 
Loop time of 0.617109 on 48 procs for 2000 steps with 4000 atoms

Performance: 560030.817 tau/day, 3240.919 timesteps/s
99.6% CPU use with 48 MPI tasks x no OpenMP threads

MPI task timing breakdown:
Section |  min time  |  avg time  |  max time  |%varavg| %total
---------------------------------------------------------------
Pair    | 0.27763    | 0.30453    | 0.32601    |   1.6 | 49.35
Neigh   | 0.039847   | 0.042534   | 0.044072   |   0.4 |  6.89
Comm    | 0.19541    | 0.22169    | 0.25371    |   2.2 | 35.92
Output  | 5.1034e-05 | 5.5012e-05 | 0.00015715 |   0.0 |  0.01
Modify  | 0.040652   | 0.043418   | 0.046693   |   0.9 |  7.04
Other   |            | 0.004885   |            |       |  0.79

Nlocal:        83.3333 ave          92 max          75 min
Histogram: 3 3 5 5 7 10 3 9 1 2
Nghost:        2026.98 ave        2049 max        1993 min
Histogram: 3 0 1 3 4 12 8 8 6 3
Neighs:        13007.8 ave       14566 max       10599 min
Histogram: 2 0 0 4 9 8 6 11 5 3

Total # of neighbors = 624376
Ave neighs/atom = 156.09400
Neighbor list builds = 143
Dangerous builds = 16

#############################
# L I N E A R  Q U E N C H  #
#############################

# Define solid atoms. This closely follows ten Wolde  Ruiz-Montero and Frenkel  Faraday Discuss  1996  104  93-110
# Compute components of the per-atom q6 vector
compute q6 all orientorder/atom degrees 1 6 components 6 nnn NULL cutoff 1.3 # compute the Q6 parameter.
                                                                             # Use all neighbours within 1.3 unit cell.

# get number of connections
compute coord_number all coord/atom orientorder q6 0.5

# An atom is solid if it has 8 or more connections (of a possible 14)
variable is_solid atom c_coord_number>=8
group solid dynamic all var is_solid    # Must be dynamic to update
dynamic group solid defined

# do clustering
compute cluster solid cluster/atom 1.3 # Create a cluster where all atoms within are solid and max 1.3 units from another member

# define chunks one chunk per cluster
compute clus_chunks solid chunk/atom c_cluster nchunk every compress yes  # Says which atoms are in which chunk

# count the size of each chunk
compute size_chunks solid property/chunk clus_chunks count


# Find the maximum entry in the vector of chunk sizes
variable max_n equal max(c_size_chunks)


# Thermo style which includes this variable
# thermo_style custom step temp pe vol v_max_n

thermo ${N}  # Print the thermo information every 100 steps
thermo 1000  

# Reset the npt fix at a lower temperature (below freezing)
fix 1  all npt temp  ${temp} ${temp}  0.1  iso  5.68  5.68  0.5  mtk yes tchain  5  pchain  5
fix 1  all npt temp  0.45 ${temp}  0.1  iso  5.68  5.68  0.5  mtk yes tchain  5  pchain  5
fix 1  all npt temp  0.45 0.45  0.1  iso  5.68  5.68  0.5  mtk yes tchain  5  pchain  5

dump dmp2 all dcd ${N} traj.dcd
dump dmp2 all dcd 1000 traj.dcd


compute msd all msd com yes
variable twopoint equal c_msd[4]/6/(step*dt+1.0e-6)
fix 9 all vector 10 c_msd[4]
variable fit equal slope(f_9)/6/(10*dt)
thermo_style custom step temp pe c_msd[4] v_twopoint v_fit v_max_n

fix 1 all npt temp 1.25 ${temp} 0.1 iso 5.68 5.68 0.5 mtk yes tchain 5 pchain 5
fix 1 all npt temp 1.25 0.45 0.1 iso 5.68 5.68 0.5 mtk yes tchain 5 pchain 5
run 2000000 # 5000000  # Run for this many steps
Neighbor list info ...
  update every 1 steps, delay 10 steps, check yes
  max neighbors/atom: 2000, page size: 100000
  master list distance cutoff = 3.8
  ghost atom cutoff = 3.8
  binsize = 1.9, bins = 8 8 8
  4 neighbor lists, perpetual/occasional/extra = 1 3 0
  (1) pair lj/cut, perpetual
      attributes: half, newton on
      pair build: half/bin/atomonly/newton
      stencil: half/bin/3d
      bin: standard
  (2) compute orientorder/atom, occasional
      attributes: full, newton on
      pair build: full/bin/atomonly
      stencil: full/bin/3d
      bin: standard
  (3) compute coord/atom, occasional
      attributes: full, newton on
      pair build: full/bin/atomonly
      stencil: full/bin/3d
      bin: standard
  (4) compute cluster/atom, occasional
      attributes: full, newton on
      pair build: full/bin/atomonly
      stencil: full/bin/3d
      bin: standard
Per MPI rank memory allocation (min/avg/max) = 9.835 | 9.840 | 9.844 Mbytes
Step Temp PotEng c_msd[4] v_twopoint v_fit v_max_n 
   12000    1.2631935   -4.3093038 2.5340184e-30 1.759735e-32 8.3333333e+20            1 
   13000    1.2490559   -4.2800419   0.80766877 0.0051773637  0.068393373            3 
   14000    1.2468532    -4.288526     1.685679  0.010033803  0.070343611            4 
   15000    1.2633251   -4.3313915    2.5796127  0.014331181   0.07278877            4 
   16000    1.2166069    -4.288039    3.4890723  0.018172251  0.073403528            4 
   17000    1.2512168   -4.2988511    4.4610663  0.021867972  0.074627124            2 
   18000    1.2374946   -4.3099433     5.387858  0.024943786  0.075643797            1 
   19000    1.2334804     -4.33462    6.2730996  0.027513594  0.076086648            3 
   20000    1.2422036    -4.290785    7.2311042    0.0301296  0.076222145            1 
   21000    1.2702573   -4.2911456    8.1378103  0.032292897  0.076435089            2 
   22000    1.2508601   -4.3473929    8.9230727  0.033799517  0.076152029            4 
   23000    1.2460431   -4.2940166    9.7769391  0.035423692   0.07564307            2 
   24000    1.2556056   -4.2995286    10.759464  0.037359248  0.075438879            2 
   25000     1.264748   -4.3151126    11.491996  0.038306653   0.07502356            2 
   26000    1.2705514   -4.2992464     12.32243  0.039494967   0.07457652            1 
   27000     1.250829   -4.2926711    13.227363  0.040825193  0.074315403            2 
   28000    1.2741981   -4.2822763    14.123955  0.042035579  0.074088021            3 
   29000    1.2510503   -4.3022687     14.99521  0.043089683  0.073790433            1 
   30000    1.2384811   -4.2961371    15.792557  0.043868212  0.073616827            1 
   31000    1.2409222   -4.2773798    16.698752  0.044889118  0.073419769            2 
   32000    1.2337758   -4.3248508    17.412185  0.045344231  0.073166399            2 
   33000    1.2230794   -4.2982911    18.388311  0.046435128  0.072925896            2 
   34000    1.2377119   -4.3173918    19.250639  0.047182937  0.072850195            2 
   35000    1.2468642   -4.3323147    20.024055  0.047676321  0.072763862            2 
   36000    1.2187885   -4.3075116    21.071301  0.048776159  0.072721186            3 
   37000    1.2449884   -4.2802728    22.069319  0.049705672  0.072737736            2 
   38000    1.2276978   -4.3415596    22.738035  0.049864112  0.072749084            1 
   39000    1.2391021   -4.3144415     23.28165  0.049747114  0.072627443            3 
   40000    1.2740226   -4.2721024     24.21689  0.050451853  0.072437431            1 
   41000    1.2544238   -4.3240537    24.891819  0.050593127  0.072228207            2 
   42000    1.2572431   -4.3252865    25.756655  0.051104473   0.07201319            4 
   43000    1.2379133   -4.3256427    26.623798  0.051596507  0.071831156            3 
   44000    1.2420484   -4.3352133     27.37672  0.051849848  0.071698225            3 
   45000    1.2234859   -4.3319065    28.362249  0.052522683  0.071573927            4 
   46000    1.2308129   -4.3333348    29.302367  0.053083997  0.071472731            1 
   47000    1.2538086   -4.3358844    30.118425  0.053401462  0.071436004            1 
   48000    1.2445759    -4.304774    31.033026  0.053876781  0.071418314            2 
   49000    1.2620127    -4.322054    31.954434  0.054344275  0.071408431            3 
   50000    1.2431902   -4.3465602    32.617929  0.054363214  0.071428536            2 
   51000    1.2333714   -4.2996518    33.745406  0.055139551   0.07140572            3 
   52000    1.2462836    -4.319744    34.441964  0.055195455  0.071394753            3 
   53000    1.2283672   -4.3094265    34.935735    0.0549304  0.071307864            2 
   54000    1.2206239   -4.3218127     35.79763  0.055243256  0.071201163            1 
   55000    1.2336633   -4.3677102     36.62308  0.055489514  0.071111672            3 
   56000    1.2242021    -4.315391    37.567341  0.055903781    0.0710401            4 
   57000    1.2369529   -4.3181168    38.502482  0.056290178  0.070990307            1 
   58000    1.2372352   -4.3437954    39.265899  0.056416522  0.070955176            4 
   59000    1.2287072   -4.3443502     40.08112  0.056611751  0.070874952            2 
   60000    1.2323985   -4.2827645    40.860034  0.056750047  0.070798065            2 
   61000    1.2300363   -4.3317883    41.498495  0.056691932  0.070710567            1 
   62000    1.2367101   -4.3293647    42.513763  0.057142155    0.0706566            6 
   63000    1.2294546    -4.345362    43.439742  0.057459976   0.07062649            2 
   64000     1.248361   -4.3527099    44.345816  0.057741947   0.07061166            1 
   65000    1.2337381   -4.3593384    45.507453  0.058342887  0.070621748            3 
   66000    1.2286073   -4.3373365    46.479152  0.058685797  0.070662398            7 
   67000    1.2317463   -4.3332932    47.175862  0.058676445   0.07071311            3 
   68000    1.2052491   -4.3500236    47.831537   0.05861708  0.070729069            3 
   69000    1.2125183   -4.3697952    48.632559  0.058734975  0.070732805            1 
   70000    1.2688433    -4.300417    49.913131  0.059420394  0.070739634            1 
   71000    1.2604703   -4.3077146    50.721287  0.059532027   0.07075441            2 
   72000    1.2459695   -4.3378334    51.331681  0.059411668  0.070764583            1 
   73000    1.2072031   -4.3305916    52.464525   0.05989101  0.070788582            3 
   74000    1.2069776   -4.3323149    53.228538  0.059942047  0.070799584            1 
   75000    1.2175259   -4.3208757    53.799146  0.059776828  0.070818895            2 
   76000    1.2105937   -4.3488957    54.840434  0.060132054  0.070822636            1 
   77000    1.2121814   -4.3366474    55.828713  0.060420685   0.07084754            3 
   78000    1.2246685   -4.3070251    57.036822  0.060936776  0.070893416            1 
   79000    1.2430928   -4.3318939    57.566496  0.060724152  0.070919453            4 
   80000    1.2052595     -4.35804    58.333572  0.060764138  0.070948069            2 
   81000     1.217336   -4.3392229    59.681659  0.061400884  0.070978725            1 
   82000    1.2144421   -4.3450664    60.220709  0.061199908  0.071018297            3 
   83000    1.1979909    -4.314507    61.016318  0.061261363  0.071038092            2 
   84000    1.2126086   -4.3675032    61.865638   0.06137464  0.071047892            2 
   85000    1.2000509   -4.3446004    62.727606  0.061497653  0.071070074            1 
   86000    1.2290183   -4.3516592    63.632271  0.061659177  0.071087585            1 
   87000    1.2119244   -4.3759648    64.374342  0.061661246  0.071089759            2 
   88000    1.2271282    -4.360394    64.897159  0.061455642  0.071087416            1 
   89000    1.2293814   -4.2882948    66.214147  0.061998265  0.071085065            3 
   90000     1.193143   -4.3740491       66.878  0.061924073   0.07108729            3 
   91000    1.2270366   -4.3575374    67.590846  0.061896379  0.071072756            2 
   92000    1.2392679   -4.3369479    68.265798  0.061834961  0.071049331            9 
   93000    1.2092109   -4.3543049    68.371333  0.061264635  0.071000403            2 
   94000    1.2135602   -4.3922148    69.433216  0.061554269  0.070947324            1 
   95000    1.2114527   -4.3490852     70.54077  0.061877868  0.070902412            5 
   96000    1.2081029   -4.3540183    71.176509  0.061785164  0.070870353            4 
   97000    1.2051425   -4.3910316    71.899061  0.061768953  0.070836948            1 
   98000    1.2443802   -4.3526171    73.172841  0.062221803  0.070802308            2 
   99000    1.1994477    -4.338275    74.036529   0.06232031  0.070791194            2 
  100000    1.2530791    -4.365416    74.769659  0.062308049  0.070776178            1 
  101000    1.2234226     -4.37715    75.485681  0.062281915  0.070748998            2 
  102000     1.228156   -4.3332078    76.356146  0.062382472  0.070729187            2 
  103000    1.2136767   -4.3773547    77.693672  0.062858958  0.070724388            1 
  104000    1.2110681   -4.3177225    78.566246  0.062953723  0.070727789            1 
  105000    1.2264559   -4.3692625    79.412981  0.063026175  0.070727283            3 
  106000     1.249075    -4.354458    81.002274  0.063681032  0.070742954            4 
  107000    1.2240342   -4.3709206    81.537137  0.063502443  0.070763099            2 
  108000    1.2175897   -4.3641486    82.103178  0.063351217  0.070786506            2 
  109000    1.2119132   -4.3820685    83.202613   0.06361056  0.070802858            1 
  110000    1.2130801   -4.3629136    84.337582  0.063892107  0.070816412            3 
  111000    1.2472406   -4.3719994    85.023784  0.063831669  0.070830824            2 
  112000    1.2021797   -4.3974968    85.798132  0.063837896    0.0708552            1 
  113000    1.2100497   -4.3598094    86.660427  0.063908869  0.070879977            3 
  114000    1.1886381   -4.3539016    87.530464  0.063984257   0.07089976            3 
  115000    1.2233552   -4.3566635    88.290698  0.063978766  0.070911339            1 
  116000    1.1897943   -4.3327229    89.019218  0.063950587  0.070929141            2 
  117000    1.2194009   -4.3946328    89.673368   0.06386992  0.070941903            3 
  118000    1.2083865   -4.3119925    91.227263  0.064426033  0.070953409            1 
  119000    1.2188474   -4.3678352    92.123435  0.064512209   0.07097484            5 
  120000    1.1988754   -4.3772996    92.760748  0.064417186  0.070987746            1 
  121000    1.1852093   -4.3894646    93.691478  0.064525811  0.071002749            3 
  122000    1.2415061   -4.3614913    94.001362   0.06420858  0.071014237            1 
  123000    1.2056526   -4.3559736    95.182377  0.064486705  0.071016963            1 
  124000    1.2035377    -4.372365    96.263406  0.064693149  0.071020515            3 
  125000    1.2200767   -4.3732852    96.867305  0.064578203  0.071028834            5 
  126000    1.1876358   -4.3799801    97.393272   0.06441354  0.071037374            2 
  127000    1.1902344   -4.3862375    98.535918  0.064656114  0.071046782            2 
  128000    1.2153265    -4.389881    99.753428  0.064943638  0.071061457            3 
  129000    1.2240712   -4.3724254      100.578   0.06497287   0.07107882            1 
  130000    1.2048115   -4.3694371    101.16745  0.064850926  0.071094392            2 
  131000    1.1980081   -4.3877963    102.10214  0.064950472  0.071102176            2 
  132000    1.2105587   -4.4029669     102.4333  0.064667486  0.071109151            3 
  133000    1.2332079   -4.3774506    103.79142  0.065032217  0.071119728            3 
  134000    1.1955703   -4.3553801    104.37379  0.064909074  0.071127504            2 
  135000    1.2145001   -4.3778475    105.43782  0.065085075  0.071135961            2 
  136000    1.2044431   -4.4136828    106.03886  0.064974789  0.071141307            2 
  137000      1.15397   -4.3919749    106.87123  0.065006829  0.071146466            4 
  138000     1.196748   -4.3557415    107.82204  0.065109927  0.071147729            3 
  139000    1.1904647   -4.3647892    108.46094  0.065024546  0.071151037            1 
  140000    1.1825507   -4.3786236    109.74301   0.06532322  0.071160943            1 
  141000    1.1935576   -4.4052334    110.58249  0.065356082  0.071166712            2 
  142000    1.1944626   -4.3474207    111.44897  0.065404326  0.071174555            1 
  143000    1.1724723    -4.376531     112.5071  0.065563579  0.071183383            4 
  144000    1.1932729   -4.3573085    113.45262  0.065655449  0.071189029            2 
  145000    1.2271661   -4.3981492     113.9072  0.065463907  0.071200541            2 
  146000    1.1868876   -4.3911439     114.7636  0.065504339  0.071204997            2 
  147000    1.2029606   -4.4035756     115.7218   0.06560193  0.071205302            2 
  148000    1.1872788   -4.3913776    116.14381  0.065396289  0.071203919            2 
  149000    1.2140142   -4.4037405    117.41775  0.065669884  0.071198724            2 
  150000    1.1973156    -4.381228    117.97387  0.065541038  0.071197576            2 
  151000    1.1980017   -4.3489204    119.09377   0.06572504   0.07119043            3 
  152000    1.2136989   -4.3728376    119.56395  0.065550414  0.071185929            3 
  153000    1.1802996   -4.3927612    120.16153  0.065447454  0.071180794            1 
  154000    1.1880068   -4.3897236    121.21431  0.065592159  0.071168323            4 
  155000    1.2072524     -4.39798    122.17293   0.06568437  0.071157096            3 
  156000    1.1914288   -4.4171755     122.8912  0.065647007  0.071144159            2 
  157000    1.1910997    -4.419762    123.07804  0.065328047  0.071136626            3 
  158000     1.202776   -4.4139254    123.75519  0.065271726  0.071120195            3 
  159000    1.1896702   -4.4014705    125.05162  0.065540683  0.071099553            2 
  160000    1.1817961   -4.4049264    125.58996  0.065411438  0.071077443            2 
  161000     1.174742   -4.4071496    125.93737  0.065184976  0.071051001            2 
  162000    1.1805706    -4.395418    127.33352  0.065500782  0.071023677            3 
  163000    1.1771163   -4.4141331    127.29171  0.065077561  0.070996103            3 
  164000    1.1748363   -4.4217867    128.65774  0.065374868  0.070969392            2 
  165000    1.1921258   -4.4006928    129.79008  0.065550543  0.070944924            3 
  166000    1.2231853   -4.3969292    130.03004  0.065276122  0.070923006            3 
  167000    1.1590191   -4.4433534    131.03261  0.065385532  0.070906216            2 
  168000    1.1915149   -4.3836903    131.91716  0.065435101  0.070889595            1 
  169000    1.1918527   -4.4268118    131.84168  0.065010692  0.070857863            1 
  170000    1.1926718   -4.3933605    132.42399  0.064913722  0.070824494            3 
  171000    1.2024221   -4.4221688     132.2023  0.064426072  0.070779212            3 
  172000    1.1893445   -4.4282569    134.07576  0.064959188   0.07073581            4 
  173000    1.2043765     -4.39058    135.02449  0.065040698  0.070694424            2 
  174000    1.1874363   -4.3735056    135.70062  0.064990719  0.070645239            2 
  175000    1.1892015   -4.3969763    136.00481  0.064764194  0.070594702            3 
  176000    1.1886147   -4.4100572    136.83332  0.064788503  0.070544937            2 
  177000     1.140779   -4.3942003    137.63305  0.064798987  0.070491494            2 
  178000    1.1847191   -4.4152725    137.81739   0.06452125   0.07043651            1 
  179000    1.1787998   -4.3791833    139.02546   0.06472321  0.070386686            2 
  180000    1.2070255   -4.4244646    139.61703  0.064637512   0.07033479            2 
  181000    1.1702744   -4.4213918    139.50973     0.064231  0.070280392            2 
  182000    1.1900185    -4.414176    140.39974  0.064285597  0.070216859            3 
  183000    1.1619245    -4.404981    141.19099  0.064294621  0.070152116            2 
  184000    1.1576421   -4.3928277    142.36684  0.064477736  0.070089111            2 
  185000    1.1921842   -4.3940999    142.91435  0.064375833  0.070028828            3 
  186000    1.1882695   -4.4341452     142.7675  0.063963932  0.069961657            2 
  187000    1.1955959   -4.4091864    143.75971  0.064064043  0.069893497            4 
  188000      1.19679   -4.4398185    144.33604   0.06397874  0.069823111            2 
  189000    1.1949983   -4.4168777    145.65276  0.064220793  0.069757078            5 
  190000    1.1698579   -4.4079951    146.20754  0.064126112  0.069695759            3 
  191000    1.1759934   -4.3953452    147.18708  0.064217749  0.069636036            3 
  192000    1.1558775   -4.4512381    147.17998  0.063880198  0.069575189            4 
  193000      1.16658    -4.400871    148.28838  0.064027799  0.069515398            5 
  194000    1.1738288   -4.3820501    149.69649  0.064302615  0.069456528            1 
  195000    1.1515928   -4.4154652    149.94286  0.064078147  0.069397147            3 
  196000    1.1770313   -4.4116724    150.49349  0.063985328   0.06934159            4 
  197000    1.1712458   -4.4140935    151.64353   0.06414701  0.069288739            1 
  198000    1.1865082    -4.419228    152.49055  0.064179526  0.069234521            2 
  199000    1.1735755   -4.4143947    152.95229  0.064050373  0.069178858            1 
  200000    1.1782029   -4.4122136    154.19351  0.064247295  0.069123896            2 
  201000    1.1653943   -4.4377702    154.74735  0.064157277  0.069074224            4 
  202000    1.1674315    -4.420971    155.53284  0.064163715  0.069024206            2 
  203000    1.1652419   -4.4347019    156.20142  0.064122092  0.068974857            1 
  204000    1.1906551   -4.4720528    156.61843  0.063978118   0.06892806            2 
  205000    1.1529562   -4.4478627    157.06323   0.06384684  0.068875912            2 
  206000    1.1601321   -4.4320948    158.31501   0.06404329  0.068822169            2 
  207000    1.1676062   -4.4145794    159.08683  0.064044618  0.068769708            3 
  208000    1.1622098   -4.3805054    159.38071  0.063854449  0.068719447            4 
  209000    1.1652569   -4.4234922    160.37318  0.063944647  0.068666986            3 
  210000    1.1666234    -4.434451    160.80454  0.063811326  0.068616178            3 
  211000    1.1597887   -4.4505461    161.43928   0.06375959  0.068561508            2 
  212000    1.1799214   -4.4396152     162.2787  0.063788797  0.068506948            1 
  213000     1.176417   -4.4643943    162.99887  0.063771074  0.068454053            3 
  214000    1.1680133   -4.3853324    164.46924  0.064045656  0.068403308            1 
  215000     1.171816   -4.4132971    164.22238  0.063652085  0.068347282            2 
  216000    1.1513021   -4.4310083    164.05852  0.063294182   0.06828882            4 
  217000    1.1843698   -4.4277901    165.22553  0.063450663  0.068230125            1 
  218000    1.1527502   -4.4539593    166.33052  0.063582004   0.06816773            4 
  219000    1.1657025   -4.4626477    165.24883   0.06288007  0.068106805            3 
  220000    1.1668157   -4.4303722    165.80152  0.062803606  0.068040564            5 
  221000    1.1720144   -4.4109342    167.83459  0.063286043  0.067977294            1 
  222000    1.1751758   -4.4154672    169.09115  0.063472653  0.067918783            3 
  223000    1.1702669   -4.4457957    168.16695  0.062842656  0.067854909            3 
  224000    1.1739904   -4.4405887    169.16378  0.062932952  0.067790946            3 
  225000    1.1574232   -4.4255165    169.92578  0.062935475  0.067724357            3 
  226000    1.1072086   -4.4209968    170.99173  0.063050049  0.067660937            6 
  227000    1.1515188     -4.41756    172.43027  0.063300393  0.067599601            4 
  228000    1.1614478   -4.4568531     172.5316  0.063059797  0.067538514            2 
  229000     1.136979     -4.41353    173.87662  0.063273879  0.067477661            2 
  230000    1.1670443   -4.4340776    173.50554  0.062864324  0.067421051            2 
  231000    1.1634105   -4.4461366    174.36739    0.0629031  0.067363197            1 
  232000    1.1437207   -4.4490688    175.33752   0.06298043  0.067304786            4 
  233000    1.1816627   -4.4264198    176.81483  0.063238494  0.067249925            2 
  234000    1.1512387   -4.4552752    176.72461  0.062936116  0.067198272            3 
  235000    1.1743053   -4.4291197    177.71147  0.063018251   0.06714632            2 
  236000    1.1462523   -4.4401485    178.24209  0.062938593  0.067093611            2 
  237000    1.1708833   -4.4529836    178.74751  0.062850741  0.067042933            1 
  238000    1.1587366   -4.4339989     179.7917  0.062952278  0.066988987            2 
  239000     1.151605   -4.4441762    180.77793  0.063032752  0.066939786            3 
  240000    1.1639261   -4.4333497    181.21333  0.062921293  0.066884514            2 
  241000    1.1490112   -4.4477496    181.12061   0.06262815  0.066828732            1 
  242000    1.1462649   -4.4250594    182.29566  0.062773988   0.06677428            3 
  243000    1.1549139   -4.4398504    182.84096  0.062702662  0.066719055            3 
  244000    1.1833991   -4.4715774    182.46318  0.062316661  0.066662249            2 
  245000    1.1497629   -4.4873364    182.52716  0.062084069  0.066603136            2 
  246000    1.1470828   -4.4072115    184.33655   0.06244463  0.066546096            2 
  247000    1.1746054   -4.4378864    185.35433    0.0625352  0.066488044            2 
  248000    1.1328533   -4.4550543    185.14403  0.062212375  0.066428211            1 
  249000    1.1636452   -4.4794794    185.77008  0.062172049  0.066370176            3 
  250000     1.162086   -4.4316614    186.28052  0.062093506  0.066309935            2 
  251000    1.1554693   -4.4120722    188.60753  0.062618702  0.066254783            5 
  252000    1.1620543   -4.4296522    188.94625  0.062482226  0.066201001            2 
  253000    1.1730173     -4.45919    188.46441   0.06207655  0.066145958            3 
  254000    1.1682433   -4.4833752    189.05015  0.062024328  0.066088029            2 
  255000    1.1390915   -4.4709379    190.05133  0.062108279  0.066029781            4 
  256000    1.1511094   -4.4957198    190.59166  0.062041556  0.065972078            4 
  257000    1.1439059   -4.4642433    192.34869  0.062369874  0.065918905            5 
  258000    1.1552842   -4.4705618    191.69711  0.061917671  0.065864503            3 
  259000    1.1413419   -4.4404528    193.45089  0.062242885  0.065812575            3 
  260000    1.1553614   -4.4505283    193.64756  0.062066526  0.065758444            2 
  261000    1.1463232   -4.4762208    193.49719  0.061780711  0.065703222            2 
  262000    1.1600531   -4.4797614     194.2316  0.061778499  0.065646064            3 
  263000    1.1579183   -4.4801652    194.57849  0.061653514  0.065586977            1 
  264000    1.1502214   -4.4397414    196.45288  0.062011641  0.065530281            3 
  265000    1.1429224   -4.4876281    195.81486  0.061577001  0.065476003            1 
  266000    1.1403997   -4.4782726    196.93387  0.061696076  0.065416944            3 
  267000    1.1460973   -4.4465366    197.48138  0.061635886  0.065360357            2 
  268000    1.1278298   -4.4827563    198.37721  0.061684457  0.065302562            2 
  269000    1.1531812   -4.4388681    199.24558  0.061724157  0.065245553            2 
  270000    1.1524682   -4.4455923    199.12694  0.061458932  0.065187301            1 
  271000    1.1333463   -4.4854711    198.50306    0.0610403  0.065123549            2 
  272000    1.1634832   -4.4855637    200.57945  0.061452037  0.065060862            4 
  273000    1.1365858   -4.4740681    200.81093  0.061297599  0.065001104            3 
  274000    1.1737897   -4.4758499    201.77159  0.061366055  0.064943253            8 
  275000    1.1446839    -4.455498    203.03596  0.061526048  0.064888181            1 
  276000    1.1392425   -4.4810882    203.23632  0.061363623   0.06483395            2 
  277000    1.1391288    -4.503298    203.91477  0.061346199  0.064781839            2 
  278000    1.1556707    -4.442231    205.31874  0.061546386  0.064729293            3 
  279000    1.1523526   -4.4669891    204.85849  0.061188319  0.064678572            1 
  280000    1.1437691   -4.5082677    206.17697  0.061362192  0.064626721            2 
  281000    1.1500759   -4.4785887    207.70125  0.061595864  0.064576978            2 
  282000     1.146572    -4.483126    208.18585  0.061520642  0.064528578            2 
  283000     1.122322   -4.5116212    209.80005  0.061778577  0.064483271            4 
  284000    1.1604086   -4.4630309    210.03724  0.061630646  0.064439841            2 
  285000    1.1690493    -4.485463    210.79368  0.061635578  0.064400014            3 
  286000    1.1336885   -4.4725279    211.92196  0.061748823  0.064360738            4 
  287000    1.1392224   -4.4744371    211.95542  0.061543385  0.064319497            3 
  288000    1.1241436   -4.4978584    212.13832  0.061382616  0.064276498            3 
  289000    1.1304394   -4.4551773     213.1643   0.06146606  0.064235988            2 
  290000     1.149556    -4.481734    214.15435  0.061538605  0.064197345            3 
  291000    1.1418139    -4.485975    214.67517  0.061476281  0.064158028            2 
  292000    1.1482545   -4.4980325    215.34874  0.061457974  0.064120389            2 
  293000    1.1581554   -4.4828745    216.74075  0.061644126   0.06408234            3 
  294000     1.146437   -4.4755765    217.78992  0.061731837  0.064047759            1 
  295000    1.1324448   -4.4867017    218.85617  0.061823776  0.064013257            1 
  296000    1.1359678   -4.5093956    218.09243  0.061399895  0.063977987            4 
  297000    1.1384431   -4.4847881    218.68729  0.061360071  0.063943041            5 
  298000    1.1555846   -4.5164779    219.74872  0.061450986  0.063906358            2 
  299000    1.1218585   -4.5186418    220.86547  0.061556709  0.063872274            1 
  300000    1.1187078   -4.5078397    221.04758  0.061402104  0.063837545            2 
  301000    1.1289362   -4.4799722    222.42413  0.061579216  0.063801132            1 
  302000    1.1313663   -4.4972708    222.57446  0.061416792  0.063769167            3 
  303000    1.1242456   -4.4852068    223.33993  0.061424623   0.06373431            2 
  304000    1.1431603   -4.5198617    223.20124   0.06118455  0.063698363            3 
  305000    1.1243884   -4.4813768    225.02748  0.061482918  0.063660969            3 
  306000    1.1270714    -4.467932    225.78218  0.061487522  0.063621193            3 
  307000     1.142616   -4.5280074    224.22352  0.060864149  0.063584223            3 
  308000    1.1312743   -4.5253878    225.46024  0.061001146   0.06354527            2 
  309000    1.0999098    -4.482697    226.74598  0.061150481  0.063506796            2 
  310000    1.1192151   -4.5089274     227.6794  0.061204141  0.063471594            1 
  311000    1.1336954   -4.4897941    228.87922  0.061328838  0.063438865            2 
  312000    1.1211602    -4.495625    229.27091  0.061236887  0.063406935            3 
  313000     1.141201   -4.5052034    230.05992  0.061251311  0.063376365            3 
  314000    1.1243133   -4.4937373    231.53983  0.061448998  0.063344823            5 
  315000    1.1286949   -4.5270082    231.69123  0.061293977  0.063315997            2 
  316000    1.1473273   -4.5090754    233.34241  0.061535447  0.063291348            5 
  317000    1.1307578   -4.4812126    235.12763  0.061810627  0.063268468            3 
  318000    1.1141782   -4.4952547    234.74498   0.06151598  0.063244281            3 
  319000    1.1356973   -4.4762277    236.67025  0.061826085  0.063221568            1 
  320000    1.1310265   -4.4916592     235.9749  0.061451796  0.063196891            2 
  321000    1.1529258   -4.4634277    237.14123  0.061563144  0.063173015            2 
  322000    1.1196282   -4.5137704    237.52005  0.061469993  0.063150379            2 
  323000    1.1149291   -4.5110348    238.18879  0.061452217  0.063129433            2 
  324000    1.0974054   -4.5087832    239.04722  0.061483337  0.063105956            4 
  325000    1.1362857   -4.4904207    240.56038  0.061682149  0.063082343            4 
  326000     1.114343   -4.4662291    240.37788  0.061446288  0.063057238            5 
  327000    1.1261098   -4.4770631    241.14396  0.061453607  0.063032011            2 
  328000    1.1321828   -4.4599343    242.49905  0.061610532  0.063006128            2 
  329000    1.1115288   -4.5077691    242.00136  0.061297205  0.062980513            3 
  330000    1.1311706    -4.558442    241.71791  0.061039877  0.062953411            3 
  331000     1.133715   -4.5247687    242.93188  0.061161097  0.062925932            2 
  332000    1.1326466   -4.5376135    243.19746  0.061043539  0.062900366            3 
  333000    1.1329733   -4.5288647    243.70186   0.06098645  0.062873518            2 
  334000    1.1108082   -4.4937597    245.10373  0.061153626   0.06284477            2 
  335000    1.1198898    -4.508666    245.26122  0.061010254  0.062817536            4 
  336000    1.1095036    -4.528171    246.30607  0.061087815  0.062790643            2 
  337000    1.1279917   -4.4982901     247.3889  0.061174309  0.062762315            3 
  338000    1.1165273   -4.4969304    247.79963  0.061094582  0.062733125            1 
  339000    1.1140007   -4.5540909    247.85311  0.060927509  0.062703642            2 
  340000    1.1281747   -4.4996865    248.15274  0.060821751  0.062674756            2 
  341000    1.1063883   -4.5406004    248.14367  0.060641171  0.062643753            3 
  342000     1.133018   -4.5230878    249.32283  0.060751176  0.062612425            4 
  343000    1.1004673   -4.5028808    250.08239  0.060758597  0.062580409            2 
  344000    1.1269916   -4.4964795    250.80029  0.060755883  0.062548166            1 
  345000    1.1251787   -4.5047682    250.70089   0.06055577  0.062516923            7 
  346000    1.1408453   -4.5030222    252.21029  0.060744289   0.06248824            6 
  347000    1.1044999   -4.4731669    253.41522  0.060858601  0.062459297            3 
  348000    1.1179662   -4.4934686     253.8249  0.060781825  0.062429523            3 
  349000    1.1079856   -4.5214169    254.08477  0.060669717  0.062399793            1 
  350000    1.1258241   -4.5396761    254.12807  0.060506684  0.062371041            3 
  351000     1.098296   -4.5338466    256.08483  0.060798867  0.062342537            3 
  352000    1.1059895   -4.5303073    255.57658   0.06050582  0.062316279            2 
  353000    1.1296512   -4.5526427    256.25197  0.060493856  0.062288308            2 
  354000    1.1105303   -4.5569443    257.43301   0.06060099  0.062261012            2 
  355000    1.1215677   -4.5584458    257.01752  0.060332751  0.062232753            3 
  356000    1.1178667   -4.5671724    257.80791  0.060348293  0.062202457            2 
  357000    1.0991918   -4.5275004    258.96802  0.060450051  0.062173133            4 
  358000    1.1397706   -4.5344424     258.3591  0.060139454  0.062141737            4 
  359000    1.1169803   -4.5429229    259.47006  0.060229818   0.06211094            2 
  360000    1.1207522   -4.5453718    259.21189  0.060002753  0.062080214            2 
  361000    1.0955656   -4.5568258    261.06937  0.060265322  0.062049241            2 
  362000    1.1042646   -4.5425282    260.69911  0.060013608  0.062020034            2 
  363000     1.095101   -4.5378217    262.45047  0.060250336  0.061990118            3 
  364000    1.1085547    -4.540993    261.72992  0.059919853  0.061957294            2 
  365000      1.13564   -4.5077164      263.831  0.060235388  0.061925685            5 
  366000    1.1025959   -4.5268209    263.74215  0.060050581  0.061894237            2 
  367000    1.1046042   -4.5228656    264.76954  0.060120241  0.061861901            3 
  368000    1.0957231    -4.545456     265.3891   0.06009717   0.06182834            4 
  369000    1.1258152   -4.5347336    265.74036  0.060013631  0.061795942            4 
  370000    1.1150391   -4.5623534    265.89681  0.059886669  0.061763181            2 
  371000    1.1362161    -4.563366    265.77027  0.059696826  0.061729938            1 
  372000    1.1188454   -4.5214786    266.78913  0.059764591  0.061695682            3 
  373000     1.095713   -4.5200654    269.24577   0.06015321  0.061663256            3 
  374000    1.1139517   -4.5474749    268.69221   0.05986903  0.061631968            2 
  375000    1.1123389   -4.5161214    270.36525  0.060081166  0.061600682            3 
  376000    1.1014387   -4.5052046    270.72485  0.060001076  0.061571365            3 
  377000     1.077905   -4.5707348    270.94121  0.059889747  0.061540781            2 
  378000    1.0684877    -4.556364    271.12665   0.05977219  0.061509031            2 
  379000    1.0997237   -4.5558068    271.85892  0.059775489  0.061475917            3 
  380000    1.1249572   -4.5691926    272.37263   0.05973084  0.061445039            3 
  381000    1.1131686   -4.5407624    272.27055  0.059551739  0.061412924            4 
  382000    1.1027755   -4.5379276    272.86543  0.059525617  0.061379879            3 
  383000    1.1079336   -4.5335668    273.51601  0.059511751  0.061346105            3 
  384000    1.0861602   -4.5863376    274.09305  0.059481998  0.061313059            2 
  385000    1.1001881   -4.5389508    276.14642  0.059771953  0.061279993            2 
  386000    1.1037548   -4.5526478     275.8243   0.05954756  0.061248828            3 
  387000    1.1019321   -4.5498819     276.4673  0.059532149  0.061217632            2 
  388000     1.071967   -4.5372538    277.52156  0.059605147  0.061185981            2 
  389000    1.0850608   -4.5641667     278.3197    0.0596229   0.06115382            6 
  390000    1.0779739   -4.5698745    278.90131  0.059594298  0.061122142            2 
  391000    1.1001247   -4.5991017    278.25789  0.059304751  0.061091379            1 
  392000    1.1012747   -4.5772848    278.63883  0.059234445  0.061059278            4 
  393000    1.0990055   -4.5583101    280.63806  0.059507647  0.061027918            2 
  394000    1.0934217   -4.5603823    281.26102  0.059488371  0.060997283           10 
  395000    1.1034574   -4.5854465    281.60239  0.059409788  0.060966078            4 
  396000    1.0751066   -4.5843459      281.265  0.059188763  0.060933091            3 
  397000    1.1254751     -4.54117    282.38764  0.059275323  0.060899439            5 
  398000    1.1027433   -4.5624725    283.34837  0.059327549  0.060867439            3 
  399000    1.0795041   -4.5686719    283.34266  0.059177665  0.060836423            3 
  400000    1.1025043   -4.5403524    286.10755  0.059605739  0.060807298            2 
  401000    1.0902259   -4.5533047    286.87714  0.059617028  0.060779348            1 
  402000    1.0958694   -4.5449536    287.15298  0.059525908  0.060751948            2 
  403000     1.101224   -4.5598297    286.11116   0.05916277  0.060725771            2 
  404000    1.1036621   -4.5567207    289.40416  0.059695578  0.060699422            4 
  405000     1.075851   -4.5546304     288.2018  0.059300781  0.060673974            3 
  406000    1.1001189    -4.549353    290.66815  0.059660951  0.060649221            4 
  407000    1.0968297     -4.54682     292.1958   0.05982715  0.060625645            4 
  408000    1.1049152   -4.5949885    290.44732  0.059323391    0.0606015            4 
  409000    1.0715683   -4.5847516    292.28478  0.059552727  0.060576292            2 
  410000    1.0885771   -4.5598606    291.43911  0.059235592  0.060551612            2 
  411000    1.1070722   -4.5509666    293.19476  0.059447438  0.060525772            4 
  412000    1.0770812   -4.5882352    292.80772  0.059224862  0.060497196            3 
  413000    1.0758321   -4.6139591    293.00143  0.059120546  0.060468392            2 
  414000    1.0802028   -4.5696313    293.49404  0.059076899  0.060440586            2 
  415000    1.0856031     -4.57241    294.46615  0.059129749  0.060413441            4 
  416000    1.0778569   -4.5493575    295.24785  0.059144201  0.060387135            2 
  417000     1.078812   -4.5742748    295.42309  0.059037388  0.060359823            1 
  418000    1.0840735   -4.5452544      297.547  0.059319577  0.060331899            2 
  419000    1.1119623   -4.5634202     298.6026  0.059387947  0.060305905            5 
  420000    1.1095746   -4.5468285    297.37044  0.059002071  0.060278435            2 
  421000    1.0634013   -4.5687005    297.76728  0.058940476  0.060251209            4 
  422000    1.0739873   -4.5575652    299.96501  0.059234797  0.060223627            3 
  423000     1.074596   -4.5587263    299.32211  0.058968107  0.060197576            6 
  424000    1.0983112   -4.5572123    300.48748  0.059058074  0.060170383            3 
  425000    1.0993738   -4.5740707    301.72216  0.059161208  0.060144359            4 
  426000    1.0666018   -4.5725581    302.48514  0.059171585  0.060117609            2 
  427000    1.0855602   -4.5988954    302.46127   0.05902835  0.060091708            3 
  428000    1.0724984   -4.5879656    302.28382  0.058855885  0.060065982            7 
  429000    1.0770929   -4.5830586    304.00667  0.059053355  0.060042099            3 
  430000     1.057584   -4.6129214    304.21176  0.058955768  0.060017679            3 
  431000    1.0795054   -4.5887376    304.02339  0.058782557   0.05999306            5 
  432000    1.0662166   -4.5891288    304.26543  0.058693177  0.059966703            2 
  433000    1.0730891   -4.5821593    306.70181  0.059026523  0.059940244            2 
  434000    1.1026772    -4.572411    306.72961  0.058895855  0.059914661            2 
  435000    1.0853129   -4.5750563    307.30224   0.05887016  0.059889673            2 
  436000    1.0982323   -4.5754959    307.56516   0.05878539   0.05986375            3 
  437000    1.0793847   -4.5615786    307.78061  0.058691955   0.05983751            4 
  438000     1.085093   -4.5641899    308.76229  0.058744727  0.059812421            2 
  439000    1.0798989   -4.5940199    310.24832     0.058893  0.059787615            2 
  440000    1.0848135   -4.5655047    310.98453  0.058898585  0.059763188            2 
  441000    1.0906106   -4.5806756    311.49589  0.058861657  0.059739598            2 
  442000    1.0887939   -4.6313814    311.04933  0.058644293  0.059715642            2 
  443000    1.1063667    -4.587572     312.2418  0.058736231  0.059691126            3 
  444000    1.0842953   -4.5797145    313.71491  0.058880425  0.059667829            4 
  445000    1.0365602   -4.6129762    313.52485  0.058712519  0.059645362            4 
  446000    1.0835055   -4.6067871    313.95156  0.058660606  0.059621902            3 
  447000    1.0884259   -4.5897595    314.42401  0.058617452   0.05959941            1 
  448000     1.047575   -4.6037691    316.43815  0.058861262  0.059577368            1 
  449000    1.0928779   -4.6036148    316.17069  0.058680529  0.059554441            2 
  450000    1.0700171   -4.5981944    317.28692  0.058756836  0.059532393            2 
  451000    1.0818374    -4.577631    316.90781  0.058556505  0.059509599            2 
  452000    1.0739883   -4.5919423    317.23818  0.058487864  0.059487612            2 
  453000     1.063429   -4.5915933    318.46451  0.058584346  0.059463417            4 
  454000    1.0831346   -4.5814229    320.29425  0.058791162  0.059439437            3 
  455000    1.0663059   -4.5931179    320.69167  0.058734737  0.059416522            3 
  456000    1.1012632     -4.59348    320.42956  0.058558033  0.059392692            4 
  457000    1.0934504   -4.5704276    320.79265  0.058496106  0.059368937            2 
  458000    1.0680566   -4.6176305    320.23428  0.058266789  0.059343868            6 
  459000    1.0658687   -4.5842063    322.54289  0.058558986  0.059319399            4 
  460000    1.0816945    -4.596639    323.69163  0.058639787  0.059295786            4 
  461000    1.0530321   -4.6545994    321.90512  0.058189646  0.059270533            4 
  462000    1.0764278   -4.6069068    323.19825  0.058296943  0.059245677            2 
  463000    1.0442297   -4.6350671    323.32335  0.058193548  0.059221388            1 
  464000    1.0560047   -4.6088564    324.13774  0.058214393  0.059196884            3 
  465000    1.0721498   -4.5926593    324.94044  0.058233053  0.059171531            2 
  466000    1.0740892   -4.6112784    324.09921  0.057957656  0.059145033            3 
  467000    1.0652043   -4.6181122    324.84702  0.057966992   0.05911809            5 
  468000     1.062866   -4.6115944    326.05101  0.058057517  0.059091879            4 
  469000    1.0642352   -4.6150087    326.36879   0.05799019  0.059063855            1 
  470000    1.0505515   -4.6124957    326.23229  0.057842605  0.059035983            3 
  471000    1.0694044   -4.6023985     329.0682   0.05822155  0.059008944            5 
  472000    1.0664998   -4.6062442    327.83179  0.057879907  0.058982048            2 
  473000    1.0730441   -4.6349295    327.86662  0.057763675  0.058954693            2 
  474000    1.0705802   -4.6019711    329.18934  0.057874356  0.058927899            3 
  475000    1.0705439    -4.623682    329.02177  0.057723118  0.058900198            3 
  476000    1.0909571   -4.6003606    330.93097  0.057936094  0.058873734            5 
  477000    1.0460815   -4.6102882    330.53632  0.057745688  0.058847265            4 
  478000    1.0807247   -4.6252901    330.40847  0.057602593  0.058819625            3 
  479000    1.0708754   -4.6456517    330.45013  0.057489584  0.058793247            3 
  480000    1.0626009    -4.565295     333.6923  0.057932691  0.058765726            2 
  481000    1.0716641   -4.6421639    330.21505  0.057209814  0.058737123            7 
  482000    1.0652576   -4.6047443    333.25606  0.057616885  0.058708869            2 
  483000    1.0853224   -4.6114898    334.03867  0.057632621  0.058681365            3 
  484000    1.0558965   -4.6171687    334.34882  0.057566946   0.05865463            2 
  485000    1.0458927   -4.6159021    334.97562  0.057555948  0.058626583            5 
  486000    1.0513933    -4.648364    334.47687  0.057352002  0.058598434            2 
  487000    1.0680041   -4.5981655     336.1079   0.05751333  0.058571547            2 
  488000    1.0476038   -4.6566936    336.89019  0.057529063  0.058545117            2 
  489000     1.079563   -4.6535667    337.75969  0.057559593   0.05851798            3 
  490000    1.0827523   -4.5981912    338.86868  0.057630728  0.058492298            2 
  491000    1.0667148   -4.5977866    338.70041  0.057484795  0.058466597            3 
  492000    1.0592584   -4.6742422    338.56541  0.057345089  0.058441506            4 
  493000    1.0968878   -4.6394993     339.3042  0.057353651  0.058415764            2 
  494000    1.0832505   -4.6772516    339.70334  0.057304883   0.05839023            4 
  495000    1.0260108   -4.6231157    341.37243  0.057470106  0.058363209            2 
  496000    1.0747348   -4.6161651    341.28298   0.05733921  0.058336662            3 
  497000    1.0587056   -4.6413821    340.85918   0.05715278  0.058311432            1 
  498000    1.0658713   -4.6650578    343.14741  0.057420919  0.058286272            2 
  499000    1.0555432   -4.6102255    344.13147  0.057470185  0.058261477            4 
  500000    1.0670956   -4.6122915    342.94561  0.057157602  0.058237347            3 
  501000     1.056673   -4.6651748    344.48938  0.057300296  0.058212453            4 
  502000     1.044833   -4.6145342    344.50866  0.057189352  0.058188158            6 
  503000    1.0417224   -4.6419349    346.10992  0.057340941  0.058163874            5 
  504000    1.0356666    -4.656954    346.09752  0.057225118  0.058139682            6 
  505000    1.0697871   -4.6332984    345.42163  0.057000269  0.058114041            4 
  506000     1.055145   -4.6036488    347.86014   0.05728922    0.0580892            2 
  507000    1.0582184   -4.6244331    347.04169  0.057041697  0.058064629            2 
  508000    1.0570561   -4.6434315    348.83683  0.057223889  0.058039546            6 
  509000     1.039954   -4.6377028    350.76481  0.057427114  0.058016253            4 
  510000    1.0308846   -4.6319956    351.76146  0.057477363  0.057994152            3 
  511000    1.0538265   -4.6034819     351.3051  0.057290459  0.057971032            5 
  512000    1.0456131   -4.6465806    351.05804  0.057138353  0.057947941            5 
  513000    1.0301887   -4.6491637    350.89629  0.057000697  0.057924138            3 
  514000    1.0466882   -4.6526481    352.53288  0.057155137  0.057899904            4 
  515000    1.0424767   -4.6180541    353.41741  0.057187282   0.05787636            1 
  516000    1.0483854   -4.6473377    353.16613  0.057035873  0.057853232            4 
  517000     1.057551   -4.6094716    355.90156  0.057366467  0.057830065            4 
  518000    1.0504984   -4.6326262     355.6928  0.057222137  0.057807345            3 
  519000      1.04702   -4.6230855    355.59531  0.057096228  0.057784603            2 
  520000    1.0350387   -4.6340914    355.66431  0.056997486  0.057761238            4 
  521000    1.0684849   -4.6241692    357.45694  0.057174814  0.057737468            4 
  522000    1.0353733    -4.606453     357.3958  0.057055523  0.057714344            3 
  523000    1.0229426   -4.6385831    357.41077  0.056948816  0.057690516            5 
  524000    1.0476038   -4.6476673    358.95746   0.05708611  0.057666621            3 
  525000    1.0619073   -4.6042818    359.79148  0.057109758  0.057642679            2 
  526000    1.0198238   -4.6420237    358.90541  0.056860807  0.057618294            3 
  527000    1.0681434    -4.678414    359.00885  0.056769269   0.05759386            5 
  528000    1.0634083   -4.6675064    359.20257  0.056692324  0.057569232            2 
  529000    1.0536004   -4.6508059    359.82629  0.056683411  0.057545205            3 
  530000     1.049987   -4.6628316    359.41994  0.056512568  0.057520754            2 
  531000    1.0469827   -4.6116958    363.24846  0.057006978  0.057496335            2 
  532000    1.0287924   -4.6615255    363.18466  0.056889827  0.057472119            4 
  533000    1.0433344   -4.6579116    364.17252  0.056937542  0.057448406            2 
  534000    1.0219798   -4.6008103    364.67112  0.056908726  0.057424934            2 
  535000    1.0415121   -4.6735504    363.96091   0.05669173  0.057401385            3 
  536000     1.063882   -4.6617459    364.38022  0.056651153  0.057377729            4 
  537000     1.047873   -4.6782146     364.3024  0.056533582  0.057353956            2 
  538000    1.0203735   -4.6380761     365.5368  0.056619702  0.057330939            6 
  539000    1.0340566   -4.6882794    366.30396  0.056633265  0.057307268           11 
  540000     1.038066   -4.6853745    367.16828  0.056661771  0.057282993            2 
  541000    1.0352335   -4.6682024      366.764  0.056494762  0.057258203            8 
  542000    1.0365793   -4.6514676    367.92269  0.056568679  0.057233408            4 
  543000    1.0214049   -4.6563281     368.3216  0.056525721  0.057208988            1 
  544000    1.0571414   -4.6633647    367.90871  0.056358564  0.057185364            1 
  545000    1.0454756   -4.6390901    370.65892  0.056675676  0.057162752            5 
  546000    1.0289182    -4.653477     370.4783  0.056544308  0.057140177            2 
  547000    1.0192772   -4.6640283    371.28841  0.056564353  0.057117475            3 
  548000    1.0232261   -4.6655995    371.20082  0.056447813  0.057093928            2 
  549000    1.0189122   -4.6770949    372.21506  0.056498946  0.057070112            6 
  550000    1.0207228   -4.6684275    372.45192  0.056432109  0.057046473            3 
  551000    1.0345093    -4.677888    372.31083  0.056308353  0.057022385            3 
  552000    1.0366805   -4.6693304    374.54575  0.056543743   0.05699915            2 
  553000    1.0555296   -4.6547301    374.26364  0.056398981  0.056975783            2 
  554000    1.0340539   -4.6909842    373.10728  0.056123237  0.056952755            2 
  555000    1.0409893    -4.628612    375.25056  0.056343928  0.056929489            2 
  556000    1.0383937   -4.6437896    375.91142   0.05634164   0.05690714            5 
  557000    1.0317833   -4.6679073    376.65584  0.056351861  0.056884008            5 
  558000    1.0304377   -4.6684615    377.00611  0.056303183  0.056860295            2 
  559000     1.003985   -4.6638523    377.68655  0.056303899  0.056837004            6 
  560000     1.029228   -4.6758402    379.17703  0.056425153  0.056813602            6 
  561000     1.018146   -4.6968825    377.75861  0.056113876  0.056790652            2 
  562000    1.0296607   -4.6632677    379.47215  0.056268113   0.05676827            4 
  563000    1.0373493    -4.711666    379.48025  0.056169369   0.05674457            5 
  564000    1.0026869   -4.6793403     380.3511  0.056198449  0.056720667            6 
  565000    1.0014208   -4.6613052    382.57069  0.056426356  0.056697817            3 
  566000    1.0143509    -4.678317    381.17028  0.056120477  0.056676757            3 
  567000    1.0107887   -4.6555092    381.97894   0.05614035   0.05665403            5 
  568000    1.0153948   -4.6422103    382.09769  0.056058933  0.056631673            2 
  569000    1.0281831   -4.7301576    381.91821  0.055934126  0.056608507            2 
  570000    1.0254137   -4.6724192    384.20523  0.056170355  0.056585138            5 
  571000    1.0515531   -4.7002513    384.47178  0.056110885  0.056562182            5 
  572000    1.0274609   -4.6877866    384.37988    0.0559994  0.056539046            1 
  573000    1.0203906   -4.6641331    384.86124  0.055971676  0.056515802            5 
  574000    1.0138732    -4.708606    383.71521  0.055707784  0.056492077            5 
  575000   0.99151273   -4.6804312    384.04007  0.055657981  0.056468589            2 
  576000    1.0116845   -4.6556766    387.27685  0.056029637  0.056445503            4 
  577000    1.0382831   -4.7122527    384.95363  0.055597001  0.056421414            2 
  578000    1.0494475   -4.7048571    386.03713  0.055657026  0.056397268            2 
  579000   0.99624386   -4.6959751    387.24491   0.05573473  0.056372976            2 
  580000    1.0306892    -4.701974    387.67822  0.055700894  0.056348927            5 
  581000   0.99926544   -4.6808116    388.49265  0.055721837  0.056324611            1 
  582000    1.0191635   -4.6931382     388.8085   0.05567132  0.056300691            3 
  583000     1.013494   -4.7049993    387.28309  0.055357788  0.056276178            4 
  584000     1.032953   -4.7142069    388.28406   0.05540583  0.056251418            3 
  585000    1.0516309    -4.684052    390.23604  0.055589179  0.056227166            4 
  586000    1.0146275   -4.6839217    391.15041  0.055624347  0.056203006            4 
  587000    1.0137192   -4.6892091    391.10395  0.055522991  0.056178627            2 
  588000    1.0415479   -4.6734143    391.52485  0.055488216  0.056154381            3 
  589000    1.0269583   -4.7037865    390.48306  0.055246613   0.05612915            3 
  590000    1.0458572   -4.7090481     391.1433  0.055246229   0.05610355            2 
  591000    1.0231699   -4.6989835    392.29404  0.055315009  0.056078285            3 
  592000    1.0260656   -4.7130099    392.98229  0.055318453  0.056052918            4 
  593000    1.0273218   -4.6801073    392.98867  0.055226064  0.056027747            6 
  594000    1.0153952   -4.7397646    393.52781  0.055208728  0.056002202            2 
  595000     1.025876   -4.6981724    393.28222  0.055081543  0.055976809            2 
  596000    1.0236109   -4.7240996    395.15853  0.055251473  0.055950422            3 
  597000   0.99727969   -4.7282956    394.83869  0.055114278  0.055924943            4 
  598000    1.0113461   -4.7150886    395.47146  0.055110292  0.055898863            3 
  599000   0.99074404    -4.743337    395.19316  0.054979571  0.055872776            3 
  600000   0.98298127   -4.7174107    395.98386  0.054997758  0.055846641            5 
  601000   0.99277828    -4.669545    397.89851   0.05517173  0.055821067            4 
  602000    1.0171988   -4.6788784    398.03554  0.055099051  0.055796169            3 
  603000    1.0257413   -4.6663396    399.95891  0.055273481  0.055772064            2 
  604000    1.0098466   -4.7017747     398.3621  0.054961659  0.055747545            4 
  605000    1.0489716   -4.7412677    399.55628  0.055035301  0.055723164            1 
  606000    1.0217851   -4.6998663    401.01239  0.055144718  0.055698858            5 
  607000    1.0163347   -4.7115205    400.77813  0.055021709  0.055674558            3 
  608000   0.99481765   -4.7199326    400.04388  0.054830576  0.055649799            3 
  609000   0.99652566   -4.7006096    401.57617  0.054950215  0.055624951            4 
  610000   0.99617669   -4.7058348    402.03191  0.054922393  0.055600547            3 
  611000    1.0144826   -4.7225807    403.77483  0.055070216   0.05557675            1 
  612000    1.0048808   -4.7229131    402.58481  0.054818193   0.05555177            2 
  613000    0.9991585   -4.7282249    403.87251  0.054903822  0.055527262            7 
  614000    1.0030775   -4.7285108    404.22682  0.054862489  0.055502569            6 
  615000   0.98870127   -4.7269313    405.79572  0.054985871  0.055478164            3 
  616000    1.0027883      -4.7262    406.83021  0.055036555   0.05545351            2 
  617000    1.0117441   -4.7051639    405.84694  0.054814552  0.055428785            3 
  618000    1.0004138   -4.6844389    407.41637  0.054937482  0.055404069            3 
  619000   0.99750662    -4.740175    406.69585   0.05475173  0.055380188            2 
  620000     1.026296   -4.6899016    408.22726  0.054869256  0.055355901            1 
  621000    1.0118309   -4.7258252    406.98087  0.054613643  0.055331532            3 
  622000   0.99422686   -4.7519655    407.11829  0.054544251  0.055306169            2 
  623000    1.0030326   -4.7275357    409.13222  0.054726087   0.05528185            3 
  624000   0.99791345   -4.7232035    410.89046  0.054873192  0.055258204            1 
  625000    1.0114627   -4.7178236    408.79392  0.054505856  0.055232945            2 
  626000    1.0148208   -4.7348494    409.48253  0.054510454   0.05520744            2 
  627000    1.0038111   -4.7113909    409.70965  0.054453702  0.055181582            5 
  628000    1.0024263   -4.7110086    410.78361  0.054509502   0.05515647            9 
  629000    1.0424122   -4.7354903    410.74073  0.054417161  0.055131101            2 
  630000    1.0041107   -4.7298735    411.48476  0.054429201  0.055105146            2 
  631000    1.0108171   -4.7391685    411.57925  0.054355421  0.055079139            4 
  632000   0.98932277   -4.7532846    411.31657   0.05423478   0.05505231            9 
  633000   0.99333052   -4.7195195    412.69851  0.054331031  0.055026014            2 
  634000    1.0060929   -4.7465668    410.69555  0.053982065  0.054999107            3 
  635000    1.0079441   -4.7250083    410.99036  0.053935743  0.054971945            5 
  636000    0.9849822   -4.7359459    411.55623  0.053925083  0.054944567            4 
  637000    1.0078788   -4.7624982    412.37995  0.053948189   0.05491646            5 
  638000   0.99715695    -4.734135    412.04222  0.053819516  0.054888823            3 
  639000    1.0114507   -4.7262939    413.48288  0.053923171  0.054860762            4 
  640000    1.0012849   -4.7284264    412.67587  0.053733837  0.054832599            4 
  641000   0.98852504   -4.7214626    414.31611  0.053863248  0.054803976           10 
  642000   0.99746368   -4.7224662    415.74709  0.053965095  0.054775485            5 
  643000    1.0067033   -4.7734517    415.31508  0.053825179  0.054746902            1 
  644000    1.0063448   -4.7420842    415.31917  0.053742129  0.054718757            4 
  645000     1.003398   -4.7099545    416.02812  0.053750403   0.05469029            3 
  646000   0.98315727   -4.7661106    414.75473  0.053502932  0.054661993            2 
  647000   0.99961829   -4.7557789    416.60058  0.053657983  0.054633065            3 
  648000   0.99992573   -4.7633014    415.85306  0.053479046  0.054603821            3 
  649000   0.99175758    -4.730945    418.85466  0.053782056  0.054575423            4 
  650000    1.0101456   -4.7358742     418.4921  0.053652834  0.054546837            6 
  651000    0.9924472   -4.7820099    418.60798  0.053585251  0.054518498            3 
  652000   0.99928237   -4.7394617    419.06011  0.053560852  0.054490846            4 
  653000    1.0041167   -4.7634647    419.07011  0.053480105  0.054462795            3 
  654000   0.96703097   -4.7548775    419.59959  0.053465798  0.054434605            3 
  655000   0.99261595   -4.6991548    422.21457  0.053716867  0.054406696            2 
  656000    1.0002807   -4.7526948    420.39307  0.053403591  0.054378079            4 
  657000   0.99865136   -4.7295606     420.7083  0.053362291  0.054350061            2 
  658000   0.98960162   -4.7342067    422.23554  0.053474612  0.054322995            3 
  659000   0.99559501   -4.7450178    421.46921  0.053296562  0.054295255            5 
  660000   0.97257077   -4.7512192    422.58552  0.053356757  0.054266949            2 
  661000   0.98119499   -4.7189748    423.92597  0.053445029  0.054239105            3 
  662000   0.99117093   -4.7533117    423.74508  0.053341526  0.054211791            6 
  663000   0.98474921   -4.7737264    422.52562  0.053107796  0.054183881            3 
  664000    1.0049538   -4.7777933    424.20021  0.053237978  0.054154689            3 
  665000   0.97008922    -4.742718    424.73201  0.053224563  0.054125588            2 
  666000   0.98967806   -4.7497884    424.30287   0.05309095    0.0540965            3 
  667000   0.96613975   -4.7576413    425.61795  0.053175656  0.054067859            3 
  668000   0.98654729   -4.7671467    424.97587  0.053015952  0.054038517            4 
  669000   0.97532037   -4.7787773     424.9949  0.052939076  0.054009211            3 
  670000    1.0051344   -4.7696103    427.44992  0.053165413  0.053979042            5 
  671000   0.98569968     -4.74778    428.11346  0.053168587  0.053949897            4 
  672000   0.98630374   -4.7510838    428.94287   0.05319232   0.05392164            3 
  673000   0.97657212   -4.7699456    427.46969  0.052930868   0.05389264            3 
  674000   0.97753691   -4.7416146    427.54297  0.052861396  0.053864289            5 
  675000   0.97639289   -4.7848262    427.57466  0.052786995  0.053835983            3 
  676000   0.96729842   -4.7980202    427.91177  0.052750464   0.05380693            2 
  677000   0.99079165   -4.7540094    428.19285  0.052707146  0.053776994           12 
  678000   0.98792553   -4.7806687    428.29118  0.052641492  0.053747757            3 
  679000   0.98323988   -4.7759539    429.45016  0.052706205  0.053718884            2 
  680000   0.99032506   -4.7555288    430.65021  0.052775761  0.053689607            5 
  681000   0.97278914   -4.7437977    429.19118  0.052519723  0.053660149            5 
  682000   0.96884868   -4.7306364    432.00652  0.052786721   0.05363148            2 
  683000   0.98792711   -4.7884863    431.20313  0.052611412  0.053602908            3 
  684000    0.9913673   -4.7378302    433.12456  0.052768587  0.053574032            4 
  685000   0.97160826   -4.7295745    431.83309  0.052534439  0.053545792            3 
  686000   0.97845744   -4.7822177    431.96282  0.052473618  0.053516757            5 
  687000   0.96864678   -4.7893274    431.49928  0.052341009  0.053487674            6 
  688000   0.97722381   -4.7530547    434.56815  0.052636646  0.053458229            2 
  689000   0.98543738   -4.7662669    433.28019  0.052404474  0.053428761            3 
  690000   0.96824845   -4.7876167    433.60991  0.052368346  0.053399134            3 
  691000   0.97524483   -4.8077551    432.50668  0.052159513  0.053368974            5 
  692000   0.96940562   -4.7633269    434.32873  0.052303556  0.053339006            5 
  693000    0.9810557   -4.7955451     434.0226   0.05219127  0.053309418            2 
  694000   0.98027402   -4.7935017    434.36521  0.052157205  0.053279613            2 
  695000   0.96370893   -4.7782723    435.97461  0.052275133  0.053250085            3 
  696000   0.98358241   -4.7659041    437.88746  0.052429054   0.05322101            2 
  697000   0.98511061   -4.7785891    437.51513  0.052309317   0.05319257            3 
  698000   0.96611918   -4.7392108    438.76443  0.052383528  0.053163948            4 
  699000   0.97945859   -4.7912234    437.34061  0.052138843  0.053135173            3 
  700000   0.96539583   -4.8010392    436.41668  0.051954367  0.053105692            4 
  701000   0.98351742   -4.7875003    439.37839  0.052232333  0.053076344            8 
  702000   0.97235438   -4.7780889    439.93499  0.052224002  0.053047522            4 
  703000   0.98102584   -4.7447033    440.41696  0.052206847  0.053018802            2 
  704000   0.98152004   -4.7817367    440.08178  0.052093013  0.052990226            3 
  705000   0.99699662   -4.7907912    440.02152     0.052012   0.05296171            6 
  706000   0.95666015   -4.7981644    440.45268  0.051989221    0.0529335            3 
  707000   0.98718175   -4.7765241    441.91283  0.052087792  0.052905347            5 
  708000   0.96013982   -4.7950525    442.12283   0.05203894  0.052876848            3 
  709000   0.95758474   -4.8000181    441.58607  0.051902453  0.052848439            3 
  710000   0.95921674   -4.8023332    443.43086  0.052045875  0.052820562            5 
  711000   0.97502742    -4.764515    442.65626  0.051881887  0.052792655            3 
  712000   0.95863643   -4.8055088    442.39383  0.051778304  0.052764794            5 
  713000    0.9516191   -4.7623062    445.64234   0.05208536  0.052737199            9 
  714000   0.98356136   -4.7789583    445.70277  0.052019464  0.052709773            5 
  715000   0.96341168   -4.7701682    447.51446  0.052157862  0.052682571            5 
  716000   0.96247013   -4.8103115    446.19139  0.051931027  0.052655438            3 
  717000   0.98172007   -4.7856369    447.44046  0.052003773  0.052628348            4 
  718000   0.95310845   -4.7875008    447.58243  0.051947822  0.052601472            5 
  719000   0.99082801   -4.8045029    447.53129  0.051869644  0.052574674            4 
  720000   0.98100508   -4.7882854    449.19164  0.051989773  0.052547982            4 
  721000   0.96207509   -4.7938554    449.06525  0.051903057  0.052521264            2 
  722000   0.96969586   -4.7767031    449.56813  0.051889212  0.052494822            7 
  723000   0.96607298   -4.7941772     449.1846  0.051773236  0.052468584            3 
  724000   0.94763216   -4.7948437    451.25949  0.051940549  0.052441968            4 
  725000   0.94874416   -4.7857116    451.33471  0.051877553   0.05241636            3 
  726000   0.96101758    -4.794688    451.01193  0.051769046  0.052390119            2 
  727000   0.95530154   -4.7992422    451.03365  0.051700327  0.052363686           11 
  728000   0.96067671   -4.7881803     451.3094  0.051660874  0.052336215            6 
  729000   0.95571822   -4.8118358    450.70789   0.05152125  0.052309112            4 
  730000   0.97333959   -4.8319699    450.97182  0.051480802  0.052281744            6 
  731000    0.9816576   -4.8198626    452.40873  0.051574183  0.052254301            3 
  732000    0.9523627   -4.8248912    450.39125  0.051274049  0.052227084            2 
  733000   0.95035833   -4.7996653    451.73132  0.051356449  0.052199272            3 
  734000   0.95894728   -4.8050364    452.52005  0.051376027  0.052172172            3 
  735000   0.96042006   -4.7876564    455.31392  0.051622894  0.052144839            4 
  736000   0.97381811   -4.8019945    456.49698  0.051686706  0.052117771            7 
  737000   0.96863947   -4.8156168    455.23897  0.051474329  0.052091043            3 
  738000   0.96430854    -4.807666    454.89809  0.051366089  0.052063709            3 
  739000   0.93069601    -4.806848    456.20056  0.051443455  0.052037003            5 
  740000    0.9601847   -4.7807949    455.13642  0.051254101  0.052009557            4 
  741000   0.92660771   -4.8040858    457.04743  0.051399846  0.051982265            5 
  742000    0.9639185   -4.8537578    455.29992  0.051134313  0.051954193            8 
  743000   0.94687593   -4.7902961     455.2606  0.051061082  0.051926891            6 
  744000   0.95088182    -4.834885    456.82597  0.051167784  0.051899341            3 
  745000   0.96874637   -4.8141323    456.67205  0.051081885  0.051871523            6 
  746000    0.9368365   -4.7818265    459.79602  0.051362379     0.051844            3 
  747000   0.97247869   -4.8260921    457.51951  0.051039659   0.05181671            3 
  748000   0.93343761    -4.799657    459.47838  0.051189659   0.05178884            4 
  749000    0.9639305    -4.803502    458.56202  0.051019362   0.05176184            6 
  750000   0.94311037   -4.8467357    458.98341  0.050998156  0.051733964            2 
  751000    0.9567076   -4.8313488    460.20405  0.051065696   0.05170632            3 
  752000    0.9697013    -4.804603    460.40266  0.051019798  0.051678734            3 
  753000   0.95960921   -4.8366635    460.12305  0.050921099  0.051651364            9 
  754000   0.95699577   -4.8319469    460.88473  0.050937747  0.051623966            4 
  755000   0.96766279   -4.7985726    461.02789   0.05088608  0.051596565            4 
  756000   0.96364833   -4.8053076    461.55791  0.050877195  0.051569239            7 
  757000   0.94753436   -4.7962751    463.52092  0.051026081  0.051541916            4 
  758000   0.95765784   -4.8182464    462.49471  0.050845945  0.051514063            8 
  759000   0.94818396    -4.844547    462.02377  0.050727248  0.051486474            5 
  760000    0.9484211   -4.8176383    463.02526  0.050770313  0.051458376            5 
  761000   0.96310313   -4.8163634    463.78557  0.050786856  0.051430031            4 
  762000   0.95539105   -4.8131194    462.83412  0.050616155  0.051402085            6 
  763000   0.96329902   -4.8254509     463.9789  0.050674847  0.051373935            3 
  764000   0.95447859   -4.7902831    463.78624  0.050587505  0.051345571            4 
  765000   0.94558891   -4.8351581    464.26016  0.050573002  0.051316923            8 
  766000   0.94814634   -4.8272449    463.77688  0.050454404  0.051288821            2 
  767000   0.94178134   -4.8125272    467.36477  0.050778441  0.051260791            7 
  768000   0.95801111   -4.8323566    465.57626  0.050518258  0.051232816            4 
  769000    0.9221171   -4.8369038    465.68859  0.050464737  0.051204945            4 
  770000   0.96098806   -4.8479151    467.26048  0.050569316  0.051177388            8 
  771000    0.9589581   -4.8586054    466.70106  0.050443262  0.051149319            4 
  772000   0.94106478   -4.8553858    465.67669  0.050267346  0.051120858            3 
  773000   0.92914638   -4.8567302    468.06262  0.050459532  0.051092198            4 
  774000   0.95531718   -4.8439209    467.96085  0.050383381  0.051064032            2 
  775000   0.95015648   -4.8189835    468.87708   0.05041689  0.051035996            4 
  776000   0.92780679   -4.8065599     468.8656  0.050350687  0.051008111            3 
  777000    0.9376497   -4.8382573    469.85236  0.050391716  0.050981129            4 
  778000    0.9330707    -4.824936     470.7637  0.050424561  0.050953899            2 
  779000   0.93334947   -4.8483403    470.96242  0.050381089  0.050927052            8 
  780000   0.93914999   -4.8473187    472.48715  0.050479397  0.050899442            4 
  781000   0.93515776   -4.8308269     472.5134  0.050417563  0.050872362            3 
  782000   0.91560484    -4.852723    469.68068  0.050051224  0.050844737            2 
  783000   0.92929883   -4.8399033    471.62236  0.050193951   0.05081692            4 
  784000   0.94242074   -4.8497642    471.77063  0.050145688  0.050788424            6 
  785000   0.93734356   -4.8424931    472.51539  0.050160869  0.050760222            2 
  786000   0.92854278   -4.8394131     472.7717  0.050124226  0.050732259            5 
  787000   0.92475445   -4.8645331     470.3578  0.049804934  0.050704005            4 
  788000   0.95678199   -4.8530123    470.44393  0.049750839  0.050675501            8 
  789000    0.9488528    -4.835125    472.41391   0.04989585  0.050647019            3 
  790000   0.94652822   -4.8500368    470.35618  0.049615631  0.050617907            5 
  791000   0.94454197   -4.8551464    472.03346   0.04972961  0.050588913            6 
  792000   0.93109581   -4.8543006    472.75999  0.049743265  0.050560072            4 
  793000   0.93784212   -4.8603703    472.54975  0.049658443  0.050531162            2 
  794000   0.93281076   -4.8372936    475.29919  0.049884466  0.050502264            3 
  795000   0.93435474   -4.8444118    472.94585  0.049575036  0.050473176            4 
  796000   0.93412865   -4.8697875    473.67451   0.04958904  0.050443974            3 
  797000   0.93101446   -4.8496321    473.22593  0.049479917  0.050414832            5 
  798000   0.95300606   -4.8490346    474.65728  0.049567385  0.050385584            7 
  799000   0.93747998   -4.8736537    472.74924  0.049306346  0.050356382            4 
  800000   0.94403372   -4.8536185    475.31811  0.049512304   0.05032677            4 
  801000   0.92762784   -4.8887282    473.37039  0.049247856  0.050297006            2 
  802000   0.95695092   -4.8568778    476.05756  0.049465665  0.050267348            4 
  803000   0.93202297   -4.8530622    474.44649  0.049236871  0.050237737            3 
  804000   0.92278822   -4.8711417    477.43363  0.049485244  0.050208304            6 
  805000   0.93563606   -4.8628204    476.80473  0.049358668  0.050178419            4 
  806000    0.9537938   -4.8695118     477.3136  0.049350041  0.050148679            4 
  807000   0.90234243   -4.8867341    474.63113  0.049011888  0.050118837            2 
  808000   0.93345405   -4.8401375    477.16635  0.049212701  0.050089086            2 
  809000   0.92406189   -4.8656051    475.57452  0.048987899  0.050059297            3 
  810000   0.95968913   -4.8533694    477.06897  0.049081169  0.050029012            8 
  811000   0.90955862   -4.8730119    476.25896  0.048937419  0.049998117            4 
  812000   0.93337626   -4.8795198    476.80158  0.048932839  0.049967542            4 
  813000   0.91415198   -4.8726099    475.99262  0.048789732  0.049936358            5 
  814000   0.93771701   -4.8292621    479.18395  0.049056505  0.049905959            3 
  815000   0.89372924   -4.8691179    477.80611   0.04885543  0.049875661            4 
  816000   0.94297417   -4.8493575    480.52071  0.049072785  0.049844947            3 
  817000   0.90601963   -4.8479421    480.35909  0.048996235  0.049814887            2 
  818000   0.92552492   -4.8789574    478.56372  0.048753435  0.049784341            4 
  819000   0.94045414   -4.8501484     480.2765  0.048868182  0.049754346            3 
  820000   0.92166021   -4.8457511    482.86784  0.049071935   0.04972559            2 
  821000   0.93725453   -4.8703671    481.32361  0.048855421  0.049696253            3 
  822000   0.94117587   -4.8973826    480.67751  0.048730486  0.049666195           12 
  823000   0.92230426   -4.8871215    480.85946  0.048689699  0.049636056            4 
  824000   0.93453008   -4.8540517    480.73661  0.048618185  0.049605324            5 
  825000   0.91727744   -4.8840978    480.36986  0.048522208  0.049575533            5 
  826000    0.9294538   -4.8774287    483.92538  0.048822173  0.049545775            5 
  827000   0.93787073   -4.8683435    483.19589   0.04868963   0.04951585            5 
  828000   0.91935671   -4.8395148    483.82679  0.048694323  0.049485828            3 
  829000   0.93769985   -4.8683705    483.23585  0.048576181  0.049455716            4 
  830000   0.92971736   -4.8502877    485.13665  0.048708499  0.049425765            3 
  831000   0.93174227   -4.8857804    481.99624  0.048334962  0.049395985            7 
  832000   0.93436915   -4.8632619    484.79859  0.048557551  0.049365922            5 
  833000   0.92205187    -4.861772    483.99302   0.04841867  0.049336407            3 
  834000   0.92377784   -4.8822661    485.31026  0.048492232  0.049306169            4 
  835000   0.92657535   -4.8374828    486.54896   0.04855778  0.049276848            5 
  836000   0.91786588   -4.8833543     485.8286  0.048427891  0.049247039           10 
  837000   0.92651927   -4.8685643    487.41357  0.048527835  0.049217469            4 
  838000   0.92050367   -4.8935871    485.72929  0.048302435  0.049187959            4 
  839000   0.89586118   -4.8535388    485.71292  0.048243238  0.049158565            9 
  840000   0.91587724   -4.9121242    487.80418  0.048393272  0.049129424            4 
  841000   0.90077972   -4.8780302    489.20696  0.048474729  0.049100928            4 
  842000   0.91213463   -4.8632831    487.47887  0.048246127  0.049071983            7 
  843000   0.92355953   -4.9037563    487.63077  0.048203911  0.049042712            3 
  844000   0.93076526   -4.9008178    490.39442   0.04841967  0.049013879            5 
  845000   0.90027932   -4.8669654    489.03211  0.048228019  0.048985305            6 
  846000   0.91862744   -4.9078421    488.57667   0.04812615   0.04895627            4 
  847000   0.91451418    -4.879981    490.20947  0.048229976  0.048927214            4 
  848000   0.91082333   -4.8923486    490.18709  0.048170902  0.048898071            5 
  849000   0.90191122   -4.9122091    489.07437  0.048004944  0.048869078            4 
  850000   0.89973584   -4.8804346    489.60939  0.048000921  0.048839681            8 
  851000   0.92978462   -4.8632109    489.71848  0.047955198  0.048810136            6 
  852000    0.9375091   -4.8969084     489.6112  0.047888419  0.048780379            3 
  853000   0.89671356   -4.8936032    491.59964  0.048026538  0.048750522            3 
  854000   0.92184176   -4.8746505    491.72808  0.047982834  0.048721606            3 
  855000   0.90329871   -4.8863371    491.99568  0.047952795  0.048693127            4 
  856000     0.898975   -4.9136646    492.38804  0.047934973  0.048664712            5 
  857000   0.89830298   -4.8852223     492.6348  0.047903034  0.048636404            2 
  858000   0.90630458   -4.8763541    496.91858  0.048263265  0.048607796            4 
  859000   0.91684858   -4.8834816    493.88734  0.047913013  0.048579177            5 
  860000   0.89742605   -4.9149761    495.84655  0.048047146  0.048550523            5 
  861000   0.90263588   -4.9119076    492.95549  0.047711526  0.048522126            5 
  862000   0.91124828   -4.9118009    494.55414  0.047810725  0.048493685            7 
  863000   0.91848888   -4.9211394    495.30836  0.047828154  0.048465428            5 
  864000   0.92477882   -4.8907116    494.90074  0.047733482   0.04843665            7 
  865000   0.91934493   -4.8989152    494.75616   0.04766437  0.048407845            4 
  866000    0.8951521   -4.9383159    496.41359  0.047768821  0.048379404            5 
  867000    0.8997816   -4.9090204    495.69994  0.047645131  0.048350546            6 
  868000   0.90554429   -4.9028386    495.65748  0.047586163  0.048321452            2 
  869000    0.9092522   -4.9075249    497.19034  0.047678398  0.048293102            3 
  870000   0.90348293   -4.8986595    497.54996  0.047658042  0.048264558            2 
  871000   0.91110092    -4.895245    498.11061  0.047656966  0.048236581            2 
  872000   0.90639329   -4.9411284    497.43579  0.047537824  0.048208204            3 
  873000   0.89262738   -4.9237854    499.61005  0.047690917  0.048179846            3 
  874000   0.90389267   -4.9301185    498.18145  0.047500138  0.048151585            3 
  875000   0.90083708   -4.9119305    499.62432  0.047583269  0.048123474            7 
  876000   0.90940808   -4.9167814    499.96321  0.047561189  0.048095402            5 
  877000   0.91687222   -4.9172688    500.13764  0.047523531  0.048067346            9 
  878000   0.89652213    -4.922712    500.99815  0.047551077  0.048039386            2 
  879000   0.89531642   -4.8766282    502.50026  0.047639388   0.04801198            3 
  880000   0.91817414   -4.9132124    500.63991  0.047409083  0.047984646            4 
  881000    0.9113197   -4.9348213    500.10797  0.047304954  0.047956643            7 
  882000   0.90798653   -4.8979968    503.11342  0.047535282  0.047928921            6 
  883000   0.89478055   -4.9203949    501.20723  0.047301551  0.047901156            3 
  884000    0.8937746   -4.9250306    502.11712  0.047333816  0.047872704            5 
  885000   0.89450886   -4.9178235    502.69361  0.047334615  0.047845005            4 
  886000   0.89563475   -4.9567879    501.55289  0.047173899  0.047816531            6 
  887000   0.88009485   -4.9239387    503.29872  0.047284735  0.047788439            2 
  888000   0.90102731   -4.9106667     502.5475  0.047160989  0.047759984            4 
  889000   0.89962154   -4.9315567    503.51936   0.04719904  0.047732088            5 
  890000   0.91613603   -4.9232438    503.55529  0.047149372  0.047704466            4 
  891000   0.90659647   -4.9607396     504.3135  0.047167368  0.047676327            4 
  892000   0.89032704   -4.9388554    503.27962  0.047017901  0.047648276            3 
  893000   0.91332747   -4.9293449    502.46813  0.046889523  0.047619942            4 
  894000    0.8897967   -4.9499997    503.67269  0.046949355  0.047591458            9 
  895000   0.89638041   -4.9215135    505.36057  0.047054057  0.047563106           10 
  896000   0.89082392   -4.9165716    504.45406  0.046917231  0.047534822            2 
  897000   0.90131868   -4.9250571    506.43012  0.047048506  0.047507029            4 
  898000   0.88665151   -4.9405872    506.64422  0.047015982  0.047478951            4 
  899000   0.91156803   -4.9307437    506.14176  0.046917108  0.047450681            2 
  900000    0.8832892   -4.9338527    507.74821  0.047013723  0.047423067            3 
  901000   0.88429827   -4.9206631    508.92236  0.047070141   0.04739581            4 
  902000   0.90118022   -4.9626858    508.25357  0.046956168  0.047368237            3 
  903000   0.89531165   -4.9561333    506.67627  0.046758607  0.047340743            5 
  904000   0.89257855   -4.9235598    508.48479  0.046873598  0.047313835            3 
  905000     0.871477   -4.9315914    509.70395  0.046934065  0.047286641            4 
  906000    0.8778691   -4.9309136    510.73439  0.046977041  0.047259415            3 
  907000   0.88542843   -4.9352459    509.41386  0.046803919  0.047232715            6 
  908000   0.88354453   -4.9387064    511.38386  0.046933173  0.047206137            4 
  909000   0.89291375    -4.962478    510.78649  0.046826777  0.047178805           10 
  910000   0.88960416   -4.9312821    510.21185  0.046722697  0.047151888            4 
  911000   0.89371176   -4.9290603    509.76847  0.046630852  0.047124732            3 
  912000   0.88311306   -4.9567879    510.92227  0.046685149  0.047097332            4 
  913000   0.89933176   -4.9163045     512.1893  0.046749662  0.047070029            9 
  914000   0.89043146   -4.9502754    510.34264  0.046530146  0.047042671            4 
  915000   0.88953315   -4.9654248    510.97319   0.04653672   0.04701525            3 
  916000   0.88590414   -4.9261306    511.71032  0.046552977   0.04698783            6 
  917000   0.88530448   -4.9602189    511.80449  0.046510768  0.046960559            4 
  918000   0.88859233   -4.9533906    511.35936  0.046419695   0.04693305            6 
  919000   0.86819484   -4.9257383    512.87404  0.046506532  0.046905438           11 
  920000   0.87233742   -4.9472232     513.1437  0.046480407  0.046877665            4 
  921000   0.89683707   -4.9566988    511.95118   0.04632204  0.046850344            8 
  922000   0.87071715   -4.9510765    512.55483  0.046326358  0.046822672            3 
  923000   0.89192828   -4.9798044    514.27516  0.046431488   0.04679478            4 
  924000   0.89728724   -4.9655605    513.59133  0.046319565  0.046767301            4 
  925000   0.88436816   -4.9457099    515.00277  0.046396646  0.046739955            4 
  926000   0.89407178    -4.940584    516.32516  0.046465547  0.046712953            6 
  927000   0.88938164   -4.9431576    514.93298  0.046290271  0.046685851            6 
  928000   0.87541938   -4.9566452    515.98747  0.046335081  0.046658874            2 
  929000    0.8947067   -4.9622695    514.87256  0.046185196   0.04663176            4 
  930000   0.87880355   -4.9433868    516.35344  0.046268229  0.046604521            3 
  931000    0.8891071   -4.9514218    516.35375   0.04621856  0.046577407            3 
  932000   0.87705589   -4.9664621    518.72317  0.046380827  0.046550302            3 
  933000   0.89311904   -4.9862329    515.19195  0.046015715  0.046522909            4 
  934000    0.8840078   -4.9595585    516.77693  0.046107863  0.046495587            6 
  935000   0.90106023   -4.9545158    516.50701  0.046034492  0.046467938            5 
  936000    0.8757155   -4.9803883    518.26282  0.046141633  0.046440928            5 
  937000    0.8785411   -4.9735963    516.83199  0.045965136  0.046413946            6 
  938000   0.87052096   -4.9737617    517.36871  0.045963816  0.046386694            5 
  939000    0.8987954   -4.9679763    518.65918  0.046029391  0.046359327            3 
  940000   0.91438255   -4.9913463    515.19357  0.045673188  0.046332065            4 
  941000   0.88687708   -4.9646198    518.15287  0.045886722  0.046304567            4 
  942000    0.8769915   -4.9858562    518.06299   0.04583006   0.04627719            6 
  943000   0.89094624   -4.9461986    518.92272  0.045857434  0.046249549            5 
  944000   0.89380983   -4.9507887    519.09298  0.045823886  0.046222363            9 
  945000   0.87065435   -4.9864589    519.32948   0.04579625  0.046195322            5 
  946000   0.87738217   -5.0057665    519.74534  0.045784473  0.046168013            4 
  947000   0.87470753    -4.965475    519.73446  0.045735169   0.04614052            6 
  948000     0.876244   -4.9771762    521.06283  0.045803695  0.046113809            7 
  949000   0.88712809   -4.9887115    519.78639  0.045643343  0.046086959            7 
  950000   0.87818002   -4.9555558    521.57158  0.045751893  0.046060302            3 
  951000   0.86569141   -4.9521953    522.39325  0.045775784  0.046033812            4 
  952000   0.87149036   -4.9595506    522.23753  0.045714069  0.046006903            3 
  953000   0.87566461   -5.0039355    522.92147  0.045725907  0.045980164            4 
  954000   0.87508857   -5.0005685    523.20337    0.0457026  0.045953414            3 
  955000   0.86882578   -5.0120668    522.99611  0.045636659  0.045926745            8 
  956000   0.88694168   -4.9684819    522.88606  0.045579329  0.045900369            5 
  957000   0.86750341   -4.9613094    523.63041  0.045596518  0.045874328            4 
  958000   0.86406257   -4.9792336    523.58121  0.045544642  0.045847971            4 
  959000   0.87903927   -4.9682589    525.32856  0.045648988  0.045821846            5 
  960000   0.88509524   -4.9644402    525.71836  0.045635274  0.045796135            4 
  961000   0.87994856   -4.9818585    524.43908  0.045476854  0.045769915            7 
  962000   0.85429745   -4.9711193    526.64144   0.04562036  0.045743747            4 
  963000   0.86398938   -5.0175737    525.95391  0.045513491  0.045717412            3 
  964000   0.87447011   -4.9835043    525.09828  0.045392313  0.045690978            6 
  965000   0.86527069   -4.9728625    526.73368  0.045486501  0.045664558            3 
  966000   0.85836166   -5.0101132    524.80398  0.045272945  0.045638303            7 
  967000    0.8590548   -4.9801299    526.23074  0.045349082  0.045611626            4 
  968000   0.85882253   -4.9658156    527.44424  0.045406701  0.045585221            2 
  969000   0.86204245   -4.9730704    526.09827  0.045244089  0.045558722            5 
  970000   0.86008545   -4.9825866    526.91923  0.045267975  0.045531997            2 
  971000   0.86742988   -4.9780149    526.78916  0.045210192  0.045505094            6 
  972000   0.86326121   -4.9950378    527.65738  0.045238116  0.045478334            4 
  973000   0.86431886   -5.0119526    526.06901  0.045055585  0.045451676            3 
  974000   0.86279914   -4.9945204    526.38311  0.045036201  0.045424903            4 
  975000   0.86806393   -5.0104913    527.24475  0.045063654   0.04539815            5 
  976000   0.85940337   -4.9735799    528.19579  0.045098685  0.045371413            7 
  977000    0.8614171   -5.0078866    528.06054  0.045040987  0.045344482            4 
  978000   0.86049875   -4.9947228    527.95375  0.044985834  0.045317458            3 
  979000   0.85763585   -5.0071282    529.08855  0.045036478  0.045291086            5 
  980000   0.87148341   -5.0224775    527.36938  0.044844335  0.045264319            7 
  981000   0.86933085   -4.9912704    527.40206  0.044801398  0.045237387            3 
  982000   0.84192091   -5.0027912    529.23138  0.044911013  0.045210591            3 
  983000    0.8516941   -5.0213186    528.71868  0.044821862  0.045183677            7 
  984000   0.87004001   -5.0296932    529.06055  0.044805264  0.045156543            4 
  985000    0.8447949   -5.0242146    529.72871  0.044816304  0.045129481            6 
  986000   0.86198695   -4.9800923    531.02367  0.044880296  0.045102735            3 
  987000   0.86441552   -5.0322662    530.56422  0.044796033  0.045075716            5 
  988000    0.8691028   -5.0055133    531.24027  0.044807715  0.045048779            4 
  989000   0.84637424    -5.023459    531.15155  0.044754933  0.045022081            4 
  990000   0.86241807   -4.9936423    531.91725   0.04477418  0.044995336            4 
  991000   0.86732669   -5.0053981    530.86095  0.044640174  0.044968751            5 
  992000   0.85626575    -4.987864    531.56566  0.044654374  0.044941717            5 
  993000   0.85615992    -4.999537    531.85004   0.04463327  0.044914665            8 
  994000   0.84863207   -5.0270472    532.97906   0.04468302  0.044887687            6 
  995000   0.84499318   -4.9905381    532.91102  0.044632414  0.044860773            7 
  996000   0.86485735   -4.9975481    531.74179  0.044489775  0.044833913            4 
  997000   0.82941787   -5.0180401    534.62892   0.04468647  0.044806716            2 
  998000   0.83839739   -4.9705868    533.99668  0.044588901  0.044780225            5 
  999000   0.85714442   -4.9906423    533.04588  0.044464955  0.044753677            6 
 1000000   0.87827204   -4.9839317    535.32149  0.044610124  0.044727183            3 
 1001000   0.85634021   -5.0385449    534.44664  0.044492727  0.044700513            5 
 1002000   0.83440185   -5.0159608    533.16657  0.044341864  0.044673473            3 
 1003000   0.85426343   -4.9909731     534.9305  0.044444209   0.04464712            3 
 1004000    0.8523602   -5.0128475    536.02931  0.044491144  0.044620368            3 
 1005000   0.85079863    -5.026623    533.50686  0.044237716  0.044593297           10 
 1006000   0.84218897   -5.0305993    534.88545   0.04430794  0.044566473            6 
 1007000   0.82644959   -5.0132946    536.56055  0.044402561  0.044540088            4 
 1008000   0.85510592   -4.9961103    535.76253  0.044292537  0.044513759            4 
 1009000   0.85225625   -5.0177319    534.46167  0.044141201  0.044487289            5 
 1010000   0.85611906   -5.0137198     535.2524   0.04416274  0.044460489           11 
 1011000   0.86538106   -5.0355945    535.25659  0.044119403  0.044433983            4 
 1012000   0.85740261    -5.051526    535.52501  0.044097909  0.044407172            7 
 1013000    0.8540681   -5.0039311    536.33392  0.044120922  0.044380397            3 
 1014000   0.83912457    -5.031883    536.35107  0.044078819  0.044353708            5 
 1015000    0.8612444   -5.0347281    537.40588  0.044121993  0.044327131            4 
 1016000   0.84751707   -5.0286737    535.58607  0.043929303  0.044300427            7 
 1017000   0.84900512   -5.0262805    537.59124  0.044050413  0.044273557            4 
 1018000   0.83927426    -5.033636    537.22706  0.043977329  0.044247089            5 
 1019000   0.85323519   -5.0055571    539.29953  0.044103658  0.044220423           14 
 1020000   0.84620608   -5.0226557    537.50434  0.043913753  0.044193636            7 
 1021000   0.86003367   -5.0113816    537.81678  0.043896244  0.044167184            6 
 1022000   0.84374061   -5.0249979    538.17703  0.043882667  0.044140511            3 
 1023000   0.84016652   -5.0150684    538.40592  0.043858416  0.044113797            4 
 1024000   0.82687751   -5.0219688    537.20347   0.04371773  0.044086924            6 
 1025000   0.85934738   -5.0090248    540.42049  0.043936625   0.04406043           10 
 1026000   0.83100218   -5.0214026    538.54626  0.043741574  0.044033826            9 
 1027000   0.84192027   -5.0192513    538.58444  0.043702081  0.044007563            4 
 1028000    0.8482551    -5.012359    541.16245  0.043868551  0.043981169            7 
 1029000   0.83697568   -5.0348025    540.31421  0.043757224  0.043954542            3 
 1030000   0.85170141    -5.035389    538.70633  0.043584654   0.04392799            4 
 1031000   0.86388251   -5.0526745    540.25615  0.043667649  0.043901122            5 
 1032000    0.8467197   -5.0563861    539.50235  0.043564466   0.04387444            3 
 1033000   0.83995846   -5.0834671    541.14323  0.043654666  0.043848168            5 
 1034000   0.82742368   -5.0279187    540.24676  0.043540197  0.043821642            4 
 1035000   0.83620327   -5.0059989    542.26188  0.043660377  0.043795027            7 
 1036000   0.84694766   -5.0545396    539.69776  0.043411982   0.04376828            4 
 1037000   0.84519624   -5.0262892    542.25036  0.043575246  0.043741604            2 
 1038000   0.83247921   -5.0640644    541.21267  0.043449957  0.043714982            7 
 1039000   0.83754702   -5.0455612    542.14224  0.043482695  0.043688398            5 
 1040000   0.83774563   -5.0431445    541.82122  0.043415162  0.043661907            4 
 1041000   0.83808912   -5.0423066    541.99932  0.043387714  0.043635228            7 
 1042000   0.83276435   -5.0348254    542.90902  0.043418827  0.043608645            5 
 1043000   0.82124519   -5.0238875    542.67313  0.043358352  0.043582131            6 
 1044000   0.81598469   -5.0437742    545.37922  0.043532824   0.04355558            5 
 1045000   0.82572625   -5.0099354    544.29736  0.043404893  0.043529322            3 
 1046000   0.84291357   -5.0415952    543.52163  0.043301596  0.043502784            4 
 1047000   0.84061222   -5.0276326    545.49623  0.043417401  0.043476481            3 
 1048000   0.82545724   -5.0944598    544.03314  0.043259633  0.043450217            9 
 1049000    0.8071302   -5.0380216    544.00193  0.043215914  0.043423676            6 
 1050000   0.84208287   -5.0530633    544.60189  0.043222372  0.043396926            6 
 1051000   0.82916754   -5.0722351    544.68396  0.043187755  0.043370503            6 
 1052000   0.83451525   -5.0463733    544.58753  0.043139063  0.043343912            4 
 1053000   0.85089614   -5.0497601    545.48776  0.043169339  0.043317242            4 
 1054000    0.8286307   -5.0544388    544.33409  0.043037167  0.043290986            6 
 1055000    0.8288698   -5.0490694    546.22456    0.0431457  0.043264573            4 
 1056000   0.82062429   -5.0681067    544.02796  0.042931499  0.043237887            8 
 1057000   0.84635107    -5.069294    544.49135  0.042927417  0.043211284            2 
 1058000   0.83120776   -5.0550015     545.9627  0.043002733   0.04318496            4 
 1059000    0.8198491   -5.0593764    545.21899  0.042903603  0.043158436            4 
 1060000   0.82871407   -5.0520064    548.23491  0.043100229  0.043132391            5 
 1061000   0.82310077   -5.0712459    546.10182  0.042892069  0.043106433            3 
 1062000   0.86087997   -5.0375622    546.83025  0.042908839  0.043080393            6 
 1063000    0.8367133   -5.0657336    548.83988  0.043026017   0.04305446            6 
 1064000   0.83887927   -5.0552784    547.98901  0.042918939   0.04302851            7 
 1065000   0.83128499    -5.077324    546.64999  0.042773864  0.043002662            4 
 1066000   0.83070049    -5.070127    548.44202  0.042873829   0.04297658            4 
 1067000   0.83558561    -5.057136     547.9765   0.04279729  0.042950535            3 
 1068000    0.8404551   -5.0725457    549.59371  0.042883405  0.042924539            3 
 1069000   0.83042236    -5.079467    547.69136  0.042694992  0.042898497            8 
 1070000   0.80798089   -5.0647618    548.27483  0.042700532  0.042872358            5 
 1071000   0.83988747   -5.0687352    548.07136  0.042644831   0.04284599            8 
 1072000   0.83063329   -5.0824783    549.56845  0.042721428  0.042819876            6 
 1073000   0.81863063   -5.0860611    550.09276  0.042722333  0.042793508            5 
 1074000   0.82893153   -5.0610196    548.99916    0.0425977  0.042767414            4 
 1075000   0.82016348   -5.0817354    549.09503  0.042565506  0.042741036            5 
 1076000    0.8028352   -5.0833066    548.65809  0.042492107  0.042714643            4 
 1077000   0.84275221   -5.0919815    547.45125  0.042359273  0.042688299            5 
 1078000   0.82809892   -5.0663682    549.99241   0.04251642  0.042662239            5 
 1079000   0.83940897   -5.0850976     548.5553  0.042366026  0.042636287            4 
 1080000   0.82527138   -5.0732082    552.34796  0.042619441  0.042609989            3 
 1081000   0.82253426   -5.0739802    551.26821  0.042496778  0.042583862            9 
 1082000   0.84000002    -5.080085    551.06736  0.042442034  0.042557763            3 
 1083000   0.84037567   -5.0786767     551.6389  0.042446822  0.042531614            7 
 1084000   0.82866035   -5.0776514    550.84294  0.042346474   0.04250556            5 
 1085000   0.79542887   -5.0653406    552.83915  0.042460764  0.042479509            3 
 1086000   0.80650893   -5.0874643    551.85568    0.0423462  0.042453552            7 
 1087000   0.82131953   -5.0532074    552.51399  0.042357712  0.042427425            6 
 1088000   0.79245213   -5.1114726    551.69227  0.042255842  0.042401192           10 
 1089000   0.82361433   -5.0797534    552.86297  0.042306625  0.042375309            4 
 1090000   0.80213236   -5.0918266    553.53324  0.042319055  0.042349725            4 
 1091000   0.81532399   -5.0685664    552.49929   0.04220129  0.042323916            7 
 1092000   0.81414135   -5.0722626    552.68579  0.042176876  0.042298302            4 
 1093000   0.80944587   -5.0688059    554.68855  0.042290984  0.042272695            7 
 1094000   0.82863288   -5.0767528    555.50758  0.042314715  0.042247098            7 
 1095000   0.80242615   -5.0787551    553.72204  0.042140186  0.042221367            4 
 1096000   0.82699374    -5.100624    555.71185   0.04225303  0.042195795            5 
 1097000   0.81458166   -5.0896008    554.79297   0.04214471  0.042170314            6 
 1098000   0.82084821   -5.0809706    556.37678  0.042226532  0.042145064            3 
 1099000   0.80630765   -5.0925708    554.50024  0.042045817  0.042119634            2 
 1100000   0.82451251   -5.1136584    553.37409   0.04192228  0.042093813            3 
 1101000    0.8167945   -5.1048077    556.47263  0.042118728  0.042067914            8 
 1102000   0.81264079   -5.1043163    555.39855  0.041999285  0.042042409            6 
 1103000   0.82959219   -5.0962838    555.44014   0.04196435  0.042016821            3 
 1104000   0.80260323   -5.1032025    556.28941  0.041990445  0.041991097            9 
 1105000   0.81657929   -5.0949305    558.03011  0.042083719  0.041965458            4 
 1106000   0.81550243   -5.1236417    556.68254  0.041944133  0.041940159           11 
 1107000   0.82184356    -5.101333    559.09329  0.042087721  0.041915114            6 
 1108000   0.82140224   -5.1009689    556.69701   0.04186951  0.041890006            8 
 1109000   0.80550217   -5.0990994    558.17634  0.041942917  0.041864643            6 
 1110000   0.82038878    -5.142895    557.06728  0.041821868  0.041839314            3 
 1111000   0.81602366   -5.0859221    558.30317  0.041876925  0.041814018            5 
 1112000   0.82011241   -5.1397327    558.53081  0.041856326  0.041788977            4 
 1113000   0.82224321    -5.098073    558.25823   0.04179831  0.041763856            5 
 1114000   0.80771616   -5.1119252    556.74246  0.041647401   0.04173889            5 
 1115000   0.79903598   -5.0841167    560.80235  0.041913479  0.041713947            4 
 1116000   0.81664644   -5.1114434    560.60443  0.041861143  0.041688877            6 
 1117000   0.81732462   -5.1451951    560.55314   0.04181984  0.041663991            7 
 1118000   0.79251961    -5.091424     560.6019  0.041786069  0.041638898            7 
 1119000   0.79788732   -5.1174462    560.96839   0.04177602  0.041613805           10 
 1120000   0.80284033   -5.1047356    559.85258  0.041655698  0.041588743            7 
 1121000   0.81073601   -5.1055369    561.07063  0.041709086  0.041563569            3 
 1122000   0.79748886   -5.1299874     560.4662   0.04162702  0.041538715            5 
 1123000   0.81558858    -5.123535    559.20216  0.041496153  0.041513344           11 
 1124000   0.81230541    -5.097586    561.03603  0.041595198  0.041488093            7 
 1125000   0.79898363   -5.0760743    561.22126  0.041571945  0.041462734            6 
 1126000   0.80557975   -5.1211233     558.8831  0.041361982  0.041437325            6 
 1127000   0.80529139   -5.1283799    559.26616  0.041353606   0.04141157            4 
 1128000   0.80971104   -5.1110984    558.09463  0.041230395  0.041385881            8 
 1129000   0.81267847   -5.1209304    562.49245  0.041518486  0.041360527            9 
 1130000   0.80100407   -5.1370975    561.54617  0.041411959  0.041335117            5 
 1131000   0.81500058   -5.1062403    562.96469  0.041479863  0.041309693            4 
 1132000   0.79435479   -5.1008889    563.45589   0.04147938  0.041284288            5 
 1133000   0.80296058   -5.1098819    562.89021  0.041401163  0.041259016            5 
 1134000   0.80214025   -5.1207594    561.14149  0.041236147  0.041233803            5 
 1135000   0.78078462   -5.1144995    562.24128  0.041280564  0.041208568            3 
 1136000   0.79757378   -5.1240909    561.37539  0.041180706  0.041183194           11 
 1137000   0.80505527   -5.1307404    561.29208  0.041138382  0.041157848            4 
 1138000   0.79761718   -5.1211065    561.26563  0.041100295  0.041132468            7 
 1139000   0.79034898   -5.1453379    563.96752   0.04126189  0.041107261            7 
 1140000   0.80644822   -5.1340739    562.09777  0.041089018  0.041081866            4 
 1141000   0.80354933   -5.1344364    560.94719  0.040968974  0.041056375            4 
 1142000   0.78854543   -5.1126243    563.29344  0.041104308  0.041030999            8 
 1143000   0.78823645   -5.1392415    562.97613  0.041045212  0.041005779            9 
 1144000   0.79143859    -5.138322    564.32445   0.04110755  0.040980724            7 
 1145000   0.79027757   -5.1352106    564.27151  0.041067795  0.040956013            4 
 1146000   0.81162707   -5.1359361    564.29964  0.041034005  0.040930945            6 
 1147000   0.81226156   -5.1587372    563.35279  0.040929438  0.040905755            7 
 1148000   0.79405597   -5.1297167    564.63418  0.040986802   0.04088071            4 
 1149000   0.80373209   -5.1642445     564.1138  0.040913389   0.04085587            7 
 1150000   0.79393111   -5.1423243    565.27097  0.040961664  0.040831016            6 
 1151000   0.77832492   -5.1355573    567.65355  0.041098577  0.040806263            8 
 1152000   0.79381082    -5.158438    564.09066   0.04080517  0.040781377            7 
 1153000   0.80147052   -5.1155064     565.3362    0.0408598  0.040756525            3 
 1154000   0.80326542   -5.1344682    565.66213   0.04084793  0.040731693            8 
 1155000   0.79276811   -5.1405852    566.68022  0.040886019  0.040706913            6 
 1156000   0.78404811   -5.1842531    564.75356  0.040711762  0.040682222            6 
 1157000    0.7994485   -5.1484574    567.99645  0.040910145  0.040657555            7 
 1158000    0.7941969   -5.1682052    566.62486  0.040776113  0.040632694            4 
 1159000   0.80720733   -5.1591476    565.69763  0.040674262  0.040608083            9 
 1160000   0.78452942   -5.1189886    566.24373  0.040678429  0.040583561            7 
 1161000   0.77927365   -5.1341653    568.97215   0.04083923  0.040559324           11 
 1162000   0.78508065   -5.1391539    569.34445  0.040830783  0.040535004            6 
 1163000   0.78027039     -5.12833    567.69058   0.04067717  0.040510686            4 
 1164000    0.7858325   -5.1564444    569.47487  0.040769965  0.040486133            3 
 1165000   0.79505661   -5.1368143    569.13893  0.040710939   0.04046136            4 
 1166000   0.79413531    -5.151454    566.44109  0.040483211  0.040436953            4 
 1167000   0.77860708   -5.1667592    567.60007  0.040531282  0.040412647            9 
 1168000   0.78181711   -5.1559048    568.53298  0.040563141   0.04038816            5 
 1169000   0.79241756   -5.1642689    569.69983  0.040611622  0.040363836            7 
 1170000   0.78174706   -5.1510597    569.97745  0.040596685  0.040339444            7 
 1171000   0.78118265   -5.1536267    569.66143  0.040539527  0.040315178            9 
 1172000     0.792427   -5.1498682    569.92545   0.04052371  0.040290731            6 
 1173000   0.78982561   -5.1338541    569.82468  0.040482003  0.040266538            6 
 1174000   0.78964738   -5.1566501    571.37069  0.040557261  0.040242371            6 
 1175000   0.79229217   -5.1545757    569.21953   0.04037018  0.040217888           11 
 1176000   0.79817835   -5.1595005    571.09545  0.040468782  0.040193507            7 
 1177000   0.78620275   -5.1436399    570.83626  0.040416048  0.040169248            4 
 1178000   0.79477228   -5.1442133    569.95844  0.040319641  0.040144791            7 
 1179000   0.77213828   -5.1677699    569.60809  0.040260679  0.040120513            6 
 1180000   0.79228901   -5.1815776    570.37862  0.040280976  0.040096133            5 
 1181000   0.78175166   -5.1340973    570.70258  0.040269728  0.040071923            8 
 1182000   0.78435268   -5.1637947    570.41317  0.040215255  0.040047739            6 
 1183000   0.77795608   -5.1602809    571.90988  0.040286692  0.040023418            5 
 1184000   0.78155359    -5.151713    571.82772  0.040246884  0.039999195            6 
 1185000   0.80134845   -5.1788261    571.21036  0.040169505  0.039974794            8 
 1186000   0.77973837   -5.1890739    570.92054  0.040115271  0.039950628            3 
 1187000   0.77936638   -5.1854868    572.63682  0.040201967  0.039926633            4 
 1188000   0.76946388   -5.1671663    572.48434  0.040157431  0.039902702            5 
 1189000   0.77865331    -5.174345    572.16761  0.040101458  0.039878741            5 
 1190000   0.77836005   -5.1861478    574.76997  0.040249998  0.039854594            3 
 1191000   0.77244393   -5.1490168    573.44496  0.040123493  0.039830442            6 
 1192000   0.79302252   -5.1804093    574.30753  0.040150135  0.039806622            5 
 1193000   0.76104082   -5.1720043    573.27939  0.040044663   0.03978264           17 
 1194000    0.7776578   -5.1426684    574.81402  0.040118232  0.039758632           11 
 1195000   0.76274362   -5.1787189    573.75925  0.040011105  0.039734652           11 
 1196000   0.75189854   -5.1631496    573.96713  0.039992136   0.03971043            5 
 1197000   0.80357976   -5.1688097    572.51613  0.039857709  0.039686444            8 
 1198000   0.77477829   -5.1797201    572.78473  0.039843123  0.039662591            7 
 1199000   0.77954021   -5.1801874    573.57398  0.039864747  0.039638588            7 
 1200000   0.75851071   -5.1866921    573.77448   0.03984545  0.039614795            5 
 1201000   0.77723344   -5.1674824    574.86267  0.039887779  0.039591096            5 
 1202000   0.79398069   -5.1470489    575.95522   0.03993034   0.03956744            5 
 1203000   0.77713251   -5.1823767    577.88909  0.040031109  0.039543877           10 
 1204000   0.78438605   -5.1527508    577.17618  0.039948517  0.039520512            4 
 1205000    0.7653377   -5.2054632    575.04989  0.039768319  0.039496903            8 
 1206000   0.77107061   -5.1592336    577.41449  0.039898735  0.039473155            5 
 1207000   0.76884833   -5.1751349    576.63657   0.03981197  0.039449662            3 
 1208000     0.768162   -5.1987344    576.89179  0.039796619  0.039426058           16 
 1209000     0.756537   -5.1934606    578.50647  0.039874998  0.039402442           10 
 1210000   0.77180457   -5.1839385     577.7396  0.039789228  0.039378855            8 
 1211000   0.77181583   -5.1927634    577.93062  0.039769517  0.039355424            5 
 1212000   0.77454951   -5.1965519    577.97133  0.039739503  0.039331839           10 
 1213000   0.77819626    -5.213917    577.37671  0.039665891  0.039308424           15 
 1214000    0.7719007   -5.1382507    577.46467  0.039639255  0.039284869            9 
 1215000   0.77319344   -5.2096365    577.54733  0.039612299  0.039261269            3 
 1216000   0.76258342   -5.1946111    577.57103  0.039581348  0.039237534            6 
 1217000   0.77207486   -5.1722998    578.94601  0.039642975  0.039213901           11 
 1218000   0.77039951   -5.2114834    579.25147  0.039631327  0.039190449            8 
 1219000   0.77719744   -5.1761785    578.94472  0.039577845  0.039166948            5 
 1220000   0.77002554     -5.19688    579.64493  0.039593233  0.039143538            3 
 1221000    0.7640707   -5.1710974    580.84809  0.039642922  0.039120155            8 
 1222000   0.76538289   -5.1934011    579.98676  0.039551743  0.039097186            4 
 1223000   0.76406718   -5.1593585    582.19059  0.039669569  0.039073982            7 
 1224000    0.7777345   -5.1775162    580.41842  0.039516505  0.039050553            9 
 1225000   0.77364899   -5.2049761    579.17004  0.039399323  0.039027297            5 
 1226000   0.77869867   -5.1986363     580.9904  0.039490919  0.039003959            4 
 1227000   0.76192862   -5.2013537    578.49342  0.039289148  0.038980592            5 
 1228000   0.76741433   -5.2025969    578.90341  0.039284976  0.038957105           11 
 1229000   0.77729293   -5.1854756    580.78298  0.039380457  0.038933702            5 
 1230000   0.77099033   -5.2002752    581.19443  0.039376316  0.038910286            7 
 1231000   0.75286829   -5.2137207    579.56609  0.039234098  0.038886975            7 
 1232000   0.78398543   -5.2154708    581.17676  0.039311199  0.038863696            9 
 1233000   0.76043993   -5.1943863    581.37788  0.039292909  0.038840642           16 
 1234000   0.77203621   -5.2279654     581.2997  0.039255788  0.038817438           10 
 1235000   0.77352791   -5.2281878    579.78477  0.039121779  0.038794082            6 
 1236000   0.74517937    -5.227616    580.32419  0.039126496  0.038770789            3 
 1237000   0.75618811    -5.217452    579.42468  0.039034269  0.038747481            7 
 1238000   0.73954077   -5.2189299    582.47447  0.039208028  0.038724184            9 
 1239000    0.7588567   -5.1981387    581.26589  0.039095096  0.038701011           10 
 1240000   0.75852705   -5.1972233    583.98723  0.039246453  0.038677977            5 
 1241000   0.77924437   -5.2253746    582.21329  0.039095708  0.038654936            8 
 1242000   0.75951776   -5.2336814    583.33661  0.039139601   0.03863179           10 
 1243000   0.75786524   -5.2225981    582.64904  0.039062017  0.038608649            8 
 1244000   0.75535767   -5.2428531    582.79696  0.039040525  0.038585534            7 
 1245000   0.75584032   -5.1978955    584.73912  0.039139165  0.038562557           17 
 1246000   0.76151983   -5.2023484    583.15709  0.039001945  0.038539707            5 
 1247000   0.73867488    -5.216342    584.58683  0.039066214  0.038516683            6 
 1248000   0.75873725   -5.2014786    585.26843  0.039080424  0.038493659           10 
 1249000   0.75080543   -5.2467729    584.41834  0.038992417  0.038470795            7 
 1250000   0.76018926   -5.2246186    584.26674  0.038951116  0.038447816            3 
 1251000   0.77077855   -5.2199995    583.81706  0.038890026  0.038424963            4 
 1252000   0.77559654   -5.2280094    585.25304  0.038954542  0.038402111            9 
 1253000   0.75533729   -5.2267878    586.02471  0.038974775  0.038379123            6 
 1254000   0.76152233   -5.2087808    585.90441    0.0389357   0.03835626            9 
 1255000   0.74883519   -5.2188409    585.46956    0.0388758  0.038333101           13 
 1256000   0.74690162   -5.2526026    584.23762  0.038763112  0.038310107           10 
 1257000   0.75395064    -5.248231     585.5801  0.038821274   0.03828716            9 
 1258000   0.75098362   -5.2232003    584.66984  0.038730116  0.038264328            8 
 1259000   0.76656015   -5.2529605    585.83496  0.038776473   0.03824144            7 
 1260000   0.76379171    -5.239334     585.5112  0.038724286   0.03821849           11 
 1261000    0.7572482   -5.2331465    586.00053  0.038725914  0.038195794           12 
 1262000   0.76512279   -5.2251276    586.44317  0.038724457  0.038173119            8 
 1263000   0.74581752   -5.2329237    587.82167   0.03878475  0.038150445            7 
 1264000    0.7474427   -5.2155481     587.6838  0.038744976  0.038127574            7 
 1265000   0.76198659   -5.2309923    587.19379  0.038682068  0.038104862            7 
 1266000   0.75255589   -5.2515209    586.48312  0.038604734  0.038082299            6 
 1267000   0.73664579   -5.2473074    586.45425  0.038572366  0.038059512           10 
 1268000   0.73546556   -5.2208047    586.71089  0.038558812  0.038036797            8 
 1269000   0.75790707   -5.2063807    587.67659  0.038591844  0.038013962            3 
 1270000   0.73636558   -5.2268794    587.64569  0.038559429  0.037991418           12 
 1271000   0.75143499   -5.2109176     588.2966  0.038571768  0.037968912            4 
 1272000    0.7448819   -5.2294231    587.32368  0.038477704  0.037946328            5 
 1273000   0.73557261   -5.2460917    587.76814  0.038476574  0.037923749            5 
 1274000   0.76603325   -5.2139062    590.05009  0.038595637  0.037901295            5 
 1275000   0.73916492   -5.2308509    587.39855  0.038392062  0.037878839            3 
 1276000   0.73507504   -5.2756379    588.83851  0.038456015  0.037856048           10 
 1277000    0.7780513   -5.2548827    587.20095  0.038319039  0.037833429           18 
 1278000   0.74419815     -5.25469    587.21763  0.038290143  0.037810641            6 
 1279000   0.73390893   -5.2831266    586.78399  0.038231951   0.03778773           12 
 1280000   0.74080806   -5.2463468    587.42133  0.038243576  0.037764957            8 
 1281000   0.73976533   -5.2263419    589.14109  0.038325598  0.037742047            7 
 1282000   0.72880737   -5.2232854    588.60875  0.038261099  0.037719487            2 
 1283000   0.72547148    -5.279529    587.75534  0.038175847  0.037696601            5 
 1284000   0.74299342   -5.2546109    589.54365  0.038262179  0.037673784           16 
 1285000   0.74178169   -5.2647392    588.36201  0.038155772  0.037651027            5 
 1286000   0.73759688   -5.2570014    589.64794  0.038209431  0.037628328            6 
 1287000   0.75246698   -5.2498864    588.88648  0.038130438  0.037605593            9 
 1288000   0.74686399   -5.2324414    589.93428  0.038168626  0.037582962            7 
 1289000   0.73107661   -5.2612206    589.04238  0.038081354  0.037560266            4 
 1290000    0.7403478    -5.255142    589.84256  0.038103525  0.037537597           14 
 1291000   0.72383764   -5.2591168    590.93382   0.03814445  0.037514981            8 
 1292000   0.74587292   -5.2623394    591.37932  0.038143661  0.037492573            8 
 1293000   0.73542012   -5.2518724    590.43819  0.038053505  0.037470231            6 
 1294000   0.73355354   -5.2712251    590.41257  0.038022448    0.0374477            7 
 1295000   0.74269098   -5.2495546    590.05919  0.037970347   0.03742516           11 
 1296000    0.7259306   -5.2636074    590.93754  0.037997527  0.037402779            7 
 1297000   0.73452309   -5.2759422    589.51481  0.037876819  0.037380327           14 
 1298000   0.74329994   -5.2665798    591.67945  0.037986611  0.037357892            9 
 1299000   0.74565348   -5.2481315    590.32168  0.037870264  0.037335459            5 
 1300000   0.73077535   -5.2393548    590.37143  0.037844322  0.037313062            5 
 1301000   0.73350858   -5.2907264    589.54662  0.037762402  0.037290473            8 
 1302000   0.73474212   -5.2439964    591.78423  0.037876615   0.03726798            5 
 1303000   0.73139266   -5.2522898     592.5644  0.037897442  0.037245684            5 
 1304000   0.74050951   -5.2635141    594.83156  0.038013264  0.037223314            7 
 1305000   0.74454733   -5.2676555    593.19069  0.037879354  0.037201016            8 
 1306000   0.72424721   -5.2522961     593.0877  0.037843778  0.037178886            8 
 1307000    0.7385746   -5.2593823    591.25414  0.037697918  0.037156816            5 
 1308000   0.72487972    -5.299604    592.76931  0.037765629  0.037134786            9 
 1309000   0.71885349   -5.2602048    593.58611  0.037788777  0.037112682            7 
 1310000    0.7417994   -5.2835813    594.53911  0.037820554  0.037090604            6 
 1311000   0.72562135   -5.2431899    593.05602  0.037697433  0.037068574            8 
 1312000   0.73133551   -5.2564812    593.37286  0.037688825  0.037046579            9 
 1313000    0.7110853    -5.248151    594.30037  0.037718987   0.03702448            5 
 1314000   0.71393346   -5.2784163    592.38667  0.037568916  0.037002259            6 
 1315000   0.72275347   -5.2768417    593.36922  0.037602612  0.036979923            5 
 1316000   0.70923223    -5.300421    590.94164  0.037420317  0.036957383           10 
 1317000   0.72023141   -5.2753374    593.48217  0.037552655  0.036934964           10 
 1318000   0.73279242   -5.3051932    592.50476  0.037462365  0.036912489            4 
 1319000   0.72895618   -5.2711251    594.06572  0.037532583   0.03689008           10 
 1320000   0.71959737   -5.2602044    594.70779  0.037544684  0.036867589            7 
 1321000    0.7421543   -5.2731464    594.38519  0.037495911  0.036845473            7 
 1322000   0.72232249   -5.2974313    593.54356  0.037414496  0.036823163            4 
 1323000   0.73173656   -5.2839152    594.30845  0.037434395  0.036800958            8 
 1324000   0.72091454   -5.2516249    594.45275  0.037415203  0.036778764            8 
 1325000   0.72629954   -5.2867204    593.34129  0.037317062  0.036756532            8 
 1326000   0.72223687   -5.2959886    593.90021  0.037324045  0.036734341            6 
 1327000    0.7427253   -5.2920334    594.27892  0.037319701  0.036712065           10 
 1328000   0.72171232   -5.3088667    593.69472   0.03725494  0.036689783            6 
 1329000   0.70590113   -5.2917423    593.89299   0.03723934   0.03666735            8 
 1330000   0.73258281   -5.3082226    594.65381   0.03725901  0.036645118            7 
 1331000   0.72338731    -5.281558    595.17783  0.037263826  0.036623023           11 
 1332000   0.70999536   -5.2728942    596.49125  0.037318021  0.036601069           15 
 1333000   0.72809883   -5.2923131    595.31197  0.037216302  0.036579049           11 
 1334000   0.71815163    -5.302926    593.53388  0.037077329  0.036556981            8 
 1335000   0.72751333    -5.317855     595.4336   0.03716814  0.036534974            5 
 1336000   0.70502574   -5.2947959    595.83968  0.037165649  0.036512805            7 
 1337000   0.72504995   -5.3154452    596.21398   0.03716118  0.036490469           10 
 1338000   0.71455037   -5.3059969    594.60875   0.03703343  0.036468234            6 
 1339000   0.72580885   -5.2884808    595.60792  0.037067956  0.036446138            7 
 1340000   0.71411909    -5.320811    594.64635  0.036980494   0.03642377            6 
 1341000   0.71415806   -5.2890574    596.20621  0.037049851  0.036401501            7 
 1342000   0.72710473   -5.3108304    597.49687  0.037102389  0.036379163            8 
 1343000   0.71539995   -5.2787086    595.74822  0.036966258  0.036356958            5 
 1344000   0.70119056   -5.2775784    595.00399  0.036892609  0.036334756            5 
 1345000   0.71882459   -5.2806522     598.4518  0.037078798  0.036312586            5 
 1346000   0.72007151   -5.2942026     594.9365  0.036833612  0.036290551            8 
 1347000   0.70106745    -5.302465    595.61928  0.036848508  0.036268192            5 
 1348000   0.71149077   -5.2894621    594.81612  0.036771521  0.036246044            6 
 1349000   0.71974151   -5.2998314    597.34558  0.036900518   0.03622396            9 
 1350000   0.73579935   -5.2925293    595.87558  0.036782443  0.036201828           16 
 1351000   0.70765271   -5.2949671    597.15052  0.036833859  0.036179705            9 
 1352000   0.71293976   -5.2973943    597.10684  0.036803922  0.036157645           10 
 1353000   0.70402022   -5.3279662    596.92761  0.036765682  0.036135528            8 
 1354000   0.69884951   -5.3307209    595.28213  0.036637256  0.036113093            7 
 1355000   0.69663781   -5.3371894      597.521  0.036747909   0.03609077            7 
 1356000   0.71356492   -5.3091548    597.96252  0.036747942  0.036068475            5 
 1357000   0.69698547   -5.3221106    598.03052  0.036725038   0.03604639            5 
 1358000   0.70275772   -5.3232175    597.17829  0.036645697  0.036024417            9 
 1359000   0.71238072   -5.2941539    600.22853  0.036805772  0.036002517            5 
 1360000   0.70502863   -5.3284828    596.93866  0.036577123  0.035980602           13 
 1361000   0.72462195   -5.3317403    598.61659  0.036652987  0.035958591           12 
 1362000   0.71454414   -5.3422873    596.47273  0.036494905  0.035936564            6 
 1363000   0.69396887   -5.3263035    598.56577  0.036596098  0.035914407           10 
 1364000   0.70393193   -5.3012967    598.61057  0.036572005  0.035892307           17 
 1365000   0.71901526   -5.3163708    598.78554  0.036555894  0.035870206           12 
 1366000   0.71466474   -5.3072079    598.24047   0.03649588  0.035848143            5 
 1367000   0.71101365   -5.3244811    596.50275   0.03636325  0.035825987           10 
 1368000   0.72193999   -5.3165784    598.04426  0.036430572  0.035803807           16 
 1369000   0.69602808   -5.3294252    600.31268  0.036542043  0.035781704           11 
 1370000   0.70026605   -5.2967296    599.55796  0.036469462  0.035759578            7 
 1371000   0.69484709   -5.3419846    598.74137  0.036393227  0.035737675            6 
 1372000   0.70342834   -5.3256343    599.98038  0.036441957   0.03571569            7 
 1373000   0.72880202   -5.3422766     598.4259  0.036321067  0.035693702           15 
 1374000   0.72142011   -5.3292187    598.00628  0.036269182  0.035671547            9 
 1375000   0.70769421   -5.3207234    599.72358  0.036346884  0.035649601            7 
 1376000   0.68774099   -5.3326719    599.57038  0.036311191  0.035627784           10 
 1377000   0.70537658   -5.3333897    598.46903  0.036218169  0.035605664            6 
 1378000    0.7106257   -5.3368932    600.43667  0.036310877  0.035583678            9 
 1379000   0.70030698   -5.3137564    598.96431  0.036195571  0.035561605           21 
 1380000   0.70766364   -5.3191154     601.0444  0.036294952  0.035539657            5 
 1381000   0.69914793   -5.3334887    599.54873  0.036178417  0.035517817           11 
 1382000   0.70446561   -5.3380731    600.01353  0.036180266  0.035495968           10 
 1383000   0.71693897   -5.3284526    601.26491  0.036229508  0.035474108            8 
 1384000   0.71419558   -5.3244079    601.74744  0.036232384  0.035452228           14 
 1385000    0.6988872   -5.3443914    601.19365  0.036172903  0.035430329           13 
 1386000   0.69852154   -5.3773023    599.35266  0.036036114  0.035408428            7 
 1387000   0.70466236   -5.3415418    600.51159  0.036079764  0.035386397           11 
 1388000      0.69507   -5.3540032    600.16822  0.036033154   0.03536427            6 
 1389000   0.68794002   -5.3659897    599.44524  0.035963837  0.035342233           10 
 1390000   0.70788026   -5.3493993    598.86498  0.035903177  0.035320249            3 
 1391000   0.68391746   -5.3276592    600.95791   0.03600275  0.035298329           10 
 1392000   0.69305531   -5.3405587    599.97832  0.035918242  0.035276334            7 
 1393000   0.69240725   -5.3283505    601.67599  0.035994017  0.035254429           14 
 1394000   0.69620972   -5.3366496    599.98525  0.035867124  0.035232678            7 
 1395000   0.70427413   -5.2858026    603.92336  0.036076664  0.035211145            9 
 1396000   0.69803069   -5.3165932    602.08023  0.035940797  0.035189625           11 
 1397000   0.69078376   -5.3497899    600.71342  0.035833537  0.035167911            8 
 1398000   0.69510485   -5.3305183    600.97189  0.035823312  0.035146151           13 
 1399000    0.6912059   -5.3424296    601.95172  0.035856071  0.035124448           14 
 1400000   0.69832724   -5.3741088    601.55242  0.035806692  0.035102749            9 
 1401000   0.69267936   -5.3546038     605.0665  0.035990156   0.03508111            8 
 1402000   0.68740004    -5.363151     601.5331  0.035754464  0.035059512           13 
 1403000   0.68789211   -5.3493079    602.43362  0.035782468  0.035037845           10 
 1404000   0.69995073   -5.3474882    602.80205  0.035778849  0.035016104            6 
 1405000   0.69510923   -5.3604512    601.77921  0.035692717  0.034994472           13 
 1406000   0.68670641    -5.323064    602.75635  0.035725246   0.03497293           12 
 1407000   0.67789606   -5.3681668    603.64073  0.035752235  0.034951281            5 
 1408000   0.69678373   -5.3470807    603.86279  0.035739985  0.034929732            8 
 1409000   0.71588602   -5.3630869    603.10939  0.035670061  0.034908318            7 
 1410000   0.69705477   -5.3738019    603.62231  0.035675077  0.034886664            6 
 1411000   0.68544049   -5.3306988    603.89006  0.035665607  0.034865216            2 
 1412000   0.68309819   -5.3725459    604.41909  0.035671571  0.034843774           10 
 1413000   0.69168306   -5.3580884    603.84425  0.035612423  0.034822142            9 
 1414000   0.68943145   -5.3470019    604.57417  0.035630255  0.034800845           10 
 1415000   0.69459559   -5.3490096    602.91746  0.035507506  0.034779428           11 
 1416000    0.6788025   -5.3501632    605.31457  0.035623504  0.034757954            3 
 1417000   0.70185143   -5.3792912    604.06257  0.035524734  0.034736298            8 
 1418000   0.69461739   -5.3374963    603.58889  0.035471843    0.0347149           15 
 1419000   0.69997273   -5.3711521    605.23567  0.035543556  0.034693476           10 
 1420000   0.69084672   -5.3844103    604.20193   0.03545786  0.034672079           13 
 1421000   0.70145881   -5.3725243    604.19911  0.035432742  0.034650786           12 
 1422000   0.69072371   -5.3709328    604.63494  0.035433365  0.034629564           19 
 1423000   0.68688201   -5.3545541     604.7323  0.035414166  0.034608173           15 
 1424000   0.69005914   -5.3763496    603.70121  0.035328957    0.0345868           15 
 1425000   0.68982987   -5.3628854    603.60902  0.035298773  0.034565351            7 
 1426000   0.67876858   -5.3967301    604.47765  0.035324781  0.034543915           12 
 1427000   0.68810126   -5.3737587    604.60575  0.035307507   0.03452255            8 
 1428000   0.67876304   -5.3373488    604.91237  0.035300675  0.034501109           16 
 1429000   0.67109962   -5.3975532     604.7744  0.035267926  0.034479694            5 
 1430000   0.67976752    -5.394737    604.60665  0.035233488  0.034458317           42 
 1431000   0.68708578   -5.3944397    605.10948  0.035238148   0.03443683           14 
 1432000   0.68308157   -5.3915144    605.15007  0.035215902   0.03441523           10 
 1433000   0.69075475   -5.3906751    605.84173   0.03523155  0.034393852            4 
 1434000   0.67818491   -5.4013795    604.61661  0.035135786  0.034372449           12 
 1435000   0.67617888   -5.4109953    605.20996  0.035145758  0.034350992            6 
 1436000   0.68536706   -5.4020646    604.68641  0.035090901  0.034329589            8 
 1437000   0.67583055   -5.3714729    607.00238  0.035200787  0.034308239           14 
 1438000   0.67797885   -5.3844322    605.95314  0.035115504  0.034286906            6 
 1439000   0.69614609   -5.3842631    604.19812  0.034989467  0.034265658            6 
 1440000   0.67546819   -5.3857891    605.85867  0.035061265  0.034244603           15 
 1441000   0.68075285   -5.3753064    608.34622   0.03518079  0.034223469            9 
 1442000   0.68531157   -5.4126665      605.993    0.0350204   0.03420238           13 
 1443000   0.68317227   -5.3813947    606.71938  0.035038079  0.034181194           13 
 1444000   0.66108518   -5.4002048    607.16908  0.035039767  0.034160036            7 
 1445000   0.67210107   -5.3804682    606.63137  0.034984508  0.034138723           10 
 1446000   0.67939925   -5.4114793    606.13224  0.034931549  0.034117604            8 
 1447000    0.6700571   -5.4202211    605.79104  0.034887759  0.034096388            8 
 1448000   0.67557904   -5.3984164     606.6392  0.034912477  0.034075184           13 
 1449000    0.6787469    -5.392868    607.75973  0.034952825  0.034054107            7 
 1450000   0.67401982   -5.4120461    607.45331   0.03491111  0.034033012            8 
 1451000   0.67206487   -5.3734261    607.70556  0.034901537  0.034011973           10 
 1452000   0.66418262   -5.3850445    607.23737   0.03485063  0.033990913           15 
 1453000   0.67963497    -5.412947    608.44095  0.034895673  0.033969721           18 
 1454000   0.67081345   -5.4235318    605.50869  0.034703616  0.033948612           23 
 1455000   0.67561412   -5.3868567     607.5202  0.034794971  0.033927511           10 
 1456000   0.68166796   -5.3999141    605.61755  0.034662177  0.033906535           10 
 1457000   0.66665787   -5.4065383    608.43147  0.034799329  0.033885532            7 
 1458000   0.67632895   -5.3878421    610.12131  0.034872046   0.03386472           10 
 1459000   0.67243384   -5.4086903    607.04106   0.03467221  0.033843701           18 
 1460000   0.68165185    -5.406065    607.96553  0.034701229  0.033822704           10 
 1461000   0.68896927     -5.41494    606.69729  0.034605139  0.033801773            7 
 1462000   0.65686621    -5.402383    609.26922  0.034728068  0.033780938           12 
 1463000   0.66624984    -5.402262    607.86618  0.034624412  0.033760194           14 
 1464000   0.65977375   -5.4068148    608.20922  0.034620288  0.033739338           14 
 1465000   0.66153049   -5.4264034    606.87545  0.034520788  0.033718424            7 
 1466000   0.67056358   -5.3960857    608.34023  0.034580504  0.033697408           10 
 1467000    0.6782395   -5.4163706    607.73402  0.034522496  0.033676464            5 
 1468000   0.67203273   -5.4106114    607.29166  0.034473868  0.033655616           10 
 1469000   0.65355247   -5.4260746    607.23568  0.034447225  0.033634683           12 
 1470000   0.67930004   -5.4308287     608.4053  0.034490096  0.033613592            6 
 1471000   0.67390833   -5.4108353    607.44588  0.034412298  0.033592656            7 
 1472000   0.66987661   -5.4007344    608.07627  0.034424608  0.033571693           11 
 1473000   0.64878095   -5.4414127    606.96244  0.034338224  0.033550629           17 
 1474000   0.67538144   -5.4305537    606.33641  0.034279535  0.033529328            9 
 1475000   0.68033201     -5.39783     607.6907  0.034332808  0.033508192           10 
 1476000   0.66028294   -5.4361086    607.29863  0.034287411  0.033487013           15 
 1477000   0.66164635    -5.421617    606.43646  0.034215553  0.033465885            7 
 1478000   0.66486685   -5.4351614    605.25354  0.034125707  0.033444734           10 
 1479000   0.65220747   -5.4322528    605.88998  0.034138494  0.033423558           28 
 1480000   0.66115186   -5.4145175     607.7893   0.03422237  0.033402352           14 
 1481000   0.67518884   -5.4330262    606.26587  0.034113542  0.033381359            4 
 1482000   0.65921565   -5.3993486    609.43195  0.034268553  0.033360313            5 
 1483000   0.65338952   -5.4228081    608.95065    0.0342184  0.033339264           10 
 1484000   0.65644668    -5.400137    608.63271  0.034177488  0.033318201           10 
 1485000   0.67498817    -5.449048    606.40156  0.034029268  0.033297073           11 
 1486000   0.65170361   -5.4372966     606.9865  0.034039171   0.03327592            9 
 1487000    0.6477417   -5.4167248    609.14939  0.034137491  0.033254841           10 
 1488000   0.66512227   -5.4077595    609.48963  0.034133604  0.033233973            7 
 1489000   0.66456184   -5.4056451    609.50782  0.034111698  0.033213037            8 
 1490000   0.66202557   -5.4437677    608.32056  0.034022402  0.033192115            8 
 1491000   0.65676694   -5.4352779    609.65914  0.034074398    0.0331712            7 
 1492000   0.66371753   -5.4378808    608.63427  0.033994318   0.03315036           15 
 1493000    0.6614006   -5.4350972    609.91778  0.034043189  0.033129461            6 
 1494000   0.67162767   -5.4354276    608.78449  0.033957189  0.033108598           10 
 1495000   0.65842688   -5.4161521    610.73599  0.034043255  0.033087734           17 
 1496000   0.65496905   -5.4301181    609.69879  0.033962723   0.03306699           13 
 1497000   0.65218065   -5.4335567    609.92085  0.033952397  0.033046135           19 
 1498000    0.6512101   -5.4157434    610.34509  0.033953332  0.033025353            6 
 1499000   0.64909923   -5.4722048    607.99508  0.033800038  0.033004481           20 
 1500000   0.65782714    -5.423651     610.0791  0.033893283  0.032983535           14 
 1501000   0.66001668   -5.4280362    609.26576  0.033825547  0.032962779           22 
 1502000   0.65044474   -5.4255628     611.3983  0.033921343  0.032942077           14 
 1503000   0.66476122   -5.4266748    609.02633  0.033767262  0.032921358           14 
 1504000   0.65165402   -5.4348776    610.30611   0.03381572  0.032900668           13 
 1505000   0.66622942   -5.4284597    610.72074  0.033816209  0.032879894            7 
 1506000   0.66185126   -5.4437904    608.78303  0.033686533  0.032859249            9 
 1507000   0.64273378   -5.4712902    609.73268  0.033716693  0.032838418           12 
 1508000   0.66764312   -5.4514782    610.34034  0.033727915  0.032817589           13 
 1509000   0.65453075    -5.443182    611.43071  0.033765778  0.032796779           15 
 1510000   0.65519909   -5.4721311    609.91322   0.03365967  0.032775988            9 
 1511000   0.65007936   -5.4715032    609.72333  0.033626921  0.032755101            8 
 1512000   0.64775101   -5.4482878    609.25269  0.033578742  0.032734166           18 
 1513000   0.65103636   -5.4503015    610.96124  0.033650652  0.032713446           12 
 1514000   0.65003042   -5.4581302    610.57065  0.033606927  0.032692701           14 
 1515000   0.63861005   -5.4367937    611.54688  0.033638442  0.032672005           11 
 1516000   0.64713224   -5.4596087    609.62759  0.033510751  0.032651268            7 
 1517000    0.6472787   -5.4534834    611.49528  0.033591259  0.032630476            9 
 1518000   0.63470363   -5.4606641    612.41907  0.033619844  0.032609736           11 
 1519000   0.64555381   -5.4659404    610.78789  0.033508223  0.032589078           17 
 1520000   0.64266404   -5.4523082    609.30909  0.033405103  0.032568364           15 
 1521000   0.64698567    -5.456829     610.3464  0.033439974  0.032547736           13 
 1522000   0.64962716   -5.4452125    611.24114  0.033466992  0.032527113           12 
 1523000     0.636995   -5.4469794    610.61852   0.03341095  0.032506536            9 
 1524000    0.6360853   -5.4473746    611.93539  0.033461034  0.032486081           18 
 1525000   0.64419098   -5.4555458    612.26699  0.033457213  0.032465471           14 
 1526000   0.64939033   -5.4526214    612.46486  0.033446093  0.032444907            6 
 1527000   0.63857384    -5.470336    609.21509   0.03324684   0.03242423            9 
 1528000   0.65793915   -5.4434995    612.34334  0.033395688  0.032403716            8 
 1529000     0.645069   -5.4731458    610.25284  0.033259911  0.032383257           10 
 1530000   0.63492655   -5.4506291    612.39592  0.033354898  0.032362795            5 
 1531000    0.6372653   -5.4710446    611.76356  0.033298691   0.03234225            8 
 1532000   0.65405076   -5.4677521    610.22603  0.033193322  0.032321678           16 
 1533000   0.64353403   -5.4604963    611.18682  0.033223897  0.032301052           10 
 1534000    0.6406182    -5.464386    612.17131  0.033255721  0.032280528            8 
 1535000   0.64793705   -5.4509092    612.13337  0.033231996  0.032259996            9 
 1536000   0.63524832   -5.4469092    610.68313   0.03313168  0.032239365            6 
 1537000   0.65072057   -5.4727196    612.96688  0.033233945  0.032218774            5 
 1538000   0.63472968   -5.4745388    612.77997  0.033202209  0.032198252            8 
 1539000    0.6247879   -5.4839823    611.36215  0.033103863  0.032177684           14 
 1540000   0.63735681   -5.4841843    611.63674  0.033097226  0.032157165           10 
 1541000    0.6426786   -5.4685259     612.1696  0.033104564  0.032136709           14 
 1542000   0.63905572   -5.4736989    612.62269  0.033107582  0.032116394            8 
 1543000   0.64733842   -5.4700463    611.23946   0.03301142  0.032095945            8 
 1544000   0.63091125   -5.4885166    612.09764  0.033036358  0.032075402            8 
 1545000   0.64920365   -5.4939079    610.59958  0.032934174  0.032054884           18 
 1546000   0.64073354    -5.476772    612.65264  0.033023536  0.032034328           13 
 1547000   0.63242772   -5.4808815    611.75234  0.032953692  0.032013851           17 
 1548000    0.6386373    -5.486947    611.76577  0.032933127  0.031993389           11 
 1549000    0.6175948   -5.4712044    611.94533  0.032921526  0.031972852           15 
 1550000   0.62963003   -5.4991306    612.28622  0.032918614  0.031952475           16 
 1551000   0.63876285    -5.474761    613.52348  0.032963866  0.031932064            6 
 1552000   0.62988633   -5.4861343     612.8515  0.032906545   0.03191177            7 
 1553000     0.631624    -5.484215    611.59079  0.032817707  0.031891465           12 
 1554000   0.65003722   -5.4714788     613.0185   0.03287315  0.031871169            7 
 1555000   0.63050474   -5.5012293    612.19376  0.032807811  0.031850883           22 
 1556000   0.63606273   -5.5002618    612.32416   0.03279371   0.03183045            7 
 1557000   0.63264164   -5.4905069    613.19325  0.032819163  0.031810189           24 
 1558000   0.62408442   -5.4644716    614.00877  0.032841718  0.031789899            8 
 1559000   0.62947279   -5.4934007    612.41706  0.032735571  0.031769608           19 
 1560000   0.63342719   -5.4600599    614.18499  0.032809027  0.031749365           20 
 1561000   0.64586113   -5.4859357    612.27805  0.032686208  0.031729063           12 
 1562000    0.6281626   -5.4965674    613.03933  0.032705897  0.031708749           11 
 1563000    0.6225427    -5.484022    612.48059  0.032655182  0.031688426           17 
 1564000    0.6380486     -5.50321    613.45397  0.032686167  0.031668195           27 
 1565000   0.63609962   -5.5085155    611.92098  0.032583652    0.0316478           30 
 1566000   0.63209412   -5.4995543     612.7668  0.032607854  0.031627445           27 
 1567000   0.63109966   -5.5009321    612.10547  0.032551876  0.031607137           13 
 1568000   0.62207311   -5.5384917    612.14547  0.032533241  0.031586845           12 
 1569000   0.62531011   -5.5115051      611.554  0.032481092  0.031566429           11 
 1570000   0.63984523   -5.5091761    613.12266  0.032543666  0.031546142           10 
 1571000   0.63319733   -5.5043587    614.06228  0.032572792  0.031525798            8 
 1572000   0.61727919   -5.5022585    613.78897  0.032537583   0.03150553           17 
 1573000     0.628139   -5.5133938    611.68292  0.032405325  0.031485193           12 
 1574000   0.61544111   -5.5074638    613.85458  0.032499713  0.031464837           18 
 1575000   0.60862125   -5.5165476    613.37213  0.032453552  0.031444634           10 
 1576000   0.62027171   -5.5183278     613.0889  0.032417983  0.031424451           10 
 1577000   0.62226438   -5.5095284     613.2997  0.032408566  0.031404229            7 
 1578000   0.61859796   -5.5517401    612.96509  0.032370358  0.031383906           10 
 1579000   0.62040054   -5.5030692    613.68339  0.032387766  0.031363675           11 
 1580000   0.61291117   -5.5256963    613.57532  0.032361568   0.03134347            6 
 1581000   0.62569461   -5.4951116    614.30609  0.032379617  0.031323417            7 
 1582000   0.62292984   -5.4968762    613.56208  0.032319958  0.031303325           10 
 1583000     0.613921   -5.5132697    613.86259   0.03231536   0.03128338           11 
 1584000   0.61713723   -5.5074257    615.29138  0.032370127  0.031263279            8 
 1585000   0.61816273   -5.5225371    614.06149  0.032285041  0.031243164           14 
 1586000   0.61038187   -5.5227014      613.642  0.032242644  0.031222979           11 
 1587000   0.61619372    -5.528426    614.00418  0.032241345  0.031202815            9 
 1588000   0.61031941   -5.5305106    612.87624  0.032161851  0.031182609            9 
 1589000   0.61319482   -5.5146625    615.08764  0.032257585  0.031162687            7 
 1590000   0.61865675   -5.5458117    614.24119  0.032192935  0.031142677           17 
 1591000   0.62723929   -5.5021922    615.01596  0.032213281  0.031122622           11 
 1592000   0.61311416   -5.5381543    613.33234  0.032104917  0.031102568           20 
 1593000    0.6261137   -5.5364607     614.9778  0.032170841   0.03108258           18 
 1594000   0.61384806   -5.5003027    616.22255  0.032215734  0.031062686            9 
 1595000   0.61062254   -5.5289402    614.85523  0.032124098  0.031042832           10 
 1596000   0.61698379   -5.5119952    614.61959  0.032091666  0.031022947            9 
 1597000   0.62433137   -5.5457426    612.56533  0.031964377  0.031003061           25 
 1598000   0.61327142   -5.5275437    614.41843  0.032041011  0.030983073           26 
 1599000   0.62027098   -5.5280964    613.70149  0.031983609  0.030963153           22 
 1600000   0.61605959   -5.5288388    614.06815  0.031982716  0.030943207           18 
 1601000   0.61947573   -5.5522933    614.00197  0.031959295  0.030923263           18 
 1602000      0.62045     -5.53829    615.73402  0.032029444  0.030903359           15 
 1603000   0.61075158   -5.5009136    614.69024  0.031955201  0.030883476            9 
 1604000   0.59898101   -5.5497859    613.74062  0.031885943  0.030863548            9 
 1605000    0.6292705   -5.5607221    615.04673   0.03193389  0.030843585            6 
 1606000   0.62379328   -5.5479417    615.57813   0.03194158  0.030823677            9 
 1607000   0.60719778   -5.5538938    614.26339  0.031853526  0.030803764           21 
 1608000   0.61190137   -5.5320515    615.29816  0.031887343  0.030783893           17 
 1609000   0.60935268   -5.5546717     615.5241  0.031879226  0.030764032           19 
 1610000   0.60765199   -5.5447253     615.0619  0.031835502  0.030744177            7 
 1611000   0.62061922   -5.5462126    614.47235  0.031785245  0.030724426           13 
 1612000   0.60930352   -5.5266395    615.80551  0.031834445  0.030704607           10 
 1613000   0.61101673   -5.5319476    615.37112  0.031792267  0.030684835           10 
 1614000   0.61165025   -5.5504407    614.97973  0.031752361  0.030665038           23 
 1615000   0.60080196   -5.5506428    616.07101   0.03178901  0.030645257           16 
 1616000   0.61455395    -5.558897    615.97255  0.031764261  0.030625532           10 
 1617000   0.60308739   -5.5556968     615.9958  0.031745815  0.030605809            8 
 1618000   0.59451551   -5.5697126     615.1869  0.031684533  0.030586111           14 
 1619000   0.59510886   -5.5318625    614.52448  0.031630867  0.030566324           21 
 1620000   0.60958328   -5.5428102    615.14076  0.031643043  0.030546674           20 
 1621000   0.60389539   -5.5566012    615.90509  0.031662815  0.030526935            8 
 1622000   0.60091377   -5.5611804    615.37057  0.031615833  0.030507176           14 
 1623000   0.61093363   -5.5659416    615.08417  0.031581648  0.030487398           19 
 1624000   0.60021071   -5.5638396    613.90777  0.031501836  0.030467621            8 
 1625000   0.60020715   -5.5604858    615.61281  0.031569887  0.030447927           15 
 1626000   0.60408339   -5.5644754    614.61459  0.031499313  0.030428268           10 
 1627000   0.60201313   -5.5492495    614.70704  0.031484688  0.030408504           10 
 1628000   0.60145414   -5.5651185    614.32826  0.031445959  0.030388716            6 
 1629000   0.59915195   -5.5583271    614.29909  0.031425163  0.030368862           12 
 1630000   0.59576795   -5.5435555    616.78339  0.031532893  0.030349144           23 
 1631000   0.60534177   -5.5690027    615.62773  0.031454513   0.03032936            9 
 1632000   0.59122588   -5.5754966    615.88959   0.03144861  0.030309621           22 
 1633000   0.60054162   -5.5770422    615.53767  0.031411394  0.030289919           25 
 1634000    0.6141949    -5.571044    616.64802  0.031448797  0.030270216           12 
 1635000   0.60967215   -5.5482968    616.78028  0.031436304  0.030250667           12 
 1636000   0.60205794   -5.5482959    616.51105  0.031403374   0.03023111           13 
 1637000   0.59910542   -5.5496177    615.57575  0.031336579   0.03021155           19 
 1638000   0.59869312   -5.5625658    615.74927  0.031326275  0.030191976           22 
 1639000   0.60333239   -5.5724581    615.34023  0.031286365  0.030172418           13 
 1640000   0.59620049   -5.5687552    616.74577  0.031338708  0.030152893           15 
 1641000   0.60714695   -5.6033551    615.69522  0.031266262  0.030133314           20 
 1642000   0.59391285   -5.5803118    615.86395  0.031255783  0.030113678           31 
 1643000     0.608121   -5.5912121    615.77766  0.031232383  0.030094025           14 
 1644000    0.6085222   -5.5741026    615.65518  0.031207177  0.030074596           17 
 1645000   0.58966389   -5.5653469    618.04607  0.031309325  0.030055124            8 
 1646000   0.59565706   -5.5609736    616.63589  0.031218909  0.030035673            6 
 1647000    0.5869008   -5.5641176    617.98829  0.031268382  0.030016249           19 
 1648000   0.60286291   -5.5810893    616.76287  0.031187443  0.029996891           11 
 1649000   0.59753353   -5.5786918    618.15482  0.031238873  0.029977516           21 
 1650000    0.5994722   -5.5867137    616.37316  0.031129958   0.02995807           15 
 1651000   0.58480961   -5.5748418    616.33142  0.031108995  0.029938543           17 
 1652000   0.59889285   -5.5640024    616.01362  0.031074133   0.02991924           18 
 1653000   0.60080193   -5.5974997    616.74187  0.031092048  0.029899808           10 
 1654000   0.60605245   -5.5809427    616.10322  0.031041073  0.029880452           32 
 1655000   0.59103758    -5.588584    615.82036  0.031008075   0.02986099           30 
 1656000     0.597576   -5.5932911    616.96407  0.031046904  0.029841654           41 
 1657000   0.59747081    -5.594123     616.9882   0.03102938  0.029822218           14 
 1658000   0.59385751   -5.6004183    616.73984  0.030998182  0.029802749           20 
 1659000   0.58523227   -5.5819804    616.51873  0.030968391  0.029783291           14 
 1660000   0.59162358   -5.5765901    616.96542   0.03097216  0.029763863           11 
 1661000   0.57807808    -5.610059    616.13524  0.030911862  0.029744432           54 
 1662000   0.58320078   -5.5923267    615.56394  0.030864618  0.029724926           22 
 1663000   0.58052048   -5.6006551    615.70477  0.030853115  0.029705405           18 
 1664000   0.58760443    -5.603153    615.40429  0.030819526  0.029685892           18 
 1665000   0.59003196   -5.5986027    616.71721  0.030866727  0.029666397           15 
 1666000   0.58895729    -5.604996    615.43644  0.030784136  0.029646999           26 
 1667000   0.59434915   -5.6111043    615.77138  0.030782413  0.029627581            7 
 1668000   0.58643788   -5.5900316    615.98578  0.030774669  0.029608268           16 
 1669000   0.59628171   -5.5798497     617.4601  0.030829843  0.029588954           15 
 1670000   0.58937084   -5.5761043    617.92225  0.030834443  0.029569736           16 
 1671000   0.59282164   -5.6052251    616.08804  0.030724518  0.029550458            9 
 1672000   0.59175487   -5.5938662    616.90723  0.030746971  0.029531259           26 
 1673000    0.5799463   -5.6052198    616.94759  0.030730603  0.029511938           17 
 1674000   0.58382352    -5.604165     616.3814   0.03068406  0.029492621           11 
 1675000   0.58879079   -5.6057114    614.93001  0.030593533  0.029473419           17 
 1676000   0.57855959   -5.6165598    616.94712  0.030675573   0.02945417           18 
 1677000   0.58402637   -5.5850478    616.78675  0.030649312  0.029434856           14 
 1678000    0.5760147   -5.6081586    616.37229  0.030610463  0.029415436           17 
 1679000   0.58691171   -5.6031992    617.83926  0.030665042  0.029396022           26 
 1680000   0.58171542   -5.5779185    616.35542  0.030573186  0.029376711           32 
 1681000   0.57485318   -5.5992512    616.57931  0.030566097  0.029357394           14 
 1682000   0.56531362   -5.6065284    615.79246  0.030508941  0.029338031           17 
 1683000   0.59096774   -5.6169783    615.92157  0.030497206  0.029318593           16 
 1684000   0.60035095   -5.6262438     614.9415  0.030430597  0.029299153           11 
 1685000   0.58063089   -5.6261899     614.8819  0.030409589  0.029279708           36 
 1686000   0.56898888   -5.6047567    617.15821  0.030504063  0.029260322           25 
 1687000   0.57765137    -5.610741     615.2652  0.030392472  0.029241038           63 
 1688000   0.57243819   -5.6112088     617.2665  0.030473267  0.029221708           38 
 1689000   0.58189064   -5.6002663    615.16262  0.030351422  0.029202493           24 
 1690000   0.57774681   -5.6150661    615.00564  0.030325722  0.029183327           25 
 1691000   0.58812028   -5.6310786    615.22564   0.03031863  0.029164029           31 
 1692000   0.57999008   -5.6178861    615.35501  0.030307083  0.029144729           33 
 1693000   0.57482272    -5.619471     615.9677   0.03031934  0.029125403           17 
 1694000   0.57900255   -5.6309914    615.96153  0.030301138  0.029106093           13 
 1695000   0.57448772   -5.6265664     614.4487  0.030208884   0.02908677            9 
 1696000   0.58005288   -5.6211345    615.54569  0.030244973  0.029067453           34 
 1697000   0.58071492   -5.6055459     616.4655  0.030272319  0.029048242           31 
 1698000   0.56950814   -5.6064451    616.27372  0.030245078  0.029029061           11 
 1699000   0.59020074   -5.6194094    616.10946   0.03021922  0.029009851           20 
 1700000   0.56867633   -5.6227093    616.97217  0.030243734  0.028990638            6 
 1701000   0.58678407   -5.6334179    616.34649  0.030195301  0.028971431            8 
 1702000   0.57935062   -5.6270235    616.01125  0.030161146  0.028952219           10 
 1703000   0.56617415   -5.6521531    614.90192  0.030089152  0.028932954           42 
 1704000   0.57011622   -5.6309528    615.29677  0.030090804  0.028913704           16 
 1705000   0.55656937   -5.6308669    618.62517  0.030235834   0.02889453           10 
 1706000   0.57985483   -5.6515731    615.26865  0.030054154  0.028875237           21 
 1707000   0.58527135   -5.6248766    616.20079  0.030082054  0.028856026           15 
 1708000    0.5711568   -5.6268045    616.58669  0.030083269  0.028836829           15 
 1709000   0.57473986   -5.6427424    616.04598  0.030039301  0.028817677           27 
 1710000   0.56933809   -5.6213107     616.2438  0.030031374  0.028798535           21 
 1711000   0.57788476   -5.6194842    615.65208  0.029985003  0.028779343           31 
 1712000   0.56597628   -5.6543774    616.61394  0.030014308  0.028760283           16 
 1713000   0.56512031   -5.6459565     615.9065  0.029962371  0.028741157           15 
 1714000   0.56580176   -5.6488423    616.28074  0.029963085  0.028722046            9 
 1715000   0.58306454   -5.6484239    616.42824  0.029952781  0.028702947           27 
 1716000   0.56534273   -5.6418648     616.5673  0.029942079  0.028683893           14 
 1717000   0.57913324   -5.6249702    617.52723   0.02997123  0.028664918           15 
 1718000   0.57004703   -5.6319339    618.39242  0.029995752  0.028646008           15 
 1719000   0.55898626    -5.616597    617.05452  0.029913444  0.028627123           13 
 1720000   0.58146614   -5.6326951    617.27183  0.029906581  0.028608243           17 
 1721000   0.56705091   -5.6411158    617.98954  0.029923956  0.028589289           32 
 1722000   0.56114257   -5.6287708    616.08618  0.029814469  0.028570314           18 
 1723000   0.57185236   -5.6406839    615.64786  0.029775965  0.028551324           20 
 1724000   0.55932598   -5.6570211    617.03184  0.029825592  0.028532321           27 
 1725000   0.55934158   -5.6387531    615.86416  0.029751892  0.028513359           11 
 1726000   0.56445178    -5.654428    616.45086  0.029762981  0.028494392           26 
 1727000   0.56717178   -5.6600167    615.87263  0.029717846  0.028475397           10 
 1728000   0.56230601   -5.6611411     615.2877  0.029672439  0.028456343           25 
 1729000   0.57562492   -5.6512922    615.66837  0.029673625  0.028437365           13 
 1730000   0.56642335   -5.6598669    617.13842  0.029727284  0.028418324           39 
 1731000   0.57085865    -5.648665    615.88276  0.029649661  0.028399369           32 
 1732000    0.5611939   -5.6526577     616.5873  0.029666441  0.028380467           30 
 1733000   0.56437098   -5.6700808    617.31082  0.029684113  0.028361504           22 
 1734000   0.56770226   -5.6838252    615.36182  0.029573329   0.02834256           27 
 1735000   0.55987234   -5.6667262    615.77131  0.029575951  0.028323596           30 
 1736000   0.54302665    -5.635434    615.69893   0.02955544  0.028304619           37 
 1737000   0.56071564   -5.6682041    616.00797  0.029553251   0.02828562           19 
 1738000   0.55634982   -5.6668515    614.74115  0.029475506  0.028266629           55 
 1739000   0.55783092   -5.6536808    614.51305  0.029447626  0.028247619           65 
 1740000   0.56392951   -5.6572724    613.23175  0.029369336  0.028228571           28 
 1741000   0.56689133   -5.6626379    615.38781  0.029455668  0.028209524           37 
 1742000   0.55575128   -5.6785671    616.48671  0.029491328  0.028190481           20 
 1743000   0.56415577   -5.6707406    614.51019   0.02937991  0.028171451           20 
 1744000   0.56515441   -5.6647129    615.76414   0.02942298  0.028152435           52 
 1745000   0.54987201   -5.6684816     616.6903  0.029450349  0.028133496           38 
 1746000   0.55726885   -5.6739437    615.00036  0.029352823  0.028114571           61 
 1747000   0.56028335   -5.6820729    615.09858  0.029340707  0.028095661           20 
 1748000   0.55619318   -5.6697763    614.68425  0.029304169  0.028076695           22 
 1749000   0.55088743   -5.6815137      614.774   0.02929169   0.02805775           29 
 1750000   0.55875884    -5.661871    616.01671  0.029334129  0.028038885           29 
 1751000   0.55283119   -5.6765473    615.96512  0.029314921  0.028019979           31 
 1752000   0.56141711   -5.6756866    616.29212  0.029313742  0.028001111           21 
 1753000   0.55634475   -5.6785684    615.31886  0.029250754  0.027982237           60 
 1754000   0.56287977   -5.6668387    615.60634  0.029247736  0.027963314           56 
 1755000   0.55742796   -5.6858106    615.58546  0.029230079   0.02794445           42 
 1756000   0.55064421   -5.6814161    614.95501  0.029183514  0.027925583           30 
 1757000   0.54607571    -5.677962    615.68622  0.029201585   0.02790676           51 
 1758000   0.54753277   -5.6944942    616.35601  0.029216724  0.027887924           48 
 1759000   0.55855013   -5.6870659     614.9586  0.029133912  0.027869104           73 
 1760000   0.55341648   -5.6817344    616.65217  0.029197546  0.027850339           30 
 1761000    0.5527986   -5.6719953    618.02251  0.029245813  0.027831588           38 
 1762000   0.54741197   -5.6923528    615.72764  0.029120679  0.027812887           18 
 1763000   0.55860289   -5.6811119    615.48437  0.029092663  0.027794179           53 
 1764000   0.53623051   -5.6747686    615.14667  0.029060217  0.027775436           27 
 1765000    0.5479916   -5.6942616     615.9988  0.029083985  0.027756707           21 
 1766000   0.54464683    -5.690218    616.09358  0.029071989  0.027737925           34 
 1767000   0.55059464   -5.7057342    616.69385  0.029083845  0.027719154           53 
 1768000   0.56101605   -5.6756114    616.07328  0.029038145  0.027700471           34 
 1769000   0.53759538   -5.6684074    616.64005  0.029048429  0.027681791           58 
 1770000   0.55467109   -5.6912221    615.96825  0.029000389  0.027663161           38 
 1771000   0.54254085    -5.681958    614.83808  0.028930834  0.027644479           26 
 1772000   0.55274421   -5.6852016    616.73129  0.029003541   0.02762583           28 
 1773000   0.55169787    -5.672127    615.10961  0.028910961   0.02760716           36 
 1774000   0.53547788   -5.6913888    616.53473  0.028961609  0.027588518           13 
 1775000   0.54552932   -5.6966759    615.83337  0.028912365  0.027569856           20 
 1776000   0.54450106   -5.6927288    614.33813  0.028825926  0.027551169           20 
 1777000   0.54881241   -5.7247062    615.20914  0.028850551  0.027532469           19 
 1778000   0.52878876   -5.6965311    614.89332  0.028819522  0.027513731           26 
 1779000    0.5481321   -5.7053213    614.90293  0.028803772  0.027495041           42 
 1780000   0.54126822    -5.723328    615.41279   0.02881146  0.027476358           14 
 1781000   0.54220096   -5.7035979    615.49954  0.028799342  0.027457698           38 
 1782000   0.54729052   -5.6974167    616.85001  0.028846334  0.027439106           18 
 1783000    0.5529925   -5.6986242     615.0128  0.028744289  0.027420499           20 
 1784000    0.5567226   -5.7206996    615.26236  0.028739834  0.027401971           24 
 1785000   0.55054602   -5.6950641    615.72512  0.028745337  0.027383484           24 
 1786000   0.54733552    -5.715901    614.02892  0.028650099  0.027364959           14 
 1787000   0.52615897   -5.6939194    615.07516  0.028682856  0.027346406           21 
 1788000   0.53610421    -5.702153    615.58274  0.028690471  0.027327866           21 
 1789000   0.54293059   -5.7161513     615.4502   0.02866826  0.027309356           22 
 1790000   0.53435673   -5.7163634    615.69076  0.028663443   0.02729087           17 
 1791000   0.54518007   -5.7120539    616.34052  0.028677672  0.027272349           11 
 1792000   0.54811132   -5.7092966    616.33815  0.028661558  0.027253837           11 
 1793000   0.53986177   -5.7089714    614.84644  0.028576243  0.027235424           14 
 1794000   0.52890063   -5.7348602    613.75818  0.028509763  0.027216924           34 
 1795000   0.52456928   -5.7037285    615.35629  0.028568073  0.027198454           24 
 1796000   0.54534742   -5.7049243    614.33098  0.028504593  0.027179976           20 
 1797000   0.53249427   -5.7148133    615.17947  0.028528078  0.027161526           22 
 1798000   0.53916981   -5.7080651    615.57607  0.028530593   0.02714307           16 
 1799000   0.53413703   -5.7136135    617.42619  0.028600435  0.027124649           16 
 1800000   0.53101084   -5.7082436    615.41709  0.028491532  0.027106231           26 
 1801000   0.53161201   -5.7460452     614.3156  0.028424745  0.027087829           28 
 1802000   0.54033611   -5.7196091     614.9233  0.028437075  0.027069449           56 
 1803000   0.54649255   -5.7045006    615.34364   0.02844073  0.027051102           13 
 1804000   0.53680858   -5.7188211    615.01687   0.02840987  0.027032697           32 
 1805000   0.54444086   -5.7331694    615.66605  0.028424102  0.027014318           11 
 1806000   0.54007547   -5.7196067    614.21903  0.028341594  0.026995914           16 
 1807000   0.53145511   -5.7183573    615.17404  0.028369952  0.026977522           17 
 1808000   0.53139851   -5.7382407    614.25421  0.028311865  0.026959122           39 
 1809000     0.531721   -5.7258867    615.32607   0.02834559  0.026940746           16 
 1810000   0.53699085   -5.7194463    615.54359  0.028339944  0.026922377           14 
 1811000   0.52887537    -5.722839    614.82745  0.028291342  0.026903991           22 
 1812000   0.52864321   -5.7317459    614.34021  0.028253321   0.02688562           17 
 1813000   0.52003036   -5.7200092    616.02234  0.028315055  0.026867333            9 
 1814000   0.52737908   -5.7354324    615.09087  0.028256655  0.026849057           15 
 1815000   0.53159476   -5.7199138     614.0522  0.028193397  0.026830778           29 
 1816000   0.51579667   -5.7540177    615.94555  0.028264755   0.02681257           17 
 1817000   0.51552092   -5.7524256    614.57785  0.028186472  0.026794338           25 
 1818000   0.53101104   -5.7360865    615.14978  0.028197185   0.02677614           20 
 1819000   0.52483074   -5.7241791    615.83817   0.02821322  0.026757943           32 
 1820000   0.51726794   -5.7333664    615.59379  0.028186529  0.026739764           37 
 1821000   0.51185929   -5.7521612     613.7574  0.028087013  0.026721569           12 
 1822000   0.51747472   -5.7391498     615.6786  0.028159467  0.026703359           18 
 1823000    0.5156522   -5.7333224    616.68808  0.028190166  0.026685174           23 
 1824000   0.52687698   -5.7364373     615.4614  0.028118668  0.026666953           15 
 1825000      0.52182   -5.7359742    616.49366  0.028150396  0.026648774           29 
 1826000   0.52470422   -5.7595593    614.82601  0.028058872  0.026630545           34 
 1827000   0.53097889    -5.750093    613.32625  0.027975107  0.026612342           74 
 1828000   0.52358773    -5.757122    614.26743  0.028002709  0.026594127           39 
 1829000   0.52339246   -5.7368394    614.60523   0.02800279   0.02657599           24 
 1830000    0.5155835   -5.7502188    614.01246  0.027960495  0.026557856           31 
 1831000   0.52884464   -5.7575479    615.08933  0.027994235  0.026539678           30 
 1832000   0.52344628   -5.7215033    613.61739  0.027911999  0.026521505           14 
 1833000   0.51934787   -5.7526582     615.1979  0.027968626  0.026503355           20 
 1834000    0.5255043   -5.7528715    614.95529  0.027942352  0.026485213           15 
 1835000   0.51903256   -5.7489734    613.72479  0.027871244  0.026467086           21 
 1836000   0.51955912   -5.7530544    614.14697  0.027875226  0.026448909           16 
 1837000   0.50835803    -5.769879    613.46163  0.027828961  0.026430802           16 
 1838000   0.50709163    -5.756938     614.5487  0.027863108  0.026412641           29 
 1839000   0.52401473    -5.745687    613.68413  0.027808779  0.026394501           26 
 1840000   0.51980601   -5.7565332    613.24224  0.027773652  0.026376379           24 
 1841000   0.52393196   -5.7628138    614.10292  0.027797525  0.026358292           48 
 1842000    0.5175813   -5.7471652    613.96473  0.027776182   0.02634017           20 
 1843000   0.51381176    -5.765688    614.01488  0.027763379  0.026322087           38 
 1844000    0.5149133   -5.7518899    614.63624  0.027776403  0.026304011           33 
 1845000   0.51252176   -5.7718597    614.94502  0.027775294  0.026285925           33 
 1846000   0.53028152   -5.7860227    614.69748  0.027749074  0.026267842           22 
 1847000   0.51273486   -5.7780392    614.31084  0.027716605   0.02624978           49 
 1848000   0.51281562   -5.7779913    613.83056  0.027679949  0.026231706           36 
 1849000   0.50961468   -5.7783748    614.14033   0.02767894  0.026213644           38 
 1850000   0.51693978    -5.760751     615.1224  0.027708216  0.026195635           40 
 1851000   0.50933547   -5.7568731    614.92185  0.027684218   0.02617769           35 
 1852000   0.51426477   -5.7642964    614.55966  0.027652973  0.026159734           92 
 1853000   0.51271769   -5.7661154     614.9297  0.027654691   0.02614175           83 
 1854000   0.51376531   -5.7680012    613.54803  0.027577671  0.026123779           52 
 1855000    0.5252769   -5.7734392    614.53876  0.027607312   0.02610584           53 
 1856000   0.51359494   -5.7604208    615.60339  0.027640238  0.026087963           99 
 1857000   0.51971654   -5.7809513    613.57836   0.02753448  0.026070084           61 
 1858000   0.50465569   -5.7502956    614.03752  0.027540255  0.026052214           74 
 1859000   0.51053085   -5.7657696    614.45816  0.027544296  0.026034367           31 
 1860000   0.50832305   -5.7867404    614.16953  0.027516556  0.026016504          158 
 1861000   0.50730741   -5.7711128    613.06717  0.027452408  0.025998636          121 
 1862000   0.51895578   -5.7823228    613.99352  0.027479123  0.025980724          137 
 1863000   0.50964296   -5.7939113    612.52598  0.027398729  0.025962831          129 
 1864000   0.50317074   -5.7831421    614.12604  0.027455563  0.025944941           66 
 1865000   0.51620097   -5.7906897    612.75862  0.027379742  0.025927084           54 
 1866000    0.5103879   -5.7758856    613.67443  0.027405968  0.025909256          125 
 1867000   0.50553366   -5.7760734    614.37841  0.027422711  0.025891476           30 
 1868000   0.50719786   -5.7931155    613.76038  0.027380459  0.025873661           19 
 1869000   0.49922135     -5.77477    614.89813  0.027416539  0.025855878           25 
 1870000   0.50901734   -5.7755776    613.70081  0.027348521  0.025838077           37 
 1871000   0.49738087   -5.7913407    613.56633  0.027327914  0.025820283           62 
 1872000   0.50673838   -5.7894598    612.91225  0.027284199   0.02580248           48 
 1873000   0.51263715   -5.7870172    614.38643  0.027335221  0.025784703           44 
 1874000   0.50222459   -5.7891502    614.74966  0.027336787  0.025766929           73 
 1875000   0.49921651   -5.7960512    614.47637  0.027310061  0.025749168           27 
 1876000   0.49662585   -5.7834428    612.68438  0.027215902  0.025731403           38 
 1877000   0.49959474   -5.7833508    613.29947   0.02722871  0.025713672           23 
 1878000   0.50765122   -5.7951423    612.96709  0.027199463  0.025695934           11 
 1879000   0.50075673   -5.7931848    612.62216  0.027169689  0.025678187           18 
 1880000   0.49541242    -5.776574    613.52962  0.027195462  0.025660458           23 
 1881000   0.50182025   -5.7883882    613.81551   0.02719367  0.025642725           19 
 1882000   0.50728506   -5.7862731    613.44604   0.02716286   0.02562505           17 
 1883000   0.50855424   -5.8115918    613.62209  0.027156226  0.025607369           18 
 1884000   0.50253132   -5.7960327    613.24079  0.027124947  0.025589708           25 
 1885000   0.49983635   -5.7807598    613.62752  0.027127653  0.025572081           10 
 1886000   0.50405593   -5.7670625    614.54322   0.02715373  0.025554505           18 
 1887000   0.48852356   -5.7940589    613.52161  0.027094224  0.025536952           19 
 1888000   0.49743147   -5.7948759    613.89915  0.027096537  0.025519404           18 
 1889000   0.49741968   -5.7931956    613.20508  0.027051574  0.025501912           17 
 1890000   0.49471193    -5.796862    614.58608  0.027098151  0.025484413           35 
 1891000   0.50757421   -5.7859046    615.66141   0.02713121  0.025466934           40 
 1892000   0.49680204   -5.7862186    614.27192  0.027055669  0.025449461           50 
 1893000   0.49506561   -5.7770641    613.78226  0.027019821  0.025432029           69 
 1894000   0.49346806   -5.7758506    615.05797  0.027061685  0.025414607           44 
 1895000   0.49903524   -5.7928404    614.89921  0.027040423  0.025397252           36 
 1896000   0.50631062   -5.7877254    615.64668  0.027059014  0.025379862           26 
 1897000   0.48696478   -5.7907067    614.42198   0.02699095  0.025362495           16 
 1898000   0.50024742   -5.8022407     613.9477  0.026955906  0.025345125           18 
 1899000   0.49200422   -5.7767287    614.77621  0.026978068  0.025327757           18 
 1900000   0.49587418    -5.789345    614.90315  0.026969436  0.025310434           20 
 1901000   0.48836515   -5.7868701    613.40153  0.026889424  0.025293065           24 
 1902000   0.49085659   -5.8054178    612.94301  0.026855197   0.02527569           19 
 1903000   0.49633656   -5.7878654    614.94596  0.026928795  0.025258307           32 
 1904000   0.48798715   -5.7841939    613.98335   0.02687252  0.025240944           24 
 1905000   0.49399171   -5.8113677    613.82524  0.026851498  0.025223614           54 
 1906000   0.48959192   -5.8120469    613.52818  0.026824422  0.025206242           15 
 1907000   0.48900103   -5.8137684    612.45932  0.026763648  0.025188879           31 
 1908000   0.49534435   -5.8128935    612.08956  0.026733471  0.025171521           32 
 1909000   0.48669285   -5.8144574    613.58664  0.026784819  0.025154171           23 
 1910000   0.49779474   -5.8156731    614.01808   0.02678962  0.025136838           50 
 1911000   0.48313984   -5.8059185    614.68382  0.026804632  0.025119511           48 
 1912000    0.4767332   -5.8199525    612.88272  0.026712113  0.025102195           66 
 1913000   0.48269429   -5.8000492    614.41963    0.0267651  0.025084894           65 
 1914000     0.488457   -5.8109375    614.12152  0.026738137  0.025067625           43 
 1915000   0.48783144   -5.8222503    613.23481  0.026685588  0.025050344           29 
 1916000   0.49455842   -5.8103984    614.14526  0.026711259  0.025033099           31 
 1917000   0.48864436   -5.8196988    614.01535  0.026691678  0.025015861           53 
 1918000   0.47147446   -5.8252725    612.60201  0.026616354   0.02499861           37 
 1919000    0.4857241   -5.8203242    612.68949  0.026606283  0.024981356           60 
 1920000   0.48489122   -5.8173294    614.43197  0.026668054  0.024964114           70 
 1921000   0.47872352   -5.8120812    614.38484  0.026652127    0.0249469           49 
 1922000   0.49396557   -5.8139757    613.24115  0.026588673  0.024929655           32 
 1923000   0.49121818   -5.8195213    614.06304  0.026610463  0.024912439           38 
 1924000   0.48340762   -5.8068445    613.79876  0.026585185  0.024895251           52 
 1925000   0.48867274    -5.834813    612.47446  0.026514046  0.024878018           46 
 1926000    0.4764219   -5.8180846    613.49535  0.026544451  0.024860804           18 
 1927000   0.47723744    -5.836958    613.06689  0.026512147  0.024843552           52 
 1928000   0.47882833    -5.835273    612.69104  0.026482151  0.024826317           29 
 1929000   0.46926677   -5.8322163    612.64326  0.026466358   0.02480914           41 
 1930000   0.49218397   -5.8384785    612.60872  0.026451154  0.024791935           73 
 1931000   0.47643118   -5.8449219     612.8527  0.026447985  0.024774731           88 
 1932000   0.48483028   -5.8407255    613.04908  0.026442766  0.024757561           64 
 1933000   0.48173758   -5.8314349    612.65176  0.026411957  0.024740399           38 
 1934000   0.47700694   -5.8341149    612.70303   0.02640051  0.024723204           48 
 1935000   0.48644944   -5.8433005    612.53467  0.026379615  0.024706048           76 
 1936000    0.4758213   -5.8343465    611.02695  0.026301091  0.024688889           62 
 1937000   0.49589913   -5.8416552    612.37758   0.02634562  0.024671733           89 
 1938000   0.47711149   -5.8314458     612.7069  0.026346186  0.024654615           84 
 1939000   0.48352487   -5.8562463    612.67084  0.026331049  0.024637479          111 
 1940000   0.48467862   -5.8385076    612.35126  0.026303748  0.024620341          131 
 1941000   0.46973339   -5.8459606    612.32182  0.026288933  0.024603226           87 
 1942000   0.48093562   -5.8453252    612.46101  0.026281369  0.024586107           96 
 1943000   0.47526555   -5.8439192    612.30295  0.026261063  0.024568991           87 
 1944000   0.47782383   -5.8669808    611.41828  0.026209631  0.024551847          116 
 1945000   0.47177293   -5.8384549    611.12776  0.026183709  0.024534723          113 
 1946000   0.47676596   -5.8554687    612.12566  0.026212987  0.024517596          184 
 1947000   0.46883983   -5.8714146    611.45977  0.026171023  0.024500497          184 
 1948000   0.46703336   -5.8393941    610.61881  0.026121612  0.024483379          164 
 1949000   0.47909558   -5.8420043    611.17356  0.026131929  0.024466306          136 
 1950000   0.47501753   -5.8626135    611.24421  0.026121547  0.024449254          127 
 1951000    0.4790499   -5.8584602    612.57493  0.026164998    0.0244322          103 
 1952000   0.48661402   -5.8672903    611.49652  0.026105555  0.024415148          102 
 1953000   0.47755875   -5.8468483    611.61301  0.026097158  0.024398112           73 
 1954000   0.47980694   -5.8434401    610.93802  0.026055016  0.024381121           70 
 1955000   0.47997662   -5.8549643    611.92187  0.026083626  0.024364118           73 
 1956000    0.4742408   -5.8488825     610.4952  0.026009509  0.024347112           68 
 1957000    0.4632511   -5.8618941    611.47339  0.026037872  0.024330114           92 
 1958000   0.47643121   -5.8796498     611.4965  0.026025557  0.024313119           46 
 1959000   0.47786321   -5.8690912     610.1662  0.025955683  0.024296133           64 
 1960000   0.46900336   -5.8711014    610.84484  0.025971294  0.024279172           35 
 1961000   0.46923686   -5.8646127    610.47831  0.025942475  0.024262218           69 
 1962000   0.46504522   -5.8535894    612.65616  0.026021753  0.024245308           27 
 1963000   0.47038854   -5.8727449    611.62347  0.025964657   0.02422836          140 
 1964000   0.47232018   -5.8609904    611.04541   0.02592691  0.024211419          101 
 1965000   0.47094207   -5.8624046    611.93843  0.025951587  0.024194486           73 
 1966000   0.46067012   -5.8634121    611.95665  0.025939159  0.024177554           72 
 1967000   0.47140038   -5.8703115    610.65989  0.025871034  0.024160641           89 
 1968000   0.47784575   -5.8838329     611.3747  0.025888156  0.024143735          116 
 1969000   0.46213288   -5.8654519    609.84853  0.025810417  0.024126828           90 
 1970000   0.47105646   -5.8863342    610.32245  0.025817362  0.024109926           56 
 1971000   0.46457999   -5.8787051    609.64443  0.025775597  0.024093044           63 
 1972000   0.46560326   -5.8799476    610.53631  0.025800216  0.024076177           44 
 1973000   0.46245346   -5.8878535    611.57371  0.025830956  0.024059353           53 
 1974000    0.4536336   -5.8739549    610.59025  0.025776353  0.024042506           82 
 1975000   0.48079224   -5.8764969      610.641  0.025765443  0.024025685           69 
 1976000   0.44784974   -5.8720151    610.57125  0.025749462  0.024008863           63 
 1977000   0.47139362    -5.881015    611.44442  0.025773243  0.023992047           87 
 1978000   0.47312573   -5.8922389    610.72143  0.025729754  0.023975232          110 
 1979000    0.4705354   -5.8813681    610.59682  0.025711505  0.023958436           46 
 1980000   0.45381178   -5.8841115    611.28922  0.025727661   0.02394167           65 
 1981000   0.45892509    -5.867707    611.50637  0.025723808  0.023924938          166 
 1982000   0.46618978   -5.8739482    610.41944   0.02566513  0.023908196           78 
 1983000    0.4642697   -5.8727277    610.04831   0.02563659  0.023891493           69 
 1984000   0.46464512   -5.8927804     611.0208  0.025664516  0.023874757          110 
 1985000   0.46389696   -5.8912546    611.07764  0.025653973  0.023858035          113 
 1986000   0.46002989   -5.8990684     609.8309  0.025588742  0.023841303          111 
 1987000    0.4679734   -5.8884696    609.39037  0.025557389  0.023824586          197 
 1988000   0.45656899   -5.9017422    610.77598  0.025602615   0.02380789          166 
 1989000   0.46524264    -5.883221    610.05369  0.025559481   0.02379119          227 
 1990000   0.45276016   -5.9090367    610.46682  0.025563937  0.023774484          214 
 1991000   0.46800688   -5.8911676    610.11665  0.025536441  0.023757752          378 
 1992000   0.45284409   -5.8834247    610.06437  0.025521434  0.023741054          378 
 1993000   0.45472643   -5.8855466    610.92601  0.025544657  0.023724395          353 
 1994000   0.45374415   -5.8876476     609.6137  0.025477002  0.023707713          268 
 1995000   0.45698629   -5.8990898    609.07826  0.025441866  0.023691034          384 
 1996000   0.45360964   -5.9009542    609.68671  0.025454522  0.023674377          418 
 1997000   0.46008127   -5.8964342    610.25361  0.025465432  0.023657721          352 
 1998000   0.45276931   -5.9013717    610.99083  0.025483435  0.023641096          371 
 1999000   0.45017342   -5.8996249    609.81406   0.02542163  0.023624482          293 
 2000000    0.4507318   -5.9009562    609.28774  0.025386989  0.023607887          315 
 2001000   0.45331034   -5.9157405    610.64419  0.025430792  0.023591304          378 
 2002000    0.4591774   -5.9010957    609.84853   0.02538497  0.023574722          379 
 2003000   0.45728069    -5.904743    609.82594  0.025371357  0.023558175          317 
 2004000   0.45566276   -5.9071993    610.57856  0.025389993   0.02354164          415 
 2005000   0.44453601   -5.9156318    610.09795  0.025357354  0.023525092          371 
 2006000   0.44836584   -5.8801333    610.40912   0.02535764  0.023508547          404 
 2007000   0.45380352   -5.9149908    609.31601  0.025299619  0.023492023          383 
 2008000   0.44994601   -5.8974216    610.16183  0.025322121  0.023475513          369 
 2009000   0.45264385   -5.9109158    609.99536  0.025302612  0.023459012          484 
 2010000   0.44698754   -5.9084746    609.61117  0.025274095  0.023442512          431 
 2011000   0.44109975   -5.9038825    608.93757  0.025233614  0.023426014          497 
 2012000     0.459861   -5.9153949    608.23695  0.025192054  0.023409502          336 
Loop time of 5074.21 on 48 procs for 2000000 steps with 4000 atoms

Performance: 68109.127 tau/day, 394.150 timesteps/s
99.4% CPU use with 48 MPI tasks x no OpenMP threads

MPI task timing breakdown:
Section |  min time  |  avg time  |  max time  |%varavg| %total
---------------------------------------------------------------
Pair    | 352.88     | 377.61     | 393.58     |  45.5 |  7.44
Neigh   | 34.269     | 35.627     | 36.838     |  11.6 |  0.70
Comm    | 331.74     | 349        | 377.71     |  51.7 |  6.88
Output  | 4.2663     | 4.2679     | 4.3031     |   0.2 |  0.08
Modify  | 4242.3     | 4259.8     | 4273.5     |   9.7 | 83.95
Other   |            | 47.96      |            |       |  0.95

Nlocal:        83.3333 ave          93 max          74 min
Histogram: 1 1 3 4 18 12 7 1 0 1
Nghost:        2340.85 ave        2355 max        2324 min
Histogram: 3 1 1 8 9 6 7 7 3 3
Neighs:        16021.8 ave       18187 max       14019 min
Histogram: 2 0 2 12 11 11 4 4 1 1
FullNghs:      32043.7 ave       35692 max       28405 min
Histogram: 2 1 2 5 11 17 7 2 0 1

Total # of neighbors = 1538097
Ave neighs/atom = 384.52425
Neighbor list builds = 107634
Dangerous builds = 1

#clear
#
#next RN
#
#jump SELF
Total wall time: 1:24:37
