
units lj                  # Use reduced LJ style units
atom_style atomic         # Uncharged point particles
atom_modify map hash      # Needed for indexing of clusters etc
                          # Used to be able to find where atoms are in relation to each other.

lattice fcc 1.0 spacing 1 1 1
Lattice spacing in x,y,z = 1.5874011 1.5874011 1.5874011
region box block 0 10 0 10 0 10 units lattice
create_box 2 box
Created orthogonal box = (0.0000000 0.0000000 0.0000000) to (15.874011 15.874011 15.874011)
  3 by 4 by 4 MPI processor grid
create_atoms 1 box
Created 4000 atoms
  using lattice units in orthogonal box = (0.0000000 0.0000000 0.0000000) to (15.874011 15.874011 15.874011)
  create_atoms CPU = 0.002 seconds
set type 1 type/fraction 2 0.14 78393
Setting atom values ...
  590 settings made for type/fraction
mass 1 1.0
mass 2 1.0
pair_style lj/cut  3.5
pair_modify tail  yes
pair_coeff 1  1  1.0  1.0   # Intearaction between 1 and 1 set with epsilon = 1 and sigma = 1
pair_coeff 1  2  1.5  0.8
pair_coeff 2  2  0.5  0.88

write_data data.0
System init for write_data ...
Neighbor list info ...
  update every 1 steps, delay 10 steps, check yes
  max neighbors/atom: 2000, page size: 100000
  master list distance cutoff = 3.8
  ghost atom cutoff = 3.8
  binsize = 1.9, bins = 9 9 9
  1 neighbor lists, perpetual/occasional/extra = 1 0 0
  (1) pair lj/cut, perpetual
      attributes: half, newton on
      pair build: half/bin/atomonly/newton
      stencil: half/bin/3d
      bin: standard
WARNING: Not all mixed pair coeffs generated from mixing. Use write_data with 'pair ij' option to store all pair coeffs. (../write_data.cpp:312)


#############################
#   M E L T   S Y S T E M   #
#############################

velocity all create 2.4 6229865 mom yes dist gaussian # Assign velocities
                                                    # Temperature 2.4, random number seed, zero linear momentum
                                                                                # Gaussian distribution

timestep 0.002   # simulation timestep
thermo 1000       # output thermodynamic data every 1000 steps bf 100

# Define a fix  in this case with index 1 applied to all
# particles in the simulation. This fix is for simulations
# in the anisotropic NPT ensemble. Note that we use the MTK
# correction.
fix 1 all npt temp 2.4 2.4 0.1 iso 5.68 5.68 0.5 mtk yes tchain 5 pchain 5 # Use NPT ensemble
                                                                         # Set temperature and pressure and damping
                                                                         # Numbers of thermostats in chain and in barostat
run 10000          # run for 10000 steps
Per MPI rank memory allocation (min/avg/max) = 3.642 | 3.644 | 3.648 Mbytes
Step Temp E_pair E_mol TotEng Press Volume 
       0          2.4   -7.4253508            0   -3.8262508   -3.2887046         4000 
    1000    2.3467142   -4.7067925            0   -1.1876012    5.6677201    4679.2817 
    2000    2.4258321   -4.7514635            0    -1.113625    5.3425713    4702.2943 
    3000     2.430566     -4.75831            0   -1.1133724     5.524045    4681.9874 
    4000    2.3287608   -4.7066736            0   -1.2144056    5.7893569    4665.5016 
    5000    2.3827049   -4.7039492            0   -1.1307854    5.5810087    4706.5164 
    6000    2.3547177   -4.7283733            0   -1.1971798    5.7384859    4665.6579 
    7000    2.3601206   -4.7440142            0   -1.2047182    5.5334878    4676.1435 
    8000     2.364004   -4.7458899            0   -1.2007703    5.7625925    4652.6425 
    9000    2.3765842   -4.6345186            0   -1.0705335    6.0504756    4683.2534 
   10000    2.3948646   -4.6957753            0   -1.1043764    5.6585933    4695.0889 
Loop time of 2.24879 on 48 procs for 10000 steps with 4000 atoms

Performance: 768413.762 tau/day, 4446.839 timesteps/s
99.6% CPU use with 48 MPI tasks x no OpenMP threads

MPI task timing breakdown:
Section |  min time  |  avg time  |  max time  |%varavg| %total
---------------------------------------------------------------
Pair    | 0.91937    | 0.98706    | 1.0525     |   2.9 | 43.89
Neigh   | 0.19372    | 0.20136    | 0.2115     |   0.8 |  8.95
Comm    | 0.69232    | 0.77688    | 0.83491    |   3.6 | 34.55
Output  | 0.00024662 | 0.00025121 | 0.00031354 |   0.0 |  0.01
Modify  | 0.23915    | 0.26871    | 0.3059     |   3.2 | 11.95
Other   |            | 0.01453    |            |       |  0.65

Nlocal:        83.3333 ave          92 max          75 min
Histogram: 3 4 5 3 6 12 5 6 3 1
Nghost:        1471.90 ave        1504 max        1450 min
Histogram: 4 3 11 9 7 5 1 4 3 1
Neighs:        8113.56 ave        9261 max        7026 min
Histogram: 3 3 5 4 9 10 5 6 2 1

Total # of neighbors = 389451
Ave neighs/atom = 97.362750
Neighbor list builds = 908
Dangerous builds = 217

# Equilibrate just above the melting temperature to avoid step fn in T

fix 1 all npt temp 1.25 1.25 0.1 iso 5.68 5.68 0.5 mtk yes tchain 5 pchain 5
run 2000
Per MPI rank memory allocation (min/avg/max) = 3.642 | 3.644 | 3.648 Mbytes
Step Temp E_pair E_mol TotEng Press Volume 
   10000    2.3948646   -4.6957753            0   -1.1043764    5.6585933    4695.0889 
   11000    1.2541632   -6.3723671            0   -4.4915926    5.6750099    3837.4591 
   12000    1.2413413   -6.3506144            0   -4.4890679    5.6846315    3842.8843 
Loop time of 0.491845 on 48 procs for 2000 steps with 4000 atoms

Performance: 702660.477 tau/day, 4066.322 timesteps/s
99.6% CPU use with 48 MPI tasks x no OpenMP threads

MPI task timing breakdown:
Section |  min time  |  avg time  |  max time  |%varavg| %total
---------------------------------------------------------------
Pair    | 0.21593    | 0.23504    | 0.25193    |   1.8 | 47.79
Neigh   | 0.032063   | 0.033929   | 0.035668   |   0.5 |  6.90
Comm    | 0.14688    | 0.16854    | 0.18744    |   2.2 | 34.27
Output  | 5.1815e-05 | 5.3423e-05 | 6.7567e-05 |   0.0 |  0.01
Modify  | 0.041843   | 0.049627   | 0.056507   |   1.9 | 10.09
Other   |            | 0.004655   |            |       |  0.95

Nlocal:        83.3333 ave          92 max          76 min
Histogram: 3 3 2 12 8 9 5 1 4 1
Nghost:        1686.83 ave        1716 max        1654 min
Histogram: 1 4 1 5 10 11 5 6 1 4
Neighs:        9936.52 ave       11124 max        9040 min
Histogram: 2 5 12 5 8 4 5 3 2 2

Total # of neighbors = 476953
Ave neighs/atom = 119.23825
Neighbor list builds = 141
Dangerous builds = 3

#############################
# L I N E A R  Q U E N C H  #
#############################

# Define solid atoms. This closely follows ten Wolde  Ruiz-Montero and Frenkel  Faraday Discuss  1996  104  93-110
# Compute components of the per-atom q6 vector
compute q6 all orientorder/atom degrees 1 6 components 6 nnn NULL cutoff 1.3 # compute the Q6 parameter.
                                                                             # Use all neighbours within 1.3 unit cell.

# get number of connections
compute coord_number all coord/atom orientorder q6 0.5

# An atom is solid if it has 8 or more connections (of a possible 14)
variable is_solid atom c_coord_number>=8
group solid dynamic all var is_solid    # Must be dynamic to update
dynamic group solid defined

# do clustering
compute cluster solid cluster/atom 1.3 # Create a cluster where all atoms within are solid and max 1.3 units from another member

# define chunks one chunk per cluster
compute clus_chunks solid chunk/atom c_cluster nchunk every compress yes  # Says which atoms are in which chunk

# count the size of each chunk
compute size_chunks solid property/chunk clus_chunks count


# Find the maximum entry in the vector of chunk sizes
variable max_n equal max(c_size_chunks)


# Thermo style which includes this variable
# thermo_style custom step temp pe vol v_max_n

thermo ${N}  # Print the thermo information every 100 steps
thermo 1000  

# Reset the npt fix at a lower temperature (below freezing)
fix 1  all npt temp  ${temp} ${temp}  0.1  iso  5.68  5.68  0.5  mtk yes tchain  5  pchain  5
fix 1  all npt temp  0.45 ${temp}  0.1  iso  5.68  5.68  0.5  mtk yes tchain  5  pchain  5
fix 1  all npt temp  0.45 0.45  0.1  iso  5.68  5.68  0.5  mtk yes tchain  5  pchain  5

dump dmp2 all dcd ${N} traj.dcd
dump dmp2 all dcd 1000 traj.dcd


compute msd all msd com yes
variable twopoint equal c_msd[4]/6/(step*dt+1.0e-6)
fix 9 all vector 10 c_msd[4]
variable fit equal slope(f_9)/6/(10*dt)
thermo_style custom step temp pe c_msd[4] v_twopoint v_fit v_max_n

fix 1 all npt temp 1.25 ${temp} 0.1 iso 5.68 5.68 0.5 mtk yes tchain 5 pchain 5
fix 1 all npt temp 1.25 0.45 0.1 iso 5.68 5.68 0.5 mtk yes tchain 5 pchain 5
run 2000000 # 5000000  # Run for this many steps
Neighbor list info ...
  update every 1 steps, delay 10 steps, check yes
  max neighbors/atom: 2000, page size: 100000
  master list distance cutoff = 3.8
  ghost atom cutoff = 3.8
  binsize = 1.9, bins = 9 9 9
  4 neighbor lists, perpetual/occasional/extra = 1 3 0
  (1) pair lj/cut, perpetual
      attributes: half, newton on
      pair build: half/bin/atomonly/newton
      stencil: half/bin/3d
      bin: standard
  (2) compute orientorder/atom, occasional
      attributes: full, newton on
      pair build: full/bin/atomonly
      stencil: full/bin/3d
      bin: standard
  (3) compute coord/atom, occasional
      attributes: full, newton on
      pair build: full/bin/atomonly
      stencil: full/bin/3d
      bin: standard
  (4) compute cluster/atom, occasional
      attributes: full, newton on
      pair build: full/bin/atomonly
      stencil: full/bin/3d
      bin: standard
Per MPI rank memory allocation (min/avg/max) = 9.758 | 9.765 | 9.773 Mbytes
Step Temp PotEng c_msd[4] v_twopoint v_fit v_max_n 
   12000    1.2413413   -6.3506144 1.1306349e-30 7.8516309e-33 8.3333333e+20            3 
   13000    1.2430055   -6.3796513   0.56555285 0.0036253386  0.046702239            3 
   14000    1.2245357   -6.3770706    1.0848826 0.0064576343  0.044958624            3 
   15000    1.2406134   -6.3781713    1.5962323 0.0088679567  0.044149137            2 
   16000    1.2461215   -6.3512087    2.1140244  0.011010543  0.043428898            2 
   17000    1.2539174   -6.3293849    2.6720827  0.013098444  0.043553713            1 
   18000    1.2535299   -6.3361668    3.1891008  0.014764355  0.043897789            3 
   19000    1.2457291   -6.3416886    3.7738263  0.016551869  0.044060647            2 
   20000    1.2648411   -6.3625293    4.2773745  0.017822393  0.044263677            2 
   21000    1.2573741   -6.3816887    4.8458669   0.01922963   0.04445709            1 
   22000    1.2218232    -6.345633     5.395653  0.020438079  0.044723399            5 
   23000     1.254891   -6.3386954    5.9843154  0.021682302  0.044931935            4 
   24000    1.2625474   -6.3450479    6.4439844  0.022374945  0.045012027            3 
   25000    1.2247696   -6.3692516    6.9196165  0.023065388  0.044898571            3 
   26000    1.2584505   -6.3926059    7.4225389  0.023790188  0.044630416            5 
   27000    1.2362771   -6.3688059     8.024095  0.024765725   0.04451675            3 
   28000    1.2495108   -6.3922289    8.4835219  0.025248577  0.044406179            2 
   29000    1.2550718   -6.3759148     9.047933  0.025999807  0.044339501            2 
   30000    1.2363435   -6.4116981     9.573981  0.026594391  0.044344499            3 
   31000    1.2546082   -6.3747086    10.173855  0.027349071  0.044342509            2 
   32000     1.229545   -6.4015326    10.641782  0.027712973  0.044369003            2 
   33000    1.2206026   -6.3484306    11.037073  0.027871396   0.04423974            3 
   34000    1.2383361   -6.3524892    11.576431  0.028373605  0.044136055            1 
   35000     1.242941   -6.3303612    12.171159   0.02897895   0.04405575            4 
   36000    1.2374167   -6.3967506    12.840304  0.029722925  0.044077581            3 
   37000    1.2414868   -6.3658211    13.525449  0.030462722  0.044208195            3 
   38000    1.2344553   -6.3452407    14.129582  0.030985925  0.044387143            3 
   39000    1.2331885    -6.331771    14.630681  0.031262138  0.044519567            1 
   40000    1.2173279   -6.3822418    15.218616   0.03170545  0.044686903            2 
   41000    1.2417139   -6.3916459    15.751975   0.03201621  0.044823101            2 
   42000    1.2622979   -6.3283951    16.424244  0.032587785  0.044978336            1 
   43000    1.2112376   -6.3876393    16.885506  0.032723849  0.045111076            2 
   44000    1.2442893   -6.3924075    17.355532  0.032870325  0.045181459            1 
   45000    1.2745368   -6.3941214    17.759135  0.032887287  0.045185878            3 
   46000    1.2146933   -6.3790566    18.247868  0.033057731   0.04516468            2 
   47000    1.2345608   -6.3793575    18.797763  0.033329367  0.045136566            2 
   48000    1.1989595   -6.3681319    19.361752  0.033614152   0.04511132            2 
   49000    1.2609879   -6.3869359     19.93159  0.033897262  0.045087675            2 
   50000     1.225694   -6.4192408    20.374314  0.033957189  0.045072057            2 
   51000    1.2510111    -6.377907    20.999102  0.034312258  0.045063028            2 
   52000     1.234542   -6.3851052    21.465427  0.034399723  0.045061937            2 
   53000    1.2420439   -6.3851302    21.938462  0.034494436  0.045040394            3 
   54000    1.2299745   -6.4250591    22.444106  0.034635966  0.044997891            1 
   55000    1.2383467   -6.4516715    22.826781  0.034586032   0.04493969            3 
   56000    1.2346636    -6.401057    23.263705  0.034618609  0.044834609            3 
   57000    1.2312466   -6.3583335    23.877503   0.03490863  0.044753662            2 
   58000    1.2315179   -6.4306745    24.243653  0.034832834  0.044686312            1 
   59000    1.2343992   -6.3774462    24.825524    0.0350643  0.044608851            3 
   60000    1.2519284   -6.3536991    25.546782  0.035481642  0.044542553            1 
   61000    1.2508763   -6.4028455      25.9022  0.035385519  0.044497924            3 
   62000    1.2262148   -6.3505739     26.42224  0.035513763   0.04444501            2 
   63000    1.2279994   -6.3529157    26.914448  0.035601122  0.044375414            4 
   64000    1.2186866   -6.3761474    27.411086  0.035691518  0.044317201            4 
   65000    1.2238297   -6.3958517    28.065315  0.035981172  0.044261229            2 
   66000    1.2313221   -6.3793743    28.589813  0.036098249     0.044227            2 
   67000    1.2394461   -6.4106166    29.104905   0.03620013  0.044195353            3 
   68000    1.2287123   -6.3988628    29.645156  0.036329848  0.044167947            3 
   69000    1.2491853   -6.3943307    30.088455  0.036338714  0.044141588            3 
   70000     1.226314   -6.4359478    30.611653  0.036442444  0.044105166            3 
   71000    1.2090167    -6.388101    30.986948  0.036369657  0.044063082            3 
   72000    1.2034898   -6.3907415    31.561655  0.036529694  0.044014927            4 
   73000    1.2316805   -6.4080425    32.219423  0.036780162  0.043981255            1 
   74000    1.1955567   -6.3724196    32.868752   0.03701436  0.043967669            2 
   75000    1.2155494   -6.3922953     33.39552  0.037106133  0.043967688            2 
   76000    1.1826012   -6.3885638    33.912505  0.037184763  0.043957716            2 
   77000    1.2111495   -6.4006102    34.104753  0.036909906  0.043932779            1 
   78000    1.2386491   -6.4431246    34.586364  0.036951244  0.043897064            4 
   79000    1.2076926   -6.3990293    34.990077  0.036909364  0.043855048            2 
   80000     1.233112   -6.4091579    35.521343  0.037001399   0.04380332            3 
   81000    1.2145925   -6.4088461     35.76166  0.036791831  0.043746165            2 
   82000    1.2215254   -6.3829479    36.509751  0.037103405  0.043699324            2 
   83000    1.2163722   -6.4012369    37.192421  0.037341788  0.043672602            6 
   84000    1.2210987   -6.4218465      37.7778  0.037477976   0.04365253            1 
   85000    1.2404436   -6.4448749     38.08005  0.037333382   0.04362039            2 
   86000    1.2396384   -6.3822277    38.676073  0.037476815  0.043585758            5 
   87000    1.2162668    -6.434609    39.026416  0.037381625  0.043555597            4 
   88000    1.2353633   -6.4228352    39.597506  0.037497638  0.043522359            2 
   89000    1.2345181   -6.4013365      40.2648  0.037701123  0.043496314            2 
   90000     1.265317   -6.4116569    40.504915   0.03750455  0.043464861            2 
   91000    1.2160398   -6.3724398    41.300116  0.037820618  0.043440118            2 
   92000    1.2298166   -6.3990055    41.671554  0.037745973  0.043415002            1 
   93000    1.2277125   -6.3775018    42.087101  0.037712456  0.043391142            3 
   94000    1.2269864   -6.4273264    42.622244  0.037785677  0.043369195            2 
   95000    1.2097841   -6.3636464    43.187457  0.037883734  0.043347035            1 
   96000    1.2098351   -6.4163137    43.907022  0.038113735  0.043328973            2 
   97000    1.2121003    -6.370496    44.258438  0.038022713  0.043312648            2 
   98000    1.1922184   -6.4537423    44.574298  0.037903314  0.043291074            1 
   99000    1.2102335   -6.4347588    44.806512  0.037715919  0.043260739            3 
  100000    1.2246333   -6.4490358    45.333431  0.037777859  0.043218861            2 
  101000    1.2104587   -6.4400589    45.981591  0.037938606  0.043183811            3 
  102000    1.2709918   -6.4303296    46.420471  0.037925222  0.043152103            1 
  103000    1.2283311   -6.4035827    47.034745  0.038054001  0.043118938            3 
  104000    1.2368699   -6.4285017    47.552915  0.038103297  0.043092254            3 
  105000    1.2293309   -6.4248336    48.027267  0.038116879  0.043063228            2 
  106000    1.1858146   -6.4007732    48.549577  0.038167906  0.043038303            6 
  107000    1.2058066   -6.4102045    48.845263  0.038041482  0.043011178            1 
  108000    1.2482928   -6.4121438    49.608419  0.038278101  0.042984152            1 
  109000    1.2101066   -6.4645504    49.810361  0.038081316   0.04295444            5 
  110000    1.2161968    -6.428614    50.232229  0.038054719  0.042918387            2 
  111000    1.1812209   -6.4114135    50.761966  0.038109584  0.042878935            3 
  112000    1.1838593   -6.4097677    51.420571  0.038259353  0.042844925            4 
  113000    1.1860494   -6.4205519    51.942547  0.038305713  0.042821603            1 
  114000    1.2280753   -6.4156817    52.710583  0.038531128  0.042805436            4 
  115000    1.2097177   -6.4487594    53.211907  0.038559353  0.042797252            8 
  116000    1.2104233   -6.4109224    54.135706  0.038890593  0.042795348            3 
  117000    1.2458532    -6.435477    54.643257  0.038919698  0.042804023            2 
  118000    1.1870938   -6.4659712    55.177614  0.038967241  0.042812922            3 
  119000    1.2231615   -6.4721847     55.68645  0.038996113  0.042825596            1 
  120000    1.2308883   -6.4515221     55.99671  0.038886604   0.04283299            4 
  121000    1.1919473   -6.4794377    56.354862  0.038811888  0.042825713            5 
  122000    1.1919926    -6.433113    56.882043  0.038853854  0.042815221            1 
  123000    1.1990698    -6.441714    57.016775  0.038629251  0.042801941            4 
  124000    1.2177449   -6.4800038    57.362869  0.038550315  0.042781894            1 
  125000    1.1976519   -6.4721655     57.80557  0.038537047  0.042761133            3 
  126000    1.2016785   -6.4431514    58.198197  0.038490871  0.042733306            3 
  127000    1.2235855   -6.4100546    58.658375  0.038489747  0.042708171            2 
  128000    1.2035876   -6.4572182    59.015771  0.038421726  0.042675933            2 
  129000    1.2220184   -6.4721203    59.672644  0.038548219  0.042644282            2 
  130000    1.1875913   -6.4568909    60.163592  0.038566405  0.042616459            2 
  131000    1.1962977   -6.3912166    60.848677   0.03870781  0.042587404            2 
  132000    1.2099305   -6.4585026    61.098201  0.038572097  0.042560495            1 
  133000    1.2071481   -6.4398632     61.76667  0.038700921  0.042538154            4 
  134000    1.1765936   -6.4515457    62.096396  0.038617161  0.042509165            2 
  135000    1.1959251   -6.4906036    62.787612  0.038757785  0.042483491            3 
  136000    1.2003558   -6.4031804    63.184834  0.038716197  0.042461556            2 
  137000    1.2139955   -6.4526545    63.653698  0.038718794  0.042440133            6 
  138000    1.1971504   -6.4695601    64.314947  0.038837528   0.04242243            3 
  139000    1.1992816   -6.4528688    64.958938  0.038944207  0.042409148            1 
  140000    1.1826981   -6.4259802    65.514172  0.038996531  0.042394947            3 
  141000    1.2016546   -6.4241357    65.930966  0.038966292  0.042379128            2 
  142000    1.2255257   -6.4615534    66.216309  0.038859336  0.042366374            1 
  143000    1.2237836    -6.435028    67.086136  0.039094485  0.042353453            2 
  144000    1.2088835    -6.457573    67.375408  0.038990398  0.042342803            1 
  145000    1.2258012   -6.4242798    67.947395  0.039050227  0.042332394            1 
  146000    1.1920794   -6.4604734     68.14153  0.038893567  0.042318856            5 
  147000    1.1911012   -6.4178768    68.863914    0.0390385  0.042307641            3 
  148000    1.1637396   -6.4461726    69.502725  0.039134417  0.042298722            1 
  149000    1.1701468   -6.4272836    69.918386  0.039104242  0.042289205            2 
  150000    1.2053753   -6.4793225    69.963257  0.038868476  0.042272222            5 
  151000    1.1851721    -6.434858    70.951877  0.039156665  0.042254545            3 
  152000    1.1749094    -6.443624    70.970215  0.038909109  0.042232535            6 
  153000     1.186248   -6.4464354    71.647099  0.039023474  0.042213617            4 
  154000    1.1947707   -6.4791907    72.143282  0.039038573  0.042196914            2 
  155000    1.2013367   -6.4641111    72.671125  0.039070497  0.042183275            2 
  156000    1.2083714   -6.4825379    73.313589  0.039163242  0.042172029            4 
  157000    1.2312841   -6.5192264    73.818528  0.039181809  0.042161101            1 
  158000     1.183455   -6.4187056    74.020673  0.039040439  0.042152044            2 
  159000    1.2013659    -6.430513    74.848435  0.039228739   0.04214209            2 
  160000    1.1837775   -6.4277769    75.518131   0.03933236  0.042134101            2 
  161000     1.194257   -6.4556419    76.003207  0.039339134  0.042125702            1 
  162000    1.1804049   -6.4487185    76.406673  0.039303844  0.042117898            2 
  163000     1.171809   -6.4717535    76.636295   0.03918011  0.042109687            3 
  164000     1.169745   -6.4752361    77.426718  0.039342844  0.042099987            2 
  165000    1.1888026   -6.4535752    78.040798  0.039414544  0.042093956            3 
  166000    1.1638951   -6.4412941    79.170117  0.039744035  0.042096008            1 
  167000    1.2111836   -6.4440724    79.543653  0.039692442  0.042100933            5 
  168000    1.2060273   -6.4944166    79.929397  0.039647518  0.042107206            2 
  169000    1.1702259   -6.4838095    80.222506  0.039557448  0.042112779            4 
  170000    1.1416729   -6.4746025    80.710442  0.039563942  0.042115375            2 
  171000    1.1527646   -6.4592001      81.4638  0.039699707  0.042117405            7 
  172000    1.2084938   -6.4869225    81.713089  0.039589675  0.042116911            3 
  173000    1.1881551   -6.4590674    82.018833  0.039508108   0.04211463            3 
  174000    1.1884403   -6.4619793     82.23642  0.039385258  0.042105764            3 
  175000    1.1803253   -6.4742094    82.607535  0.039336922  0.042090315            1 
  176000     1.206543   -6.4697229    82.846248  0.039226443  0.042073944            2 
  177000    1.1830452   -6.4747515    83.340292  0.039237425  0.042057476            2 
  178000    1.2044619   -6.4425699     83.73472  0.039201648  0.042040628            1 
  179000    1.1980985   -6.4858551    84.144789  0.039173552  0.042024747            3 
  180000    1.1781322   -6.4958747    84.496739  0.039118861   0.04200489            2 
  181000    1.1949896     -6.46396    85.218569  0.039235068  0.041983726            3 
  182000    1.2082386   -6.4909554    85.298093  0.039055903  0.041962778            5 
  183000    1.2042046   -6.4979481    85.788929  0.039065997  0.041944637            4 
  184000    1.1900374   -6.4618829    86.066799  0.038979528  0.041921954            5 
  185000    1.1784395   -6.4796768    86.486955  0.038958088  0.041893134            7 
  186000    1.1703415   -6.5038053    86.520937   0.03876386  0.041861356            3 
  187000    1.1842426   -6.5110058    87.021646  0.038779699  0.041830924            3 
  188000    1.1919952   -6.4882698    87.082881  0.038600568  0.041801352            4 
  189000    1.1897218   -6.4717688    88.107303  0.038848017  0.041771154            2 
  190000    1.1719546   -6.4495199    89.059641  0.039061246  0.041744904            2 
  191000    1.2084983   -6.4625916    89.184576  0.038911246  0.041720671            1 
  192000    1.1841944   -6.4987327    89.374495  0.038791013  0.041693353            2 
  193000    1.1473154   -6.5048699    90.160168  0.038929261  0.041670276            4 
  194000    1.1701476   -6.4809163    90.619869   0.03892606  0.041649312            2 
  195000    1.1985575   -6.5145142    91.103325  0.038933045  0.041628475            2 
  196000    1.1511553   -6.4744602    91.676547  0.038978124  0.041608523            1 
  197000    1.1987979   -6.4963819     91.90128   0.03887533  0.041587831            2 
  198000    1.1703365   -6.4502528    92.980435   0.03913318  0.041570514            2 
  199000    1.1616772   -6.4567265    93.562515  0.039180283  0.041554403            2 
  200000    1.1839345   -6.4920861    93.782886  0.039076202  0.041537056            2 
  201000     1.180738   -6.5134619    93.986257   0.03896611  0.041518981            1 
  202000     1.207139   -6.4665896    94.409733   0.03894791  0.041499138            9 
  203000    1.1637103   -6.4727489     95.18798  0.039075525   0.04147836            2 
  204000    1.1590901   -6.4867843    95.411498  0.038975285  0.041457835            2 
  205000    1.1745028   -6.5534291    95.550792  0.038841785  0.041433572            2 
  206000    1.1446514    -6.510749    95.751676  0.038734497  0.041407111            2 
  207000      1.18244    -6.480927    96.373516  0.038797712  0.041382513            2 
  208000    1.1862948   -6.4763801     97.12642  0.038912829  0.041359875            2 
  209000    1.1566842   -6.4770027    97.865784  0.039021445  0.041342349            4 
  210000       1.1561   -6.5150817    98.047282  0.038907652  0.041325371            3 
  211000    1.1905012   -6.4881811    98.931769  0.039072578  0.041308187            3 
  212000    1.1796301    -6.492698    99.531502  0.039124018  0.041292314            1 
  213000    1.1770673   -6.5295985     99.83295  0.039058275  0.041276067            1 
  214000    1.1768144   -6.5226042    100.36958  0.039084725  0.041261038            2 
  215000    1.1719509   -6.4954283    100.86894  0.039096487   0.04124768            3 
  216000    1.2001203    -6.472043    101.22564  0.039053101   0.04123306            2 
  217000    1.1798799   -6.4820744    101.62113   0.03902501  0.041219818            2 
  218000    1.1750508   -6.4777227    102.10296  0.039030185   0.04120576            4 
  219000    1.1913724   -6.5021789    102.59982  0.039041028  0.041191391            3 
  220000    1.1802999   -6.5264313    102.85809  0.038961399   0.04117759            1 
  221000    1.1518059    -6.486833    103.40061  0.038989671  0.041163797            2 
  222000    1.1551428   -6.4797953    103.82054  0.038971675  0.041148274            2 
  223000    1.1699282   -6.5469196    103.93605  0.038840077  0.041131545            2 
  224000    1.1640836   -6.5372686    104.20843  0.038768017  0.041112646            4 
  225000    1.1414279   -6.4956032    104.60221  0.038741559  0.041090402            1 
  226000    1.1736437   -6.4870588    104.96327  0.038703269  0.041067869            2 
  227000    1.1463973   -6.4934183    105.43513  0.038705996  0.041044937            2 
  228000     1.169368   -6.5089583    105.49172  0.038556915  0.041022186            3 
  229000    1.1696955   -6.5387883    106.07456   0.03860064   0.04099558            2 
  230000    1.1677036    -6.501449    106.05239  0.038424777  0.040966737            4 
  231000    1.2108601   -6.4863807    106.54207  0.038435091  0.040936556            4 
  232000     1.161541   -6.5017794    106.91391  0.038402984  0.040907738            2 
  233000    1.1581164   -6.5413528    107.12307  0.038312973  0.040877848            2 
  234000    1.1637363   -6.5175137    108.09041  0.038493736  0.040849649            2 
  235000    1.1624936   -6.5377434    108.31699  0.038410281  0.040818826            3 
  236000    1.1376311   -6.5282821     108.5001  0.038312184  0.040789606            3 
  237000    1.1471454   -6.5132913    108.70181  0.038221453  0.040758868            1 
  238000    1.1693852   -6.5501067    108.44584  0.037971234    0.0407253            2 
  239000      1.14651   -6.5429117    108.99723  0.038004613  0.040692622            6 
  240000    1.1696015   -6.5024047    110.07357  0.038219989  0.040660566            1 
  241000    1.1348411    -6.524504    110.58575  0.038238502  0.040629824            2 
  242000    1.1499366   -6.5286309     111.1237  0.038265736  0.040599368            3 
  243000    1.1449572   -6.5411921    111.05267  0.038083908  0.040566592            2 
  244000    1.1297686   -6.5407377    111.75291  0.038166976  0.040535582            3 
  245000    1.1333015   -6.5425061    112.15704  0.038148653   0.04050403            3 
  246000     1.181826   -6.5505924     112.5639  0.038131401  0.040475681            2 
  247000     1.184666   -6.5471294     112.9495  0.038107119  0.040445324            4 
  248000    1.1477234   -6.5308865    113.43471  0.038116503   0.04041483            6 
  249000    1.1737954   -6.5365818    113.73716  0.038064647  0.040385378            4 
  250000    1.1467258   -6.5218335    113.98673  0.037995575  0.040355308            6 
  251000    1.1513536    -6.529551    113.90207  0.037816093  0.040322527            2 
  252000    1.1745832   -6.5341731    114.77253  0.037953879  0.040291009            4 
  253000    1.1622687   -6.5092642    115.20453  0.037946157  0.040260028            2 
  254000    1.1637613   -6.5617032    115.72761  0.037968376  0.040227456            4 
  255000    1.1464554   -6.5448108    116.06972  0.037931281  0.040195712            3 
  256000    1.1492176   -6.5227413    116.66446  0.037976713  0.040164757            4 
  257000    1.1558731   -6.5275802    116.96854  0.037927542  0.040134501            2 
  258000    1.1577256   -6.5729268    116.71793   0.03769959   0.04010457            2 
  259000    1.1565059   -6.5207003    117.65464  0.037855419  0.040074043            6 
  260000    1.1916187   -6.5684693    118.06405  0.037841043  0.040043578            2 
  261000    1.1391992   -6.5263124    118.15677  0.037725662  0.040011845            2 
  262000    1.1409483   -6.5309246    118.76004   0.03777355  0.039980785            2 
  263000    1.1465767   -6.5534375    118.96816  0.037695868  0.039949538            5 
  264000    1.1406923   -6.5394494    119.78558  0.037811104  0.039918967            2 
  265000    1.1310999   -6.5446951    120.20846  0.037801403  0.039891016            3 
  266000    1.1361119   -6.5607468    120.25464  0.037673758  0.039861206            1 
  267000    1.1497064   -6.5950076    121.20153  0.037828193   0.03983114            2 
  268000    1.1441335    -6.545743     121.7144  0.037846518  0.039804614            3 
  269000    1.1309701   -6.5711266    122.65147   0.03799612  0.039777163            2 
  270000    1.1594325   -6.5350251    122.52142  0.037815252  0.039750831            3 
  271000    1.1482734   -6.5581379    122.66502  0.037719869  0.039723964            4 
  272000    1.1300505   -6.5435307    123.10589  0.037716265  0.039697033            3 
  273000    1.1725047   -6.5508581    123.56471  0.037718166  0.039671132            6 
  274000    1.1440257   -6.5378495    124.77902  0.037949823  0.039648638            5 
  275000    1.1346778   -6.5795834    124.78262  0.037812916  0.039625367            3 
  276000      1.14988   -6.5653194    125.25718  0.037819196  0.039600501            2 
  277000     1.145554   -6.5566914    125.61873  0.037791436  0.039576866            2 
  278000    1.1497828   -6.5345915      125.605  0.037651379  0.039552104            3 
  279000    1.1461632   -6.5604943    126.03776  0.037645688  0.039525632            2 
  280000    1.1548455   -6.5732664    126.54725  0.037662873  0.039499481            1 
  281000    1.1388859   -6.5452352    126.81855  0.037609298   0.03947373            2 
  282000    1.1506249   -6.5217711     127.6802  0.037730557     0.039449            2 
  283000    1.1163978    -6.560629    128.24353  0.037763114  0.039426394            2 
  284000    1.1229406   -6.5760762    128.22567  0.037624904   0.03940301            3 
  285000    1.1534583   -6.5043204    129.42775  0.037844372  0.039381255            4 
  286000    1.1474983   -6.5535015    129.62601  0.037769817  0.039360339            3 
  287000    1.1236618   -6.5420347    130.23611  0.037815364  0.039340082            4 
  288000    1.1404622   -6.4851362    130.43563  0.037741791  0.039319473            2 
  289000    1.1540067   -6.5758226    130.12677  0.037522137  0.039296987            4 
  290000    1.1441901   -6.5482153    131.06131  0.037661297  0.039274197            3 
  291000     1.137232   -6.5420199     130.7265  0.037435997  0.039251136            3 
  292000    1.1205463   -6.5102986    131.47847  0.037522395  0.039227658            3 
  293000    1.1438752   -6.5881878      131.458  0.037388508  0.039203469            4 
  294000    1.1604566   -6.5248981    131.98955  0.037412004  0.039177252            2 
  295000    1.1199761   -6.5391877    132.74488  0.037498553  0.039151306            3 
  296000    1.1245083   -6.5286653    132.87595   0.03740877  0.039125028            1 
  297000    1.1323217   -6.5681745    133.14454  0.037358175  0.039098137            2 
  298000     1.146713   -6.5983595    133.38245  0.037299344   0.03907191            3 
  299000    1.1345569   -6.5647664    134.28426  0.037425936  0.039046086            2 
  300000    1.1283019   -6.5225097    134.62065  0.037394624  0.039023802            1 
  301000    1.1447934   -6.5843014    134.94361  0.037359803  0.039001353            3 
  302000    1.1159969   -6.6024053    135.57741  0.037410984  0.038978284            3 
  303000    1.1354046   -6.5583124    135.75342  0.037335924  0.038956526            3 
  304000    1.1618393   -6.5926804    136.36997  0.037382119  0.038934563            4 
  305000    1.1521005   -6.5998007    136.73484  0.037359247  0.038911199            2 
  306000    1.1398026   -6.6079188    136.80666  0.037256716  0.038887634            4 
  307000    1.1533542   -6.5492889    137.39586  0.037295293  0.038863977            3 
  308000    1.1385724   -6.5527798    138.10164  0.037365163  0.038841483            1 
  309000    1.1454206   -6.5729801    138.44183  0.037335984  0.038818001            4 
  310000    1.1118515   -6.5581705    138.58751  0.037254706   0.03879443            3 
  311000    1.1432758   -6.5821169    139.19029  0.037296432  0.038770951            2 
  312000    1.1298248   -6.5619903     139.0574    0.0371414  0.038748745            3 
  313000    1.1318405   -6.5331678    139.88794  0.037243859  0.038727097            2 
  314000    1.1174115    -6.612275    139.93709  0.037138293  0.038705916            3 
  315000    1.1240486   -6.5716583    140.47017  0.037161421  0.038682835            1 
  316000    1.1244908   -6.5571546    140.85728  0.037145908  0.038659697            4 
  317000    1.1155382   -6.5556808     141.2289   0.03712642   0.03863619            2 
  318000    1.1340123   -6.5701515    141.99296  0.037209894  0.038612348            2 
  319000    1.1438011   -6.6119134    141.77104  0.037035276  0.038589632            3 
  320000    1.1286137   -6.5744916     143.0206  0.037244948  0.038565808            1 
  321000    1.1094985   -6.5761495    143.05725  0.037138434  0.038542445            3 
  322000    1.1326921   -6.5811784    143.31629  0.037090137  0.038519594            3 
  323000    1.1103808   -6.5917354    143.53583  0.037031948  0.038495893            2 
  324000    1.1284178   -6.5763722    144.08573  0.037059086  0.038471485            6 
  325000    1.1237419   -6.5206628    144.82069  0.037133511  0.038450028            3 
  326000    1.1270914   -6.5959319    144.88181  0.037035227  0.038427942            4 
  327000    1.1149377   -6.5302475    145.31848  0.037033251  0.038406488            3 
  328000    1.1301468   -6.5521436    145.78249  0.037038234  0.038385472           10 
  329000    1.1407855   -6.5943695    146.16077  0.037021471  0.038363682            6 
  330000     1.119875   -6.5813302    145.80491  0.036819421  0.038340487            2 
  331000    1.1158637   -6.6009574    146.59826   0.03690792  0.038317591            3 
  332000    1.1099562   -6.5709649    147.31382  0.036976359   0.03829518            2 
  333000    1.1308501   -6.5800871    147.67856  0.036956598  0.038272838            4 
  334000    1.1159091   -6.5616768    147.85002  0.036888728  0.038250193            1 
  335000    1.1258108    -6.561297    148.27177  0.036883525    0.0382271            5 
  336000    1.1390611    -6.572493    148.90593  0.036931035  0.038204823            3 
  337000    1.1165511   -6.5824036    149.03586  0.036853575  0.038181799            1 
  338000    1.1328174   -6.5905439    149.46447  0.036850214  0.038159656            3 
  339000     1.122627   -6.6250919    149.37861  0.036720405    0.0381378            4 
  340000    1.1260899   -6.5719374    150.47785  0.036881826  0.038115375            2 
  341000    1.1154153   -6.5828072    151.16309  0.036941128  0.038094067            4 
  342000    1.1083981   -6.5809721    151.16793  0.036834291  0.038072561            4 
  343000    1.1129766   -6.6116098     151.0154  0.036689843   0.03805016            2 
  344000    1.1441647   -6.6034217    151.17409   0.03662163  0.038028106            2 
  345000     1.137449   -6.6157786    151.61629  0.036622293  0.038006294            3 
  346000    1.1244717   -6.5822798    152.96243  0.036840661  0.037985554            4 
  347000    1.1136847   -6.5885547    152.90668  0.036721106  0.037963663            5 
  348000    1.1295557   -6.5640421     153.6884  0.036802778  0.037942529            2 
  349000     1.163344   -6.5941486    153.44882   0.03664012  0.037922078            1 
  350000    1.1154069   -6.6047292    153.60633  0.036572936  0.037899509            1 
  351000    1.1205808   -6.6152426    153.55681  0.036456983  0.037877136            3 
  352000    1.1316179   -6.6377013    154.13099  0.036489344  0.037854239            1 
  353000    1.0838564   -6.6164448    154.56605   0.03648868  0.037831047            2 
  354000    1.0967036   -6.5738204    155.00583  0.036489132  0.037807075            1 
  355000    1.1007348    -6.593113    155.16589  0.036423918  0.037783134            3 
  356000    1.0805145   -6.5478585    156.06684    0.0365325  0.037759681            3 
  357000    1.1169446   -6.6250525    156.24894  0.036472676  0.037736952            2 
  358000    1.1334971   -6.6199158    156.49828  0.036428837   0.03771411            1 
  359000    1.0936976   -6.5763804    156.75664  0.036387335  0.037691005            3 
  360000    1.1039262   -6.5449714    157.26758  0.036404533  0.037667528            4 
  361000    1.1083144   -6.6345984    156.75244  0.036184773  0.037642982            4 
  362000    1.0868195   -6.5835136    157.80923  0.036328092  0.037618471            3 
  363000    1.1168034   -6.6022366    157.94897  0.036260094  0.037595108            1 
  364000    1.1012142   -6.6139551    158.63661  0.036317905  0.037571246            2 
  365000    1.1054746   -6.6207247    159.16894   0.03633994  0.037547545            3 
  366000    1.1043661   -6.5992259    159.10303  0.036225645  0.037523568            4 
  367000    1.1223844   -6.6178434    159.39901  0.036194144  0.037500119            2 
  368000    1.0841839   -6.6196233     159.5674  0.036133923  0.037476403            4 
  369000    1.1129699   -6.5970206    159.32608  0.035981498   0.03745207            2 
  370000    1.1051007   -6.6497397    159.90942  0.036015636  0.037427542            4 
  371000    1.1192694    -6.609929     161.0765  0.036180706  0.037402963            2 
  372000    1.0959108   -6.5995488    160.91353  0.036046937  0.037378261            1 
  373000    1.1245602   -6.6197968    161.25711  0.036027058  0.037353383            2 
  374000    1.1045672   -6.6398363    161.64111  0.036016291  0.037330025            3 
  375000     1.110502   -6.6069727    162.50978  0.036113284  0.037307046            2 
  376000    1.1012364   -6.6006402    162.63825  0.036045712  0.037283692            3 
  377000    1.1151251   -6.6368807    163.07123  0.036045806  0.037259735            7 
  378000    1.0954972   -6.5999396    163.14169   0.03596598  0.037236043            3 
  379000     1.119961   -6.6574405    163.73695  0.036001968  0.037212982            6 
  380000    1.0954152   -6.5649931    164.66927  0.036111681  0.037190404            2 
  381000     1.099325   -6.6169292     165.0611  0.036102602  0.037168203            4 
  382000    1.0869528   -6.6525231    164.76245  0.035942943   0.03714553            3 
  383000     1.091278   -6.6343998    164.88637  0.035876059  0.037122506            5 
  384000    1.1049091   -6.6535202    165.76069  0.035972372  0.037098625            3 
  385000    1.0813469   -6.6123638    166.04398  0.035940254  0.037075127            4 
  386000    1.0960873   -6.6124481    166.19481  0.035879708  0.037050835            1 
  387000    1.1111969    -6.622156    165.86743  0.035716502  0.037027047            2 
  388000    1.0854688   -6.6345227    167.13793  0.035897322  0.037003332            5 
  389000    1.0788635   -6.6133703    166.94899  0.035764565  0.036979553            3 
  390000    1.1034898   -6.6397559    167.26453  0.035740284   0.03695568            5 
  391000    1.0979355   -6.6652618     167.5254  0.035704477  0.036932089            9 
  392000    1.1003634   -6.6339566    167.57106  0.035623099  0.036907836            3 
  393000    1.0765267   -6.6291248    168.47964  0.035725114  0.036884426            2 
  394000    1.1074088   -6.6344564    168.96045  0.035736135  0.036861363            2 
  395000    1.0967058   -6.6387959    169.72887  0.035807778  0.036838374            1 
  396000    1.1020784   -6.6093824     169.2403  0.035614542  0.036814675            2 
  397000     1.096498   -6.6369754    169.46676  0.035572367  0.036790826            6 
  398000    1.0932924   -6.6337543    170.13534  0.035622976  0.036767294            4 
  399000    1.1068377   -6.6075855    170.24361   0.03555631  0.036743617            2 
  400000    1.0938007   -6.6648015    171.50247  0.035729682  0.036720097            3 
  401000    1.0637612   -6.6525678    170.77478  0.035489355  0.036696685            5 
  402000    1.1011807   -6.6816758    170.99461  0.035446644  0.036672652            2 
  403000    1.0600194   -6.6402531    171.56067  0.035475737  0.036648862            4 
  404000    1.1142616   -6.6390492    171.79221  0.035435687   0.03662635            4 
  405000     1.088064   -6.6288999    172.82047  0.035559767  0.036603584            3 
  406000    1.0905062   -6.6392016     172.8267   0.03547346  0.036580807            4 
  407000    1.1122439   -6.6466658    173.34906  0.035493256  0.036559333            1 
  408000    1.1051371   -6.6307912    173.52487  0.035442171  0.036537174            3 
  409000    1.0988103    -6.684583    173.40853  0.035331811  0.036514386            3 
  410000    1.1035498   -6.6338691    174.04986  0.035375987  0.036491186            3 
  411000     1.070986   -6.6687626    174.73294  0.035428415   0.03646847            6 
  412000    1.0778474   -6.6589914     174.6287  0.035321339  0.036446016            3 
  413000    1.0920646   -6.6617594    175.80005  0.035472164  0.036424569            3 
  414000    1.0732989   -6.6421976    176.47693  0.035522731  0.036403813            2 
  415000    1.1035324   -6.6510521    176.42429  0.035426564  0.036382765            4 
  416000    1.0931212   -6.6604965    176.85978  0.035428642  0.036361439            3 
  417000    1.0863043   -6.6607227    177.17671  0.035407016  0.036340545            2 
  418000    1.0964508   -6.6358648     177.8823  0.035462978  0.036319255            2 
  419000    1.0996821   -6.6382433    178.25352  0.035452171  0.036298532            3 
  420000    1.0939099   -6.6735509    178.52167  0.035420967  0.036277824            2 
  421000     1.090037   -6.6574341    178.53421  0.035339313  0.036257073            1 
  422000    1.1017354   -6.6837724    178.61281  0.035271091  0.036236254            2 
  423000    1.0805025   -6.6474211    179.73783  0.035409344  0.036216311            2 
  424000    1.0936881   -6.6398083    179.84777  0.035347438  0.036196924            3 
  425000     1.086561   -6.6207132    180.60683  0.035413104  0.036177192            4 
  426000    1.1153699   -6.6626053    180.22047  0.035254396  0.036157923            2 
  427000    1.0715402   -6.6793937     181.1907  0.035361182  0.036138358            5 
  428000    1.0974513   -6.6326144    181.43023  0.035325201  0.036119809            6 
  429000    1.0787984   -6.6570085    181.52892  0.035262029  0.036100879            3 
  430000    1.1079962    -6.654633    182.10088  0.035290869  0.036081699            3 
  431000    1.1103077   -6.6687567    182.49842   0.03528585   0.03606269            1 
  432000    1.0788131    -6.658589    182.97861  0.035296799  0.036043869            4 
  433000    1.0848648   -6.7099057    183.35779  0.035288258  0.036024635            6 
  434000    1.1030306   -6.6545679    183.23846  0.035184036  0.036005062            6 
  435000    1.0635324   -6.6717043    183.89409  0.035228753  0.035985191            4 
  436000    1.0663825   -6.6534941    184.24691  0.035215388  0.035964942            2 
  437000    1.0757776   -6.6737238    184.22908  0.035131404  0.035945772            3 
  438000    1.1033746    -6.700085    183.86399  0.034981733  0.035926567            5 
  439000    1.1028585   -6.6403311    184.93026  0.035104453  0.035906505            2 
  440000    1.0921084   -6.6716262    185.01381  0.035040495  0.035886258            4 
  441000    1.0788914   -6.6679843    186.02098  0.035151357  0.035866111            2 
  442000    1.0979724   -6.6659248    186.28502   0.03512161  0.035846496            4 
  443000    1.0661884   -6.6648445     185.8267  0.034956113  0.035826573            2 
  444000    1.0761269   -6.6861186    186.59319  0.035021244  0.035806812            3 
  445000    1.0885539   -6.6512975    187.43168  0.035099565  0.035787167            3 
  446000    1.0956655   -6.6790995    187.57841  0.035048282  0.035767948            6 
  447000    1.0528315   -6.7337974    187.60986  0.034975739  0.035748269            2 
  448000    1.0769427   -6.6835499    187.84289  0.034941013   0.03572883            3 
  449000    1.0647277   -6.6970428    188.39239  0.034965181  0.035709747            3 
  450000    1.0815215   -6.7241383    188.17001  0.034846298   0.03569028            2 
  451000    1.0970166   -6.6809425    188.95761  0.034914562  0.035671189            2 
  452000    1.0856802   -6.6656269    189.07449  0.034858865  0.035651761            3 
  453000    1.0860214   -6.6521757    189.37563  0.034837312  0.035632398            8 
  454000    1.0847731   -6.6749516    190.13301  0.034899599  0.035612597            5 
  455000    1.0720144   -6.6602824    190.28324  0.034850411   0.03559245            3 
  456000    1.0721778   -6.6585489    190.09613  0.034739789  0.035572425            5 
  457000    1.0852385    -6.684011     190.1745  0.034678063  0.035551911            3 
  458000    1.0527271   -6.6818552    190.85878  0.034726853  0.035531454            7 
  459000    1.0739016   -6.6945278    191.42756  0.034754459  0.035511252            3 
  460000     1.057649   -6.6935374    191.96002  0.034775366  0.035491443            5 
  461000    1.0720652   -6.6552992    192.32675  0.034766223  0.035472258            3 
  462000    1.0781486   -6.6646074    192.72946   0.03476361  0.035453661            2 
  463000    1.0631417   -6.6800688    192.87546  0.034714805  0.035434565            4 
  464000     1.073977   -6.6732245    193.24788  0.034706875  0.035415421            5 
  465000    1.0809658   -6.6755404    193.87325  0.034744309  0.035396065            5 
  466000    1.1039637   -6.7124629    194.22986  0.034733523  0.035376819            5 
  467000    1.0713298   -6.7008786    194.11545  0.034638731  0.035358541            3 
  468000     1.065009   -6.6981935    194.35581  0.034607516  0.035340309            3 
  469000    1.0965378   -6.6860181    195.42751  0.034724149  0.035321679            2 
  470000    1.0600032   -6.7064285    194.90471  0.034557573  0.035302958            4 
  471000    1.0813385   -6.7406199    195.00979  0.034502794  0.035283854            5 
  472000     1.056255   -6.7207785    196.48338  0.034689863   0.03526452            2 
  473000    1.0714765    -6.681313      196.875  0.034685517   0.03524588            2 
  474000    1.0851908   -6.6978656    196.19136  0.034492151  0.035226726            3 
  475000    1.0519349   -6.6930801     197.3827  0.034628545  0.035208208            3 
  476000    1.0791428   -6.6817927    197.26656  0.034535463  0.035189336            2 
  477000    1.0916346   -6.6881169    197.58203  0.034518175  0.035170561            3 
  478000    1.0662204   -6.7169806    198.46662  0.034600177  0.035151856            4 
  479000    1.0569033   -6.7264866    198.42614  0.034520901  0.035132989            2 
  480000    1.0437921   -6.7382443    198.23573  0.034415926   0.03511446            4 
  481000    1.0755552   -6.6490535    198.97504   0.03447246  0.035096046            4 
  482000    1.0797665   -6.6958134    199.71607  0.034529057  0.035077898            7 
  483000    1.0774765   -6.7259034     199.1236  0.034355349  0.035059405            4 
  484000     1.061693   -6.7117126    199.90618  0.034419108  0.035041089            2 
  485000    1.0473981   -6.6981209    200.13719  0.034387833   0.03502222            3 
  486000    1.0557318   -6.6942649    200.21345  0.034330152  0.035003495            1 
  487000    1.0421379   -6.7376166    200.58825  0.034323793  0.034984363            5 
  488000    1.0647721   -6.7068403    200.85904  0.034299699  0.034964963            2 
  489000    1.0611206   -6.6945454    201.36516  0.034315807  0.034945071            3 
  490000    1.0463971   -6.6976919    202.15036  0.034379313  0.034925894            4 
  491000    1.0711191    -6.734227    202.10953  0.034302364   0.03490681            3 
  492000    1.0691729   -6.7207451    202.15823  0.034240892   0.03488742            2 
  493000    1.0490156   -6.7317285    201.96833   0.03413934  0.034867848            3 
  494000     1.061602   -6.7455508    202.67091  0.034188749  0.034848333            7 
  495000    1.0762887   -6.7247209    202.54845  0.034099066  0.034828055            5 
  496000    1.0311419   -6.7299255    203.09478  0.034122106  0.034807998            3 
  497000    1.0591524   -6.7289245     203.0673  0.034048842  0.034788051            2 
  498000    1.0557074   -6.7388354     203.3619  0.034029769  0.034768706            4 
  499000     1.055155   -6.7028712    205.38166  0.034298874  0.034749863            2 
  500000    1.0685347    -6.693589    204.41645  0.034069409  0.034730889            2 
  501000    1.0653958   -6.7299449    204.53378  0.034020921  0.034711678            5 
  502000    1.0432612   -6.7499927     204.8456  0.034004913  0.034692283            5 
  503000    1.0412155    -6.696236    205.68356  0.034076136  0.034673367            5 
  504000    1.0433748    -6.745436    206.15162  0.034085916  0.034654323            5 
  505000    1.0477038   -6.7393416     205.9876  0.033991353  0.034635234            2 
  506000     1.067005   -6.7243839    205.70477  0.033877597   0.03461614            3 
  507000    1.0496877   -6.7525431    206.52742  0.033945992  0.034597086            2 
  508000    1.0552161   -6.7031656    206.75838  0.033917057   0.03457719            4 
  509000    1.0444945   -6.7219203    207.51797  0.033974783  0.034557626            5 
  510000    1.0320203   -6.7404781    207.32843  0.033877194  0.034538138            3 
  511000    1.0429546   -6.7393656    207.81052  0.033889517  0.034518576            1 
  512000    1.0543538   -6.7528546    207.68114  0.033802269  0.034498614            2 
  513000    1.0261119   -6.7421112    207.84925  0.033763685  0.034478846           11 
  514000    1.0514418   -6.7766366    208.75056  0.033844124   0.03445872            5 
  515000    1.0553375   -6.7064689    208.60269  0.033754481  0.034438728            3 
  516000    1.0490423   -6.7217406    208.99512  0.033752441  0.034418491            4 
  517000    1.0498523   -6.7506049    209.12248  0.033707685  0.034398849            5 
  518000    1.0833187   -6.7267694    210.00691  0.033784896  0.034379948            3 
  519000    1.0598326   -6.7248632     210.6164  0.033817662   0.03436119            3 
  520000    1.0581891   -6.7321799    210.89819  0.033797786  0.034342989            3 
  521000    1.0216863   -6.7683843    211.07452   0.03376112  0.034325161            3 
  522000    1.0648955   -6.7545902    211.94332  0.033835141  0.034307352            2 
  523000    1.0240234   -6.7384511    212.22047  0.033814606  0.034289885            3 
  524000    1.0543421   -6.7253852    212.76127  0.033836079  0.034272024            2 
  525000    1.0635151   -6.7307622    212.66705  0.033756674  0.034254477            2 
  526000    1.0375377   -6.7183694    212.50994  0.033667608  0.034236354            2 
  527000    1.0494175   -6.7562758      213.446  0.033751739  0.034218346            3 
  528000    1.0379262   -6.7357093    213.36552  0.033675114  0.034200595            3 
  529000    1.0661605    -6.746687    214.00614  0.033712372  0.034182886            4 
  530000    1.0560188   -6.7371965    214.36618  0.033705374  0.034165492            4 
  531000    1.0510463   -6.7377501    215.40641  0.033805149  0.034148303            5 
  532000    1.0644665   -6.7472118    214.75033  0.033638836  0.034131388            4 
  533000     1.038286   -6.7744993    215.10827  0.033631687  0.034114066            4 
  534000     1.051885   -6.7563548    215.21464  0.033585306  0.034096495            3 
  535000    1.0549215   -6.7536108    215.78619  0.033611556  0.034078935            4 
  536000     1.030905   -6.7340043    217.10715  0.033754221  0.034062128            2 
  537000    1.0362836   -6.7681351    217.04007  0.033680955   0.03404564            7 
  538000    1.0396727    -6.745321    217.59323  0.033704032  0.034029265            4 
  539000    1.0365058   -6.7456494    217.46494  0.033621667  0.034012969            2 
  540000    1.0380007   -6.7540538    218.48085  0.033716181  0.033996371            3 
  541000    1.0206346   -6.7544965    218.13542   0.03360065  0.033980088            3 
  542000    1.0685014   -6.7296999    218.26101  0.033557966  0.033963491            2 
  543000    1.0556616    -6.736708    219.10687  0.033625978  0.033947629            2 
  544000    1.0425054   -6.7656121    219.55696  0.033633113   0.03393171            3 
  545000    1.0351141   -6.7286845    220.15348  0.033662612  0.033915754            4 
  546000    1.0413141   -6.7710321    219.84596  0.033554023  0.033899787            2 
  547000    1.0407358   -6.7301104     220.4663  0.033587188  0.033884118            3 
  548000    1.0261518   -6.7548741    221.14502  0.033629108  0.033868584            2 
  549000    1.0531225   -6.7626937    220.45555  0.033463198  0.033852334            4 
  550000    1.0316589    -6.756439    220.96213  0.033479111  0.033836269            4 
  551000    1.0256954     -6.76785    221.43115  0.033489284  0.033820201            2 
  552000     1.041239   -6.7817828    221.42278  0.033427352  0.033803668            5 
  553000    1.0598744   -6.7352847    221.96499  0.033448613  0.033787181            4 
  554000     1.030673   -6.7999678    221.56478  0.033328035  0.033770581            4 
  555000    1.0552627   -6.7728836    221.76112  0.033297465  0.033753546            4 
  556000    1.0508182   -6.7759716    222.06701  0.033283425   0.03373667            3 
  557000     1.033265   -6.7464087    223.10943  0.033379628  0.033719268            3 
  558000    1.0310594   -6.7593058    224.04753  0.033459905  0.033701729            2 
  559000    1.0372535   -6.7578048    223.48498  0.033316187   0.03368373            5 
  560000    1.0065091   -6.7781335     223.3353   0.03323442  0.033665344            2 
  561000    1.0400618   -6.7540549    222.90581   0.03311138  0.033647123            3 
  562000    1.0144005   -6.7513114     224.1045  0.033230204  0.033628277            2 
  563000    1.0337198   -6.7677255    223.24966  0.033044651  0.033609218            4 
  564000    1.0013184   -6.7763414    223.41027  0.033009792  0.033589834            4 
  565000     1.038955   -6.7872999    224.04757  0.033045364  0.033570664            5 
  566000   0.99963294   -6.7541411    223.89628  0.032964705  0.033551631            2 
  567000    1.0103849   -6.7561121    224.76083  0.033033632  0.033532325            3 
  568000    1.0387108   -6.7924308    224.84279  0.032987499  0.033513425            4 
  569000    1.0389499    -6.780344    225.47422  0.033022001  0.033494508            3 
  570000    1.0302694   -6.7819687    225.26385  0.032933311  0.033475623            6 
  571000    1.0352304   -6.7544042    225.88786  0.032966705  0.033456534            4 
  572000    1.0313824   -6.7966963    225.64914  0.032874292  0.033438309            3 
  573000    1.0188746   -6.7644787     226.7254  0.032973443  0.033419397            5 
  574000    1.0453649   -6.7232051    226.87708   0.03293802  0.033401074            2 
  575000    1.0396399   -6.7620924      226.765  0.032864493  0.033382656            4 
  576000     1.040552   -6.7704436    226.70159  0.032798263  0.033363447            3 
  577000    1.0272878   -6.7499582    227.39807   0.03284201  0.033344178            2 
  578000    1.0103031   -6.7964423    227.09431  0.032741395  0.033325216            4 
  579000    1.0109899    -6.816351    227.52306  0.032746554  0.033306269            5 
  580000    1.0206956   -6.7472582    228.19208  0.032786219  0.033287458            2 
  581000    1.0169073   -6.7932801    228.62735  0.032792219   0.03326869            2 
  582000    1.0309043   -6.7802368    228.77036  0.032756351  0.033249888            2 
  583000    1.0020518   -6.8128356    228.28746  0.032631141  0.033231179            2 
  584000    1.0197449   -6.7769391    228.69066  0.032632799  0.033212289            3 
  585000    1.0187808   -6.7695043    229.35989  0.032672349  0.033193082            3 
  586000   0.99604966   -6.7633142    229.08142  0.032576993   0.03317373            3 
  587000    1.0249922   -6.8047352    229.55494   0.03258872  0.033153972            6 
  588000    1.0494328   -6.8156409    229.37741  0.032508136  0.033133926            4 
  589000    1.0183754   -6.8108319    230.06513  0.032550244  0.033114766            3 
  590000    1.0052546   -6.7751788    230.74938   0.03259172  0.033095654            5 
  591000    1.0211608   -6.7770007    230.64232  0.032521478  0.033076782            3 
  592000    1.0366922   -6.8115638    230.94427  0.032509047  0.033057478            4 
  593000    1.0485681   -6.7616675    231.07929    0.0324732  0.033038007            4 
  594000    1.0118919   -6.7563396     231.4825  0.032475098  0.033018672            5 
  595000     1.006474   -6.7557097    231.63951  0.032442508  0.032999539            3 
  596000    1.0175304   -6.7936134    231.90498  0.032425194   0.03298075            8 
  597000   0.97858604   -6.7709131    232.46208  0.032448643  0.032961483            4 
  598000    1.0536743   -6.7638651    232.70462  0.032428179   0.03294251            3 
  599000    1.0194044   -6.8014092     232.8708  0.032397162   0.03292364            2 
  600000    1.0301895    -6.809134    232.50814  0.032292797  0.032904114            4 
  601000    1.0428639   -6.8136301    232.87584   0.03229005  0.032884161            3 
  602000    1.0441431    -6.828297     233.5063  0.032323685  0.032864813            2 
  603000    1.0148304   -6.7838698    233.23922   0.03223317  0.032845394            3 
  604000   0.98758543   -6.8080768    234.08495  0.032296488  0.032826223            2 
  605000    1.0168216   -6.7924574    234.61377  0.032315947  0.032807128            3 
  606000    1.0049575   -6.8379527    234.29063  0.032218184  0.032787704            1 
  607000    1.0225291   -6.8049412    235.09888  0.032276069  0.032768185            2 
  608000   0.99997444   -6.8068756    234.80321  0.032182457  0.032748941            3 
  609000    1.0251357   -6.7971519    235.36479  0.032206457  0.032729428            4 
  610000    1.0155587   -6.8204052    236.13727  0.032259189  0.032710492            3 
  611000    1.0302568   -6.8155989     236.2813  0.032226037  0.032691707            7 
  612000     1.006627   -6.7897485    237.45059  0.032332597  0.032673219            6 
  613000   0.99045352   -6.7834207     236.6937  0.032176958  0.032654637            3 
  614000    1.0266678   -6.8223353    236.45665  0.032092379   0.03263619            2 
  615000    1.0054218   -6.8136273    237.25781  0.032148755  0.032617705            5 
  616000    1.0147944   -6.7942779    238.05484  0.032204388  0.032599502            3 
  617000    1.0244116   -6.7808688    238.10593  0.032159094  0.032580665            5 
  618000    1.0250931    -6.772852    238.05065  0.032099602   0.03256165            2 
  619000    0.9843689   -6.8407318    237.86806  0.032023164  0.032542436            4 
  620000   0.98671107   -6.7819351    238.58942   0.03206847  0.032523036            3 
  621000   0.99036366   -6.8456903    238.38682  0.031989644  0.032503949            6 
  622000   0.99738915   -6.8156846    238.44219  0.031945631  0.032484298            7 
  623000    1.0013723   -6.8447806    238.19786  0.031861672  0.032464605            2 
  624000    1.0114944   -6.7928033    239.28732  0.031956106  0.032445637            7 
  625000   0.98555421    -6.805367     240.0108   0.03200144  0.032426615            4 
  626000    1.0088813   -6.8176704    239.60288  0.031896017  0.032407343            5 
  627000   0.99387386   -6.8096676    239.99548  0.031897325  0.032388095            1 
  628000    1.0125707   -6.8609846    240.20694  0.031874594  0.032368665            2 
  629000   0.98886585   -6.8133554    240.57704  0.031872952  0.032349276            4 
  630000   0.99347275   -6.8566042    240.12974  0.031763193  0.032329731            5 
  631000   0.98458616   -6.8242236    240.64174  0.031780473   0.03231008            4 
  632000    0.9809881   -6.8582637    241.36374  0.031825387  0.032290734            4 
  633000      1.00109   -6.8188969    242.52371  0.031927818   0.03227194            5 
  634000    0.9839845   -6.8401931    241.54691  0.031749068   0.03225351            4 
  635000    1.0207631   -6.8499074    241.42547  0.031683133  0.032234496            2 
  636000    1.0028908   -6.8091353     241.9747  0.031705281  0.032215439            5 
  637000    1.0015118   -6.8325346      242.426  0.031714548  0.032196507            4 
  638000   0.98907312   -6.8315284    242.66364  0.031695878  0.032177469            2 
  639000    1.0431263   -6.8578185    243.00149  0.031690335  0.032158706            2 
  640000    1.0038226   -6.8454354    243.32817  0.031683355  0.032140002            3 
  641000    1.0014487   -6.8540086    243.95625  0.031715581  0.032121589            1 
  642000    0.9831199   -6.8281164    245.12126  0.031817401  0.032103302            5 
  643000    1.0121286   -6.8221413    245.07174  0.031761501  0.032084983            4 
  644000    1.0024998   -6.8282137    245.27842  0.031738926  0.032066601            2 
  645000   0.98833515   -6.8247826    244.71311  0.031616681  0.032047923            3 
  646000    1.0088484   -6.8177026    244.66001  0.031560889  0.032029131            7 
  647000   0.99758695   -6.8374347    245.86712  0.031667584  0.032010719            6 
  648000    1.0075003   -6.8259321    245.75042  0.031603706  0.031992277            2 
  649000   0.97442783   -6.8146642    245.83272  0.031565578  0.031973561            5 
  650000   0.99248601   -6.7951166    245.85714  0.031520146  0.031955025            3 
  651000   0.98107518   -6.8541901    247.19848  0.031643431  0.031936313            2 
  652000   0.99129133    -6.818726     246.6321  0.031522508  0.031917639            3 
  653000   0.97886675   -6.8391259    246.65614  0.031477302  0.031899149            3 
  654000   0.98409225   -6.8601817    246.89292  0.031459342  0.031880507            5 
  655000   0.97743595   -6.8146562    247.56042  0.031496236  0.031862251            4 
  656000   0.97947322   -6.8303887     248.6107  0.031581644  0.031844072            2 
  657000   0.99308969   -6.8375395    248.12113  0.031471478  0.031825667            2 
  658000    1.0069607   -6.8617651    248.48763  0.031470065  0.031807684            6 
  659000   0.99166104   -6.8138122    248.56069  0.031431549  0.031789489            2 
  660000   0.98946168    -6.841535    248.72412   0.03140456  0.031771434            2 
  661000   0.99489841   -6.8584009    249.52783  0.031458375  0.031753328            2 
  662000    0.9914356   -6.8261534     249.5665  0.031415722   0.03173553            3 
  663000    0.9799317   -6.8701944    249.61024  0.031373836  0.031717883            4 
  664000   0.99671445   -6.8552683    249.89404  0.031362204   0.03170015            4 
  665000   0.96649294   -6.8419549    250.25277  0.031359996  0.031682293            4 
  666000   0.98247569   -6.8540167    250.63379  0.031360584  0.031664299            7 
  667000   0.98996257   -6.8549482    250.39827  0.031284141  0.031646129            3 
  668000   0.98172542   -6.8385789    251.43905  0.031367147  0.031627937            4 
  669000   0.96575112   -6.8286845    251.12754  0.031281458    0.0316099            5 
  670000   0.99319913   -6.8518986    250.59316  0.031168303  0.031591877            3 
  671000    0.9904588   -6.8641548    251.09308   0.03118394  0.031573503            3 
  672000   0.98446348   -6.8403092    252.52353  0.031314922   0.03155571            5 
  673000   0.96319353   -6.8142974    252.40889  0.031254197  0.031537954            6 
  674000   0.95444849   -6.8303944    252.43895  0.031211542  0.031520258            9 
  675000   0.98415417   -6.8450113    252.31053  0.031149448  0.031502297            2 
  676000   0.98870176   -6.8307635    252.66009   0.03114646   0.03148436            4 
  677000   0.98026055   -6.8575767    253.32037  0.031181729  0.031466379            5 
  678000   0.95773231   -6.8502268    253.03301  0.031100419  0.031448501            7 
  679000   0.97992871   -6.8718817    254.06576  0.031181364  0.031430746            3 
  680000     1.002379   -6.8519367    253.99653  0.031127026  0.031413249            2 
  681000   0.97666657   -6.8576044    254.53246  0.031146899  0.031395671            3 
  682000   0.98686352   -6.8775879    254.84322  0.031139201  0.031378247            5 
  683000   0.98628408   -6.8702565    255.00899  0.031113835  0.031360797            4 
  684000    1.0127003   -6.8733007    255.33821  0.031108456  0.031343475            7 
  685000   0.99255303   -6.8707457    254.44303  0.030954139  0.031326009            7 
  686000    0.9618712   -6.9081732    255.04406  0.030982028  0.031308152            5 
  687000   0.98692088   -6.8976394    255.05774  0.030938591  0.031290158            6 
  688000   0.99418573   -6.8636872    255.63303  0.030963303  0.031272138            4 
  689000   0.97560276   -6.8698787     256.0913   0.03097379  0.031254356            7 
  690000   0.98209081   -6.8685241     256.0781  0.030927307  0.031236459            4 
  691000   0.98359977   -6.8785607    255.92058  0.030863553  0.031218493            3 
  692000   0.99146274   -6.8643869    256.44406  0.030881992  0.031200217            3 
  693000   0.98230756   -6.8685395    257.12494  0.030919305  0.031182214            6 
  694000   0.96994763    -6.871079    257.53774  0.030924321  0.031164332            4 
  695000    1.0065331   -6.8547005    257.51239  0.030876786  0.031146883            3 
  696000   0.96967267   -6.8911354    257.52456   0.03083388  0.031129434            5 
  697000   0.97616432   -6.8618157    258.42433  0.030897218  0.031111988            3 
  698000   0.98023805   -6.8621395    258.15891  0.030821264  0.031094475            4 
  699000   0.96814516   -6.8552848    259.32438  0.030916115  0.031077221            1 
  700000   0.98274661   -6.8802545     259.0143  0.030835036   0.03105991            2 
  701000   0.96025101   -6.9045085      258.802  0.030765811  0.031042485            3 
  702000    0.9796994   -6.8598379     258.6178  0.030700118  0.031025097            6 
  703000   0.97465502   -6.8778375    259.27939  0.030734873  0.031007612            2 
  704000   0.97597554   -6.8798949    259.98914   0.03077523  0.030990083            3 
  705000    0.9617974    -6.885334    259.77305  0.030706034  0.030972412            4 
  706000   0.95055155    -6.889117    260.40341  0.030736947  0.030954809            4 
  707000   0.95795088   -6.8965116    260.31076  0.030682551  0.030937248            6 
  708000   0.97959733   -6.8785841    260.71463   0.03068675  0.030919789            7 
  709000   0.96980987   -6.8770585    260.22815  0.030586289  0.030901947            4 
  710000    0.9910218   -6.8925034     261.0121  0.030635223  0.030884067            2 
  711000   0.97500697   -6.8892132    261.20425  0.030614657  0.030866274            4 
  712000   0.96448179   -6.8522437    261.19423  0.030570486  0.030848363            7 
  713000   0.97356138   -6.8858084    261.54474  0.030568576  0.030830554            3 
  714000   0.97619947   -6.9223438    261.30625  0.030497928  0.030812421            4 
  715000   0.94259712   -6.8894257    261.90906  0.030525532  0.030794486            4 
  716000   0.96407412   -6.8719256    261.18268  0.030398357  0.030776639            6 
  717000   0.96451903   -6.9107237    261.99927  0.030450868  0.030758534            4 
  718000    0.9850928    -6.900636    261.96649  0.030404653  0.030740237            3 
  719000   0.95551455    -6.896899    262.61201  0.030437183  0.030722044            2 
  720000   0.98667727   -6.9094971    261.71532  0.030291125   0.03070357            3 
  721000   0.96437071   -6.8826471      263.183  0.030418747  0.030685313            5 
  722000   0.97494605   -6.8948563    263.06501  0.030362997  0.030667482            4 
  723000   0.95766522   -6.9260075    263.18055  0.030334318  0.030649387            5 
  724000   0.96174028   -6.9256477    263.25887  0.030301435  0.030630973            4 
  725000   0.96021777   -6.8578016    264.64983  0.030419521  0.030612815            3 
  726000   0.97215511   -6.8911297    264.27691  0.030334815  0.030595068            5 
  727000   0.97098835   -6.8959143    263.85381  0.030244591  0.030577169            6 
  728000   0.96852467   -6.8770633     265.0601  0.030341129  0.030558908            4 
  729000   0.95704149   -6.9284271    263.11379  0.030077022  0.030540372            4 
  730000   0.96536411   -6.8987109     264.0242  0.030139749   0.03052154            5 
  731000   0.95920275   -6.9435451    264.21892  0.030120716  0.030502494            4 
  732000   0.92972133   -6.9004178    263.74199  0.030025272  0.030483493            6 
  733000   0.94286071   -6.9034927    264.63477  0.030085808  0.030464334            3 
  734000   0.96073021   -6.9238883    264.74973  0.030057871  0.030445368            3 
  735000   0.95659773   -6.8933281    265.57289  0.030110305  0.030426617            2 
  736000   0.96944372   -6.8782142    265.13661  0.030019997  0.030408058            2 
  737000   0.95778921   -6.8903596    266.47992  0.030131154  0.030389098            2 
  738000    0.9668252   -6.9059118    264.83039  0.029904064  0.030370401            3 
  739000   0.95511076    -6.918465    266.06243  0.030002529  0.030351602            3 
  740000   0.97931909   -6.8772648    266.77019  0.030041688  0.030332996            2 
  741000   0.97608342   -6.8833321     267.0181  0.030029026  0.030314301            3 
  742000   0.92857077   -6.8948889    266.97331  0.029983525  0.030295639            1 
  743000   0.97844772   -6.9090685    267.20711  0.029969393  0.030277069            8 
  744000   0.94614223   -6.9190433    266.85917   0.02989014  0.030258689            5 
  745000    0.9635937    -6.924915    267.40742  0.029911344  0.030240103            3 
  746000   0.95751788   -6.9342624    266.67782  0.029789747  0.030221275            4 
  747000   0.96962291   -6.9300637    267.62079  0.029855063  0.030203005            6 
  748000   0.92277007   -6.9129296    268.32197  0.029893267  0.030184758            6 
  749000   0.94642515   -6.8950138    269.02732  0.029931834  0.030166696            4 
  750000   0.96844173   -6.9119592    268.37833  0.029819814   0.03014883            3 
  751000     0.938359   -6.9272282    268.26598  0.029767641  0.030130696            3 
  752000   0.94515498   -6.8997863    269.99853   0.02992005  0.030112651            3 
  753000   0.96620547   -6.9211495    269.36325   0.02981001  0.030094973            3 
  754000   0.96623933    -6.949028    269.45978  0.029781143  0.030077095            4 
  755000   0.93908197   -6.9468192    269.15484  0.029708039  0.030059003            4 
  756000   0.93212651   -6.9211372    270.38108  0.029803911  0.030040695            3 
  757000   0.94257589   -6.9516154    269.51553  0.029669257  0.030022472            3 
  758000   0.94083784   -6.9273979    270.30604  0.029717023  0.030004171            5 
  759000   0.96440332   -6.9160452    269.90806  0.029634174  0.029985931            4 
  760000   0.94500233   -6.9610293     270.1592   0.02962272  0.029967581            3 
  761000   0.93953989   -6.9062479    271.00897  0.029676847  0.029949136            3 
  762000   0.94071263   -6.9145608    271.14016  0.029652248  0.029930975            6 
  763000   0.95730273   -6.8955501    272.28991  0.029738959  0.029912967            4 
  764000   0.96926073   -6.9119194    272.34656  0.029706213  0.029894986            4 
  765000    0.9586366   -6.9329939    271.72729  0.029599923  0.029876925            2 
  766000   0.93935338   -6.9349243    271.82622  0.029572043  0.029858819            5 
  767000   0.95262064   -6.9264314     273.2795  0.029691384  0.029840914            6 
  768000   0.94225743   -6.9340775    272.06745  0.029521208  0.029823183            5 
  769000   0.94695048    -6.943414    273.10208  0.029594937  0.029805131            5 
  770000   0.95751074   -6.9467984    272.02059  0.029439458  0.029786921            4 
  771000   0.95334909   -6.9470882    272.39709  0.029441968  0.029768457            2 
  772000   0.95677944   -6.9095454    273.51826  0.029524856  0.029749983            3 
  773000   0.95774353   -6.9122495    273.30544  0.029463717  0.029731517            2 
  774000   0.95382243   -6.9073207    272.87406  0.029379205  0.029713094            2 
  775000   0.93460576   -6.9417336    272.80094  0.029333434  0.029694729            3 
  776000   0.94992194   -6.9449628    273.13746  0.029331772  0.029676163            4 
  777000    0.9300539   -6.9552869    273.67441   0.02935161  0.029657521            5 
  778000   0.95559305   -6.9517468    273.55415  0.029301002  0.029638682            4 
  779000   0.94727122   -6.9665161    273.45363  0.029252635  0.029619952            7 
  780000   0.95783081   -6.9625553    274.07781  0.029281817  0.029601397            3 
  781000   0.92569158   -6.9432065    274.36349  0.029274807  0.029582953            3 
  782000   0.93977947   -6.9460837    274.74688  0.029278227  0.029564749            6 
  783000   0.93083175   -6.9536783    274.84714  0.029251505  0.029546286            4 
  784000   0.92114496   -6.9581188    274.80625  0.029209848  0.029527774            3 
  785000   0.93286927   -6.9546185     274.9803  0.029191115  0.029509253            4 
  786000   0.94561558   -6.9831547    275.21096  0.029178431  0.029490951            2 
  787000   0.93230422   -6.9407254    275.68103   0.02919113  0.029472772            7 
  788000   0.94657127   -6.9373769    276.83631   0.02927626  0.029454316            7 
  789000   0.92244755   -6.9308046    276.79851  0.029235161  0.029436224            8 
  790000   0.93002849   -6.9593988    276.25262  0.029140571  0.029418204            6 
  791000   0.92736471   -6.9560475    276.32806  0.029111679  0.029400046            5 
  792000   0.93706258   -6.9468234    276.46442   0.02908927  0.029381858            6 
  793000    0.9418142   -6.9348953    277.63633  0.029175739  0.029363973            4 
  794000   0.94969269   -6.9309182    277.51207  0.029125952  0.029346021            3 
  795000   0.95336433   -6.9544538    278.02721  0.029143314  0.029327983            2 
  796000    0.9215873   -6.9700972    277.58391  0.029060292  0.029309822            4 
  797000   0.94471452   -6.9588462    277.86921   0.02905366  0.029291694            6 
  798000   0.94483266   -6.9502238    278.58363  0.029091857  0.029273957            2 
  799000   0.96637616   -6.9601475    277.89801   0.02898394  0.029256069            2 
  800000   0.93931341   -6.9506752    279.17859  0.029081104  0.029238176            5 
  801000   0.93881817   -6.9761456    278.67359  0.028992258  0.029220296            3 
  802000   0.92532793   -6.9724143    278.50874   0.02893898  0.029202467            3 
  803000   0.94827912   -6.9372746    279.23389  0.028978195  0.029184499            3 
  804000   0.92108447   -6.9769864    278.84213  0.028901548  0.029166524           10 
  805000   0.93446717   -6.9938239    278.47195  0.028827324  0.029148193            4 
  806000   0.94297158   -6.9759628    278.68889  0.028813988  0.029129738            2 
  807000   0.91884293   -6.9593394    278.58353  0.028767403  0.029111446            3 
  808000   0.93826639   -6.9839926    278.93498  0.028768047  0.029092913            4 
  809000   0.93198163   -6.9957968    279.37058  0.028777357  0.029074336            7 
  810000   0.92497674   -6.9741715    279.25873  0.028730322  0.029055727            3 
  811000   0.95617992   -6.9772158    279.43561  0.028713071  0.029037263           10 
  812000   0.92408096   -6.9556876    280.38176  0.028774811  0.029019175            2 
  813000   0.95417401   -6.9752879    280.63436  0.028765309   0.02900089           11 
  814000   0.93228885   -6.9607988    280.51427  0.028717677  0.028982631            7 
  815000   0.93303062   -6.9629039     280.2195    0.0286523   0.02896423            5 
  816000   0.92646911   -6.9507156    280.85265  0.028681848  0.028945928            4 
  817000   0.91250945   -6.9781078    281.19343  0.028681501  0.028927411            2 
  818000   0.91506356   -6.9979362    280.45561  0.028571272  0.028908778            6 
  819000    0.8923748   -6.9876561    281.09418  0.028601361  0.028890272            4 
  820000   0.90847993   -6.9594809      281.262  0.028583537  0.028871769            4 
  821000     0.924938   -6.9518483    280.72385  0.028494098  0.028853038            6 
  822000   0.92971977   -6.9692738    281.10117  0.028497686  0.028834287            2 
  823000   0.92938966   -6.9547815    282.20683  0.028575013  0.028815681           12 
  824000   0.93101131   -6.9721956    281.82975    0.0285022  0.028796905            6 
  825000   0.91812813   -6.9663694     280.8173  0.028365384  0.028777965            4 
  826000   0.91479764   -6.9658302    282.01543   0.02845192   0.02875907            4 
  827000   0.92886872   -6.9749253    282.57039  0.028473437  0.028740144           11 
  828000   0.90869978   -7.0096703    281.85895  0.028367447  0.028721407            3 
  829000   0.93322884   -6.9649673    282.62978  0.028410714  0.028702731            4 
  830000   0.90917929    -6.985956    282.52741  0.028366206  0.028684125            2 
  831000   0.92038334   -6.9579518    283.36084  0.028415648   0.02866547            3 
  832000   0.94280567    -6.978903    283.23071   0.02836846  0.028646879            5 
  833000    0.9147973   -6.9852916    282.88418  0.028299738  0.028628144            6 
  834000   0.91817691   -7.0110164    282.09659  0.028187109   0.02860925            3 
  835000   0.90597202   -7.0027732    282.89733  0.028233267  0.028590358            8 
  836000    0.8925698   -6.9718583     284.0121  0.028310616  0.028571634            3 
  837000   0.91434614    -6.949927    283.93227  0.028268844  0.028552748            5 
  838000    0.9196417   -6.9711887    284.18608   0.02826035  0.028534102            5 
  839000   0.91071573   -6.9945104    283.00179  0.028109038  0.028515317            6 
  840000   0.89861531   -6.9703068    283.32729  0.028107866  0.028496451            3 
  841000   0.92069679   -7.0142264    284.26428  0.028167289  0.028477516            9 
  842000   0.93729459   -7.0075553    284.10264  0.028117839  0.028458528            6 
  843000   0.93172134   -7.0209234    284.83441  0.028156822  0.028439545            6 
  844000   0.92104862   -6.9688678    285.10464  0.028150142  0.028420915            8 
  845000   0.91859026   -6.9708463    285.45036  0.028150923  0.028402374            3 
  846000   0.91550048   -6.9988335    285.46673  0.028119261  0.028383835            4 
  847000   0.91796264   -6.9779023    285.30965  0.028070607  0.028365241            2 
  848000   0.91019854   -6.9626768    286.03369  0.028108657  0.028346529            3 
  849000   0.89828184   -7.0251559    286.09796  0.028081857  0.028328053            5 
  850000   0.90620994   -6.9972002    285.85393  0.028024895   0.02830944            4 
  851000   0.91787989   -6.9885382    286.25521  0.028031258  0.028291051            7 
  852000   0.89426532   -7.0234926    286.90427  0.028061841  0.028272839            3 
  853000   0.92481876   -7.0231745    286.98944  0.028037264  0.028254625            8 
  854000   0.90708244   -7.0187698    287.02004   0.02800742  0.028236228            4 
  855000   0.91224023   -6.9887226    287.64232  0.028035314  0.028217702           10 
  856000   0.92731986    -6.975605    287.82545   0.02802039  0.028199254            6 
  857000   0.92430593   -6.9989853    287.25963  0.027932675  0.028180898            5 
  858000   0.91151902   -7.0242082     287.0704  0.027881741  0.028162403            3 
  859000   0.92545512   -7.0109582    287.47907  0.027888928  0.028144004            3 
  860000   0.91629668   -6.9514324     288.9036  0.027994535  0.028125835            2 
  861000   0.90996846   -7.0355774     287.3343  0.027810134  0.028107613            4 
  862000   0.91580064   -7.0206859    288.64778  0.027904851  0.028089532            4 
  863000   0.92599874    -7.005631    288.57241  0.027865239  0.028071384            6 
  864000   0.91563173   -7.0154225    288.97153  0.027871483  0.028053269            2 
  865000   0.90110626   -6.9972415    288.69145  0.027812278  0.028035185            5 
  866000   0.89686412   -7.0018319    289.00247  0.027810091  0.028017261            4 
  867000   0.90489865   -6.9924066    288.51794  0.027731443  0.027999148            5 
  868000   0.89429354   -7.0448691    288.43031  0.027691082  0.027980916            3 
  869000   0.88840477   -6.9815388    288.95252  0.027709294   0.02796268            7 
  870000   0.89551034   -7.0140403     289.6029  0.027739741  0.027944357            6 
  871000   0.91047194    -7.003576    289.80273  0.027727012   0.02792593            6 
  872000   0.89868946   -7.0363178    289.28096  0.027645352  0.027907707            4 
  873000   0.92294603   -7.0225731    289.36199  0.027621419  0.027889404            4 
  874000   0.92330562   -7.0448737    290.32222  0.027681371  0.027871317            4 
  875000    0.9196576   -6.9985301    290.62931  0.027678982  0.027853386            7 
  876000   0.91844598   -7.0424091    289.98588  0.027586176  0.027835121            4 
  877000    0.8962846   -7.0493475    290.62723  0.027615663  0.027816847            6 
  878000   0.92392463   -7.0151231    290.34356  0.027557286  0.027798606            1 
  879000   0.89907281   -6.9768801    292.00168  0.027683133  0.027780649            3 
  880000   0.89161538   -7.0027655    292.04718  0.027655983  0.027762727            2 
  881000   0.90901941   -7.0784785    291.08207  0.027533302  0.027744731            5 
  882000   0.89226715   -7.0711268    291.11132  0.027504848  0.027726568            5 
  883000   0.89056766   -7.0504325    290.71979  0.027436749  0.027708301            5 
  884000   0.88743015   -7.0228366    290.88961   0.02742172  0.027689952            3 
  885000   0.89879516   -7.0419378    291.02545  0.027403526  0.027671488            7 
  886000   0.91699776   -7.0243821    291.16026  0.027385276  0.027653009           11 
  887000   0.89785234   -7.0288274    291.77743  0.027412385  0.027634501           11 
  888000   0.89897394   -7.0368368    291.60667  0.027365491  0.027616181            5 
  889000   0.90776388   -7.0474929    292.01049  0.027372562  0.027597903            6 
  890000   0.89213238   -7.0226095    291.69819  0.027312565  0.027579631            4 
  891000   0.90796651   -7.0342873    292.29611  0.027337833  0.027561411            6 
  892000   0.90547444   -6.9983987     292.2921   0.02730681  0.027543238            6 
  893000    0.9108961   -7.0197695    291.93421  0.027242834  0.027524865            5 
  894000   0.90060876   -7.0639624    292.11433  0.027229151  0.027506355            9 
  895000   0.89563053    -7.038288    292.03515  0.027191355  0.027487985            4 
  896000   0.89610007   -7.0314272    292.80618  0.027232718  0.027469608            7 
  897000   0.92632109   -7.0391711    293.43862  0.027261113  0.027451239            6 
  898000   0.91409397   -7.0218072     293.5761  0.027243513  0.027432671            4 
  899000   0.88910633   -7.0337515    293.35452  0.027192669  0.027414169            3 
  900000   0.88523354   -7.0284179    293.63744  0.027188652  0.027395651            3 
  901000   0.88574567   -7.0320258    293.67898  0.027162318  0.027377049            8 
  902000   0.89341464   -7.0400297    293.04408  0.027073548  0.027358583            6 
  903000   0.89797273     -7.04427    293.25069  0.027062633  0.027339849            8 
  904000   0.89110213   -7.0559761     293.9563  0.027097742  0.027321164            7 
  905000   0.88845362   -7.0506271    294.03728  0.027075256  0.027302539            5 
  906000   0.89690826   -7.0754546    293.37202  0.026984181  0.027283885            6 
  907000   0.89662301   -7.0569871    294.51761  0.027059684  0.027265264            8 
  908000   0.88617306   -7.0630864    293.82165   0.02696601   0.02724656            7 
  909000   0.90655378    -7.025029    294.69836  0.027016718  0.027227961            3 
  910000   0.89581905    -7.042335    293.49712  0.026877025  0.027209319            4 
  911000   0.88278318   -7.0418345    294.87257  0.026973341  0.027190594            4 
  912000   0.87224838   -7.0604141    295.53743  0.027004517   0.02717204            5 
  913000   0.87728795   -7.0430589    295.80481  0.026999344  0.027153639            7 
  914000   0.87779856   -7.0708309    295.19959  0.026914623  0.027135248            4 
  915000   0.89730134   -7.0906694    295.22494  0.026887517  0.027116821            2 
  916000   0.85883572   -7.1131243    295.22901  0.026858535  0.027098356            5 
  917000   0.89652729   -7.0754513    296.06411  0.026905136   0.02708004            6 
  918000   0.90631436   -7.0314217    296.67234   0.02693104  0.027061913            3 
  919000   0.90689405   -7.0606318    296.57196  0.026892633   0.02704376            4 
  920000    0.8969732   -7.0982602    296.37692  0.026845735  0.027025449            6 
  921000   0.88007714   -7.0619906    296.31774  0.026811232  0.027007041            4 
  922000   0.87736526   -7.0722132    297.07587  0.026850675  0.026988773            7 
  923000   0.88818773   -7.0696109    296.78676  0.026795482  0.026970587            4 
  924000   0.88581935    -7.067155    297.09464   0.02679425  0.026952399            4 
  925000   0.91548363   -7.0357198    296.87818  0.026745782  0.026934187            3 
  926000   0.87532669   -7.0548548    296.67258  0.026698396  0.026915939           11 
  927000   0.88498639   -7.0489852    297.15574  0.026713029  0.026897647            5 
  928000   0.86521566   -7.0737791    296.40291   0.02661664  0.026879324            4 
  929000    0.8682028   -7.0729878    297.22126  0.026661397   0.02686072            3 
  930000   0.88302331   -7.0707426    297.41635   0.02665021  0.026842351            4 
  931000   0.91723613    -7.060051    297.15869  0.026598522  0.026824221            4 
  932000   0.88046091   -7.0753304    297.92523  0.026638522  0.026805938            3 
  933000   0.89321141   -7.0990051    297.90673  0.026608318  0.026787671            3 
  934000   0.88138954   -7.0837105    297.83998  0.026573874  0.026769309            3 
  935000   0.87976228   -7.0758225    297.36751  0.026503343   0.02675087            3 
  936000   0.89374025   -7.0846229    297.13371  0.026454212  0.026732279            8 
  937000   0.87725158   -7.0437999    297.91462  0.026495431  0.026713805            2 
  938000   0.87034379   -7.1008466    297.21672  0.026405182   0.02669516            3 
  939000   0.87672187   -7.0978778     298.0133  0.026447754  0.026676718            3 
  940000   0.86953582    -7.085303    298.16955  0.026433471  0.026658052            8 
  941000   0.86070324   -7.0840672    297.35078  0.026332871   0.02663941            6 
  942000   0.87250228   -7.0781413    297.92869  0.026356042  0.026620814            4 
  943000   0.88100696   -7.0720937     298.1943  0.026351565  0.026602184            6 
  944000   0.88959219   -7.0764387    298.58325  0.026357985   0.02658379            8 
  945000   0.88371667   -7.0914801     298.5211  0.026324612   0.02656528            5 
  946000   0.88419864   -7.0886734    298.82152  0.026323248  0.026546681            5 
  947000   0.88557186   -7.0739863    299.09195   0.02631925  0.026528093            6 
  948000   0.88017032   -7.0801061    298.94013  0.026278141  0.026509418            4 
  949000    0.8780859   -7.0518966    298.73778  0.026232681  0.026490713            4 
  950000   0.88914219   -7.0662191    298.95573  0.026224187   0.02647208            6 
  951000   0.86377228   -7.0763055    299.21959  0.026219733  0.026453284            3 
  952000    0.8698921    -7.118963    298.82774   0.02615789  0.026434527            5 
  953000   0.88574793   -7.0914434    299.05268  0.026150112  0.026415803           11 
  954000   0.88312068   -7.0881019    298.87937  0.026107562  0.026397109            3 
  955000   0.89645495   -7.1107254    298.92661  0.026084346  0.026378279            4 
  956000    0.8770381   -7.0886046    299.96214  0.026147327   0.02635951            4 
  957000   0.87487019   -7.0909157    299.03992    0.0260397  0.026340592            3 
  958000   0.87698437   -7.0693228    300.07282  0.026102368  0.026321712            4 
  959000   0.85862788   -7.1046381    299.78856  0.026050449  0.026302928            5 
  960000   0.88877701    -7.108552    300.30938  0.026068522   0.02628412            6 
  961000   0.87751374   -7.1009744    299.77767  0.025995289  0.026265333            4 
  962000   0.85596903   -7.0864096     299.9602  0.025984079   0.02624659            5 
  963000   0.88064897   -7.0766053    300.75708  0.026026054  0.026227919            6 
  964000   0.86110305    -7.139974    300.59082  0.025984684  0.026209274            6 
  965000   0.85867508   -7.0862992    300.40473  0.025941687  0.026190617            4 
  966000   0.87994813   -7.1010239     300.0992  0.025888474  0.026171891            5 
  967000   0.87130941   -7.1195555    300.13359  0.025864667  0.026153181            3 
  968000   0.88572155   -7.1148254    300.31455  0.025853525  0.026134376            9 
  969000   0.87987562   -7.0841401    301.27648   0.02590957  0.026115738            6 
  970000   0.88483342   -7.1121565     301.9108  0.025937354  0.026097293            3 
  971000   0.87286484   -7.0964106      301.435  0.025869808  0.026078791            8 
  972000   0.88177751   -7.0693248    301.24625   0.02582701  0.026060252            6 
  973000   0.87771006   -7.0854258    301.37154  0.025811197  0.026041628            4 
  974000   0.86331671   -7.0942717    301.25528   0.02577475  0.026023008            6 
  975000   0.86128119    -7.092813    301.39659  0.025760392  0.026004471           10 
  976000   0.85323069   -7.0944283    302.77495  0.025851687  0.025986006           10 
  977000   0.84894305   -7.1095927    302.13944   0.02577102  0.025967509            6 
  978000   0.84867994    -7.119066    301.86654  0.025721416  0.025949014            5 
  979000   0.84756014   -7.0984293    302.00705  0.025707104  0.025930494            3 
  980000   0.84943749   -7.1205201    301.48121  0.025636157  0.025911915            4 
  981000   0.86311139   -7.1188537    302.27795  0.025677705    0.0258934            4 
  982000   0.88342972   -7.1016508    302.12842  0.025638868  0.025874777            8 
  983000   0.86547528   -7.1307227    302.46275  0.025641129  0.025856321            3 
  984000   0.85943103   -7.1308658    302.06388  0.025581291  0.025837747            6 
  985000   0.87077682   -7.0919275    302.62087  0.025602442    0.0258192            4 
  986000   0.85890387   -7.1255235    303.06916  0.025614364  0.025800783            5 
  987000   0.85732537    -7.113216    302.42315  0.025533869  0.025782325            4 
  988000    0.8671284   -7.1131635    303.22124  0.025575341  0.025763871            6 
  989000    0.8477885   -7.1498193    303.07739   0.02553736   0.02574545            7 
  990000   0.85877168   -7.1221248    303.60894  0.025556308     0.025727            3 
  991000   0.86637749   -7.0932671    304.01665  0.025564804  0.025708597            3 
  992000   0.87431891   -7.1019446    303.39014  0.025486402  0.025690328            6 
  993000     0.855759   -7.1190853    303.90108  0.025503616  0.025671964            5 
  994000    0.8715908   -7.1158735    303.99219  0.025485596  0.025653588            7 
  995000   0.85192197   -7.1147487    304.19791  0.025477212   0.02563538            2 
  996000   0.86691232   -7.1003478    304.05794  0.025439921  0.025617187            5 
  997000   0.85730824   -7.1289573    304.34473  0.025438376  0.025598819            7 
  998000   0.85805859    -7.154688    304.22975  0.025403286  0.025580505            5 
  999000   0.85434625    -7.132617    304.63646  0.025411784   0.02556226            6 
 1000000   0.88140085   -7.1209922    305.48584  0.025457153   0.02554426            4 
 1001000   0.86907427   -7.1027486     305.0129  0.025392349  0.025526194            2 
 1002000   0.86616884   -7.1002295    306.03119  0.025451695  0.025508113            6 
 1003000    0.8453956   -7.1455615    305.60498  0.025390909  0.025490124            4 
 1004000   0.85672135    -7.119487    305.31199  0.025341301  0.025471972            7 
 1005000   0.84242833   -7.1214355    306.23256  0.025392418  0.025453816            5 
 1006000   0.84742828   -7.1381039    304.88697  0.025255713  0.025435767            4 
 1007000    0.8556956   -7.1097279     305.9867   0.02532164  0.025417802            4 
 1008000   0.86599871   -7.1374247    305.54137  0.025259703  0.025399822            4 
 1009000    0.8524977   -7.1446812    306.21997  0.025290715  0.025381853            5 
 1010000   0.85128642   -7.1381472    305.82156  0.025232802  0.025363867            9 
 1011000   0.84834537   -7.1270186    306.53435  0.025266597  0.025345955            6 
 1012000    0.8438412   -7.1366603    306.16403  0.025211135  0.025328197            3 
 1013000   0.85516639   -7.1527243    306.53505   0.02521677  0.025310451            4 
 1014000   0.84952712   -7.1223071    306.95287  0.025226238  0.025292685            3 
 1015000   0.85841214   -7.1191991    306.79733  0.025188615  0.025274997            4 
 1016000   0.84602534   -7.1444929    306.62708  0.025149859  0.025257218            3 
 1017000   0.86423237   -7.1029025    306.67008  0.025128653  0.025239465            4 
 1018000   0.84770532   -7.1309331    307.22944  0.025149758  0.025221643            7 
 1019000   0.87141616   -7.1283656    307.38255  0.025137599  0.025203884            4 
 1020000   0.84223166   -7.1387961    306.98036  0.025080094  0.025186228            4 
 1021000   0.87315029   -7.1560674    307.74467  0.025117913  0.025168557            5 
 1022000   0.82673799     -7.12907     307.2098  0.025049722  0.025150898            5 
 1023000   0.83332924   -7.1204656    307.86609  0.025078698   0.02513334            4 
 1024000   0.86427268   -7.1115623    307.84883  0.025052802  0.025115688            4 
 1025000   0.84849056   -7.1091616    308.52922  0.025083677  0.025098076            2 
 1026000   0.85055632   -7.1552066    307.70419  0.024992219  0.025080312            5 
 1027000    0.8450508   -7.1585227    307.46827   0.02494874  0.025062531            4 
 1028000   0.85748754   -7.1315689    307.89138  0.024958769  0.025044723            3 
 1029000   0.83918935   -7.1453895     307.5544  0.024907224   0.02502676            8 
 1030000   0.83126467   -7.1926341    306.62055  0.024807488  0.025008764           11 
 1031000   0.82870524    -7.150777    307.70666  0.024871214   0.02499073            5 
 1032000   0.83859166   -7.1705232    308.32505  0.024897048  0.024972959            9 
 1033000   0.86996857   -7.1484173    308.20807   0.02486351  0.024955237            4 
 1034000   0.83658957   -7.1636939    308.72427  0.024881066  0.024937563            8 
 1035000   0.82088917   -7.1634579    308.74344   0.02485857  0.024919794            7 
 1036000   0.83459598   -7.1767046     308.6423   0.02482644  0.024902058            4 
 1037000   0.84332335   -7.1439031      308.973  0.024829074  0.024884356            3 
 1038000   0.85072096   -7.1762623    309.31761   0.02483282   0.02486676            4 
 1039000   0.83642023   -7.1481172    309.45869  0.024820235  0.024849049            6 
 1040000   0.83110805   -7.1819214    309.35525  0.024788081  0.024831529            9 
 1041000    0.8098662   -7.1645601     309.9401  0.024811087  0.024813949            3 
 1042000   0.84479686   -7.1609412    309.28579  0.024734948  0.024796315            5 
 1043000   0.83234629   -7.1549855    309.94225  0.024763683  0.024778792            7 
 1044000   0.83073659   -7.1579955    309.80941  0.024729359   0.02476132            4 
 1045000   0.83848231   -7.1571239    310.08344  0.024727547  0.024743774            6 
 1046000   0.83331573   -7.1580396    310.58957  0.024744229  0.024726346           16 
 1047000   0.83378444   -7.1292165    310.27002  0.024695163   0.02470888            5 
 1048000   0.82276529   -7.1669074    310.51039  0.024690711  0.024691443            5 
 1049000   0.85117025   -7.1491761    309.58055  0.024593307  0.024673812            3 
 1050000   0.82656455   -7.1471538    310.12073  0.024612756  0.024656226            5 
 1051000   0.82042283   -7.1592379    310.62228  0.024629105  0.024638589            5 
 1052000   0.83570154   -7.1739468    309.65423  0.024529011  0.024620853            5 
 1053000   0.83510458    -7.144012    310.26851   0.02455433  0.024603082            4 
 1054000   0.82748587   -7.1838683    309.97813  0.024508075   0.02458532            4 
 1055000   0.84489309   -7.1890206    310.41797  0.024519587  0.024567599            3 
 1056000   0.85391156   -7.1804816    310.44754  0.024498701  0.024549802            5 
 1057000   0.84579987   -7.1795533    309.97679   0.02443841  0.024532136            7 
 1058000    0.8254262   -7.1482342    311.15947  0.024508465  0.024514478            3 
 1059000   0.81636284    -7.176518    310.91218  0.024465862  0.024496889            2 
 1060000   0.82694961    -7.168152    310.80417   0.02443429  0.024479344            3 
 1061000    0.8292116   -7.1658625    311.84174  0.024492753  0.024461824            6 
 1062000   0.82023121   -7.1939828    312.06888  0.024487514  0.024444379            7 
 1063000   0.83903176    -7.170342    311.55296  0.024424033  0.024426843            3 
 1064000   0.81603807   -7.1844607    311.22851  0.024375667  0.024409178            5 
 1065000   0.82274082   -7.1880664    311.95768  0.024409834  0.024391607            7 
 1066000   0.82007044   -7.1718175    310.85649  0.024300851  0.024374074            5 
 1067000   0.83734579   -7.1702702    312.20461  0.024383365  0.024356678            3 
 1068000   0.81081591   -7.1693544    311.85614  0.024333344  0.024339292            2 
 1069000   0.80876094   -7.1910656    312.24839  0.024341159  0.024321992            3 
 1070000    0.8310832   -7.2027772    312.43276   0.02433277  0.024304587            2 
 1071000   0.82492376   -7.2074649    311.46638  0.024234857  0.024287038            5 
 1072000   0.80923942   -7.2432443    311.49942  0.024214818  0.024269586           13 
 1073000   0.82288835   -7.2103573    312.07002  0.024236566  0.024252064            6 
 1074000   0.82212255   -7.1930635    312.98531  0.024285018  0.024234705            6 
 1075000   0.82384713    -7.182876    312.42046   0.02421864  0.024217386            4 
 1076000   0.83316524   -7.2132143    312.21472  0.024180198  0.024200088            9 
 1077000    0.8342909   -7.2087172    312.28994  0.024163567  0.024182636           18 
 1078000   0.82731137   -7.2014651    312.80195  0.024180732  0.024165278            4 
 1079000   0.82188454   -7.2111021    312.46956  0.024132651  0.024147881            9 
 1080000   0.81409916   -7.1871133    312.85881  0.024140341  0.024130485            6 
 1081000   0.82449666   -7.1985986    312.71572  0.024106978  0.024113149            6 
 1082000   0.84017316   -7.1788636    313.58173  0.024151396  0.024095702            6 
 1083000   0.82034378   -7.1957001    313.45116  0.024119049  0.024078478            3 
 1084000   0.80620117   -7.1744493    313.76643  0.024121036  0.024061326            5 
 1085000   0.82128883   -7.2078348    313.72124  0.024095333  0.024044146            4 
 1086000   0.80810818   -7.2002293    313.97937  0.024092954  0.024026996            6 
 1087000   0.83404298   -7.1991085    314.02668  0.024074416  0.024009894            8 
 1088000   0.81237037   -7.2100261    314.71855  0.024105281  0.023992758            4 
 1089000    0.8229013   -7.2044836    313.74365  0.024008544  0.023975593            4 
 1090000   0.82379524   -7.2009928    314.53218  0.024046802  0.023958429            3 
 1091000   0.82248157   -7.1955259     313.9534  0.023980553   0.02394122            3 
 1092000   0.81490221   -7.1915443    314.34737  0.023988658   0.02392419           18 
 1093000    0.8123281   -7.2160799    314.05743  0.023944604  0.023907014            3 
 1094000   0.81960344   -7.1987674    314.11179  0.023926858  0.023889768            9 
 1095000   0.82816725   -7.2311579    313.24105  0.023838741  0.023872397            7 
 1096000   0.83192919    -7.226267    313.54914  0.023840415   0.02385509           10 
 1097000   0.81423016   -7.2260726    313.67659  0.023828364  0.023837897            5 
 1098000   0.82718205   -7.1923736    314.66902  0.023881984  0.023820769            5 
 1099000   0.81084379   -7.1911885    315.16534  0.023897887  0.023803795            8 
 1100000   0.81882797   -7.2027632    314.50594  0.023826207  0.023786716            5 
 1101000   0.79988642   -7.2104019    314.78854  0.023825956  0.023769552            6 
 1102000   0.80646593   -7.2173328    314.56392   0.02378735   0.02375231            3 
 1103000   0.80014974   -7.2258316    314.64897   0.02377221  0.023735015            5 
 1104000   0.83408369   -7.2424105    314.58886  0.023746139  0.023717732            9 
 1105000   0.81884365   -7.2090392     314.3214   0.02370448  0.023700488            8 
 1106000   0.81960714   -7.2341216    314.50279  0.023696714  0.023683307            3 
 1107000   0.81193758   -7.2229481    314.20236  0.023652692  0.023666158           10 
 1108000   0.82831793   -7.2395827    315.33245  0.023716339  0.023649014            5 
 1109000   0.81324127   -7.2148373    315.34543   0.02369593  0.023631927            6 
 1110000   0.81407752   -7.2605381    315.38839  0.023677807  0.023614894            3 
 1111000   0.82747182   -7.2465215     315.3741  0.023655423  0.023597819           11 
 1112000   0.80538166     -7.24834    315.02728  0.023608159   0.02358077            8 
 1113000   0.81274348   -7.2147063    316.05573  0.023663951  0.023563812           13 
 1114000   0.82279303   -7.1825881    315.99157  0.023637909  0.023547051            6 
 1115000   0.80350762   -7.2183076    316.75605  0.023673845  0.023530269            7 
 1116000   0.80173393   -7.1966731    316.47869  0.023631921  0.023513424            9 
 1117000   0.80166174   -7.2327555    315.77606  0.023558345  0.023496543           12 
 1118000   0.80327528   -7.2255507    317.19357  0.023642932  0.023479621            6 
 1119000   0.80733816   -7.2319377    316.89771   0.02359977  0.023462711            3 
 1120000    0.8005352   -7.1966282    316.89395  0.023578419  0.023445887            9 
 1121000   0.80247735   -7.2143932    316.33249  0.023515647  0.023429108            3 
 1122000   0.80100076   -7.2532096    316.25658  0.023489051  0.023412193            3 
 1123000   0.80743891   -7.2649559    316.06976  0.023454271  0.023395304            4 
 1124000   0.82193109   -7.2273516     316.8558  0.023491681  0.023378405            8 
 1125000   0.79156304   -7.2221802    317.03999  0.023484444  0.023361611            3 
 1126000   0.79312974   -7.2632042    316.83031  0.023448069  0.023344738           12 
 1127000   0.80520737   -7.2558613    316.98963  0.023439044  0.023327907            4 
 1128000   0.80385628    -7.211135     318.0765   0.02349856  0.023311206           10 
 1129000   0.80681959   -7.2428714    317.97467   0.02347023  0.023294571            4 
 1130000   0.81473134   -7.2386701    317.88877  0.023443124   0.02327793            9 
 1131000   0.79385805   -7.2549273    317.77351  0.023413904  0.023261205            4 
 1132000   0.79723837   -7.2848416    316.91163  0.023329773  0.023244447            6 
 1133000   0.80301249   -7.2522675    318.12693  0.023398568  0.023227838            3 
 1134000   0.79568773   -7.2541195    318.02677  0.023370574  0.023211149            7 
 1135000   0.80318129     -7.23283    318.29329  0.023369552  0.023194517            9 
 1136000   0.81796522    -7.250626    317.66307  0.023302749  0.023178044            8 
 1137000   0.79943234   -7.2330217    318.53303  0.023346015  0.023161508            6 
 1138000   0.79154577   -7.2701778    318.72546  0.023339592  0.023144949            6 
 1139000     0.804938   -7.2434454    318.83695  0.023327257  0.023128346           10 
 1140000   0.78851457   -7.2511596    318.82605  0.023305998  0.023111847           10 
 1141000    0.7958623   -7.2634723    318.36095  0.023251603  0.023095377            6 
 1142000   0.79157919     -7.24638    319.43718  0.023309777  0.023078998            2 
 1143000   0.78150115   -7.2661634    319.99708  0.023330204  0.023062686            6 
 1144000     0.784448   -7.2645629     318.9216  0.023231469  0.023046416            6 
 1145000   0.79587516    -7.263881    319.43195  0.023248323  0.023030084            7 
 1146000    0.7905197   -7.2656187    319.28939  0.023217669   0.02301373            3 
 1147000    0.7835628   -7.2354028    319.84915  0.023238096  0.022997491            6 
 1148000   0.79020508   -7.2219995    319.51141  0.023193337  0.022981262            8 
 1149000   0.79721161   -7.2762397    320.01078  0.023209369  0.022965047            5 
 1150000   0.80682852   -7.2352112     320.0556  0.023192435  0.022948862            9 
 1151000   0.78072282   -7.2499249    320.78381  0.023225008  0.022932654            7 
 1152000   0.79837357   -7.2583969    320.29587  0.023169551  0.022916423            8 
 1153000   0.79152273   -7.2875175    320.14838  0.023138796  0.022900235            4 
 1154000   0.80061352   -7.2524824     320.8761  0.023171296  0.022884157            8 
 1155000   0.78646531   -7.2628456    320.39746    0.0231167  0.022868079            7 
 1156000   0.78262529   -7.2503779    320.19695  0.023082248  0.022851988            9 
 1157000   0.78103027   -7.2506248    321.03188  0.023122435  0.022835854            5 
 1158000   0.79599933   -7.2489607    320.27923  0.023048304  0.022819866            3 
 1159000   0.78357667   -7.2500556    320.95568  0.023077055  0.022803886            3 
 1160000    0.7992891   -7.2656133    320.48885  0.023023624  0.022787897            5 
 1161000   0.79764609   -7.2534925    320.95913  0.023037549  0.022771866            7 
 1162000   0.78459939    -7.277751    320.83951  0.023009144  0.022755864            7 
 1163000   0.80272422   -7.2981043    320.41171  0.022958706  0.022739819            9 
 1164000    0.7847312    -7.260139    321.17794  0.022993839  0.022723796            6 
 1165000   0.77713439   -7.2732928    321.11833  0.022969837  0.022707865            9 
 1166000   0.77999599   -7.2766037     321.9141  0.023007011  0.022691847            6 
 1167000   0.78878199   -7.3083003    320.93878  0.022917651  0.022675774            3 
 1168000   0.79489611   -7.2794866     321.1887  0.022915861  0.022659746            4 
 1169000   0.78301133   -7.2693981    321.65015  0.022929152  0.022643856            5 
 1170000   0.75478995   -7.2661813     321.8969  0.022927129  0.022628084            7 
 1171000   0.77426616   -7.2551834    322.06257   0.02291934   0.02261226            3 
 1172000      0.79568   -7.2497165    321.32108  0.022847062  0.022596454            5 
 1173000   0.79531474   -7.2568865    322.85846  0.022936805  0.022580725            5 
 1174000   0.79248589   -7.2816649    322.47251  0.022889872  0.022564867           13 
 1175000   0.76963027   -7.2554099    321.76062  0.022819902   0.02254902            5 
 1176000   0.78701204   -7.2597079    321.85099  0.022806901  0.022533229            4 
 1177000   0.79670266   -7.2666525    322.42445  0.022828126  0.022517517            6 
 1178000   0.77808151   -7.2546786    322.76875  0.022833103  0.022501736            4 
 1179000   0.77504892   -7.2768888    322.23241  0.022775827  0.022485959            8 
 1180000   0.78431487   -7.2997565    322.06481   0.02274469  0.022470128            7 
 1181000   0.76985122   -7.2452631    321.63316  0.022694973  0.022454379            4 
 1182000   0.78875185   -7.2717407    322.72583  0.022752808  0.022438602            9 
 1183000   0.77670969   -7.2845914    323.33404  0.022776419  0.022422857            7 
 1184000   0.77092201   -7.2747665    323.00679  0.022734149  0.022407158            8 
 1185000   0.78231676    -7.267267    323.98433  0.022783708  0.022391489            5 
 1186000   0.78904886   -7.2463148    323.61551  0.022738583  0.022375789           16 
 1187000   0.78668615   -7.2945697    322.87579  0.022667494   0.02236009           21 
 1188000   0.78160531   -7.2708971    322.82998  0.022645201  0.022344329            8 
 1189000   0.77230853   -7.2725292    322.64447  0.022613153  0.022328581            3 
 1190000   0.78209931   -7.3116233    323.41484  0.022648098  0.022312899            4 
 1191000   0.77709006   -7.2647937    323.09901  0.022606984  0.022297085            6 
 1192000   0.78301065   -7.2786982    322.80951  0.022567779   0.02228125            6 
 1193000   0.78075336   -7.3016747    324.24528  0.022649153  0.022265401            6 
 1194000   0.78560056   -7.2861209    323.42934  0.022573237   0.02224955            6 
 1195000   0.76352729   -7.2890039    322.99596  0.022524126  0.022233675            3 
 1196000   0.76827842   -7.3204954    322.74194  0.022487593  0.022217768            4 
 1197000   0.78010142   -7.3058596    323.47063  0.022519537    0.0222019            8 
 1198000   0.79021434    -7.319392    323.53199  0.022505008  0.022186036            4 
 1199000   0.76774931   -7.2948135    323.20158  0.022463274  0.022170262            4 
 1200000    0.7710132   -7.3097292    323.51313   0.02246619  0.022154473            5 
 1201000   0.76708135   -7.2874138    322.96195  0.022409239  0.022138673            3 
 1202000   0.77728822   -7.2715239    323.70464  0.022442086  0.022122919            4 
 1203000   0.77353344   -7.2808089    323.80537  0.022430408   0.02210726           14 
 1204000   0.77572067    -7.312537    323.23188  0.022372085  0.022091539            9 
 1205000   0.76018951   -7.2904789    324.17816   0.02241896  0.022075892            5 
 1206000   0.76789787   -7.2885148    324.78445  0.022442264  0.022060339            7 
 1207000   0.78215945   -7.3059175    324.24282  0.022386276  0.022044798           23 
 1208000   0.78429242   -7.2845707    324.52184  0.022386992  0.022029246            8 
 1209000   0.76339045   -7.2948074    324.36476  0.022357648  0.022013779            9 
 1210000    0.7759045   -7.2653304    324.35057  0.022338193  0.021998254            5 
 1211000   0.77613687   -7.2980116    324.18176  0.022308131  0.021982653            8 
 1212000   0.76585167    -7.303033    323.95169  0.022273906  0.021967067           11 
 1213000    0.7682535   -7.3119479    324.12894   0.02226772  0.021951411            6 
 1214000   0.77926191   -7.3124145    323.36192  0.022196727   0.02193575            9 
 1215000   0.76373647   -7.3086478    324.35124  0.022246313  0.021920093           17 
 1216000    0.7556519   -7.3239537    323.87535  0.022195405  0.021904425           12 
 1217000   0.77310887   -7.3139941    324.28094   0.02220494  0.021888816            5 
 1218000    0.7683989   -7.3113817    324.42124  0.022196308  0.021873298            3 
 1219000   0.78848063   -7.3210932     324.2498   0.02216638  0.021857664            4 
 1220000   0.76983375   -7.3336286    324.58872   0.02217136  0.021842116           11 
 1221000   0.77195665   -7.3344468    324.78734  0.022166758  0.021826596           16 
 1222000   0.74958949   -7.3211467    324.60617  0.022136264  0.021811127            9 
 1223000   0.76271867   -7.3076478    324.93243  0.022140394  0.021795561            3 
 1224000   0.75273294   -7.3355159    324.75078  0.022109939  0.021780058            4 
 1225000   0.75736657   -7.3344219    324.63004  0.022083676  0.021764478           12 
 1226000   0.76883757   -7.3363102    324.73475  0.022072781  0.021748842            7 
 1227000   0.75676715   -7.3270666    325.29584  0.022092899  0.021733221            6 
 1228000   0.76000774   -7.3342182    325.24871  0.022071709  0.021717648            4 
 1229000   0.74761514   -7.3230464     325.5349  0.022073156  0.021702131            5 
 1230000   0.77318593     -7.30396    325.42384  0.022047685  0.021686669            6 
 1231000   0.76233147   -7.3163213    326.10239   0.02207571  0.021671169            6 
 1232000    0.7660621   -7.3183319    325.98087  0.022049572  0.021655726            4 
 1233000   0.75342554   -7.3383182    324.98522  0.021964397  0.021640273           10 
 1234000   0.76113345   -7.3541464    324.99172  0.021947037  0.021624748            6 
 1235000   0.76016189   -7.3502092    324.89632  0.021922829  0.021609143            5 
 1236000   0.76233718   -7.3481678    324.83374  0.021900872  0.021593608           20 
 1237000   0.78281743   -7.3305735    326.21642  0.021976315  0.021578076            8 
 1238000   0.75125314   -7.3245986    325.89774  0.021937112  0.021562579            4 
 1239000   0.75631627    -7.321288    325.87291  0.021917737  0.021547123            6 
 1240000   0.74948055   -7.3316146     326.0529  0.021912157  0.021531602            6 
 1241000   0.74765019   -7.3313907    325.58782   0.02186327    0.0215161           11 
 1242000   0.75047859   -7.3337017    325.17948  0.021818269   0.02150064            5 
 1243000   0.75290423   -7.3303975    325.65964  0.021832907  0.021485199            9 
 1244000   0.76161667   -7.3297963    325.65243  0.021814873  0.021469746            5 
 1245000   0.76495357   -7.3266534    325.50599   0.02178755  0.021454347            3 
 1246000   0.76017156   -7.3093841     325.9022  0.021796562  0.021438836            6 
 1247000   0.77350757   -7.3557215     325.9165  0.021780039  0.021423326            7 
 1248000   0.74772317   -7.3504294    326.21444  0.021782481  0.021407818            8 
 1249000    0.7615676   -7.3428149    325.89986  0.021744053  0.021392407            5 
 1250000   0.74410865   -7.3515599    326.44914  0.021763276  0.021377039            3 
 1251000   0.74351732   -7.3380755    326.65771  0.021759773  0.021361668            5 
 1252000   0.74390864   -7.3431911    326.17255  0.021710101  0.021346301            6 
 1253000   0.74695097    -7.329231    326.42246  0.021709395  0.021330947            9 
 1254000   0.74192177   -7.3392241    326.34862  0.021687176  0.021315532            6 
 1255000   0.76353291   -7.3275624    327.02796  0.021715004  0.021300149            8 
 1256000   0.74287713   -7.3755585    326.88435  0.021688187  0.021284831            6 
 1257000   0.76080088   -7.3535486    326.85245  0.021668818  0.021269512           12 
 1258000   0.75281352   -7.3257073    326.89781  0.021654598   0.02125424            6 
 1259000   0.74499063   -7.3577155    326.27961   0.02159648  0.021238954            8 
 1260000   0.73797487   -7.3642027    327.08989  0.021632929  0.021223665            4 
 1261000   0.74301754     -7.38234    326.54129  0.021579519  0.021208427           22 
 1262000   0.75269837   -7.3597007    327.01684  0.021593822   0.02119313            5 
 1263000   0.73443087    -7.347875    325.70386  0.021490094  0.021177848           10 
 1264000   0.75441585   -7.3474563    326.99801  0.021558413  0.021162647            5 
 1265000   0.74610798   -7.3631414    326.98124  0.021540266  0.021147434           14 
 1266000   0.74481281   -7.3684286    327.02624  0.021526214  0.021132213           12 
 1267000   0.74831849   -7.3515824    327.08172  0.021512873  0.021117007           11 
 1268000   0.74812418   -7.3623889    327.19948  0.021503646  0.021101794            6 
 1269000   0.75031588   -7.3631758    326.89954  0.021467004   0.02108657            8 
 1270000   0.74503453   -7.3475601    327.32603  0.021478086  0.021071335           12 
 1271000   0.75364663   -7.3802401    327.71843  0.021486915  0.021056144           21 
 1272000    0.7299063   -7.3639017     327.9928  0.021487998  0.021040943           15 
 1273000   0.73430396   -7.3684927    327.01867  0.021407349  0.021025676           11 
 1274000    0.7539533   -7.3830519    328.04456   0.02145765  0.021010428            5 
 1275000   0.73524504   -7.3773864    327.50489  0.021405549  0.020995151           18 
 1276000   0.74051285   -7.3749504    327.39773  0.021381774  0.020979892            7 
 1277000   0.74388339   -7.3782842    328.01697   0.02140544  0.020964711            6 
 1278000   0.74389645   -7.3995447    326.52929  0.021291686  0.020949518            5 
 1279000   0.75043473    -7.398447    328.57402  0.021408263  0.020934312            4 
 1280000   0.73261473   -7.3577085    327.88719  0.021346822  0.020919184            5 
 1281000   0.74886327    -7.388455    327.20031  0.021285474  0.020904062            7 
 1282000   0.74010402    -7.376949     328.0401  0.021323459  0.020888869            8 
 1283000   0.73051094    -7.356177    328.12349  0.021312256  0.020873713            7 
 1284000   0.72315378   -7.3839776    327.40262  0.021248872  0.020858557           11 
 1285000   0.74420528   -7.3968547    327.37629  0.021230628  0.020843369            5 
 1286000   0.72492015   -7.3813815    328.00687  0.021254981  0.020828153            5 
 1287000   0.72767695   -7.3826274    327.50134  0.021205733  0.020812904            8 
 1288000   0.73869393   -7.4021632     327.7473  0.021205182  0.020797638           10 
 1289000   0.73880114   -7.3965457    327.99994  0.021205064  0.020782388            7 
 1290000   0.72379484   -7.4030874    327.71456  0.021170191  0.020767186            8 
 1291000   0.72833328   -7.3896789    327.85531  0.021162878  0.020752064            5 
 1292000    0.7375834   -7.3704268    328.66527   0.02119874  0.020736936            7 
 1293000   0.74648594   -7.3853423    328.14635  0.021148901  0.020721841           10 
 1294000   0.73840802   -7.3739754    328.44688  0.021151912  0.020706756            7 
 1295000    0.7296745   -7.3807899     328.3083   0.02112666  0.020691622           10 
 1296000   0.75813872   -7.3693496    328.44036   0.02111885  0.020676518            6 
 1297000   0.72878941   -7.3612697    328.32982  0.021095465  0.020661529            6 
 1298000   0.75326582   -7.3761958    328.40684  0.021084157  0.020646478            5 
 1299000   0.72414394   -7.3780598    328.74479  0.021089607  0.020631437            5 
 1300000   0.74021684   -7.3702486    328.29376  0.021044472   0.02061639            6 
 1301000   0.75371806   -7.3820648    328.69042  0.021053704   0.02060138            4 
 1302000   0.74584661   -7.3725534    328.84422  0.021047377  0.020586391            7 
 1303000   0.74712207   -7.3665149     328.3216    0.0209978  0.020571442            6 
 1304000   0.73746622   -7.3617416    329.23719  0.021040209  0.020556503            4 
 1305000   0.73509577     -7.39776    328.93887  0.021005036  0.020541553            4 
 1306000   0.72107052   -7.3861965    328.92372  0.020987986  0.020526633            6 
 1307000   0.72565995   -7.3911263    328.92457  0.020971982  0.020511707            7 
 1308000   0.73933572   -7.3663476    328.70584  0.020942013  0.020496729            9 
 1309000     0.725591   -7.3921103    328.18487  0.020892849  0.020481761           10 
 1310000    0.7303329   -7.3887573    329.73753   0.02097567   0.02046679            9 
 1311000   0.72919134   -7.3774477    328.93552   0.02090869  0.020451891            4 
 1312000   0.72606055   -7.3798164    329.08879  0.020902489  0.020436979           14 
 1313000    0.7352777   -7.3746086     329.2289  0.020895462  0.020422063            4 
 1314000   0.73689926   -7.4138207    329.51773  0.020897878  0.020407153           21 
 1315000   0.74155698   -7.4122645    329.57179  0.020885411  0.020392278            4 
 1316000   0.72630295   -7.4144164    329.46266   0.02086263  0.020377363            8 
 1317000   0.73304424   -7.3952284     329.1503  0.020827025  0.020362524            5 
 1318000   0.71985217    -7.391519    330.18041  0.020876354   0.02034772            5 
 1319000   0.71361771   -7.4144736     329.4758   0.02081601  0.020332931            8 
 1320000   0.72246722   -7.3943384    330.04033  0.020835879  0.020318113           14 
 1321000   0.73107491   -7.3983367    329.27753  0.020771986  0.020303279            9 
 1322000   0.72828008   -7.4411501    329.67591  0.020781386  0.020288477            7 
 1323000   0.72749711    -7.381599    329.80196  0.020773618   0.02027367            6 
 1324000   0.73230958   -7.4250061    329.93866  0.020766532  0.020258813            8 
 1325000   0.72499582   -7.4145681     330.0512  0.020757937  0.020243982            8 
 1326000   0.70792338   -7.4101139    329.59891  0.020713858  0.020229131            7 
 1327000   0.71215226   -7.4004989    329.71526  0.020705555  0.020214259            9 
 1328000   0.72390305   -7.4210762    329.27161  0.020662124  0.020199442           10 
 1329000   0.71919094   -7.4143063    330.07827  0.020697158  0.020184538            6 
 1330000   0.71999115   -7.4047206    329.36828  0.020637111  0.020169683           11 
 1331000    0.7306127   -7.4274732    329.19479  0.020610743  0.020154825           12 
 1332000   0.73701718   -7.3911448    329.73919  0.020629329   0.02013996            8 
 1333000   0.72940908   -7.4256763    329.97008  0.020628287  0.020125198            7 
 1334000   0.71673841   -7.4232091    329.44608   0.02058009  0.020110435            8 
 1335000   0.72036942   -7.4208006    330.29624  0.020617743  0.020095645            7 
 1336000   0.73566208    -7.400274    330.40507  0.020609099  0.020080867            9 
 1337000   0.70291354   -7.4277514     330.2949  0.020586818  0.020066143            4 
 1338000   0.73333043   -7.4114143    330.02383  0.020554548  0.020051359            7 
 1339000   0.71425537   -7.4332136    330.01315  0.020538533  0.020036612           16 
 1340000   0.71917786   -7.4009736    330.83835  0.020574524  0.020021907            7 
 1341000   0.73168507   -7.4050797    330.23587  0.020521742   0.02000718            5 
 1342000   0.71354184   -7.4113919    330.04789  0.020494777  0.019992436            5 
 1343000   0.71789876   -7.4195005    330.05104  0.020479712  0.019977645            4 
 1344000   0.71854002   -7.4302923    329.80465  0.020449197  0.019962877            5 
 1345000   0.71485662   -7.4107978     329.6386  0.020423705  0.019948008            6 
 1346000   0.71286099   -7.4164504     329.5132  0.020400768  0.019933143            5 
 1347000   0.70218929   -7.4282252    330.12493  0.020423467   0.01991837            6 
 1348000   0.70916149   -7.4418483    329.60192  0.020375984  0.019903606            7 
 1349000   0.72841065   -7.4184951    329.93416  0.020381403  0.019888872            7 
 1350000    0.7176699   -7.4088592    330.40609  0.020395438  0.019874085            6 
 1351000   0.71668594   -7.4065951    330.03254  0.020357299  0.019859339            6 
 1352000   0.72125334   -7.4258363    329.41681  0.020304291  0.019844592            5 
 1353000   0.71071579   -7.4105464    330.50613  0.020356377  0.019829887            5 
 1354000     0.706224   -7.4290978    330.74498  0.020356043  0.019815184            6 
 1355000   0.70699441   -7.4255892    330.85434  0.020347746  0.019800453            7 
 1356000   0.70267026   -7.4154788     330.3797   0.02030357  0.019785753           10 
 1357000   0.71310456   -7.4063719    329.77172  0.020251272  0.019771015            3 
 1358000   0.69840079   -7.4279736    330.09125  0.020255968  0.019756297            4 
 1359000   0.71070986   -7.4262237     330.2367  0.020249982  0.019741606           10 
 1360000   0.70889181   -7.4468643    330.11601  0.020227697  0.019726908           12 
 1361000   0.69528194   -7.4543791     329.8645  0.020197434  0.019712219            5 
 1362000    0.7115755   -7.4370399    329.02168  0.020131038  0.019697486            5 
 1363000   0.73186617   -7.4289381    330.23987  0.020190748  0.019682789            6 
 1364000   0.70343836   -7.4324962    330.19462   0.02017318  0.019668105            6 
 1365000   0.70139556   -7.4620544    330.43773  0.020173244  0.019653451            8 
 1366000   0.70790229   -7.4693808    330.06818  0.020135931  0.019638739           12 
 1367000   0.70551429   -7.4435928    329.81573  0.020105811  0.019624048            6 
 1368000   0.70421579   -7.4467708    330.33658  0.020122843  0.019609396            6 
 1369000   0.69072058   -7.4380443    329.76988  0.020073647  0.019594695            9 
 1370000   0.70222959   -7.4484484    329.49704  0.020042399  0.019579975           14 
 1371000   0.70912562   -7.4470691    329.99076   0.02005779  0.019565291           12 
 1372000   0.71033779   -7.4756876    330.97596   0.02010301   0.01955062           13 
 1373000   0.69529324   -7.4663669    329.85106  0.020020094  0.019535904            5 
 1374000    0.7145521   -7.4530313    329.60054  0.019990329   0.01952118            9 
 1375000   0.69989821   -7.4466623    330.39957  0.020024217  0.019506534            9 
 1376000    0.6959233   -7.4296669    330.63094  0.020023676  0.019491897           11 
 1377000   0.70698576   -7.4517384    329.23798  0.019924835  0.019477224            7 
 1378000   0.69871148   -7.4376507    329.98839  0.019955757  0.019462515            5 
 1379000   0.68322617   -7.4647733    329.46956  0.019909932  0.019447807           11 
 1380000    0.6947941    -7.452311    330.01722  0.019928576  0.019433111           13 
 1381000   0.69400398    -7.430695    330.38431  0.019936297  0.019418452            9 
 1382000   0.68974274   -7.4560256    330.00125  0.019898773  0.019403803           10 
 1383000   0.70610671   -7.4709792    330.89382  0.019938167  0.019389214            4 
 1384000    0.6892064   -7.4510173    330.06087  0.019873607  0.019374598           15 
 1385000   0.72008712   -7.4497059    331.38611  0.019938996  0.019360085            7 
 1386000   0.69318604   -7.4433352     330.0406  0.019843711  0.019345512            7 
 1387000   0.69482591    -7.465815    330.20134  0.019839062  0.019330934           21 
 1388000   0.68325247   -7.4854847    330.00765  0.019813139  0.019316308            7 
 1389000   0.69497625   -7.4458918    330.29907  0.019816359  0.019301773            5 
 1390000    0.6968469   -7.4558939     330.1048  0.019790456  0.019287293           10 
 1391000   0.68515643    -7.452768    329.74295   0.01975455  0.019272744            6 
 1392000   0.70046985   -7.4422476    330.50235   0.01978582  0.019258225            9 
 1393000   0.70751196   -7.4674139    330.38845  0.019764803  0.019243665           12 
 1394000   0.68979464   -7.4399556    330.55706  0.019760704  0.019229151            8 
 1395000   0.69801166   -7.4639976    330.48745   0.01974238  0.019214582           13 
 1396000   0.69372848     -7.44141    331.09228  0.019764343  0.019200042            9 
 1397000   0.69641344    -7.481785     330.5997  0.019720813  0.019185544           14 
 1398000   0.69447585   -7.4716261    330.52202  0.019702076     0.019171           18 
 1399000   0.67893024   -7.4791655    331.08086   0.01972128  0.019156501            8 
 1400000   0.69188465   -7.4674685    330.86258  0.019694201  0.019142064            6 
 1401000   0.67106507   -7.4516626    331.39484  0.019711804  0.019127643           10 
 1402000    0.6896918   -7.4532666     331.2064  0.019686543  0.019113298           11 
 1403000   0.69615475   -7.4618226     330.7395  0.019644779  0.019098922           18 
 1404000   0.69499619    -7.467138    330.85338  0.019637546  0.019084529            8 
 1405000   0.68722285   -7.4711802    330.72397  0.019615894  0.019070173            7 
 1406000   0.69420147   -7.4866548     331.5505   0.01965093  0.019055846            8 
 1407000   0.69750054   -7.4739998    331.18429  0.019615275  0.019041516           22 
 1408000   0.68188478   -7.4910857    330.97761  0.019589111  0.019027161           18 
 1409000   0.70014064   -7.4858287    330.37865  0.019539783  0.019012743           14 
 1410000     0.679822   -7.4886459    330.63806  0.019541256  0.018998356            9 
 1411000   0.68453087   -7.5046824    330.68282  0.019530051  0.018983951           17 
 1412000   0.68222549   -7.4983235    331.39874  0.019558471  0.018969521            9 
 1413000   0.69747868   -7.4834772    331.16045  0.019530576  0.018955175            6 
 1414000   0.68838977   -7.4908915    331.33569  0.019527092  0.018940875           17 
 1415000   0.67598769   -7.5131697    332.11301   0.01955907  0.018926552           10 
 1416000   0.68820212   -7.4777514    330.97743  0.019478427   0.01891226           14 
 1417000   0.68035479   -7.4925801    331.03104  0.019467834  0.018897943           16 
 1418000   0.69139392   -7.5116218    331.66544  0.019491387  0.018883648            9 
 1419000   0.68202517   -7.5220897    331.26749  0.019454281  0.018869407           11 
 1420000   0.69187495   -7.5150349    331.84102  0.019474238  0.018855134            9 
 1421000   0.67877294   -7.4921487    332.01307  0.019470623  0.018840836            9 
 1422000   0.69540826   -7.4796499    331.95638  0.019453609  0.018826578            8 
 1423000   0.69081015   -7.4934219    330.81704  0.019373216  0.018812349            8 
 1424000   0.69346575   -7.5114798    331.49483  0.019399276  0.018798141           15 
 1425000   0.67706285   -7.5143859    331.50663  0.019386352  0.018783921           16 
 1426000   0.69063374   -7.4977992    332.05176  0.019404615  0.018769724           11 
 1427000   0.69071215   -7.5121847    330.66049  0.019309769    0.0187555            8 
 1428000   0.69617452   -7.4845695    331.68363  0.019355954  0.018741268           17 
 1429000   0.67899971   -7.5008183    331.72502  0.019344823  0.018727126           14 
 1430000   0.68028426    -7.488423    332.38286   0.01936963  0.018712991           11 
 1431000   0.67713938   -7.5104618    331.64666  0.019313223  0.018698845           13 
 1432000   0.68975657   -7.5110208    331.40432  0.019285633  0.018684716           10 
 1433000   0.67453238   -7.4988021     331.2697  0.019264346  0.018670569           17 
 1434000    0.6861005   -7.5104003    331.44523  0.019261113  0.018656409           17 
 1435000   0.68124686   -7.5102847     331.0039  0.019222061  0.018642305           12 
 1436000   0.68884635   -7.4881512    331.58117  0.019242176  0.018628222            7 
 1437000   0.67856483   -7.5013744    331.96049  0.019250783  0.018614188            6 
 1438000   0.69699726   -7.4659989    332.33704  0.019259217  0.018600216           10 
 1439000   0.68581027   -7.5048142    332.33407  0.019245661  0.018586242            9 
 1440000     0.690707   -7.5006418    332.17558  0.019223124  0.018572263            6 
 1441000   0.68135867   -7.4906396     332.1574  0.019208732  0.018558327           12 
 1442000   0.67119897   -7.4906859    331.87536  0.019179112  0.018544397            7 
 1443000   0.67604239   -7.4845869    332.41687  0.019197093  0.018530482            7 
 1444000   0.66943159   -7.4855229    332.44982  0.019185701  0.018516593            7 
 1445000   0.68152059   -7.4997946    332.41309  0.019170305  0.018502697            5 
 1446000   0.66150632   -7.4952457    332.78444  0.019178449  0.018488815            7 
 1447000   0.68960695   -7.5075366    333.25874   0.01919251  0.018474938           12 
 1448000   0.68448934   -7.5088336    332.06871  0.019110768  0.018461061           19 
 1449000   0.66249798   -7.5254545    331.99481  0.019093329  0.018447139           13 
 1450000   0.68121976   -7.5252113    331.97545  0.019079049  0.018433198           13 
 1451000   0.67274925   -7.5151385    332.20326  0.019078984  0.018419292           10 
 1452000   0.67724165   -7.5401748    332.63854  0.019090825  0.018405398           13 
 1453000   0.66717033   -7.5262647    332.20237  0.019052671  0.018391545            6 
 1454000   0.68918738   -7.5052846    332.08256  0.019032701  0.018377685            7 
 1455000   0.67628776   -7.5350731    332.26919  0.019030309  0.018363837            8 
 1456000   0.67646589    -7.532969    332.29817  0.019018897  0.018349949           10 
 1457000   0.66084431   -7.5319269    332.13932  0.018996758  0.018336094            9 
 1458000   0.66245819   -7.5319603    332.44524  0.019001214  0.018322227            6 
 1459000   0.66091579   -7.5429322    332.03015  0.018964482  0.018308357           12 
 1460000   0.67462106   -7.5396366    331.40494  0.018915807  0.018294473           11 
 1461000    0.6744776   -7.5347833    332.70749  0.018977156  0.018280631           11 
 1462000    0.6724188   -7.5126611    332.37545  0.018945249  0.018266848            8 
 1463000   0.66127413   -7.5244239    332.47082  0.018937732  0.018253059            7 
 1464000    0.6650945   -7.5184179    332.89936   0.01894919  0.018239287           10 
 1465000   0.67421667   -7.5427752    332.77952  0.018929438   0.01822551           11 
 1466000   0.66372445   -7.5497177    333.14707  0.018937419  0.018211701           12 
 1467000   0.68076093   -7.5519525    332.51137  0.018888398  0.018197944           11 
 1468000   0.67474949   -7.5629527    332.62075  0.018881741  0.018184275            7 
 1469000   0.67309899   -7.5176661    332.27487  0.018849266  0.018170607            9 
 1470000   0.66731698   -7.5367398    332.58976  0.018854295  0.018156961            9 
 1471000   0.66468462   -7.5230289     333.0058  0.018865046  0.018143328           15 
 1472000   0.66700872   -7.5275795      332.725  0.018836334  0.018129669           15 
 1473000   0.65670643   -7.5247578    332.42279  0.018806449   0.01811602            8 
 1474000   0.66688825   -7.5284326    333.27598  0.018841926  0.018102384            8 
 1475000   0.66338016   -7.5330587    333.27128  0.018828886  0.018088785           10 
 1476000   0.66871401   -7.5401693    333.54335   0.01883149  0.018075181            9 
 1477000   0.67010816   -7.5486069    332.69471  0.018770859  0.018061598           12 
 1478000   0.66681171    -7.546871    333.09224  0.018780573  0.018047992            8 
 1479000   0.66664271   -7.5542191    332.64147  0.018742477  0.018034414           10 
 1480000     0.656987   -7.5123596    332.77898  0.018737555  0.018020821            7 
 1481000   0.65644987   -7.5506246    332.93938  0.018733928  0.018007248            9 
 1482000   0.66620484   -7.5452386    332.57655  0.018700885  0.017993672           11 
 1483000   0.67001073   -7.5493325    332.99486  0.018711781  0.017980084           15 
 1484000   0.65625603   -7.5555557     332.6372  0.018679088  0.017966508           11 
 1485000   0.65700691   -7.5523222    332.32933  0.018649233  0.017952933           13 
 1486000   0.65760003   -7.5443651    332.71824  0.018658493   0.01793936           18 
 1487000   0.65290279   -7.5378491    333.25122  0.018675814  0.017925819            9 
 1488000   0.65180138   -7.5451469    333.56335  0.018680743  0.017912343           10 
 1489000    0.6557407    -7.524559    333.42448  0.018660425  0.017898865           10 
 1490000   0.67969516   -7.5507693    333.17594  0.018634001    0.0178854           36 
 1491000   0.65804873   -7.5564344    333.47471  0.018638202  0.017871953           17 
 1492000   0.65407026   -7.5702355       333.46  0.018624888    0.0178585           26 
 1493000   0.67895777   -7.5666857    334.07597  0.018646794  0.017845049            9 
 1494000    0.6542212   -7.5576086    333.40379   0.01859682  0.017831602           15 
 1495000   0.66210268   -7.5466366    333.38285  0.018583213  0.017818182            7 
 1496000   0.65917783   -7.5369307     333.0336  0.018551337  0.017804756           11 
 1497000   0.64877173   -7.5360592    332.81042  0.018526521  0.017791354            7 
 1498000   0.66376377   -7.5669446    333.05762  0.018527905  0.017777935            8 
 1499000   0.65670683   -7.5748451    333.05483   0.01851539  0.017764511           20 
 1500000   0.65356673   -7.5805522    333.66484  0.018536936  0.017751113            7 
 1501000   0.65845453   -7.5660454    333.50507  0.018515716  0.017737687           16 
 1502000   0.64890262   -7.5762897    333.27277    0.0184905  0.017724257           12 
 1503000   0.64672441   -7.5752975     333.1447  0.018471097  0.017710846           16 
 1504000   0.66089829    -7.566805    333.07063  0.018454711  0.017697491           15 
 1505000   0.64972266    -7.578986    333.29077  0.018454639  0.017684137            7 
 1506000   0.64953254   -7.5698889    333.08137  0.018430797  0.017670808            7 
 1507000   0.64053218   -7.5865321    333.43738  0.018438254  0.017657489            6 
 1508000   0.65377968   -7.5560743    334.25797  0.018471373  0.017644185           11 
 1509000    0.6445329   -7.5936253    333.53547  0.018419233  0.017630857           11 
 1510000   0.66088076   -7.5773014    332.70629  0.018361274  0.017617517           10 
 1511000   0.65781292   -7.5781341    332.87834  0.018358611  0.017604211           14 
 1512000   0.64758517   -7.5619728    332.63944  0.018333303  0.017590896           12 
 1513000   0.64736275   -7.5806123    333.56916  0.018372393  0.017577582           12 
 1514000   0.66053734   -7.5619216    333.10692  0.018334815  0.017564315           13 
 1515000   0.65350934   -7.5777754    333.69755  0.018355201  0.017551012           12 
 1516000   0.63526763    -7.543245    332.44044  0.018273991  0.017537759            6 
 1517000   0.64713391   -7.5802697    333.18074  0.018302611  0.017524507           17 
 1518000   0.64802425    -7.580217    333.75262  0.018321949  0.017511254           11 
 1519000   0.64422217   -7.5828614    333.70751  0.018307412  0.017498044           15 
 1520000   0.65264685   -7.5620571    333.82049  0.018301562  0.017484815           12 
 1521000   0.64186072   -7.5567128    333.40465  0.018266746  0.017471614           10 
 1522000   0.64812392    -7.565045    333.84133  0.018278654  0.017458444           22 
 1523000   0.64391875   -7.5595257    333.17523  0.018230205  0.017445303           11 
 1524000   0.64183515   -7.5564143    333.60001   0.01824147  0.017432144           10 
 1525000   0.64608405   -7.5627013     333.4091  0.018219077  0.017418972           12 
 1526000   0.64803732   -7.5857248    333.70855   0.01822349  0.017405808           16 
 1527000   0.65422753   -7.5893034    333.91196  0.018222657  0.017392664           13 
 1528000   0.63769548   -7.5744011    333.89091  0.018209583  0.017379573            5 
 1529000   0.65472576   -7.5692792    334.07127  0.018207503  0.017366474            4 
 1530000    0.6406113   -7.6026448    334.07794  0.018195966  0.017353368            6 
 1531000   0.66432282   -7.5816566    333.32693  0.018143203  0.017340233            7 
 1532000   0.63240166   -7.5804199    333.64754    0.0181488  0.017327095            8 
 1533000   0.63181373   -7.5776158    334.34567  0.018174912  0.017313973            9 
 1534000   0.64122586   -7.6036616    333.54309  0.018119464  0.017300833           12 
 1535000   0.63185593   -7.5856543    333.24321  0.018091379  0.017287684            6 
 1536000   0.65077885   -7.5955268    332.91379  0.018061729   0.01727455           14 
 1537000   0.63365066   -7.5950545    333.47895   0.01808062  0.017261439            9 
 1538000   0.63159929    -7.607473    333.36202  0.018062528  0.017248324           17 
 1539000   0.63811925   -7.6128974    333.30738  0.018047833  0.017235222           16 
 1540000   0.64678244   -7.5993133    332.74103  0.018005467  0.017222103           45 
 1541000   0.64082475   -7.6021958     333.4854  0.018034036  0.017208995           46 
 1542000   0.64436718   -7.5978327     332.6864  0.017979161  0.017195906           53 
 1543000   0.62408497    -7.598427    333.22991  0.017996863    0.0171828           24 
 1544000   0.62081831   -7.5994904    333.55258  0.018002622  0.017169713           13 
 1545000   0.63425434    -7.621795    333.69233  0.017998508  0.017156643            7 
 1546000   0.65094531   -7.5925182    333.85091  0.017995413  0.017143562           11 
 1547000   0.62575354   -7.6088153    333.06754  0.017941583  0.017130491           14 
 1548000   0.62016259   -7.6000886    333.43208  0.017949617  0.017117418           12 
 1549000    0.6538518     -7.62588     333.9685  0.017966887  0.017104384           12 
 1550000   0.63111167   -7.5989205    333.16648  0.017912176  0.017091334           13 
 1551000   0.63079702   -7.5960516    333.73126  0.017930973  0.017078307            9 
 1552000   0.63774669   -7.5870912    333.66191  0.017915695  0.017065326           15 
 1553000   0.64373363   -7.5982701    333.67601  0.017904916  0.017052342           17 
 1554000   0.63736694   -7.6014119    333.26301  0.017871247  0.017039356            9 
 1555000    0.6252595    -7.591316    333.85183  0.017891309  0.017026346            9 
 1556000   0.64797423   -7.6110123    333.52178  0.017862135  0.017013342           16 
 1557000   0.63920827   -7.6161431    333.39398  0.017843822  0.017000371           10 
 1558000   0.63800603   -7.5983808    333.77263  0.017852622  0.016987404           10 
 1559000   0.63343575   -7.5900134    333.82714  0.017844085  0.016974464           16 
 1560000   0.62839378   -7.6214477    333.89772  0.017836417  0.016961542           28 
 1561000   0.61880319   -7.6247257    333.79657   0.01781959   0.01694859           26 
 1562000    0.6292142   -7.6224935     332.7084  0.017750128  0.016935651           27 
 1563000   0.62451162    -7.625091    333.78682  0.017796269   0.01692273           16 
 1564000   0.61887072   -7.5944178    333.38766  0.017763622  0.016909845           25 
 1565000   0.63768813    -7.629848     333.4352  0.017754803  0.016896948           25 
 1566000   0.62586954   -7.6239344    333.47582  0.017745627  0.016884075           21 
 1567000   0.63504785   -7.6336077    334.05549  0.017765129  0.016871177            6 
 1568000   0.63335019   -7.6234886    333.42909  0.017720509  0.016858316           15 
 1569000   0.61509971    -7.628182    333.29969  0.017702341  0.016845466           10 
 1570000   0.63134398   -7.6141712    333.64031  0.017709146  0.016832608           20 
 1571000   0.64062253   -7.5941637    334.03173  0.017718636  0.016819788           14 
 1572000   0.62851363   -7.6142808    333.55577  0.017682134  0.016806967            9 
 1573000   0.62731406   -7.6273873    334.02169  0.017695576  0.016794159           17 
 1574000   0.62754743   -7.6265406    333.79021  0.017672078  0.016781355           17 
 1575000   0.63343338   -7.6287976    333.75485  0.017658987  0.016768541           15 
 1576000   0.61024663   -7.6431177    334.08673   0.01766533  0.016755733            9 
 1577000   0.61625635   -7.6403989    333.78024  0.017637933   0.01674291           12 
 1578000   0.62402545   -7.6392898    333.91651  0.017633952  0.016730123           22 
 1579000   0.62058942   -7.6357624    334.16432  0.017635862  0.016717332           14 
 1580000   0.62620855      -7.6362    333.87588  0.017609487  0.016704546           12 
 1581000   0.63432444   -7.6343183    333.52415   0.01757981  0.016691743           16 
 1582000   0.63638999   -7.6515427    333.25923  0.017554743  0.016678927           12 
 1583000   0.61328248   -7.6494196    333.25228  0.017543287  0.016666103           12 
 1584000   0.62645123   -7.6349227    333.69138  0.017555313  0.016653311           23 
 1585000   0.62288488   -7.6579201    333.47432  0.017532824  0.016640553           20 
 1586000    0.6288613   -7.6491614    333.77311  0.017537469  0.016627785           16 
 1587000   0.62128139   -7.6540265    332.89905  0.017480521  0.016615009           20 
 1588000   0.61318238   -7.6356751    333.43862  0.017497829  0.016602272            9 
 1589000   0.61287291   -7.6425118    333.42472  0.017486088  0.016589529           10 
 1590000   0.61544785   -7.6462053    332.92384  0.017448839  0.016576822           11 
 1591000     0.627545   -7.6457301     333.2631  0.017455641  0.016564103           14 
 1592000   0.60905606   -7.6548315    333.31689  0.017447492   0.01655138           11 
 1593000   0.61181653   -7.6670091    333.43817  0.017442884  0.016538674           13 
 1594000   0.61146764   -7.6539399     333.1984  0.017419406  0.016525978           12 
 1595000    0.6260638   -7.6714574    333.74197  0.017436885  0.016513263           17 
 1596000   0.61654411   -7.6367051    333.84891  0.017431543  0.016500591           12 
 1597000   0.61030183   -7.6504576    333.60346   0.01740782   0.01648793           17 
 1598000   0.61903818   -7.6673189    333.79653  0.017406995  0.016475293            9 
 1599000   0.62088394   -7.6646714    333.35214  0.017372949  0.016462645            9 
 1600000    0.6159293   -7.6596974    333.98255  0.017394925  0.016450034           16 
 1601000   0.60352653   -7.6813434    332.70203  0.017317407  0.016437418           14 
 1602000   0.61863706   -7.6619271    334.00807  0.017374535  0.016424818            9 
 1603000   0.62755375   -7.6604807      333.554  0.017340091  0.016412221            7 
 1604000   0.59692597     -7.65386    333.49052  0.017325983  0.016399663           15 
 1605000   0.61612878   -7.6679405    333.39269  0.017310109  0.016387109           11 
 1606000   0.59826891   -7.6616071    333.79058  0.017319976  0.016374556            9 
 1607000   0.62464246   -7.6834847    333.85369  0.017312471  0.016362018           11 
 1608000   0.60910114    -7.660909    333.55086   0.01728601  0.016349463           12 
 1609000   0.60827327   -7.6566214    333.37035  0.017265918  0.016336911           14 
 1610000   0.60751985   -7.6426291    333.91175  0.017283217  0.016324392            7 
 1611000   0.59536933   -7.6729313    333.46227  0.017249238  0.016311873           11 
 1612000   0.61447176   -7.6636637     333.4765  0.017239273  0.016299355            8 
 1613000   0.61225257   -7.6663353    333.73536  0.017241959   0.01628682           11 
 1614000   0.60511279    -7.670609    333.25322  0.017206382  0.016274324           10 
 1615000   0.59615078    -7.662694    333.85739  0.017226904  0.016261834           12 
 1616000   0.60163277   -7.6891222    333.81149  0.017213877   0.01624935           17 
 1617000   0.60109225   -7.6755932    333.14144  0.017168699  0.016236858           12 
 1618000   0.62074986   -7.6410937    333.65741  0.017184663  0.016224374           10 
 1619000   0.61169047   -7.6813994    333.13809  0.017147318  0.016211889           23 
 1620000   0.58681874   -7.6547905    333.44068  0.017152299  0.016199441           23 
 1621000   0.61351607   -7.6718469    333.66687  0.017153345  0.016186978            9 
 1622000   0.60964599   -7.6815619    333.55526  0.017137036  0.016174549           20 
 1623000   0.59403366    -7.659137    333.24163  0.017110373  0.016162096           17 
 1624000   0.59515212   -7.6652248     333.3672  0.017106281  0.016149664           18 
 1625000   0.60692871    -7.684889    333.27812  0.017091186  0.016137223           15 
 1626000   0.60062675   -7.7006657    333.18066   0.01707568   0.01612479           14 
 1627000   0.60976791   -7.6890429    333.50202  0.017081644   0.01611237           26 
 1628000   0.61002512    -7.686659    333.05459  0.017048249  0.016099946           19 
 1629000   0.59930951   -7.6904908    333.10347  0.017040284  0.016087524           20 
 1630000   0.60227592   -7.6819536    333.12363   0.01703086   0.01607513           32 
 1631000   0.60947192   -7.7114717    333.50178  0.017039739  0.016062737           41 
 1632000   0.58364095    -7.700167     333.2051  0.017014149  0.016050347           25 
 1633000   0.60225705   -7.6930521    333.63091   0.01702546  0.016037975           19 
 1634000   0.59611986    -7.700226    333.37811  0.017002148   0.01602561           10 
 1635000   0.58838333   -7.6693824    333.89282  0.017017983  0.016013261           19 
 1636000   0.59899795   -7.6729127    333.18449    0.0169715  0.016000929           11 
 1637000   0.61035044   -7.6817213    333.28203  0.016966098  0.015988598           24 
 1638000    0.5873828   -7.7044838    333.05348  0.016944113  0.015976277           20 
 1639000   0.60702383   -7.6742266    333.15502  0.016938937  0.015963991           19 
 1640000   0.59090577   -7.6936856    333.01406  0.016921446  0.015951702           10 
 1641000   0.61044648   -7.6925548    333.79413  0.016950748  0.015939422           16 
 1642000    0.5993088   -7.7074072    333.30274  0.016915486  0.015927148           24 
 1643000   0.60328225   -7.7171233     333.9856  0.016939826  0.015914891           15 
 1644000   0.58672735   -7.6742251    332.89266  0.016874121  0.015902628           15 
 1645000   0.59681278   -7.6868618    333.57884  0.016898624   0.01589039           15 
 1646000   0.59712615   -7.6990171    332.88556  0.016853258  0.015878118           20 
 1647000   0.58600298   -7.7175257    332.84793  0.016841122  0.015865853           14 
 1648000   0.59884954   -7.6944526    332.92023  0.016834559  0.015853586           31 
 1649000   0.59593159   -7.6922136    333.14237  0.016835576  0.015841357           22 
 1650000   0.59102857   -7.6942001    332.91083  0.016813678  0.015829143           25 
 1651000   0.59134272    -7.703077    333.00825  0.016808411  0.015816922           26 
 1652000   0.59906445    -7.710312    333.71594  0.016833935  0.015804724           42 
 1653000   0.60371845    -7.693943    333.14937  0.016795189  0.015792543           23 
 1654000   0.58641206   -7.6945539    333.40535  0.016797932  0.015780386           13 
 1655000   0.58616633   -7.6968582    333.31956  0.016783462  0.015768239           20 
 1656000   0.60078002   -7.7080197    332.98504  0.016756493  0.015756072           38 
 1657000   0.58546479   -7.7203602    333.64307  0.016779475  0.015743906           25 
 1658000   0.58688181   -7.7229901    333.21358  0.016747768  0.015731739           21 
 1659000   0.58805363    -7.695817    333.45972  0.016750036   0.01571956           21 
 1660000   0.58777363    -7.693378    333.05236  0.016719496  0.015707408           20 
 1661000   0.59068981   -7.7032853    333.78484  0.016746179  0.015695278           16 
 1662000   0.59229179   -7.6944801    332.82227  0.016687839  0.015683125           31 
 1663000   0.57599924   -7.7138377    333.04336  0.016688883  0.015671036           48 
 1664000   0.59557885   -7.7152316    332.82322   0.01666783  0.015658926           25 
 1665000    0.5905792   -7.7238902    332.61144  0.016647219  0.015646801           21 
 1666000   0.58449957   -7.7174956    332.84533  0.016648926  0.015634665           21 
 1667000   0.58071231   -7.7103844    332.58454  0.016625902  0.015622566           23 
 1668000   0.58229662   -7.7187768    332.91554  0.016632471  0.015610489           32 
 1669000   0.57320751   -7.7064631    333.44835  0.016649109  0.015598411           31 
 1670000   0.58584213   -7.7038461    333.44156    0.0166388  0.015586338           28 
 1671000   0.57744547   -7.7136256    332.77946  0.016595824  0.015574307           28 
 1672000   0.58645418   -7.7262856    333.13831  0.016603783  0.015562251           19 
 1673000     0.570922   -7.7041671     332.7531  0.016574671  0.015550204           36 
 1674000    0.5882031    -7.713895     333.0138  0.016577748  0.015538168           19 
 1675000   0.57845169   -7.7083838    332.82907   0.01655866  0.015526137           36 
 1676000    0.5883215   -7.6941366    332.96704   0.01655564  0.015514131           24 
 1677000   0.57953778    -7.716039    332.85591  0.016540246   0.01550212           34 
 1678000   0.57779624    -7.724964    333.33342  0.016554103  0.015490144           43 
 1679000    0.5825204   -7.7085595     332.9173  0.016523591  0.015478168           35 
 1680000   0.58552838   -7.7190701    332.87994  0.016511902  0.015466185           24 
 1681000   0.58111706   -7.7165044    332.58459  0.016487438  0.015454218           41 
 1682000   0.57495817   -7.7320856    333.10478  0.016503408  0.015442241           43 
 1683000   0.58724222    -7.747746     333.1552  0.016496098  0.015430274           21 
 1684000   0.58405894    -7.714103    333.08835  0.016482994  0.015418331           32 
 1685000   0.58637197   -7.7020298     333.2075  0.016479105  0.015406392           25 
 1686000   0.57710556   -7.7185972    332.40811   0.01642982  0.015394457           40 
 1687000   0.57450706   -7.7292509    332.80186  0.016439531  0.015382517           49 
 1688000   0.57192064   -7.7106636      332.923  0.016435772  0.015370602           37 
 1689000   0.58234018   -7.7458253    332.60161  0.016410184  0.015358671           25 
 1690000   0.57475423    -7.732737    332.91708  0.016416029  0.015346759           23 
 1691000   0.58433997   -7.7409671    332.57476  0.016389452   0.01533485           24 
 1692000   0.58066127   -7.7451858    333.22219  0.016411652  0.015322959           33 
 1693000    0.5657272   -7.7308542    332.99764  0.016390906  0.015311089           17 
 1694000   0.56854465   -7.7313769    332.40557  0.016352104  0.015299214           17 
 1695000   0.57057468   -7.7218862     333.0692  0.016375084  0.015287356           19 
 1696000   0.58599405   -7.7399503    332.43655  0.016334343  0.015275503           20 
 1697000   0.57532093   -7.7297538     332.4922   0.01632745  0.015263664           22 
 1698000   0.56756411   -7.7362458    332.93423  0.016339528  0.015251845           14 
 1699000   0.57827679   -7.7310017    333.52166  0.016358724  0.015240049           15 
 1700000   0.57298234    -7.752932    332.70227  0.016308935  0.015228256           16 
 1701000     0.575927   -7.7315625    333.10129  0.016318895  0.015216456           12 
 1702000   0.56465153   -7.7432816    333.58517  0.016332999   0.01520466           18 
 1703000   0.56472139   -7.7541556     332.4826  0.016269456  0.015192878           15 
 1704000   0.56544906    -7.738597    333.05506  0.016287904  0.015181121           10 
 1705000    0.5719792   -7.7655215    332.42449  0.016247531  0.015169361           15 
 1706000   0.56985989   -7.7338698    332.32147  0.016232975  0.015157594           13 
 1707000   0.56984825   -7.7287904    332.69756  0.016241826  0.015145839           13 
 1708000   0.58303834   -7.7438009     332.3534  0.016215525  0.015134095           21 
 1709000   0.57565742    -7.753865    332.59117  0.016217631  0.015122344           17 
 1710000   0.56947546   -7.7537818    332.51467  0.016204418  0.015110603            7 
 1711000   0.55616425   -7.7309982    332.53724  0.016196047  0.015098865           11 
 1712000   0.56509895   -7.7395456    332.70156  0.016194585  0.015087133           15 
 1713000   0.55925189   -7.7370157    332.76155   0.01618805  0.015075436           19 
 1714000   0.56734481   -7.7612624    332.90782  0.016185716  0.015063728           21 
 1715000    0.5634356   -7.7302803     332.4793  0.016155457  0.015052043           15 
 1716000   0.57181502   -7.7427771    332.50489  0.016147285  0.015040363           13 
 1717000   0.56869372   -7.7726871    332.47132  0.016136251  0.015028686           18 
 1718000   0.57283142   -7.7364143    332.66732  0.016136366  0.015017028           10 
 1719000   0.55963465   -7.7629702    332.84002  0.016135351  0.015005374           13 
 1720000   0.56753984   -7.7522409    332.91067  0.016129393  0.014993693           20 
 1721000   0.57373465   -7.7536898    333.17302  0.016132724  0.014982046           10 
 1722000   0.56551923   -7.7744578     332.2644  0.016079385  0.014970401           14 
 1723000   0.55062132   -7.7493909    332.13769  0.016063924  0.014958769           18 
 1724000    0.5545673   -7.7703223    332.25329  0.016060194  0.014947115           28 
 1725000   0.55662188    -7.767475    332.80714  0.016077639  0.014935469           19 
 1726000   0.55972944   -7.7588443    332.60665  0.016058645  0.014923847           19 
 1727000   0.55663589   -7.7653122    332.82509  0.016059887  0.014912238           18 
 1728000   0.57704854   -7.7860017    332.66211  0.016042733   0.01490061           29 
 1729000   0.56626872   -7.7664649    332.34487  0.016018164  0.014888993           15 
 1730000   0.55743979   -7.7659903     332.2706  0.016005328  0.014877392           12 
 1731000   0.56522628   -7.7455931    332.89576  0.016026178  0.014865828           19 
 1732000   0.55583232    -7.777787    331.71366  0.015960049   0.01485425           15 
 1733000   0.56654738   -7.7521819    332.27165  0.015977671   0.01484267           32 
 1734000   0.56698247   -7.7599254    332.12072  0.015961204  0.014831094           29 
 1735000   0.55318352   -7.7743409    332.55044  0.015972644  0.014819525           30 
 1736000   0.56681098   -7.7685155    332.09828  0.015941738  0.014807966           17 
 1737000   0.55576361   -7.7640295    331.72019  0.015914421  0.014796427           10 
 1738000   0.55822492    -7.779713    331.81853  0.015909979  0.014784893           16 
 1739000     0.555638   -7.7846201    332.17007  0.015917676  0.014773364           19 
 1740000   0.55487228   -7.7888949    331.62185  0.015882272  0.014761843           23 
 1741000   0.57659971    -7.770911    332.03679  0.015893011  0.014750333           13 
 1742000   0.56507379   -7.7885894    332.51857  0.015906935  0.014738825           16 
 1743000   0.56685047   -7.7896476    332.28743  0.015886758  0.014727333           28 
 1744000   0.56118543   -7.7987371    332.21607  0.015874239  0.014715846           11 
 1745000   0.55492896   -7.7636099    332.40131  0.015873988  0.014704379           11 
 1746000   0.55732762   -7.7749739    332.05217  0.015848233  0.014692924           38 
 1747000   0.54937206   -7.7824769    331.53558  0.015814519  0.014681471           25 
 1748000   0.55476738    -7.770841    332.09714  0.015832243  0.014670031           24 
 1749000   0.56138059   -7.7933862    332.13801  0.015825138  0.014658589           15 
 1750000   0.55591285   -7.7680889    332.06596  0.015812665  0.014647157           17 
 1751000   0.55324027   -7.7816929    331.99471  0.015800243  0.014635724           19 
 1752000   0.54651349    -7.804133    331.59696  0.015772306  0.014624291           28 
 1753000    0.5520794   -7.7914837    331.81625  0.015773733  0.014612883           15 
 1754000   0.56178972   -7.7930949    331.11701  0.015731519  0.014601481           16 
 1755000   0.55392943   -7.7831532    331.94734  0.015761982  0.014590079           18 
 1756000   0.55105608   -7.7932544    332.10297  0.015760392  0.014578685           13 
 1757000   0.55221334   -7.7905984    331.25255  0.015711087  0.014567292           10 
 1758000   0.55455657   -7.7952413    332.08528  0.015741623  0.014555904           23 
 1759000   0.53799415   -7.7872423    331.01445  0.015681943  0.014544528           17 
 1760000    0.5437548   -7.8062028    331.68224  0.015704652  0.014533153           21 
 1761000   0.56046537   -7.7970559    331.87041  0.015704638  0.014521785           22 
 1762000   0.55118377   -7.7998534    332.42915  0.015722151  0.014510429           19 
 1763000   0.57137199   -7.8018723    331.60981  0.015674504  0.014499096           20 
 1764000   0.54121557   -7.8018677    332.06164  0.015686963  0.014487776           28 
 1765000   0.55039696   -7.7870545    332.12864  0.015681239  0.014476467           19 
 1766000   0.55508466   -7.8027729    332.60292   0.01569474  0.014465178           16 
 1767000   0.55980001   -7.7923945    332.01775   0.01565826  0.014453894           24 
 1768000   0.54887061    -7.794663    331.78329  0.015638352  0.014442607           23 
 1769000   0.54223671   -7.7885269    332.35474  0.015656432  0.014431332           12 
 1770000   0.54809642   -7.7944872    331.77573  0.015620326  0.014420081           23 
 1771000   0.54381763    -7.796217    331.69383  0.015607653  0.014408838           13 
 1772000   0.54236911   -7.7785018    332.33278  0.015628893  0.014397603           15 
 1773000   0.55048247   -7.7981107    331.44589  0.015578393  0.014386381           26 
 1774000   0.55087423   -7.8099129    332.30066  0.015609764  0.014375157           33 
 1775000   0.53438844   -7.7943783     332.0365  0.015588568  0.014363943           15 
 1776000    0.5477989   -7.8061983    331.24288  0.015542553  0.014352724           16 
 1777000   0.53384184   -7.8048446    331.96743  0.015567784  0.014341533           29 
 1778000   0.54369293   -7.8203806    331.97011  0.015559154  0.014330356           30 
 1779000   0.54446617   -7.8166013    332.51526  0.015575944  0.014319171           16 
 1780000   0.54325646   -7.7873192    331.86651  0.015536822  0.014307998           28 
 1781000   0.55064404   -7.7930013    331.82333  0.015526078  0.014296838           17 
 1782000   0.53851685   -7.8011906    331.18101  0.015487327   0.01428567           25 
 1783000   0.54301853   -7.8138629    331.48864  0.015493019  0.014274519           39 
 1784000   0.54476591   -7.8250359    331.39826  0.015480113  0.014263363           18 
 1785000   0.53491043   -7.8164744    331.51094  0.015476701  0.014252228           28 
 1786000   0.53599119   -7.7945431     331.7785   0.01548052  0.014241106           24 
 1787000   0.54496473   -7.7988685    331.57261  0.015462256  0.014229999           29 
 1788000   0.54095956   -7.8029903    331.55187  0.015452641  0.014218902           19 
 1789000    0.5427925   -7.8342323    331.70058  0.015450931  0.014207794           27 
 1790000   0.54170219   -7.8240378    331.24726  0.015421195  0.014196697           36 
 1791000   0.52442132   -7.8162592    331.60944  0.015429436  0.014185617           20 
 1792000   0.53552682   -7.8319484    331.73138  0.015426496   0.01417455           32 
 1793000   0.53181953   -7.8118115    331.51287  0.015407737  0.014163484           31 
 1794000   0.52711203   -7.8171706    331.03037  0.015376736  0.014152435           32 
 1795000   0.54599498   -7.8137712    331.86166  0.015406763  0.014141386           33 
 1796000   0.54173121   -7.8450998    331.98869  0.015404078  0.014130352           27 
 1797000   0.54160105   -7.8100969    331.43938  0.015370033  0.014119329           15 
 1798000   0.53575406   -7.8216796    331.98797   0.01538691  0.014108314           18 
 1799000   0.54301383   -7.8181103    331.23686  0.015343564  0.014097317           20 
 1800000   0.53720228   -7.8275342    331.58297  0.015351063  0.014086311           16 
 1801000   0.52870527   -7.8162413    331.60262  0.015343449  0.014075311           25 
 1802000   0.52733616   -7.8264417    331.61177  0.015335357  0.014064327           17 
 1803000    0.5227657   -7.8070128    331.72201  0.015331947  0.014053345           23 
 1804000   0.53786262   -7.8273914    331.67006  0.015321049  0.014042385           14 
 1805000   0.53958862   -7.8221971    331.60831   0.01530971  0.014031436           35 
 1806000   0.54470108   -7.8127029    331.46902  0.015294805  0.014020516           20 
 1807000   0.51976098   -7.8177171    331.33746  0.015280274  0.014009582           21 
 1808000   0.52618123   -7.8107862    331.37991  0.015273779   0.01399865           47 
 1809000   0.52501671   -7.8158594    331.54492  0.015272937  0.013987725           26 
 1810000   0.53010287   -7.8179576     331.3436   0.01525523  0.013976807           22 
 1811000   0.53553418   -7.8109433    331.35701  0.015247424  0.013965918           23 
 1812000   0.53469183   -7.8254081    331.95959  0.015266721  0.013955029           17 
 1813000   0.53584855   -7.8109217    331.21528  0.015224089  0.013944159           17 
 1814000   0.52945255   -7.8138774    330.96348  0.015204129  0.013933281           27 
 1815000   0.53597294    -7.843111    331.25323  0.015209056  0.013922415           21 
 1816000   0.53641605   -7.8371678    331.43407  0.015208979  0.013911566           37 
 1817000   0.52648259   -7.8269608    331.35294  0.015196888  0.013900719           25 
 1818000   0.53088823   -7.8144641    331.57429  0.015198675  0.013889882           26 
 1819000   0.52408822   -7.8175425    331.51167  0.015187451  0.013879052           16 
 1820000   0.52550552   -7.8196774     330.9998  0.015155668  0.013868228           19 
 1821000   0.52763994   -7.8269556    330.79893  0.015138153  0.013857416           14 
 1822000   0.51792935   -7.8365353    331.34533  0.015154836   0.01384661           27 
 1823000   0.52618236   -7.8182792    331.42978  0.015150383  0.013835821           20 
 1824000   0.51569038   -7.8363401    331.46908  0.015143873  0.013825042           27 
 1825000   0.52158235   -7.8524813    331.37866  0.015131446  0.013814256           31 
 1826000   0.52311241   -7.8361314    331.09071  0.015110018  0.013803483           21 
 1827000   0.52374613     -7.83181    331.13155   0.01510361  0.013792719           26 
 1828000   0.52209504    -7.836233    331.26172  0.015101282  0.013781968           28 
 1829000   0.53578376   -7.8323114    330.94507  0.015078598  0.013771225           34 
 1830000   0.51761272   -7.8332425    331.10193  0.015077501  0.013760505           28 
 1831000   0.52718429   -7.8225449    331.22922   0.01507506  0.013749792           26 
 1832000   0.50794408   -7.8240854    331.83187  0.015094244  0.013739065           38 
 1833000   0.53206828   -7.8275784    330.92161  0.015044627   0.01372836           27 
 1834000   0.51820735     -7.82925    331.21254  0.015049643  0.013717666           28 
 1835000   0.51395214   -7.8297634    331.47147    0.0150532  0.013706985           39 
 1836000   0.51673751   -7.8359308    331.49073  0.015045875  0.013696305           39 
 1837000   0.51510172   -7.8431141    331.11984   0.01502086  0.013685637           27 
 1838000   0.51644178   -7.8509008    331.09423  0.015011527  0.013674979           52 
 1839000   0.50602727   -7.8544397    331.13116  0.015005037  0.013664319           28 
 1840000   0.51489049   -7.8383219    330.97785  0.014989939   0.01365368           15 
 1841000   0.52147837   -7.8707573     331.3678  0.014999448  0.013643053           31 
 1842000   0.51677132    -7.846912    331.11777  0.014979993   0.01363243           35 
 1843000   0.52384306   -7.8119264    330.88627  0.014961398  0.013621812           46 
 1844000   0.52411056   -7.8664375    330.95155  0.014956234  0.013611211           27 
 1845000   0.53281124   -7.8586603    331.49587  0.014972713  0.013600608           24 
 1846000   0.50360721    -7.837889    331.30753    0.0149561  0.013590023           24 
 1847000   0.53375667   -7.8262447    330.98465  0.014933435  0.013579457           24 
 1848000   0.50998735   -7.8343797    330.84997  0.014919281   0.01356889           32 
 1849000   0.50878611   -7.8540662    330.99699  0.014917838  0.013558323           39 
 1850000   0.52196315   -7.8436373    331.09833  0.014914339  0.013547778           27 
 1851000    0.5245827   -7.8516985    330.91119  0.014897857   0.01353724           31 
 1852000    0.5231283    -7.857547    331.08539  0.014897651  0.013526717           34 
 1853000   0.52295431   -7.8600355    331.15436  0.014892713  0.013516194           33 
 1854000   0.51287741   -7.8623631    331.07048   0.01488091  0.013505684           34 
 1855000   0.49571382   -7.8387697    331.20472  0.014878918  0.013495175           26 
 1856000   0.51166113   -7.8616235    331.29718  0.014875053  0.013484674           35 
 1857000    0.5098012   -7.8611635    330.84001  0.014846527  0.013474175           33 
 1858000   0.50158394   -7.8608854    331.20345  0.014854837  0.013463685           28 
 1859000   0.50764996   -7.8613131    330.99171  0.014837355  0.013453197           38 
 1860000   0.49716441   -7.8583015    331.16467  0.014837127  0.013442734           34 
 1861000   0.51321612   -7.8516018     330.8646  0.014815718   0.01343227           34 
 1862000   0.50893537   -7.8550701    330.39273  0.014786642  0.013421814           26 
 1863000   0.50826654   -7.8355423    330.78731  0.014796355  0.013411376           34 
 1864000   0.51854841   -7.8603889     330.3334  0.014768124  0.013400944           38 
 1865000   0.51291704   -7.8642504    331.16868  0.014797528  0.013390529           35 
 1866000   0.50828409   -7.8470361    330.70615  0.014768942  0.013380118           37 
 1867000   0.50578024   -7.8796322    330.96015  0.014772369  0.013369712           44 
 1868000   0.50590734   -7.8542611    331.03116  0.014767629  0.013359308           34 
 1869000   0.50530164   -7.8596433    330.66953  0.014743603  0.013348922           30 
 1870000   0.51086347   -7.8622354    330.90582  0.014746249  0.013338549           36 
 1871000   0.51247467   -7.8391619    331.08564  0.014746376  0.013328185           26 
 1872000   0.50136283   -7.8703758    330.43725  0.014709635  0.013317813           50 
 1873000   0.50868144   -7.8654521    330.33822  0.014697376  0.013307458           58 
 1874000   0.50401719    -7.856357    330.71973  0.014706498  0.013297114           49 
 1875000   0.50333067   -7.8529265    331.49532  0.014733125  0.013286779           30 
 1876000   0.50014684   -7.8650883    331.22482  0.014713256  0.013276455           33 
 1877000   0.50723775   -7.8524077    330.92472  0.014692094  0.013266139           30 
 1878000    0.5017508   -7.8620793      330.582  0.014669063   0.01325583           32 
 1879000   0.51079453   -7.8643305      330.927  0.014676557  0.013245531           31 
 1880000   0.51923279   -7.8697349    330.71073  0.014659163  0.013235242           34 
 1881000   0.49842785   -7.8670492    330.51749  0.014642809  0.013224966           39 
 1882000   0.50928594   -7.8633898    330.67501  0.014642004  0.013214688           33 
 1883000   0.49722328   -7.8694125     330.4035  0.014622212  0.013204418           39 
 1884000   0.49118281   -7.8778801    330.97035  0.014639524  0.013194167           39 
 1885000   0.49610021   -7.8783784    330.78643  0.014623626  0.013183924           30 
 1886000   0.50548859      -7.8758    330.49925  0.014603183  0.013173687           42 
 1887000   0.49326742   -7.8745594    330.35119  0.014588906  0.013163456           27 
 1888000   0.49220677   -7.8804367     330.5557  0.014590206  0.013153229           26 
 1889000   0.49666132   -7.8738273    330.69894  0.014588801  0.013143013           21 
 1890000   0.49169213   -7.8698675    330.65853    0.0145793   0.01313281           26 
 1891000   0.50782448   -7.8795091    330.65818  0.014571575  0.013122595           36 
 1892000   0.49321869   -7.8823549    330.71837  0.014566524  0.013112402           30 
 1893000   0.51342259   -7.8730893    330.13629  0.014533205  0.013102216           24 
 1894000   0.48678018   -7.8855393    331.00852  0.014563909  0.013092043           23 
 1895000   0.50958626   -7.8830369    330.03559  0.014513438  0.013081875           22 
 1896000   0.51363074   -7.8810083    330.72767  0.014536202  0.013071717           29 
 1897000   0.49209489    -7.882236    330.54605  0.014520561  0.013061562           31 
 1898000   0.49515884   -7.8750909      330.942  0.014530295  0.013051418           29 
 1899000   0.50077485   -7.8886997    330.21079  0.014490556  0.013041284           25 
 1900000   0.49657438   -7.8932657    330.43826  0.014492906  0.013031155           39 
 1901000   0.49275163   -7.8812304    330.00076  0.014466104  0.013021038           24 
 1902000   0.49943114   -7.9044624    330.47819  0.014479416  0.013010937           27 
 1903000   0.49626841   -7.8767149    330.59179  0.014476782  0.013000837           35 
 1904000   0.49348597   -7.8899577    330.39384  0.014460515  0.012990749           24 
 1905000   0.49580625   -7.8881788    330.61228  0.014462479  0.012980677           36 
 1906000   0.48821795   -7.8802028    330.68789  0.014458197  0.012970604           31 
 1907000    0.4847594    -7.886122     330.5451  0.014444376  0.012960553           25 
 1908000   0.50020178   -7.8914709    330.09481  0.014417139  0.012950503           26 
 1909000   0.48730217   -7.8916066    330.40436  0.014423099  0.012940468           33 
 1910000   0.49397298   -7.8837892    330.51302  0.014420289  0.012930437           29 
 1911000   0.48818464   -7.8839532    330.75911  0.014423474  0.012920411           31 
 1912000   0.49296856    -7.890618    330.63384  0.014410471  0.012910392           28 
 1913000   0.47199293   -7.8978486    330.54008  0.014398854  0.012900387           47 
 1914000   0.48309791   -7.8760205    329.93576  0.014365019  0.012890398           28 
 1915000   0.48055758   -7.9013416    330.47062  0.014380793  0.012880412           29 
 1916000    0.4890314   -7.8984301    329.91934   0.01434931  0.012870424           37 
 1917000    0.4962615   -7.8903592    329.84241  0.014338481  0.012860456           34 
 1918000   0.49056378   -7.8895986    330.55519  0.014361974  0.012850489           46 
 1919000   0.48562089    -7.909921        329.8  0.014321695  0.012840536           31 
 1920000   0.49510703   -7.9043231    329.75776  0.014312403  0.012830589           30 
 1921000   0.48804438     -7.89422    330.54137  0.014338946  0.012820656           31 
 1922000   0.48506945   -7.9037316     329.9973  0.014307895  0.012810737           26 
 1923000   0.49200723   -7.8758674    329.72922  0.014288838  0.012800823           27 
 1924000   0.47204356   -7.8935813    330.03966  0.014294857   0.01279092           28 
 1925000   0.48436334   -7.9073012    330.17773  0.014293408  0.012781017           32 
 1926000   0.47819223   -7.8967482    330.40064  0.014295632  0.012771131           39 
 1927000   0.47972043   -7.8975809    330.47916  0.014291609  0.012761259           51 
 1928000   0.48665609    -7.894853    330.04785  0.014265554  0.012751406           55 
 1929000   0.48363737   -7.9007616    330.13731  0.014262023   0.01274155           43 
 1930000   0.47840894   -7.8943171    330.25447  0.014259692  0.012731693           35 
 1931000   0.49377174   -7.9052567    330.58356   0.01426651  0.012721861           48 
 1932000   0.49342763   -7.8911122    329.61881  0.014217513  0.012712018           46 
 1933000   0.47553355   -7.9016881    330.14657   0.01423291  0.012702189           51 
 1934000   0.48414662   -7.8768887    330.03213  0.014220619  0.012692372           55 
 1935000   0.48193716    -7.905898    329.96528  0.014210391  0.012682559           37 
 1936000   0.47973829   -7.9090499    329.76019  0.014194223  0.012672752           65 
 1937000   0.47498753   -7.9119701    330.16822  0.014204449  0.012662964           46 
 1938000   0.48388882   -7.9064567    330.40039  0.014207103  0.012653184           55 
 1939000   0.47249213   -7.9078646    330.38909   0.01419929  0.012643414           28 
 1940000   0.47846166   -7.9069006    330.33375  0.014189594  0.012633638           33 
 1941000   0.46638119   -7.9176059    329.80394  0.014159537  0.012623871           28 
 1942000   0.47298645   -7.9066156    330.23137  0.014170588  0.012614115           32 
 1943000   0.47298784   -7.9132359    330.15185  0.014159884   0.01260437           32 
 1944000   0.48665163   -7.9246701    330.06787     0.014149  0.012594633           25 
 1945000   0.47830525   -7.8858021    330.03461    0.0141403  0.012584911           29 
 1946000   0.47421922   -7.8979262    330.13041  0.014137137  0.012575193           47 
 1947000   0.46026836   -7.9083469     329.9329  0.014121422  0.012565479           46 
 1948000   0.47365534     -7.92476    329.86384  0.014111218  0.012555776           18 
 1949000   0.47413199   -7.9225466     330.3736  0.014125774  0.012546082           22 
 1950000    0.4740011   -7.9125606    330.22177  0.014112042  0.012536396           31 
 1951000   0.48643199   -7.9129711    329.97308  0.014094186  0.012526712           30 
 1952000   0.46403554   -7.9014759    329.99721  0.014087996  0.012517038           23 
 1953000    0.4707389   -7.8954411    329.70849  0.014068463  0.012507364           23 
 1954000   0.47780872   -7.9114049    330.04636  0.014075672  0.012497704           31 
 1955000   0.45934625    -7.916045    330.08419  0.014070085   0.01248805           29 
 1956000   0.46553801   -7.9133938    329.27906   0.01402859  0.012478407           34 
 1957000   0.47782533    -7.906032    329.30985  0.014022732  0.012468765           22 
 1958000   0.47097284   -7.9036348    329.59436   0.01402768  0.012459139           29 
 1959000   0.47812516   -7.9118636    329.56572  0.014019301  0.012449524           40 
 1960000    0.4721783   -7.9227006    330.16844  0.014037774   0.01243992           33 
 1961000   0.45906833   -7.9040807     329.7828  0.014014227  0.012430319           28 
 1962000    0.4602881   -7.9277328    329.83857  0.014009453  0.012420728           34 
 1963000   0.47302839   -7.9183059    329.66412  0.013994911  0.012411157           30 
 1964000   0.47455135   -7.9081142    329.84442  0.013995435  0.012401585           26 
 1965000   0.46404666    -7.926517    329.88023  0.013989832   0.01239202           25 
 1966000   0.46686892   -7.9163523    329.24099   0.01395562  0.012382466           33 
 1967000   0.47016793   -7.9229668    329.78369  0.013971517  0.012372929           31 
 1968000   0.46404317   -7.9173408    329.83128  0.013966433  0.012363392           33 
 1969000   0.46551769   -7.9151051     329.7312  0.013955104  0.012353856           33 
 1970000   0.46613654    -7.909815     329.3431  0.013931603  0.012344342           67 
 1971000   0.46574695   -7.9196823    329.76109  0.013942207  0.012334836           32 
 1972000   0.47093574   -7.9213812    329.57957  0.013927467  0.012325336           40 
 1973000   0.46406908   -7.9279518    329.74434  0.013927367  0.012315844           27 
 1974000   0.46486796   -7.9272703    329.66938  0.013917147  0.012306359           41 
 1975000   0.45380934   -7.9281156    329.77728  0.013914653  0.012296874           26 
 1976000   0.47057583    -7.921947    329.64396  0.013901989  0.012287416           37 
 1977000   0.46738893   -7.9292387    329.64219  0.013894882  0.012277954           36 
 1978000   0.45786537    -7.910251    329.44854  0.013879699  0.012268501           38 
 1979000   0.45979063   -7.9368965    329.48449    0.0138742  0.012259055           34 
 1980000   0.44975935   -7.9138162    329.78888  0.013880003  0.012249616           27 
 1981000   0.45924837   -7.9209107    329.44139  0.013858379  0.012240195           37 
 1982000   0.46098574   -7.9115746    329.78574  0.013865865  0.012230777           31 
 1983000   0.46159855   -7.9281051    329.58087  0.013850263  0.012221375           37 
 1984000   0.45750779   -7.9195806    330.02833  0.013862077  0.012211975           24 
 1985000   0.45594296   -7.9393039    329.43067  0.013830003  0.012202582           26 
 1986000   0.45470563   -7.9292253    329.44588  0.013823677  0.012193198           20 
 1987000   0.46191944   -7.9172646    329.79447   0.01383134  0.012183825           40 
 1988000   0.46007373    -7.929148    329.68947  0.013819981  0.012174465           38 
 1989000   0.46927279   -7.9455019    329.13183   0.01378967  0.012165105           34 
 1990000   0.45998763   -7.9351853    329.70958  0.013806934   0.01215576           54 
 1991000   0.46091134   -7.9448789    329.61571   0.01379607  0.012146415           33 
 1992000   0.45456642   -7.9344484    329.73959  0.013794327  0.012137076           35 
 1993000   0.45746817   -7.9334522    329.32396  0.013770027  0.012127749           35 
 1994000   0.46839566   -7.9672983    329.40877  0.013766665   0.01211843           30 
 1995000   0.43669307   -7.9515113    330.11698  0.013789347  0.012109114           24 
 1996000    0.4529084   -7.9467762    329.19451  0.013743926  0.012099813           40 
 1997000   0.46258379   -7.9633426    329.57738   0.01375302  0.012090518           32 
 1998000   0.45689724   -7.9528804    329.66315  0.013749714  0.012081229           28 
 1999000   0.45935909   -7.9442091    329.06296  0.013717816   0.01207195           30 
 2000000   0.45376188   -7.9366205    329.42589  0.013726079  0.012062688           35 
 2001000    0.4471305   -7.9518638    329.58537  0.013725861  0.012053428           24 
 2002000    0.4476202   -7.9686207    329.72242   0.01372471  0.012044182           38 
 2003000   0.45498042   -7.9556652     328.9317   0.01368496  0.012034937           29 
 2004000   0.45550812   -7.9283481    329.29995  0.013693445  0.012025692           22 
 2005000   0.45207551   -7.9404081    329.30468  0.013686811  0.012016464           34 
 2006000   0.45393777   -7.9228058    329.16241  0.013674078  0.012007248           50 
 2007000   0.44894554   -7.9306242    329.72416   0.01369059  0.011998031           30 
 2008000   0.44697225   -7.9619161    329.73286  0.013684133  0.011988828           42 
 2009000   0.45146874   -7.9498119    329.41277  0.013664044  0.011979633           41 
 2010000   0.45620648    -7.950457    329.22857  0.013649609  0.011970451           36 
 2011000    0.4495528   -7.9633782    329.81969  0.013667317  0.011961278           28 
 2012000   0.44262953   -7.9365461    329.38824  0.013642654  0.011952114           32 
Loop time of 4399.9 on 48 procs for 2000000 steps with 4000 atoms

Performance: 78547.242 tau/day, 454.556 timesteps/s
99.4% CPU use with 48 MPI tasks x no OpenMP threads

MPI task timing breakdown:
Section |  min time  |  avg time  |  max time  |%varavg| %total
---------------------------------------------------------------
Pair    | 275.38     | 289.9      | 304.22     |  34.9 |  6.59
Neigh   | 28.277     | 28.919     | 29.788     |   6.2 |  0.66
Comm    | 250.53     | 269.9      | 287.67     |  42.0 |  6.13
Output  | 4.0076     | 4.0098     | 4.049      |   0.3 |  0.09
Modify  | 3744.9     | 3760.5     | 3772.6     |  10.6 | 85.47
Other   |            | 46.68      |            |       |  1.06

Nlocal:        83.3333 ave          94 max          75 min
Histogram: 4 2 9 4 10 7 6 4 1 1
Nghost:        1854.96 ave        1875 max        1819 min
Histogram: 1 0 1 2 4 11 13 4 10 2
Neighs:        11554.7 ave       13675 max        9716 min
Histogram: 2 1 10 5 7 12 5 4 1 1
FullNghs:      23107.9 ave       26294 max       20431 min
Histogram: 4 3 8 3 8 9 7 2 3 1

Total # of neighbors = 1109180
Ave neighs/atom = 277.29500
Neighbor list builds = 107598
Dangerous builds = 0

#clear
#
#next RN
#
#jump SELF
Total wall time: 1:13:22
