
units lj                  # Use reduced LJ style units
atom_style atomic         # Uncharged point particles
atom_modify map hash      # Needed for indexing of clusters etc
                          # Used to be able to find where atoms are in relation to each other.

lattice fcc 1.0 spacing 1 1 1
Lattice spacing in x,y,z = 1.5874011 1.5874011 1.5874011
region box block 0 10 0 10 0 10 units lattice
create_box 2 box
Created orthogonal box = (0.0000000 0.0000000 0.0000000) to (15.874011 15.874011 15.874011)
  3 by 4 by 4 MPI processor grid
create_atoms 1 box
Created 4000 atoms
  using lattice units in orthogonal box = (0.0000000 0.0000000 0.0000000) to (15.874011 15.874011 15.874011)
  create_atoms CPU = 0.003 seconds
set type 1 type/fraction 2 0.04 78393
Setting atom values ...
  161 settings made for type/fraction
mass 1 1.0
mass 2 1.0
pair_style lj/cut  3.5
pair_modify tail  yes
pair_coeff 1  1  1.0  1.0   # Intearaction between 1 and 1 set with epsilon = 1 and sigma = 1
pair_coeff 1  2  1.5  0.8
pair_coeff 2  2  0.5  0.88

write_data data.0
System init for write_data ...
Neighbor list info ...
  update every 1 steps, delay 10 steps, check yes
  max neighbors/atom: 2000, page size: 100000
  master list distance cutoff = 3.8
  ghost atom cutoff = 3.8
  binsize = 1.9, bins = 9 9 9
  1 neighbor lists, perpetual/occasional/extra = 1 0 0
  (1) pair lj/cut, perpetual
      attributes: half, newton on
      pair build: half/bin/atomonly/newton
      stencil: half/bin/3d
      bin: standard
WARNING: Not all mixed pair coeffs generated from mixing. Use write_data with 'pair ij' option to store all pair coeffs. (../write_data.cpp:312)


#############################
#   M E L T   S Y S T E M   #
#############################

velocity all create 2.4 9622624 mom yes dist gaussian # Assign velocities
                                                    # Temperature 2.4, random number seed, zero linear momentum
                                                                                # Gaussian distribution

timestep 0.002   # simulation timestep
thermo 1000       # output thermodynamic data every 1000 steps bf 100

# Define a fix  in this case with index 1 applied to all
# particles in the simulation. This fix is for simulations
# in the anisotropic NPT ensemble. Note that we use the MTK
# correction.
fix 1 all npt temp 2.4 2.4 0.1 iso 5.68 5.68 0.5 mtk yes tchain 5 pchain 5 # Use NPT ensemble
                                                                         # Set temperature and pressure and damping
                                                                         # Numbers of thermostats in chain and in barostat
run 10000          # run for 10000 steps
Per MPI rank memory allocation (min/avg/max) = 3.642 | 3.644 | 3.648 Mbytes
Step Temp E_pair E_mol TotEng Press Volume 
       0          2.4   -8.1195307            0   -4.5204307   -2.5632236         4000 
    1000    2.3760264    -4.467674            0  -0.90452536     5.740737    5060.9526 
    2000    2.4370677   -4.4152421            0  -0.76055441    5.9170739    5068.3564 
    3000    2.3776264   -4.4587917            0  -0.89324375    5.8461392     5055.713 
    4000    2.4074216   -4.4328119            0  -0.82258228    5.8457501    5078.2325 
    5000    2.3982085   -4.4544818            0  -0.85806843     5.703486    5082.2392 
    6000    2.3558372   -4.4476965            0  -0.91482416    5.5827057     5095.976 
    7000    2.4240906   -4.4544503            0  -0.81922348    5.7926249    5068.1808 
    8000    2.3520891   -4.4595526            0  -0.93230101    5.5893743    5090.3096 
    9000    2.3552162   -4.4851279            0  -0.95318675    5.3702072    5096.6534 
   10000    2.4123395    -4.459258            0  -0.84165332    5.5987993    5096.0052 
Loop time of 2.11315 on 48 procs for 10000 steps with 4000 atoms

Performance: 817736.537 tau/day, 4732.272 timesteps/s
99.6% CPU use with 48 MPI tasks x no OpenMP threads

MPI task timing breakdown:
Section |  min time  |  avg time  |  max time  |%varavg| %total
---------------------------------------------------------------
Pair    | 0.86254    | 0.93151    | 1.062      |   3.8 | 44.08
Neigh   | 0.16611    | 0.17428    | 0.19946    |   1.3 |  8.25
Comm    | 0.63258    | 0.74013    | 0.84997    |   4.8 | 35.02
Output  | 0.00024609 | 0.00024993 | 0.00030957 |   0.0 |  0.01
Modify  | 0.20383    | 0.25286    | 0.31401    |   6.0 | 11.97
Other   |            | 0.01412    |            |       |  0.67

Nlocal:        83.3333 ave          92 max          73 min
Histogram: 1 1 4 9 8 7 5 5 6 2
Nghost:        1403.58 ave        1426 max        1387 min
Histogram: 5 5 7 5 12 2 5 1 4 2
Neighs:        7466.79 ave        8480 max        6424 min
Histogram: 1 1 9 7 5 10 5 4 4 2

Total # of neighbors = 358406
Ave neighs/atom = 89.601500
Neighbor list builds = 906
Dangerous builds = 217

# Equilibrate just above the melting temperature to avoid step fn in T

fix 1 all npt temp 1.25 1.25 0.1 iso 5.68 5.68 0.5 mtk yes tchain 5 pchain 5
run 2000
Per MPI rank memory allocation (min/avg/max) = 3.643 | 3.645 | 3.648 Mbytes
Step Temp E_pair E_mol TotEng Press Volume 
   10000    2.4123395    -4.459258            0  -0.84165332    5.5987993    5096.0052 
   11000    1.2470648    -5.975815            0   -4.1056855    5.7986215    4195.4647 
   12000    1.1953089   -5.9745124            0   -4.1819973    5.5860479    4209.6169 
Loop time of 0.45248 on 48 procs for 2000 steps with 4000 atoms

Performance: 763790.298 tau/day, 4420.083 timesteps/s
99.6% CPU use with 48 MPI tasks x no OpenMP threads

MPI task timing breakdown:
Section |  min time  |  avg time  |  max time  |%varavg| %total
---------------------------------------------------------------
Pair    | 0.19842    | 0.21319    | 0.2335     |   1.4 | 47.12
Neigh   | 0.030271   | 0.031767   | 0.033916   |   0.4 |  7.02
Comm    | 0.13018    | 0.15485    | 0.16955    |   1.9 | 34.22
Output  | 4.9823e-05 | 5.1115e-05 | 6.4436e-05 |   0.0 |  0.01
Modify  | 0.043632   | 0.048119   | 0.053536   |   1.2 | 10.63
Other   |            | 0.004506   |            |       |  1.00

Nlocal:        83.3333 ave          91 max          74 min
Histogram: 2 0 4 7 10 6 2 10 3 4
Nghost:        1582.48 ave        1605 max        1563 min
Histogram: 7 4 4 5 3 6 10 2 4 3
Neighs:        9055.17 ave       10177 max        7851 min
Histogram: 1 1 6 6 12 7 3 6 3 3

Total # of neighbors = 434648
Ave neighs/atom = 108.66200
Neighbor list builds = 141
Dangerous builds = 12

#############################
# L I N E A R  Q U E N C H  #
#############################

# Define solid atoms. This closely follows ten Wolde  Ruiz-Montero and Frenkel  Faraday Discuss  1996  104  93-110
# Compute components of the per-atom q6 vector
compute q6 all orientorder/atom degrees 1 6 components 6 nnn NULL cutoff 1.3 # compute the Q6 parameter.
                                                                             # Use all neighbours within 1.3 unit cell.

# get number of connections
compute coord_number all coord/atom orientorder q6 0.5

# An atom is solid if it has 8 or more connections (of a possible 14)
variable is_solid atom c_coord_number>=8
group solid dynamic all var is_solid    # Must be dynamic to update
dynamic group solid defined

# do clustering
compute cluster solid cluster/atom 1.3 # Create a cluster where all atoms within are solid and max 1.3 units from another member

# define chunks one chunk per cluster
compute clus_chunks solid chunk/atom c_cluster nchunk every compress yes  # Says which atoms are in which chunk

# count the size of each chunk
compute size_chunks solid property/chunk clus_chunks count


# Find the maximum entry in the vector of chunk sizes
variable max_n equal max(c_size_chunks)


# Thermo style which includes this variable
# thermo_style custom step temp pe vol v_max_n

thermo ${N}  # Print the thermo information every 100 steps
thermo 1000  

# Reset the npt fix at a lower temperature (below freezing)
fix 1  all npt temp  ${temp} ${temp}  0.1  iso  5.68  5.68  0.5  mtk yes tchain  5  pchain  5
fix 1  all npt temp  0.45 ${temp}  0.1  iso  5.68  5.68  0.5  mtk yes tchain  5  pchain  5
fix 1  all npt temp  0.45 0.45  0.1  iso  5.68  5.68  0.5  mtk yes tchain  5  pchain  5

dump dmp2 all dcd ${N} traj.dcd
dump dmp2 all dcd 1000 traj.dcd


compute msd all msd com yes
variable twopoint equal c_msd[4]/6/(step*dt+1.0e-6)
fix 9 all vector 10 c_msd[4]
variable fit equal slope(f_9)/6/(10*dt)
thermo_style custom step temp pe c_msd[4] v_twopoint v_fit v_max_n

fix 1 all npt temp 1.25 ${temp} 0.1 iso 5.68 5.68 0.5 mtk yes tchain 5 pchain 5
fix 1 all npt temp 1.25 0.45 0.1 iso 5.68 5.68 0.5 mtk yes tchain 5 pchain 5
run 2000000 # 5000000  # Run for this many steps
Neighbor list info ...
  update every 1 steps, delay 10 steps, check yes
  max neighbors/atom: 2000, page size: 100000
  master list distance cutoff = 3.8
  ghost atom cutoff = 3.8
  binsize = 1.9, bins = 9 9 9
  4 neighbor lists, perpetual/occasional/extra = 1 3 0
  (1) pair lj/cut, perpetual
      attributes: half, newton on
      pair build: half/bin/atomonly/newton
      stencil: half/bin/3d
      bin: standard
  (2) compute orientorder/atom, occasional
      attributes: full, newton on
      pair build: full/bin/atomonly
      stencil: full/bin/3d
      bin: standard
  (3) compute coord/atom, occasional
      attributes: full, newton on
      pair build: full/bin/atomonly
      stencil: full/bin/3d
      bin: standard
  (4) compute cluster/atom, occasional
      attributes: full, newton on
      pair build: full/bin/atomonly
      stencil: full/bin/3d
      bin: standard
Per MPI rank memory allocation (min/avg/max) = 9.734 | 9.739 | 9.743 Mbytes
Step Temp PotEng c_msd[4] v_twopoint v_fit v_max_n 
   12000    1.1953089   -5.9745124 1.0304496e-30 7.1558994e-33 8.3333333e+20            3 
   13000    1.2539648   -5.9494245   0.56555245 0.0036253361  0.045914435            2 
   14000    1.2376051   -5.9839125    1.1937964 0.0071059306  0.048931479            2 
   15000    1.2572781   -5.9831156    1.7458617 0.0096992315  0.048635075            2 
   16000     1.239476   -5.9905951    2.2747215  0.011847507  0.047714542            4 
   17000    1.2573607   -5.9650327    2.8830352  0.014132525  0.047467724            1 
   18000    1.2253016   -5.9811046    3.3711511  0.015607181  0.047144001            3 
   19000    1.2463124   -5.9973353    3.8615213  0.016936497  0.046462011            2 
   20000    1.2366788   -5.9725287    4.3938482    0.0183077  0.045930839            5 
   21000    1.2324414   -5.9319504    4.9647859  0.019701531  0.045537394            5 
   22000    1.2376965   -5.9875748    5.5488317  0.021018302  0.045533315            4 
   23000    1.2527845   -6.0271905    6.1036302  0.022114602  0.045646358            2 
   24000    1.2635439   -5.9891189    6.6424909  0.023064204  0.045587249            2 
   25000    1.2285094   -6.0074378    7.2245844  0.024081948  0.045700426            2 
   26000    1.2771972   -6.0039147       7.7848  0.024951282  0.045805937            2 
   27000    1.2579551   -5.9819682    8.3814099  0.025868549  0.045916303            5 
   28000    1.2491257   -5.9911979    9.0553872  0.026950557   0.04614862            4 
   29000     1.283329   -5.9638481     9.554076  0.027454241  0.046360302            2 
   30000    1.2414532   -5.9810137    10.106464  0.028073511  0.046496327            2 
   31000    1.2267112   -6.0203308    10.575441  0.028428603  0.046521363            3 
   32000    1.2199793   -5.9941991    11.160562  0.029063963   0.04649914            3 
   33000    1.2155265   -5.9698142    11.702245  0.029551123  0.046486418            2 
   34000    1.2643443   -5.9787008     12.18933  0.029875808   0.04644128            2 
   35000    1.2408785   -6.0009624    12.663373  0.030150887  0.046327079            5 
   36000    1.2739217   -5.9772777    13.260751  0.030696183  0.046200339            2 
   37000    1.2222208   -6.0610359    13.766422  0.031005455  0.046113242            5 
   38000     1.236052   -5.9835633    14.424111  0.031631822  0.046071995            3 
   39000    1.2263022   -6.0108122    15.046711  0.032151091  0.046115766            4 
   40000    1.2573059   -6.0067977    15.562268  0.032421392  0.046118104            7 
   41000    1.2605197    -6.064333    16.020555  0.032562103  0.046092865            2 
   42000    1.2235759   -5.9640981    16.483108  0.032704579  0.046055999            7 
   43000    1.2333705   -6.0137317    17.002191  0.032949981  0.045979498            3 
   44000    1.2482659   -6.0228656    17.640241  0.033409548  0.045947775            2 
   45000     1.241885   -6.0145923    18.298045  0.033885268  0.045965136            6 
   46000    1.2475755   -5.9984688     18.85204  0.034152246  0.045989545            2 
   47000    1.2377502    -6.050211    19.371052  0.034345836  0.045970782            2 
   48000    1.2677303   -6.0209702    19.770318  0.034323469   0.04593857            3 
   49000    1.2441056   -6.0289906    20.292185  0.034510518  0.045888221            3 
   50000    1.2400833   -5.9849607    20.756577  0.034594294  0.045827128            4 
   51000    1.2327902   -5.9794424    21.400778  0.034968591  0.045754005            2 
   52000    1.2378447   -6.0098409    21.929334  0.035143164  0.045717073            3 
   53000    1.2197833   -5.9738949    22.400816  0.035221409  0.045637562            1 
   54000    1.2056489   -6.0213448    22.804807  0.035192602  0.045565666            5 
   55000    1.2515916   -6.0282625    23.464236  0.035551872  0.045510474            6 
   56000    1.2449738   -5.9962382    23.846666   0.03548611  0.045459936            4 
   57000    1.2255279    -5.992329    24.572639  0.035924911  0.045407164            4 
   58000    1.2412748   -6.0308215    25.063755  0.036011142   0.04537837            3 
   59000    1.2419589   -5.9982294    25.636547  0.036209812  0.045359234            4 
   60000    1.2334371    -5.982596    26.046088  0.036175122  0.045322254            2 
   61000    1.2428749   -5.9941651    26.613929  0.036357826  0.045282413            4 
   62000    1.2207775   -5.9975985    27.267766  0.036650223   0.04525502            3 
   63000    1.2118249   -6.0228069    27.704814  0.036646579  0.045240648            3 
   64000    1.1936262   -6.0575993    28.146778   0.03664945  0.045203903            4 
   65000    1.2271647   -6.0250418    28.778385  0.036895365  0.045162939            2 
   66000    1.2330262   -6.0389954    29.281826  0.036972002  0.045141778            2 
   67000    1.2397667   -6.0191068    30.054627  0.037381377  0.045128004            3 
   68000    1.2301944   -6.0129153    30.553896    0.0374435  0.045124577            2 
   69000    1.2485908    -6.029313    30.965962  0.037398504  0.045110874            7 
   70000    1.2176008   -6.0245778    31.365281   0.03733962  0.045086476            2 
   71000    1.2347759   -6.0338803    31.904554  0.037446659  0.045057653            4 
   72000    1.2357304   -5.9911216    32.518605  0.037637274  0.045029931            6 
   73000    1.2145192    -6.007364    33.101331  0.037786908  0.045015583            1 
   74000    1.2328406   -6.0821098    33.524273   0.03775256  0.044996631            2 
   75000    1.2250747    -5.991622    34.235031  0.038038923  0.044977087            5 
   76000    1.2355474   -5.9862571    34.561408  0.037896281  0.044961904            2 
   77000    1.2186771   -6.0048943    34.917417  0.037789412  0.044922048            1 
   78000    1.2336192   -6.0624355     35.14264  0.037545555  0.044861571            4 
   79000      1.21962   -6.0589898    35.855075  0.037821808  0.044794463            3 
   80000    1.2133438   -6.0390592    36.272845  0.037784213  0.044740965            5 
   81000    1.2110706   -6.0419829    36.921416  0.037984995  0.044688444            2 
   82000    1.2306729   -6.0203124    37.548056  0.038158593  0.044645557            4 
   83000     1.217644   -6.0095965    37.927466  0.038079785  0.044606164            4 
   84000    1.2314152   -6.0993259    38.305524  0.038001512  0.044563752            2 
   85000    1.2271654   -6.0162576    38.930134  0.038166798  0.044526317            4 
   86000    1.1948051   -6.0041847    39.782417  0.038548853  0.044501581            2 
   87000    1.1940444   -6.0405817    40.096365   0.03840648  0.044485661            2 
   88000    1.2148014   -6.0401575    40.671561  0.038514735  0.044461801            5 
   89000    1.2203879   -6.0154527    41.306194  0.038676212  0.044441207            3 
   90000    1.2031295   -6.0212182       41.988  0.038877777  0.044438584            3 
   91000    1.2278873   -6.0006498    42.570014  0.038983529  0.044439395            4 
   92000    1.2269613   -6.0368265    42.861397  0.038823729  0.044438084            2 
   93000    1.2081131   -6.0255379    43.324776  0.038821484  0.044419317            3 
   94000    1.2020164   -6.0700721    43.819293  0.038846891  0.044406998            3 
   95000    1.1930836   -6.0140654    44.426599  0.038970701  0.044393661            2 
   96000    1.2075178   -6.0342722    44.934737  0.039005848  0.044375107            3 
   97000    1.2306702   -6.0419863    45.307671  0.038924116  0.044355312            2 
   98000     1.228681   -6.0271858    45.932763  0.039058472  0.044336394            4 
   99000    1.2249844   -6.0616144     46.21275  0.038899621  0.044308255            4 
  100000    1.1940824   -6.0290564    46.962743  0.039135619  0.044290877            3 
  101000    1.2453136   -6.0235109    47.424368  0.039129017  0.044274548            1 
  102000     1.227402   -6.0672056    47.937828  0.039164892  0.044260441            7 
  103000    1.2251791   -6.0758329    48.476251  0.039220268   0.04424738            3 
  104000    1.2045143   -6.0145026    48.921876  0.039200221  0.044226675            4 
  105000     1.212276    -5.997905    49.418331  0.039220898  0.044203063            3 
  106000    1.2192706   -6.0544792    49.914769  0.039241171  0.044184262            3 
  107000    1.2235702   -6.0298243    50.319532  0.039189666  0.044154035            2 
  108000    1.2153088   -6.0857883    50.825618  0.039217298  0.044124126            4 
  109000    1.2460037   -6.0261429    51.336771  0.039248295  0.044095083            2 
  110000    1.1891336    -6.084662    51.611559  0.039099666   0.04406077            3 
  111000    1.1834247   -6.0739682    52.133773  0.039139469  0.044023211            5 
  112000    1.2017176   -6.0827051    52.453626  0.039027995  0.043987084            3 
  113000    1.2330331   -6.0401488    53.064626  0.039133205  0.043941889            2 
  114000    1.1989859   -6.0425904    53.351705  0.038999784  0.043900339            4 
  115000    1.2175415   -6.0392721    53.788906  0.038977468  0.043851819            3 
  116000    1.2294377   -6.0558308    54.201771  0.038938054   0.04380247            4 
  117000    1.2213986   -6.0273906     54.62029  0.038903341  0.043749387            3 
  118000      1.19168   -6.0599579    55.115672  0.038923497  0.043696104            2 
  119000    1.2145758   -6.0579006    55.591804  0.038929835  0.043641272            2 
  120000    1.1973688   -6.0338042    56.441023  0.039195155  0.043601142            2 
  121000    1.2016931   -6.0646871    56.898972  0.039186619  0.043566345            3 
  122000     1.181017   -6.0291323    57.466804  0.039253281  0.043533539            3 
  123000    1.1957784   -6.0501735    57.787842  0.039151654  0.043502591            5 
  124000    1.2034068   -6.0369304    58.290428  0.039173674  0.043468732            2 
  125000    1.1817169   -6.0232967    58.809734  0.039206489   0.04342916            2 
  126000    1.2388949   -6.0128058    59.181962  0.039141509  0.043393344            4 
  127000    1.2201986   -6.0941417    59.513918  0.039051127    0.0433528            2 
  128000    1.1942376   -6.0892803    60.113385  0.039136318   0.04331167            4 
  129000    1.2161789   -6.0840238    60.687079  0.039203539  0.043273321            5 
  130000    1.2102512   -6.0523682     61.07836  0.039152795  0.043235255            2 
  131000    1.2051816   -6.0231818    61.587843  0.039178017  0.043198163            4 
  132000    1.1957404   -6.0976572    61.940354  0.039103759  0.043162868            4 
  133000    1.2179825   -6.0192356    62.810656  0.039355047  0.043130446            3 
  134000    1.2029774   -6.0704804    63.301284   0.03936647  0.043103944            4 
  135000     1.224328   -6.0612817    63.663671  0.039298562  0.043076448            6 
  136000    1.2076793   -6.0418058     64.35451   0.03943291  0.043050294            4 
  137000     1.203567   -6.0945554    64.660686  0.039331317  0.043025643            3 
  138000    1.2050518    -6.034116    65.161866  0.039348952  0.042999236            4 
  139000    1.1839516   -6.0836452    65.356466  0.039182533  0.042964996            3 
  140000     1.243842   -6.0923526    65.771006  0.039149408  0.042927247            5 
  141000    1.2195024   -6.0605112     65.65444   0.03880286  0.042883259            3 
  142000    1.1929891   -6.1262189    66.224708  0.038864265  0.042840041            5 
  143000    1.1871971   -6.0447133     67.00133  0.039045064  0.042797624            8 
  144000    1.2009224   -6.0519861    67.440057  0.039027811  0.042757166            3 
  145000    1.1742567   -6.0766648    67.779823  0.038953921  0.042717411            6 
  146000    1.2065356   -6.0336634    68.260897  0.038961699   0.04267415            2 
  147000    1.1936428   -6.0567269    68.524875  0.038846301  0.042628849            2 
  148000    1.1959458   -6.0580165    69.341106  0.039043416  0.042586596            3 
  149000    1.1907702   -6.0458725    69.691615  0.038977413  0.042545739            5 
  150000     1.171063   -6.0688733     70.02734  0.038904077  0.042507411            4 
  151000    1.1709594   -6.1065805    70.580738  0.038951842  0.042469151            2 
  152000    1.1977984   -6.0235699    71.622085  0.039266494  0.042435086            2 
  153000    1.2198147   -6.0449422    72.311681  0.039385447  0.042407137            3 
  154000    1.1695843   -6.0652488    72.545797  0.039256383  0.042385435           10 
  155000    1.1922469   -6.0809717    73.066644  0.039283142  0.042364756            5 
  156000    1.1801786   -6.0735776    73.634948  0.039334908  0.042342141            5 
  157000    1.2001884   -6.1195821    73.660118  0.039097727   0.04231746            5 
  158000    1.1927414    -6.053571     74.29663  0.039185986  0.042290382            1 
  159000    1.1891931   -6.0596644    75.032325  0.039325118  0.042266442            4 
  160000    1.2142777   -6.0564939    75.243204  0.039189169  0.042243146           10 
  161000    1.1603468   -6.0906431    75.923041   0.03929764   0.04221816            5 
  162000    1.1998312   -6.0746566    75.889295  0.039037703  0.042191152            2 
  163000    1.1712337   -6.0748442    77.013963  0.039373192  0.042165405            5 
  164000    1.1763706   -6.0822202    77.297361  0.039277114  0.042141233            2 
  165000     1.172963   -6.1028894    77.971108  0.039379347  0.042115988            3 
  166000    1.2014358   -6.0870289    78.066518  0.039190019  0.042093552            2 
  167000    1.1919526   -6.0547906    78.584311  0.039213728  0.042072203            2 
  168000    1.1766892   -6.0863838    79.191861  0.039281677  0.042051784            6 
  169000    1.1883594   -6.0573414     79.62025  0.039260478  0.042032369            2 
  170000    1.1905799   -6.0948205    80.185263  0.039306501  0.042011796            3 
  171000    1.1972028   -6.1127809    80.647257  0.039301782  0.041991132            3 
  172000    1.1879399   -6.0378667    81.011209  0.039249617  0.041969553            2 
  173000    1.1989084   -6.1139813    81.568913  0.039291384  0.041947612            5 
  174000    1.1836946   -6.1241532    82.105568   0.03932259   0.04192949            4 
  175000    1.1829527   -6.1064337    82.603375   0.03933494   0.04191137            6 
  176000    1.1694397   -6.0802439    83.206689  0.039397106  0.041894362            2 
  177000    1.1752978   -6.0983388    83.843858   0.03947451  0.041879297            4 
  178000    1.1742171   -6.0955933    83.968106  0.039310911  0.041863822            4 
  179000    1.1856241   -6.1138185    84.586217  0.039379058  0.041846059            4 
  180000    1.1439936   -6.0870036    84.997735  0.039350803  0.041825889            4 
  181000    1.1990269     -6.14981    85.072785  0.039167949  0.041804122            4 
  182000     1.196976   -6.1220289    86.095012  0.039420793  0.041785476            2 
  183000    1.1637094   -6.0681317     86.51285  0.039395651  0.041769286            4 
  184000    1.2043318   -6.0737934    86.681262  0.039257818  0.041751526            3 
  185000    1.1969106   -6.0681673    87.462666  0.039397597  0.041731947            6 
  186000    1.1768924   -6.1014542    87.720469  0.039301285  0.041710809            3 
  187000    1.1682793   -6.1149655    87.761666  0.039109477  0.041687812            7 
  188000    1.1899414   -6.1060267    88.238589   0.03911285  0.041663547            2 
  189000    1.1846512   -6.0685661    88.904304  0.039199428  0.041640593            4 
  190000    1.1973749   -6.1126803     89.11816  0.039086912  0.041616754            3 
  191000    1.1865705   -6.0973447     89.46963  0.039035615  0.041590538            2 
  192000    1.1625956    -6.121891    89.787386   0.03897022  0.041565234            2 
  193000    1.1919808   -6.1078271    90.592523  0.039115942  0.041540835            5 
  194000    1.2070876   -6.0687238    91.435884  0.039276582  0.041521303            5 
  195000    1.1552002   -6.0969974    91.657399  0.039169828  0.041501641            2 
  196000    1.1609936   -6.1323135    91.742711  0.039006255  0.041478745            5 
  197000    1.1659882   -6.0947404    91.906001  0.038877327  0.041451795            6 
  198000    1.1883797   -6.1406838    92.503021  0.038932248  0.041426054            2 
  199000    1.1825953     -6.13337    93.145605  0.039005697  0.041401569            4 
  200000    1.1548983   -6.1155458    93.525199  0.038968833  0.041375984            4 
  201000    1.1501189   -6.0943348    93.761122   0.03887277  0.041351609            2 
  202000    1.1756357    -6.100745    94.404471  0.038945739  0.041326427            5 
  203000    1.1686023   -6.1109426     95.15336  0.039061313  0.041303562            5 
  204000    1.1554467   -6.1175674    95.715239  0.039099362  0.041280754            4 
  205000    1.1876895    -6.097527    96.240607  0.039122198  0.041258958            3 
  206000    1.1403678   -6.0957562    96.049575  0.038855006  0.041233608            3 
  207000    1.1500964      -6.1112    96.831803  0.038982207  0.041209492            2 
  208000    1.1721799   -6.0945537    97.603287  0.039103881  0.041186732            3 
  209000    1.1781874   -6.1110034    97.630103  0.038927473  0.041163764            3 
  210000    1.1724798   -6.1167207     97.75142  0.038790246  0.041137251            1 
  211000    1.1769381   -6.1055991    98.139736  0.038759769  0.041111839            5 
  212000    1.1468898   -6.1183261    98.630179  0.038769725  0.041085938            3 
  213000     1.190956   -6.1118673    99.490121  0.038924147  0.041060824            7 
  214000    1.1626517   -6.1072387    99.679708  0.038816086  0.041037696            3 
  215000    1.1784975   -6.1049604    100.47385  0.038943352  0.041014883            4 
  216000    1.1863522   -6.1181524    100.68845  0.038845852  0.040992362            2 
  217000    1.1790656   -6.1319236    101.68347   0.03904895  0.040970941            4 
  218000    1.1558417   -6.1161076    101.57221  0.038827298   0.04095047            5 
  219000    1.1734807   -6.1201402    101.99223   0.03880983  0.040927809            4 
  220000    1.1734036   -6.1000803    102.99288  0.039012455  0.040905077            4 
  221000    1.1691482   -6.1409431    103.04068  0.038853952  0.040882357            2 
  222000    1.1235386   -6.1385196    103.62639  0.038898794  0.040860184            5 
  223000    1.1688695   -6.1112977     103.9656  0.038851121   0.04083915            2 
  224000    1.1538294   -6.1058028    104.38694  0.038834428  0.040817432            3 
  225000    1.1735029   -6.1413188    104.51884  0.038710681  0.040794786            4 
  226000    1.1702391   -6.0994374     104.7735  0.038633296  0.040768787            5 
  227000     1.150404   -6.1231838    104.90499  0.038511376   0.04074118            4 
  228000    1.1965586    -6.120039     105.5696  0.038585379  0.040713998            5 
  229000    1.1668307   -6.1148703    105.75556  0.038484555  0.040684814            2 
  230000    1.1514823   -6.1316772    106.50476  0.038588681  0.040657343            3 
  231000    1.1614038   -6.1556665    106.24726  0.038328738  0.040626927            3 
  232000    1.1573489   -6.1394461    106.38404  0.038212656  0.040595616            2 
  233000     1.153986   -6.1581064    107.07361  0.038295284  0.040563847            4 
  234000    1.1776062   -6.1354118    107.74491  0.038370695  0.040534936            4 
  235000    1.1793391   -6.1072948    108.28502  0.038398945    0.0405067            8 
  236000    1.1693892   -6.1468203    108.09913  0.038170595  0.040475073            6 
  237000    1.1740987   -6.1476736    108.72632  0.038230072  0.040443579            5 
  238000    1.1695058    -6.139223    109.15239  0.038218624  0.040412726            3 
  239000    1.1508959     -6.12304    109.68517  0.038244482  0.040382959            2 
  240000     1.187663   -6.1337196    109.81909  0.038131627  0.040353593            4 
  241000    1.1554828   -6.1062132    110.78386  0.038307005  0.040325066            2 
  242000    1.1637178   -6.1089446    110.92988  0.038198995     0.040297            3 
  243000    1.1543256   -6.1635559    111.89765  0.038373679  0.040270425            3 
  244000    1.1724775   -6.1627489    112.17161  0.038309977  0.040243399            4 
  245000    1.1376859   -6.1457052      111.846  0.038042858  0.040213287            4 
  246000    1.1515681     -6.15443    111.97864  0.037933144  0.040181259            1 
  247000    1.1524492   -6.1463313     112.8044  0.038058164  0.040149299            2 
  248000    1.1404442   -6.1781987    112.88648  0.037932285   0.04011793           14 
  249000    1.1623623    -6.135453    113.71004  0.038055569  0.040085494            5 
  250000     1.155463   -6.1359945    113.65063  0.037883544  0.040053879            3 
  251000    1.1800704   -6.1536812    114.38723  0.037977168  0.040021896            3 
  252000     1.155562   -6.1614582    114.66305  0.037917677  0.039990639            3 
  253000    1.1472891   -6.1204888    114.90185  0.037846458  0.039959245            4 
  254000     1.168235   -6.1659247    115.53118  0.037903931  0.039927479            2 
  255000    1.1580662   -6.1846328    115.95727  0.037894533  0.039895884            4 
  256000    1.1504246   -6.1306443    116.86087  0.038040648  0.039864724            7 
  257000    1.1500495   -6.1317643    117.02442   0.03794566  0.039834542            3 
  258000    1.1400705   -6.1348959    117.35109  0.037904099   0.03980472            3 
  259000    1.1367771   -6.1513068    117.14583  0.037691709  0.039773097            5 
  260000       1.1452   -6.1634345    117.80965  0.037759504  0.039742186            6 
  261000    1.1235445    -6.153388    118.03318  0.037686202  0.039711139            3 
  262000    1.1361521   -6.1422019      118.666  0.037743639  0.039680532            2 
  263000    1.1577174   -6.1646783    118.62298  0.037586494  0.039649249            5 
  264000    1.1564551    -6.130034    120.02853  0.037887794  0.039619612            3 
  265000    1.1721497   -6.1728048    120.38189  0.037855939  0.039592916            4 
  266000    1.1579627   -6.0905635    120.73812  0.037825227  0.039566271            5 
  267000    1.1379426   -6.1251275    121.37871  0.037883493  0.039539875            3 
  268000    1.1421361   -6.1807066    121.24605  0.037700885  0.039513436            2 
  269000    1.1227247   -6.1521427    122.40016  0.037918266  0.039489387            4 
  270000    1.1253517   -6.1350361    123.04202  0.037975932     0.039466            3 
  271000    1.1683491   -6.1504688    123.22956  0.037893468  0.039443219            3 
  272000    1.1291474   -6.1606488     123.6435  0.037880974  0.039419556            6 
  273000    1.1348923   -6.1605942     124.2016  0.037912575  0.039395619            4 
  274000    1.1491986   -6.1580563    125.00027  0.038017113  0.039373715            3 
  275000    1.1426707   -6.1761574    125.09763  0.037908373  0.039353088            4 
  276000    1.1327186   -6.1590085    125.53879  0.037904224  0.039332642            1 
  277000    1.1386202   -6.1354758    126.11507  0.037940755  0.039313299            4 
  278000    1.1146663   -6.1643591    126.78127  0.038003979  0.039295008            2 
  279000    1.1318633   -6.1396561    127.44802  0.038066912  0.039277336            4 
  280000    1.1297642   -6.1960099    127.40273  0.037917479  0.039259835            5 
  281000     1.128317   -6.1680367    127.83156  0.037909714  0.039242098            4 
  282000    1.1090961   -6.1954508    128.26129  0.037902273  0.039222812            5 
  283000    1.1450878   -6.1308813    128.88384  0.037951661  0.039204605            7 
  284000    1.1579144   -6.1633659    129.10147  0.037881887  0.039185391            5 
  285000    1.1449488   -6.1354649     129.7752  0.037945965   0.03916558            5 
  286000    1.1499139   -6.1840994    129.38945  0.037700888  0.039146098            2 
  287000     1.118566   -6.1666904    129.67723  0.037653086  0.039124251            3 
  288000    1.1314916   -6.1612445    130.37374  0.037723883  0.039103458            4 
  289000    1.1337904   -6.1503133    130.71518  0.037691804  0.039082811            3 
  290000    1.1515164    -6.162911    131.11337  0.037676255  0.039062203            4 
  291000    1.1221329   -6.1982004    131.62503  0.037693308   0.03904139            2 
  292000    1.1316266   -6.1476605    132.51354   0.03781779  0.039021274            3 
  293000    1.1503019   -6.1841367    132.90062  0.037798812  0.039001649            2 
  294000    1.1325193   -6.2034415    133.06095   0.03771569  0.038982435            4 
  295000    1.1334119   -6.1656647    133.19197   0.03762485  0.038964052            6 
  296000    1.1360828   -6.1462834    134.26125  0.037798774  0.038946007            3 
  297000    1.1542291   -6.1750005    134.45339  0.037725418  0.038927351            5 
  298000    1.1357554    -6.135612    135.08557  0.037775606  0.038909394            6 
  299000     1.121426   -6.1793217    135.04901  0.037639077  0.038891087            5 
  300000    1.1290197   -6.1973785    134.83953  0.037455426  0.038872056            4 
  301000     1.169375   -6.1883659    135.75951  0.037585689  0.038852224            5 
  302000    1.1436862   -6.1642569    136.37284  0.037630475  0.038832855            3 
  303000    1.1201699   -6.1957469    136.36409  0.037503876  0.038812376            3 
  304000    1.1229324   -6.1644404    136.90222  0.037528021  0.038792086            3 
  305000    1.1448557   -6.1396994    137.50176  0.037568786  0.038771968            9 
  306000    1.1306342   -6.1549959    138.11437  0.037612845  0.038751176            2 
  307000    1.1429551   -6.2019748    137.67662  0.037371504  0.038730205            3 
  308000    1.1300972   -6.1638975    138.63752  0.037510151   0.03870893            8 
  309000    1.1109797   -6.1960341    138.64407  0.037390525   0.03868933            3 
  310000    1.1666267   -6.2316491     138.7588  0.037300752  0.038668019            4 
  311000    1.1375255   -6.1798655    139.24993  0.037312414  0.038645539            5 
  312000    1.1293372   -6.1674306    139.52307  0.037265777   0.03862308            5 
  313000    1.1147482   -6.2200788    139.35079  0.037100849  0.038599708            3 
  314000    1.1171652   -6.1785993    140.48798  0.037284496  0.038575536            3 
  315000    1.1199224   -6.1872587    141.20754  0.037356492   0.03855222            3 
  316000    1.1332297   -6.1804978    141.60676  0.037343554  0.038529515            5 
  317000    1.1216622   -6.1928417    142.11601  0.037359623  0.038508158            3 
  318000    1.1148164   -6.1933117    142.39291  0.037314705   0.03848751            5 
  319000    1.1165023   -6.1705392    142.47294  0.037218637  0.038466149            7 
  320000    1.1545345   -6.1713309     143.3221  0.037323464  0.038446069            5 
  321000    1.1160632   -6.1791443    143.36889  0.037219339  0.038426248            3 
  322000    1.1164617   -6.2141318    144.07526  0.037286558  0.038406514            6 
  323000    1.1066214   -6.1679693     144.6379   0.03731628  0.038387659            5 
  324000    1.1102738   -6.1966755    144.76948  0.037234948  0.038368396            3 
  325000    1.1181108    -6.192436    145.57621  0.037327233    0.0383493            3 
  326000     1.119645   -6.1830291    145.87161  0.037288243  0.038331626            2 
  327000    1.1175888    -6.167565    146.26439   0.03727431    0.0383139            4 
  328000    1.1621175   -6.2049614    146.66388  0.037262164  0.038295718            4 
  329000    1.1521782   -6.2045476    146.68882  0.037155223   0.03827789            3 
  330000    1.1140138   -6.1867251    147.16214  0.037162156  0.038258887            4 
  331000    1.1439808   -6.2186537    147.58654  0.037156733  0.038241176            3 
  332000    1.0997835   -6.2106468    148.35468   0.03723762  0.038223496            2 
  333000    1.1352078   -6.2002445    148.70752  0.037214095  0.038204982            4 
  334000    1.1398051   -6.1930741    148.71127  0.037103611  0.038186389            5 
  335000    1.1071645   -6.2079326    149.35515  0.037153021  0.038167724            4 
  336000    1.1345528   -6.1730256     149.7054  0.037129315   0.03814885            2 
  337000    1.1069961   -6.2257348    149.67479   0.03701157  0.038129647            5 
  338000    1.0967719    -6.159722     149.6363   0.03689258  0.038110624            4 
  339000    1.1073923   -6.1804729    150.18338  0.036918235  0.038090543            4 
  340000    1.1091046   -6.2205558    150.59986  0.036911731  0.038069688            5 
  341000    1.1395549   -6.2221239    151.23725   0.03695925  0.038049623           10 
  342000    1.0936025    -6.249053    151.92255  0.037018166  0.038029559            3 
  343000    1.1268152   -6.2253972    151.41476  0.036786871  0.038007855            8 
  344000    1.1326778   -6.1647335    151.87054  0.036790343  0.037985699            3 
  345000    1.1020804   -6.2707671    151.97257  0.036708349  0.037963185            3 
  346000    1.0898643   -6.1962048    152.44369  0.036715724  0.037939397            2 
  347000    1.1255007   -6.2383364    152.49516  0.036622277  0.037915592            3 
  348000    1.1172316   -6.2189896    152.75246  0.036578655  0.037891378            4 
  349000    1.1343068    -6.199093    153.60897  0.036678361  0.037867925            3 
  350000     1.124725   -6.1899526    154.22192  0.036719504   0.03784477            2 
  351000    1.0978757   -6.1791373    153.88905  0.036535861  0.037820854            3 
  352000    1.1056026   -6.2558133     153.5246  0.036345785  0.037795409            7 
  353000    1.1170753    -6.233959    154.85806  0.036557616  0.037770681            4 
  354000    1.1267901   -6.2178573    154.63372  0.036401536  0.037746143            3 
  355000    1.1169252   -6.1819805    155.36945  0.036471702  0.037721809            3 
  356000    1.1419399   -6.2096826    155.51797  0.036404018  0.037698006            7 
  357000    1.1313765   -6.2402684    156.25837  0.036474876  0.037674089            4 
  358000    1.0852698   -6.2147007    156.77824  0.036494003  0.037650522            6 
  359000    1.1347331   -6.1857909    157.42553  0.036542601   0.03762869            3 
  360000    1.1184479   -6.2154041    157.66288  0.036496038  0.037607312            4 
  361000    1.1133644   -6.2124695    158.34347  0.036552047  0.037586142            4 
  362000    1.1087957   -6.1880561     158.2679  0.036433678  0.037565318            4 
  363000    1.1145513   -6.1824403    158.99414  0.036500031  0.037543815            5 
  364000    1.1076549   -6.2337826    158.49787  0.036286143  0.037521612            3 
  365000     1.107379   -6.2311965    159.81555  0.036487569   0.03749988            5 
  366000    1.1061404   -6.2174408    160.19137  0.036473446  0.037479427            4 
  367000    1.1042505   -6.2202503    161.01839   0.03656185  0.037459498            3 
  368000    1.1314146   -6.2186137    161.22607  0.036509527  0.037440936            3 
  369000    1.1403599   -6.2392774    161.85493  0.036552605  0.037422317            5 
  370000    1.1248785   -6.2250564    161.92562  0.036469733  0.037402793            2 
  371000    1.1260454   -6.2563204    162.69024   0.03654318  0.037384147            3 
  372000    1.1005509   -6.2339677    163.28749  0.036578739   0.03736585            8 
  373000    1.1021191   -6.2272391    163.63138  0.036557502  0.037348129            4 
  374000    1.1034015   -6.2209141    163.80685  0.036498853  0.037329897            4 
  375000    1.0759034   -6.2162781    164.94787  0.036655083  0.037313501            6 
  376000    1.0772402   -6.2103738    165.10472  0.036592357   0.03729713            5 
  377000    1.1013855   -6.2245203     165.2851  0.036535168  0.037280158            7 
  378000     1.100174   -6.2437839    164.51039  0.036267723  0.037261893            2 
  379000    1.1063232   -6.1870281    165.24279  0.036333067  0.037241757            3 
  380000    1.0933625   -6.2244378    165.37031  0.036265419  0.037222383            3 
  381000    1.0966348   -6.2217875    165.56467  0.036212745  0.037201231            3 
  382000    1.1243299   -6.2235105    166.43613  0.036308057  0.037180579            5 
  383000    1.0687638   -6.2294479    166.33528  0.036191313  0.037159398            3 
  384000    1.0886033   -6.2252985     166.4976  0.036132292  0.037138614            7 
  385000    1.0968717   -6.2291734    167.18782  0.036187839  0.037118808            5 
  386000    1.0614365   -6.2811038    167.00297  0.036054181   0.03709793            5 
  387000    1.1232479   -6.2367831    166.92143   0.03594346  0.037075752            5 
  388000    1.0852101   -6.2821741    167.84327  0.036048811  0.037054046            4 
  389000    1.0973247   -6.2411646    168.43561  0.036083035   0.03703299            3 
  390000    1.0801508    -6.235083    168.96841   0.03610436  0.037012027            3 
  391000    1.1087103   -6.2276813    169.11446  0.036043151  0.036990635            5 
  392000    1.0713759   -6.2503112    169.63675  0.036062234  0.036969148            6 
  393000    1.0992142   -6.2367572    169.63818  0.035970776  0.036948054            3 
  394000    1.0825091   -6.2777815    169.84981  0.035924241  0.036925917            6 
  395000    1.1178343   -6.2589162    170.10143  0.035886379  0.036904075            4 
  396000    1.0826054    -6.268852    170.60263  0.035901226  0.036882443            5 
  397000    1.0890812   -6.2237335    171.34928  0.035967524  0.036860143            2 
  398000    1.0822075   -6.2229566    171.40088  0.035887957  0.036838625            2 
  399000    1.1038052   -6.2085218    172.22342  0.035969803  0.036817995            3 
  400000    1.1042889    -6.251054    172.03451  0.035840524  0.036797973            4 
  401000    1.0840902   -6.2537237    172.91621  0.035934374  0.036777657            4 
  402000    1.0968699   -6.2294509    172.79155  0.035819145  0.036757403            5 
  403000    1.1096188    -6.280338    173.69924  0.035917956  0.036737502            4 
  404000    1.0899734   -6.2345818    173.81896  0.035853746  0.036718193            3 
  405000    1.0771333   -6.2448923    174.09203  0.035821405  0.036699099            3 
  406000    1.1061244   -6.2250641     174.6218  0.035841912  0.036679043            3 
  407000    1.0974681   -6.2538839    175.06875  0.035845361  0.036659702            3 
  408000    1.1075581   -6.3137045     175.0609  0.035755903  0.036639762            4 
  409000    1.0631153   -6.2626499     175.4045  0.035738489  0.036620096            4 
  410000     1.073678   -6.2752714    176.14416  0.035801658  0.036600591            3 
  411000    1.0989618   -6.2295074    177.20829   0.03593031  0.036581736            6 
  412000    1.0858248   -6.2492935    177.54436  0.035911077   0.03656339            6 
  413000     1.085651   -6.2317773    177.24334  0.035763385  0.036545049            4 
  414000    1.1072084   -6.2642257    177.35656   0.03569979  0.036526066            4 
  415000    1.0827747   -6.2636069    177.73855  0.035690472  0.036506207            3 
  416000     1.063747   -6.2353164    178.01499  0.035660054  0.036486156            4 
  417000    1.0968621   -6.2744446    178.06252  0.035584038  0.036466033            3 
  418000    1.1228394   -6.2721647    178.96331   0.03567849  0.036446634            6 
  419000    1.0508695   -6.2572472    179.28964  0.035658241   0.03642771            4 
  420000    1.0673518   -6.2480033    179.41879  0.035598967  0.036408274            3 
  421000    1.1015135   -6.2752441    179.22905   0.03547685  0.036388001            2 
  422000     1.071875   -6.2450464    179.29902    0.0354066   0.03636779            4 
  423000    1.0682093   -6.2815187    180.07682  0.035476127    0.0363473            5 
  424000     1.085823   -6.2166979     180.3413  0.035444438  0.036326676            4 
  425000    1.0932771   -6.2589118    180.69853  0.035431084  0.036305475            5 
  426000    1.1030265   -6.2762309    181.58279   0.03552089  0.036285447            7 
  427000    1.0992966    -6.286217    182.17603  0.035553479  0.036265541            7 
  428000    1.0582796    -6.231441    182.33295  0.035500964  0.036245669            4 
  429000     1.087156   -6.2771663     182.8251  0.035513811  0.036225016            6 
  430000    1.0802275   -6.2448742    182.50006   0.03536823  0.036204605            5 
  431000    1.0691829   -6.2378562    183.27655  0.035436302  0.036184184            5 
  432000    1.0886966   -6.2730026    183.10468   0.03532112  0.036163202            2 
  433000    1.1166316   -6.3103203    183.94569  0.035401402  0.036143781            2 
  434000    1.0910546   -6.2339621    184.09168  0.035347864  0.036124368            4 
  435000    1.0808369   -6.2395433    184.35178  0.035316432  0.036104606            4 
  436000    1.0752199   -6.2548285    184.18157  0.035202899  0.036084097            4 
  437000    1.0743996   -6.2524418     185.0556  0.035289016  0.036063837            4 
  438000     1.060062   -6.2604991    185.32954  0.035260566  0.036043655            4 
  439000    1.0762865   -6.2711261     186.0087  0.035309169  0.036023311            5 
  440000    1.0627673   -6.2978273    186.26396  0.035277265  0.036003427            5 
  441000    1.0856175   -6.2812556    186.24716  0.035194097  0.035983186            5 
  442000    1.0873606   -6.3320111    186.37951  0.035139426  0.035962973            5 
  443000    1.0620262   -6.3114665    187.14803  0.035204671  0.035942911            2 
  444000    1.0891092   -6.2851119    187.69912  0.035228814  0.035923522            4 
  445000    1.0615355   -6.2933776    187.23057  0.035061904  0.035903563            6 
  446000    1.0897871   -6.2530986    188.15302  0.035155646  0.035883092            4 
  447000    1.0840298   -6.3235362    187.66497  0.034986012  0.035862867            2 
  448000     1.074027   -6.3082097    189.13706  0.035181745  0.035842407           15 
  449000    1.0772779    -6.275178    189.01559  0.035080845  0.035822372            5 
  450000    1.0995605    -6.284784    189.48228  0.035089312   0.03580251            2 
  451000    1.0758367   -6.2685656    190.23152  0.035149947  0.035783693            4 
  452000     1.087775   -6.2989938    190.45683  0.035113723  0.035764779            6 
  453000    1.0503531   -6.2906583    190.06794  0.034964669  0.035745637            7 
  454000    1.0986281   -6.2603717    190.71457  0.035006346  0.035726094            7 
  455000    1.0648488   -6.2955338     190.8312  0.034950769  0.035706227            2 
  456000    1.0744026   -6.3191905    191.14748  0.034931922  0.035686086            3 
  457000    1.0814107   -6.3041145    191.32119  0.034887161  0.035666487            8 
  458000    1.0605798   -6.3040153    191.72972   0.03488532  0.035646332            4 
  459000    1.0795587   -6.3009762    192.62316  0.034971524  0.035626446            3 
  460000    1.0684946   -6.2718719    192.70423  0.034910187  0.035606831            2 
  461000    1.0615169   -6.2863246    193.45578  0.034970314  0.035587475            4 
  462000    1.0270893   -6.3417179     193.7308  0.034944228  0.035567785            6 
  463000    1.0698314   -6.2828997    193.90574  0.034900241  0.035548755            8 
  464000    1.0635147   -6.3114121    193.76137  0.034799097  0.035529201            6 
  465000    1.0800602   -6.2677701    194.99863   0.03494599  0.035510138            6 
  466000    1.0542964   -6.3090112    194.82761  0.034840416  0.035491325            4 
  467000    1.0794729   -6.2901419    195.73994  0.034928612  0.035472347            2 
  468000    1.0722992   -6.3007566    195.78153  0.034861383  0.035453141            2 
  469000     1.070122   -6.2952868    195.63496  0.034761009  0.035434045            3 
  470000    1.0619091   -6.3015187    195.99813  0.034751442  0.035414718            6 
  471000    1.0561136   -6.2382938    197.18232  0.034887176  0.035395696            4 
  472000     1.056745   -6.3021139    196.93543  0.034769673  0.035377435            5 
  473000    1.0483629    -6.351914    196.65905  0.034647471  0.035358268            4 
  474000    1.0673443    -6.312035    197.24475  0.034677347   0.03533943            4 
  475000    1.0758358   -6.3073819    197.82682  0.034706459  0.035320571            4 
  476000    1.0899625   -6.2990569    197.45393  0.034568264  0.035301227            8 
  477000    1.0663013   -6.3153056    198.19718  0.034625643  0.035281978            5 
  478000    1.0751753   -6.3096601    197.97972  0.034515293  0.035261987            3 
  479000    1.0732977    -6.298187    198.75958  0.034578911  0.035242132            3 
  480000    1.1094058   -6.2716081    199.54082  0.034642504  0.035222243            4 
  481000    1.0699497   -6.3131809    199.97787  0.034646201  0.035202805            8 
  482000    1.0685532   -6.2653194    200.05429  0.034587533  0.035184144            6 
  483000     1.072562   -6.3300398    200.04247  0.034513884  0.035165128            6 
  484000     1.047612   -6.2732009    200.69061  0.034554168  0.035145819            6 
  485000    1.0815798   -6.3207387     200.9196  0.034522269  0.035126628            2 
  486000    1.0670327   -6.3016651    200.61495  0.034398996  0.035106825            7 
  487000     1.040036   -6.3071616    200.81479  0.034362558  0.035086397            7 
  488000    1.0486083   -6.3536939    200.70625  0.034273608  0.035066089            4 
  489000    1.0516309   -6.3076721    201.24261  0.034294924  0.035045141            4 
  490000    1.0496177   -6.3237775    201.48064  0.034265414  0.035024023            5 
  491000    1.0716395   -6.2978664    202.09796    0.0343004  0.035002998            4 
  492000    1.0788709   -6.2988464    201.59215  0.034145011  0.034981915            5 
  493000    1.0805962   -6.3006435    202.43299  0.034217882  0.034960203            5 
  494000    1.0399713    -6.294827    203.32278  0.034298715  0.034939029            9 
  495000    1.0627598   -6.3291334    202.85481  0.034150641  0.034918508            4 
  496000    1.0546759    -6.314874     203.7428  0.034230982  0.034897765            7 
  497000    1.0637583   -6.3204021    203.58353    0.0341354   0.03487637            2 
  498000    1.0797491   -6.3403713    203.71216   0.03408838  0.034855264            6 
  499000    1.0367124   -6.3214629    204.52889   0.03415646   0.03483434            5 
  500000    1.0524107   -6.3393922    205.19037  0.034198395  0.034813159            4 
  501000    1.0645244   -6.3131155    205.41496  0.034167491  0.034792868           12 
  502000    1.0589372   -6.3133295    205.48789  0.034111535  0.034772694            9 
  503000    1.0468996   -6.3176822    205.90099  0.034112158  0.034752284            6 
  504000    1.0531414   -6.3014649     205.5648  0.033988889  0.034731503            3 
  505000    1.0334207    -6.348888    205.96577  0.033987752  0.034711271            7 
  506000    1.0340911   -6.3225638    206.49754  0.034008159  0.034690623            6 
  507000    1.0538017   -6.3391289    207.16017  0.034049996  0.034670148            3 
  508000    1.0539247   -6.2904499    207.66857  0.034066366  0.034649619            4 
  509000    1.0307925   -6.3070329    207.19778  0.033922361  0.034629549            5 
  510000    1.0769508   -6.3385191    208.12633   0.03400757  0.034609772            5 
  511000    1.0397473   -6.3274025    207.73366  0.033876984  0.034589357            6 
  512000    1.0525585    -6.297664    208.69066  0.033966578  0.034568757            4 
  513000    1.0344226   -6.3159407    208.16136  0.033814386   0.03454823            5 
  514000    1.0369637    -6.338823    208.56054  0.033813317  0.034527152            4 
  515000    1.0613197   -6.3458822    209.54321  0.033906667  0.034506571            3 
  516000    1.0540708   -6.3527668    209.40816  0.033819147  0.034486579            1 
  517000    1.0359886   -6.3424713    209.69847  0.033800526  0.034466375            4 
  518000    1.0438736   -6.3300399    210.20709  0.033817099  0.034446352            8 
  519000    1.0582605   -6.3614115    210.01383   0.03372091  0.034426036            4 
  520000    1.0452818   -6.3261648    210.73366  0.033771419  0.034405175            7 
  521000    1.0549806   -6.3337495    210.48246  0.033666421  0.034384802            6 
  522000    1.0601433   -6.3241238    211.37088  0.033743755  0.034364748            4 
  523000    1.0393849    -6.323938    210.98349   0.03361751  0.034343939            2 
  524000    1.0450195    -6.351978    211.43328  0.033624886  0.034322165           10 
  525000    1.0220404   -6.2953015    211.43833  0.033561639  0.034300293            6 
  526000    1.0431933   -6.3339058    211.28993  0.033474324  0.034278419            2 
  527000    1.0419702   -6.3810684    211.39427  0.033427305  0.034256361           10 
  528000    1.0520839   -6.3018385    212.02393  0.033463373  0.034234487           16 
  529000    1.0296653    -6.363729    212.28602  0.033441402  0.034212678            4 
  530000     1.061245   -6.3406702     213.1207  0.033509544  0.034191032            5 
  531000    1.0394802   -6.3644692    213.28483  0.033472195  0.034169661            4 
  532000    1.0501773   -6.3628802    213.15493   0.03338893  0.034147473            4 
  533000    1.0423716   -6.3678912    213.63995  0.033402118   0.03412498            3 
  534000    1.0219294   -6.3013312    214.07085  0.033406812  0.034103101            7 
  535000    1.0399311   -6.3389228    213.86694  0.033312607  0.034080612            4 
  536000    1.0202303    -6.349517    214.51048  0.033350511  0.034058257            8 
  537000    1.0745117   -6.3297494    214.48477  0.033284414  0.034035525           11 
  538000    1.0525463   -6.3482144    214.23556  0.033183947  0.034012575            5 
  539000    1.0399407    -6.338706    214.33051  0.033137061  0.033989487            4 
  540000    1.0584041   -6.3256855    214.57332  0.033113167  0.033966015            4 
  541000    1.0467601   -6.3534571    214.69695  0.033071003  0.033942813            5 
  542000    1.0412706   -6.2795265      215.501   0.03313361  0.033919956            7 
  543000    1.0031981   -6.3577701    214.65845  0.032943286  0.033896725            6 
  544000     1.061284   -6.3535737    215.62252   0.03303041  0.033873159            5 
  545000    1.0321665   -6.3368628    215.69854  0.032981428  0.033849681            3 
  546000    1.0190591   -6.3636794    215.10415  0.032830303  0.033825553            6 
  547000    1.0460796   -6.3669392     215.6082  0.032847075  0.033801312            6 
  548000    1.0498219   -6.3343458    216.08762  0.032860039  0.033777001            3 
  549000    1.0306217   -6.3666452    215.85094  0.032764259  0.033752256            5 
  550000    1.0169721   -6.3818842    216.72542  0.032837185  0.033727764            5 
  551000    1.0496101   -6.3690129    216.90958  0.032805442  0.033703018            3 
  552000      1.02216   -6.3627196    216.86021  0.032738558  0.033678567            5 
  553000    1.0112442   -6.3563356    216.84862   0.03267761  0.033653847            6 
  554000    1.0566049   -6.3508681    217.19988  0.032671462  0.033628715            6 
  555000    1.0225218   -6.3650463    217.76369  0.032697251  0.033604199            4 
  556000    1.0338523   -6.3877512    217.46714  0.032593995  0.033579514            6 
  557000     1.026611   -6.3611107    218.71786    0.0327226  0.033554768            3 
  558000    1.0449416   -6.3558515    218.99175  0.032704861  0.033530591            6 
  559000    1.0262692   -6.3691233     218.1915  0.032527057  0.033506533            7 
  560000    1.0125587   -6.3560851    219.12458  0.032607824  0.033482492            9 
  561000    1.0174275   -6.3607071    219.56474  0.032615083  0.033458742            8 
  562000    1.0496429   -6.3668938    220.21007  0.032652738  0.033435171            5 
  563000    1.0386011   -6.3914712    219.35927  0.032468809  0.033412112            6 
  564000    1.0312426   -6.3499904     220.6933  0.032608348  0.033388864            9 
  565000     1.022631   -6.3752203    220.73831  0.032557273   0.03336587            4 
  566000     1.006444   -6.3603342    221.72154  0.032644514  0.033343266            5 
  567000    1.0272877   -6.3759161    222.47809  0.032698133  0.033320796            4 
  568000      1.00454   -6.3809925    222.27707  0.032611072  0.033298578            4 
  569000     1.021658   -6.3502307    222.99619  0.032659079  0.033276302            6 
  570000    1.0510191   -6.3726549     222.6884  0.032556783  0.033254046            7 
  571000    1.0326243   -6.3934072    223.79638  0.032661468  0.033231924            7 
  572000    1.0352676   -6.4103273    223.17602  0.032513988  0.033210003            3 
  573000    1.0607935   -6.3657301    223.94688  0.032569354  0.033187986            3 
  574000    1.0366249   -6.3782838    224.03473  0.032525368   0.03316614            4 
  575000    1.0201225   -6.4120979    224.60712  0.032551757  0.033144254            4 
  576000   0.99784145   -6.3805267    224.01394  0.032409424  0.033122233            4 
  577000    1.0246966   -6.3443268    225.10031  0.032510154  0.033100454            3 
  578000    1.0409034   -6.3830128    224.91967  0.032427865  0.033078837            7 
  579000    1.0105456   -6.3876367    225.54152  0.032461359  0.033057244            6 
  580000    1.0283587   -6.3609252    226.83246  0.032590871  0.033036052            3 
  581000    1.0473626   -6.3771699     226.9188   0.03254716  0.033015019            2 
  582000    1.0048082   -6.3665248    226.80726  0.032475267  0.032994416            7 
  583000    1.0257023   -6.3617254    227.00258  0.032447481  0.032973695            3 
  584000    1.0424528   -6.3938838    227.64045   0.03248294  0.032952764            6 
  585000    1.0115674   -6.3671001    227.46789  0.032402833  0.032932351            9 
  586000     1.011256   -6.3587461    227.74571  0.032387047  0.032912131            6 
  587000    1.0318885   -6.3539124     228.4891  0.032437408  0.032891668            8 
  588000    1.0195966   -6.3945589    228.75575  0.032420032  0.032871627            5 
  589000    1.0053679   -6.4140755    228.57328  0.032339174  0.032851441            6 
  590000    1.0151233   -6.3654717    228.76654  0.032311658  0.032831589            9 
  591000    1.0187123   -6.3710073    229.86994  0.032412569  0.032811593            6 
  592000    1.0298216   -6.4259756    229.18058   0.03226078  0.032791865            4 
  593000    1.0285108   -6.4008546     230.4487  0.032384584  0.032772073            5 
  594000     1.001615   -6.4048995     230.5856   0.03234927  0.032752458            4 
  595000    1.0202574   -6.3904357    231.80452  0.032465619  0.032733715            6 
  596000    1.0243525   -6.4043038    230.86314  0.032279522  0.032714768           10 
  597000    1.0257273   -6.3926115    231.83381  0.032360945  0.032695471            6 
  598000    1.0211419   -6.3862576    231.50678  0.032261257  0.032676415            4 
  599000   0.99315194   -6.4019461    232.11227  0.032291634  0.032657183            2 
  600000    1.0126163   -6.3981133    232.19268  0.032248983  0.032638118            5 
  601000    1.0014639    -6.385051    232.76839  0.032275151  0.032619565            4 
  602000    1.0211424   -6.3752356     234.7346  0.032493716  0.032601541            5 
  603000    0.9967403   -6.3958512    234.55703  0.032415289  0.032583822            8 
  604000    1.0016843   -6.3963282    234.23529  0.032317231  0.032565556            4 
  605000   0.99523677   -6.4231682    233.92135  0.032220571  0.032547217            2 
  606000    1.0284191   -6.4236782    234.17229   0.03220191  0.032528758            8 
  607000    1.0182553   -6.3872626    234.56398  0.032202633  0.032510648            7 
  608000     1.018005   -6.3889497    235.72903  0.032309352  0.032492347            3 
  609000    1.0117594   -6.3719577    235.65283  0.032245871  0.032474335            6 
  610000    1.0148496   -6.4241968    236.02772  0.032244224  0.032456374            8 
  611000    1.0144531   -6.4034292    236.67781  0.032280116  0.032438663           10 
  612000    1.0009473    -6.402878    237.21412  0.032300398  0.032420937            5 
  613000    1.0046981    -6.416569    236.19518  0.032109186   0.03240324            5 
  614000    1.0501586   -6.4223158     236.6395  0.032117196  0.032385191            4 
  615000    1.0176792   -6.4061106    236.81049  0.032088143  0.032367572            2 
  616000    1.0067838   -6.4053549    237.15541  0.032082712  0.032350139            5 
  617000    1.0039177   -6.3979572    238.04637  0.032151049   0.03233236            3 
  618000    1.0577947   -6.4407199    237.27092  0.031994461  0.032314309            6 
  619000   0.99988982   -6.4106689    237.89972  0.032027426   0.03229591            5 
  620000    1.0129687   -6.3873965     237.9795  0.031986492  0.032277579            5 
  621000    1.0060411   -6.4171559    238.12176  0.031954074  0.032259057            9 
  622000    1.0011699   -6.4241719    239.44566  0.032080072  0.032241127            5 
  623000    1.0032998   -6.4215313    239.26237  0.032004062   0.03222342            9 
  624000   0.99062975   -6.3980065    239.88052  0.032035325  0.032205602            6 
  625000    1.0128948   -6.3973787    240.38677  0.032051569  0.032187909            5 
  626000   0.99349586   -6.3921602    240.41465   0.03200408  0.032169636            5 
  627000   0.98599791   -6.4160461    239.57128  0.031840946  0.032151442            3 
  628000   0.99566733    -6.414178    240.22658    0.0318772  0.032133484           11 
  629000    1.0149709   -6.4231464     240.4812  0.031860255  0.032115663           10 
  630000   0.98496203   -6.4258233    241.89956  0.031997296  0.032098045            7 
  631000     1.013379   -6.4163703    241.99999   0.03195985  0.032080276            7 
  632000   0.96659122   -6.3882025    242.08288   0.03192021  0.032062571            2 
  633000      1.01716   -6.4068178    242.27513  0.031895093  0.032045186           11 
  634000    1.0229014   -6.4105928    241.99537  0.031808014  0.032027631            5 
  635000   0.99982324   -6.4327904    242.25705  0.031792264  0.032009674            8 
  636000   0.99151436   -6.3946934    243.48857  0.031903638  0.031991957            5 
  637000   0.98984515   -6.4197351    243.10922  0.031803927  0.031974267            3 
  638000   0.99370109   -6.3864758    243.08146  0.031750452  0.031956431            7 
  639000    1.0079848   -6.4495747    243.20484  0.031716854  0.031938627            4 
  640000     0.991126   -6.4600462    243.29407  0.031678915    0.0319207            8 
  641000   0.98417864   -6.4252294    244.26435  0.031755635  0.031903076            8 
  642000    1.0054205   -6.4146654    245.17995   0.03182502  0.031885695            5 
  643000   0.99119351   -6.4016489    244.26727  0.031657241  0.031867807            2 
  644000   0.99944034   -6.4262245    244.40794  0.031626287  0.031849943            8 
  645000   0.99716771    -6.437746    244.89429  0.031640089  0.031831905            7 
  646000    0.9969829   -6.4046806    245.17492  0.031627312   0.03181381            3 
  647000   0.98707461   -6.4162371     245.6778    0.0316432  0.031795731            4 
  648000    1.0038683   -6.4101604    245.63161  0.031588428   0.03177776            4 
  649000    1.0050776   -6.4399321    244.88683  0.031444122  0.031759712            9 
  650000   0.98408494   -6.3915442    246.26319  0.031572204  0.031741765            6 
  651000   0.99765413   -6.4217636    246.15039  0.031509266  0.031723507            7 
  652000   0.99011287   -6.4489879    246.38404  0.031490802  0.031705064            5 
  653000   0.99707995   -6.4358811    246.34761  0.031437929  0.031686767            8 
  654000     0.984198   -6.4269005    247.30626  0.031512011  0.031668803            8 
  655000    1.0019108   -6.4184568    247.18375  0.031448314  0.031650893            5 
  656000   0.99710593   -6.4505154    247.40231  0.031428139  0.031633104            4 
  657000   0.97554199   -6.4568307     247.4223  0.031382839  0.031615292            3 
  658000   0.97704016    -6.434971    248.30481  0.031446912  0.031597599            3 
  659000   0.97209337   -6.4425726    247.56255   0.03130533  0.031579472            7 
  660000   0.96859916    -6.446299    248.07756  0.031322924    0.0315615            6 
  661000   0.99369118   -6.4500451    248.02532  0.031268951  0.031543259            3 
  662000   0.97857396   -6.4200061    248.70861   0.03130773  0.031525308            4 
  663000   0.98982969   -6.3851807    249.95865  0.031417628  0.031507213            8 
  664000   0.97701408   -6.4408351    249.24875  0.031281218  0.031489159            6 
  665000    1.0001497   -6.4622274    249.07381  0.031212257  0.031470738            4 
  666000   0.99347019   -6.4554823    249.20818  0.031182205  0.031452093            2 
  667000   0.99001245   -6.4179019    249.56528   0.03118007  0.031433744            6 
  668000     0.971193   -6.4381116    248.92665  0.031053724   0.03141544            5 
  669000   0.98165673   -6.4749294    249.58769  0.031089647  0.031396408            3 
  670000    1.0048966   -6.4713241    249.96238  0.031089848  0.031377568            9 
  671000   0.94619381   -6.4776741     250.2188   0.03107536  0.031358893            7 
  672000   0.99610541   -6.4298969    250.73335  0.031092926  0.031340423            5 
  673000    0.9943572   -6.4316668    250.75275  0.031049127  0.031322021           10 
  674000   0.96844021   -6.4291844    250.65549  0.030991035  0.031303287            3 
  675000    1.0013978   -6.4387013    251.48441  0.031047459  0.031284645            5 
  676000   0.99102995   -6.4599815    250.92028  0.030931987   0.03126631           13 
  677000   0.99537979   -6.4514262    251.27114  0.030929485  0.031247454            4 
  678000   0.98868366   -6.4646003    252.14667  0.030991478  0.031228492           12 
  679000   0.98114563    -6.432645    252.20552  0.030953059  0.031209772            7 
  680000   0.97549334   -6.4635085    251.87492  0.030867024  0.031191128            5 
  681000   0.98293076   -6.4623281    252.20726  0.030862366  0.031172272            3 
  682000   0.98406093   -6.4550209    253.07337  0.030922943  0.031153238            8 
  683000   0.95748091   -6.4395759    252.02336  0.030749556  0.031134201           10 
  684000   0.97075002   -6.4316001    252.13726  0.030718477  0.031115263            2 
  685000   0.98871459   -6.4716582    252.63486  0.030734168  0.031096187            7 
  686000   0.99319849   -6.4701295    253.28225   0.03076801  0.031077239            6 
  687000   0.96257379   -6.4621746    253.35736  0.030732334  0.031057943            3 
  688000   0.98010595   -6.4818838    253.04327  0.030649621  0.031038702            3 
  689000    0.9990553   -6.4531441    253.59175  0.030671474  0.031019472           13 
  690000     1.006382   -6.4533261    253.95317  0.030670673  0.031000133           13 
  691000   0.96968743   -6.4582467    253.77065  0.030604276  0.030980903            8 
  692000   0.97276932   -6.4681322    254.68211  0.030669811  0.030961726            5 
  693000    0.9853336   -6.4362907    255.04719  0.030669456  0.030942809            8 
  694000   0.96552967   -6.4737709    254.48092  0.030557267  0.030923835            4 
  695000    0.9623455   -6.4645463    254.89521  0.030562975  0.030904737            4 
  696000   0.98625539   -6.4445623     256.5754  0.030720234   0.03088595           10 
  697000   0.98572095   -6.5002601    255.98486  0.030605555  0.030867195            7 
  698000   0.96339099   -6.4725038    256.27717  0.030596606  0.030848538            9 
  699000   0.98124064   -6.4570356    255.99099  0.030518716  0.030829675           11 
  700000   0.97934939   -6.4530829    256.43032  0.030527419  0.030810861            6 
  701000   0.94406725   -6.4559351    255.91855  0.030423032  0.030791846            8 
  702000   0.97968237   -6.4946103    256.17766  0.030410453  0.030772356            7 
  703000   0.97018324   -6.4491779    256.63205  0.030421058  0.030753132            9 
  704000    0.9640992   -6.4563135    257.15176  0.030439366  0.030734023           13 
  705000   0.95933121   -6.4713233    257.36149   0.03042098   0.03071495            4 
  706000   0.97246213   -6.4741165    257.45778  0.030389256  0.030695978            5 
  707000   0.98356977    -6.443565     258.0942  0.030421287  0.030676718            5 
  708000   0.97230145   -6.4951333    257.68955  0.030330691  0.030657501            4 
  709000   0.96281021   -6.4640106    258.49789  0.030382921  0.030638366            4 
  710000   0.96946034   -6.4842959    257.60299  0.030235093  0.030619169            4 
  711000   0.97607155   -6.4522804    258.92052   0.03034699  0.030599697            7 
  712000    1.0050149   -6.4627386    258.51161  0.030256509  0.030580422            7 
  713000   0.97845101   -6.4723273    259.16438  0.030290367  0.030561109            8 
  714000   0.96205264   -6.4825677    257.97221  0.030108802  0.030541572            4 
  715000   0.96369056   -6.4234456    259.10115  0.030198269  0.030522076            3 
  716000   0.94188864   -6.4332681    258.85194  0.030127088   0.03050238            4 
  717000   0.95936719    -6.475332    259.89792  0.030206638  0.030482646            9 
  718000   0.95712768   -6.5015912    259.79089  0.030152146  0.030463434            7 
  719000    0.9688323   -6.4741253    260.38707  0.030179308   0.03044436            7 
  720000   0.97009809    -6.495454    260.24597  0.030121061  0.030425069            7 
  721000   0.97073138   -6.5194001    260.34454  0.030090678  0.030405818            5 
  722000   0.93618108   -6.5031599    261.40922  0.030171886  0.030386872            5 
  723000   0.96251405    -6.512063    261.16669    0.0301022  0.030368004            4 
  724000     0.962845   -6.4663574    262.14884  0.030173669  0.030349424            5 
  725000   0.96066664   -6.4808644    261.83705  0.030096213  0.030330978            6 
  726000   0.98410888   -6.4822106    261.97377  0.030070451  0.030312287            4 
  727000   0.96946967   -6.4905944    262.93884  0.030139711  0.030293784            5 
  728000   0.95514473   -6.4870773    262.73286  0.030074732  0.030275422            5 
  729000   0.95908644   -6.4847409     263.1325  0.030079161  0.030256794            8 
  730000   0.97169667   -6.4878543    263.47696  0.030077279  0.030238448            7 
  731000   0.96260992   -6.5145899      263.241  0.030009234  0.030220051            5 
  732000   0.94049294   -6.4936596     263.5647  0.030005089  0.030201624            9 
  733000   0.96434161   -6.4505716    264.46533  0.030066545  0.030183318            6 
  734000   0.98303081   -6.4852743    264.34828  0.030012293  0.030165244            9 
  735000   0.95064905   -6.5076001    264.52457  0.029991448  0.030147061            4 
  736000   0.94948806   -6.5091278    264.12855  0.029905859   0.03012855           12 
  737000   0.97636344   -6.5142856    264.84214  0.029945968    0.0301101            9 
  738000   0.97845065   -6.4910853    265.06051  0.029930049  0.030091694           14 
  739000   0.94250296   -6.5157145    264.90706  0.029872245  0.030073389            5 
  740000   0.95377539   -6.4907313    265.69931  0.029921093  0.030055306            8 
  741000    0.9655515    -6.520126     265.7524  0.029886685  0.030037453            5 
  742000   0.95266751   -6.4622376    265.90671  0.029863736   0.03001959            7 
  743000   0.94442843   -6.4949241    266.58078  0.029899145  0.030001549            5 
  744000   0.97464935    -6.506581    265.96155  0.029789601  0.029983423            7 
  745000   0.95210443    -6.500156    266.40151  0.029798827  0.029965571            9 
  746000   0.98006222   -6.4985298    266.35245  0.029753402  0.029947641            6 
  747000   0.94920746   -6.5043083    267.32854  0.029822461  0.029929706            8 
  748000   0.96763083   -6.4970518    267.43171  0.029794086  0.029911617            7 
  749000   0.94438211   -6.5050709    267.33333  0.029743361  0.029893395            5 
  750000   0.97234506    -6.497975    266.89681  0.029655201  0.029875201           12 
  751000   0.97045645   -6.4910811    268.15627  0.029755467  0.029856685           10 
  752000   0.94947634   -6.4997333    268.03973  0.029702985  0.029838246            4 
  753000   0.96078111   -6.4882576    267.85165  0.029642724  0.029819683            9 
  754000   0.95783041   -6.5053681    268.35186  0.029658694  0.029801398            3 
  755000   0.95630927    -6.527209    268.05627  0.029586785  0.029782986            7 
  756000   0.93747558   -6.5193004    268.19055   0.02956245  0.029764459            4 
  757000   0.92244774   -6.4712692    269.21349  0.029636007   0.02974634            4 
  758000   0.96124879   -6.5260436    268.47978  0.029516247  0.029728316            7 
  759000   0.95912784   -6.4893443    269.58899  0.029599143  0.029710184            5 
  760000   0.94521031   -6.4928539    268.76542  0.029469892  0.029692212            4 
  761000   0.94168174   -6.5257337    269.91978  0.029557576  0.029674242           11 
  762000   0.95007118   -6.5176256    269.85574  0.029511782  0.029656439            9 
  763000   0.93578146    -6.566119    269.77884  0.029464705  0.029638431            6 
  764000   0.96897561   -6.5073826    270.24217  0.029476676  0.029620736            5 
  765000   0.93767406   -6.4942604    270.76712  0.029495329   0.02960327            5 
  766000   0.95759197   -6.4939841    271.01302  0.029483575  0.029585703            4 
  767000   0.93748567   -6.4957939    271.04364  0.029448461  0.029568015           10 
  768000   0.95895155   -6.5310595    271.09969  0.029416198  0.029550576            9 
  769000   0.95174768   -6.5427379     271.7892  0.029452665  0.029533107            5 
  770000   0.93753875   -6.5093953    272.49892  0.029491225  0.029515794           14 
  771000   0.94454387   -6.5189808    272.71351  0.029476169  0.029498724            5 
  772000   0.95318912   -6.5003987    272.33232   0.02939684  0.029481563            5 
  773000   0.92272348   -6.5302943    272.71097   0.02939963  0.029464306           14 
  774000   0.95419453   -6.5265479    273.91192  0.029490948  0.029446904           13 
  775000   0.94828695   -6.5256524    273.93701  0.029455592   0.02942956            5 
  776000   0.93576448     -6.48329    273.87651  0.029411137  0.029412457            4 
  777000   0.94706058   -6.5568947    273.44531  0.029327039  0.029395183            5 
  778000   0.92566127   -6.5192763     273.9896  0.029347644  0.029377829            9 
  779000   0.94404577   -6.5174724     274.2241  0.029335056  0.029360473            8 
  780000   0.92725037   -6.5317579    273.95157   0.02926833  0.029342968            8 
  781000   0.96623581   -6.5181839    274.29655  0.029267664  0.029325663            6 
  782000   0.94565516   -6.5539089    274.53909  0.029256084  0.029308285            3 
  783000   0.93679592   -6.5459902    274.53173  0.029217936  0.029290847            5 
  784000   0.92210008   -6.5565839    275.20668  0.029252411  0.029273358            4 
  785000   0.94096534   -6.5335166    275.21478  0.029216007   0.02925578           11 
  786000   0.93437503   -6.5107368    274.73838  0.029128327  0.029238194            5 
  787000   0.93874451   -6.5390253    274.90346  0.029108795  0.029220438            9 
  788000   0.95303673    -6.528033    275.75473  0.029161879  0.029202719            6 
  789000    0.9301028   -6.5232447    275.86155  0.029136201  0.029185129            7 
  790000   0.93058497   -6.5367869    275.13464  0.029022641  0.029167296            7 
  791000   0.93072988   -6.5247616    274.73049  0.028943372  0.029149146            6 
  792000   0.92733915    -6.513048    275.52744  0.028990682  0.029130922            4 
  793000   0.95431134   -6.5433966    275.27329  0.028927416  0.029112951            6 
  794000   0.92623599   -6.5550228    275.85415  0.028951947  0.029094902           12 
  795000   0.94388139   -6.5425955    276.58255  0.028991881   0.02907671            5 
  796000   0.92973375   -6.5594118     275.8774  0.028881637  0.029058793            4 
  797000   0.95493463   -6.5577351    276.49094   0.02890955  0.029040694            7 
  798000   0.95264073   -6.5074166    277.17755  0.028945024  0.029022857            9 
  799000     0.933951   -6.5378027    277.27689  0.028919159  0.029004816            7 
  800000   0.92882699   -6.5412561     277.2295  0.028878073  0.028986823            7 
  801000   0.93870023   -6.5415782    277.70651  0.028891647  0.028969015            5 
  802000   0.91305933   -6.5466234    278.01873  0.028888064  0.028951347            6 
  803000   0.93571382   -6.5392169    277.96456  0.028846467   0.02893351            5 
  804000   0.94504994   -6.5640396    278.00308  0.028814581  0.028915631            7 
  805000   0.91032067   -6.5731365    277.81442  0.028759257  0.028897672            6 
  806000   0.95734634    -6.535099    278.24661   0.02876826  0.028879893            7 
  807000   0.92972612   -6.5356737    278.64775  0.028774034  0.028862102            3 
  808000   0.91507719   -6.5382769     278.4705  0.028720143  0.028844349            6 
  809000   0.92816202   -6.5348224    279.47129  0.028787731  0.028826679            6 
  810000   0.92909083    -6.549424    278.95435  0.028699007  0.028808756           11 
  811000   0.92463869   -6.5255147    279.81027  0.028751569  0.028790873            4 
  812000   0.93421291   -6.5360548      279.804  0.028715518     0.028773            6 
  813000   0.93846003   -6.5669201     279.3598  0.028634666  0.028755207            5 
  814000   0.92696842   -6.5575843    279.84679  0.028649344  0.028737248            5 
  815000   0.92843305   -6.5316394     279.8751  0.028617086  0.028719465            8 
  816000   0.90833819   -6.5530115    280.62332  0.028658428  0.028701618            6 
  817000   0.92912969   -6.5539152    279.95122  0.028554796  0.028683878            5 
  818000   0.94472871   -6.5401699    280.28451  0.028553841  0.028665846           16 
  819000   0.91556841   -6.5867288    279.89648  0.028479495  0.028647654            3 
  820000   0.93729149   -6.5283526    280.95599  0.028552438  0.028629615           11 
  821000   0.93628745   -6.5853988    281.65183   0.02858829  0.028611789            6 
  822000   0.91026872   -6.5521503    281.99647   0.02858845  0.028593951            7 
  823000   0.94026297   -6.5593021    280.97296  0.028450077   0.02857625           12 
  824000   0.91764443   -6.5794556    281.89496  0.028508794  0.028558446            8 
  825000   0.92686326   -6.5815796    281.36564  0.028420772  0.028540778            3 
  826000   0.92926952   -6.5673914     282.1984   0.02847038  0.028523084            7 
  827000   0.93108574   -6.6040676    281.76408  0.028392189  0.028505283            6 
  828000   0.90122919   -6.5538614    283.10282  0.028492634  0.028487566            7 
  829000    0.9211447    -6.553037    282.82319  0.028430156  0.028469925            4 
  830000   0.89586897    -6.583024    282.68529  0.028382057  0.028452389            4 
  831000   0.94413744    -6.580982    282.99728  0.028379189  0.028434716            5 
  832000   0.93724767   -6.5581118    283.49231  0.028394662  0.028417117           11 
  833000   0.89275819   -6.5620241    283.50238  0.028361582  0.028399395           14 
  834000   0.90554051   -6.6101701    282.51687  0.028229104   0.02838162           13 
  835000   0.93088614   -6.5670441    283.29906  0.028273359  0.028363715           10 
  836000   0.91085737   -6.5784294    284.52653  0.028361895  0.028345953            7 
  837000   0.91832058   -6.5652023    283.93396  0.028269013  0.028328368            6 
  838000    0.9113218    -6.556102    284.41432  0.028283047   0.02831066            4 
  839000   0.91046014   -6.5820778    284.11743  0.028219848   0.02829298            9 
  840000    0.9217213   -6.5698127    284.63104  0.028237207  0.028275332            5 
  841000   0.89879337   -6.5420505    283.82246   0.02812351  0.028257586            5 
  842000   0.91069278   -6.5834869    284.27464  0.028134862  0.028240075            5 
  843000   0.90731578   -6.5632175     284.3925  0.028113138  0.028222493            8 
  844000   0.90324494   -6.5198063    285.29309  0.028168749  0.028204855            6 
  845000   0.91215403    -6.549521     285.4967  0.028155493  0.028187218            5 
  846000   0.93140872   -6.5643082    285.78922  0.028151027  0.028169507           11 
  847000   0.92229981   -6.5695429    285.75272    0.0281142  0.028152079            9 
  848000   0.91559472   -6.6070758    285.99538  0.028104892  0.028134289           11 
  849000   0.90056442   -6.5742972    285.88551  0.028061004  0.028116663           10 
  850000   0.90672765   -6.5791541    286.43921  0.028082276  0.028099076            6 
  851000   0.91476319   -6.5718248    287.04752  0.028108845  0.028081561            7 
  852000   0.89684037   -6.6089899    286.88261  0.028059723  0.028063966            4 
  853000   0.89141265   -6.5971867    286.90114  0.028028638  0.028046701            8 
  854000   0.91975828   -6.5854828    287.12127  0.028017298  0.028029345            3 
  855000      0.92858   -6.5677094    287.75827  0.028046615  0.028012277            6 
  856000   0.92220557   -6.5838396    287.98387  0.028035813  0.027995293            8 
  857000   0.92549864   -6.5687797    288.22757  0.028026796  0.027978148            5 
  858000   0.93235771   -6.5909379    287.53945  0.027927297  0.027960992           10 
  859000   0.90289206   -6.5730012    288.83163  0.028020142  0.027943846            4 
  860000   0.90414102   -6.6162829     287.1347   0.02782313  0.027926614           10 
  861000   0.92845208   -6.6161947     287.8997  0.027864857  0.027909052            9 
  862000    0.9320015    -6.562745    288.80371  0.027919926  0.027891742            5 
  863000   0.90870429   -6.5940612    288.90417  0.027897274  0.027874616           14 
  864000   0.90995465   -6.5887098    288.34301  0.027810861  0.027857515            7 
  865000    0.9132448   -6.5733115    289.23314  0.027864464  0.027840402           10 
  866000   0.90715863   -6.6197646    288.57304  0.027768768  0.027823098            8 
  867000   0.90023542   -6.6040956    288.93746  0.027771767   0.02780568            5 
  868000   0.90942227   -6.5940203    289.69819  0.027812807  0.027788366            8 
  869000   0.89423816   -6.5888572      289.718    0.0277827  0.027770936            5 
  870000   0.88996379   -6.6109196    289.74159  0.027753026  0.027753661           24 
  871000   0.90736086   -6.5908018    289.39842  0.027688329  0.027736411           14 
  872000   0.89565511   -6.5979685    290.85067  0.027795362  0.027719225           14 
  873000   0.90919836   -6.5805295    290.39865  0.027720375  0.027701965            4 
  874000   0.91233576   -6.6116374    289.83174  0.027634605  0.027684615           11 
  875000   0.90203397   -6.5783552    291.03472  0.027717592   0.02766752           11 
  876000   0.88419366   -6.5992168     291.2315   0.02770467  0.027650497            6 
  877000    0.9119784   -6.5948145    291.73017  0.027720465  0.027633684            7 
  878000   0.89692532   -6.5934914    292.50817  0.027762734  0.027617002           21 
  879000   0.90346336   -6.5779494     291.8234  0.027666231  0.027600375            6 
  880000   0.90208868   -6.6103419    291.33241  0.027588296  0.027583473            9 
  881000   0.91453654   -6.5793147    292.21782  0.027640732  0.027566393           12 
  882000   0.90356538   -6.5956941     292.1862  0.027606406  0.027549489           21 
  883000   0.90164296   -6.6081189     292.2617  0.027582267  0.027532546           13 
  884000   0.89119656   -6.6167658    292.32109  0.027556664  0.027515528            7 
  885000   0.90349563   -6.5859038    292.42215  0.027535042  0.027498624            9 
  886000   0.89086441    -6.606671    292.52181  0.027513338   0.02748183            8 
  887000   0.89547922   -6.6100616    293.10911  0.027537496  0.027465085            5 
  888000   0.88257519   -6.5903778    293.11243  0.027506797  0.027448292            7 
  889000   0.88258534   -6.6460785    293.76189  0.027536735  0.027431639            8 
  890000   0.90508711   -6.6060491    293.85462  0.027514477  0.027414993            7 
  891000   0.89712753   -6.6221987    294.31055  0.027526239  0.027398396            9 
  892000   0.88866773   -6.6129458     294.7649  0.027537827  0.027381975            6 
  893000   0.92183526   -6.6177654    294.61642  0.027493134  0.027365481           16 
  894000    0.8794944   -6.6257255      294.378  0.027440156  0.027349174            5 
  895000   0.90740581   -6.6341602    294.83451  0.027452003  0.027332718           13 
  896000   0.90564333   -6.6318243    295.18406  0.027453875   0.02731616           13 
  897000   0.88501992   -6.6028866    294.44739   0.02735483  0.027299657            9 
  898000   0.88934897   -6.6396636    294.80682  0.027357722  0.027283012            5 
  899000   0.90717674   -6.6232859    295.18885  0.027362704  0.027266634            8 
  900000   0.87893267   -6.6571618    295.65181  0.027375168  0.027250054            6 
  901000    0.9139153   -6.5862725    295.18018  0.027301163   0.02723331            7 
  902000   0.89659918   -6.5943372    296.29424  0.027373821    0.0272169           12 
  903000   0.90906492   -6.6160905    295.69943  0.027288614   0.02720033           14 
  904000   0.88957282   -6.6069564    295.53701  0.027243455  0.027183575            7 
  905000   0.90578514   -6.6316475    295.30094  0.027191615  0.027167017            7 
  906000   0.89132187   -6.6237795    296.13705  0.027238507  0.027150472            6 
  907000   0.88418423   -6.6057933    296.54021  0.027245518   0.02713378            3 
  908000   0.91562183   -6.6058003    296.24861  0.027188749  0.027116988            6 
  909000   0.89085592   -6.6189781    296.61976  0.027192864  0.027100149           19 
  910000   0.90167644   -6.6149741    297.19904  0.027216029  0.027083358           11 
  911000   0.89738106   -6.6255721    297.02545  0.027170275  0.027066442            9 
  912000   0.89666816   -6.6152823    296.15904  0.027061316  0.027049616            9 
  913000   0.89467153   -6.5954133    297.55074  0.027158702  0.027032793            8 
  914000   0.89155717   -6.6250594    297.30402  0.027106493  0.027015866           14 
  915000   0.90119016   -6.5897459    298.12018    0.0271512  0.026999091            3 
  916000   0.90214994   -6.6089799     297.3539  0.027051847  0.026982473            5 
  917000   0.87348267   -6.6605369    297.42334  0.027028657  0.026965607           10 
  918000   0.87630111    -6.643607    297.22622   0.02698132  0.026948798            8 
  919000   0.88542892   -6.6182179    298.44562  0.027062533  0.026932113           18 
  920000   0.89654706   -6.6338115    298.73011  0.027058886  0.026915677            4 
  921000   0.89338296   -6.6111612    298.42608  0.027001997  0.026899145            4 
  922000   0.89608693    -6.631697    298.58277  0.026986873  0.026882627            9 
  923000   0.89913535   -6.6226637    299.04144  0.026999047  0.026866246           13 
  924000   0.88842666   -6.6341294    298.39424  0.026911458  0.026849977           12 
  925000   0.88462012   -6.6305779    299.73452   0.02700311  0.026833893           14 
  926000   0.88085703    -6.629244    301.08366  0.027095362  0.026818065           10 
  927000   0.90957034   -6.6422172    299.49314  0.026923152  0.026801961           11 
  928000    0.8879259   -6.6537297    299.77787  0.026919709  0.026785789           10 
  929000   0.89717885   -6.6474555    300.21914  0.026930314  0.026769661            8 
  930000   0.88420086   -6.6412848      300.292  0.026907885  0.026753439            5 
  931000   0.90121228   -6.6380888    300.82595  0.026926777  0.026737341           22 
  932000    0.8954943   -6.6517381    300.78824  0.026894514   0.02672114           15 
  933000   0.86830495   -6.6256865    300.97328  0.026882215   0.02670482            9 
  934000   0.86470581   -6.6435805    300.72859  0.026831601  0.026688685            6 
  935000    0.8858573    -6.644476    301.61885   0.02688225  0.026672448           14 
  936000   0.87918084   -6.6512859    300.92965   0.02679217  0.026656303            9 
  937000   0.86152032   -6.6763639    301.44229  0.026809169  0.026640126            4 
  938000   0.88080762    -6.655108    301.87777  0.026819276   0.02662406            5 
  939000   0.88945299   -6.6422855    301.84922   0.02678818  0.026607931            6 
  940000   0.87520893   -6.6726894    301.62572  0.026739869  0.026591578            6 
  941000   0.88007026   -6.6557923    302.64529  0.026801744  0.026575353            6 
  942000   0.89242898   -6.6367036    302.08698  0.026723901  0.026559421           22 
  943000   0.85729659   -6.6204946    303.40872  0.026812365  0.026543469            7 
  944000   0.87464252   -6.6774251    302.99927  0.026747816    0.0265276            9 
  945000   0.88841167   -6.6217426    303.45108  0.026759355  0.026511625            4 
  946000   0.87425648   -6.6496389    303.13024  0.026702804  0.026495766           16 
  947000   0.88115824   -6.6655232    303.33242  0.026692399  0.026479734            4 
  948000   0.86259988   -6.6707129    303.99154  0.026722182  0.026463686           11 
  949000   0.86278212   -6.6570849    302.91564  0.026599547  0.026447588            7 
  950000   0.88005513   -6.6951649    303.46326  0.026619584  0.026431496            7 
  951000    0.8816909   -6.6460373    303.64596  0.026607602  0.026415531            8 
  952000   0.88275994   -6.6743376    303.76712  0.026590259  0.026399618           11 
  953000    0.8938562   -6.6757873    304.47154  0.026623954  0.026383778            7 
  954000   0.87203345    -6.665598    303.54875  0.026515439   0.02636775            7 
  955000   0.85316384    -6.678869    304.79033  0.026596015  0.026351806            9 
  956000   0.87714188   -6.6917826    304.33371  0.026528392  0.026336014            7 
  957000   0.87645362   -6.6604466    305.69775  0.026619449  0.026320386           12 
  958000   0.85824349   -6.6522101    304.77068  0.026511019   0.02630477           10 
  959000    0.9198403    -6.694101    305.25707  0.026525641  0.026289127            9 
  960000   0.89355119     -6.67111    305.27961  0.026499966  0.026273424            7 
  961000   0.88434158   -6.6637092    304.93528  0.026442532  0.026257664            9 
  962000   0.87139247   -6.6747989    305.65906  0.026477743  0.026241771            8 
  963000   0.88582083   -6.6438268    306.75257  0.026544875  0.026226145            6 
  964000   0.86659331   -6.6297902    306.52261  0.026497459  0.026210651           10 
  965000   0.86387685   -6.6626047    306.77557  0.026491845   0.02619513           30 
  966000     0.865637   -6.6780902    305.86392  0.026385776   0.02617939           10 
  967000   0.87099025   -6.6769716    306.68705  0.026429425  0.026163834            3 
  968000   0.85141853   -6.6578932    307.37573  0.026461409  0.026148415           38 
  969000    0.8702042   -6.6772036     307.1618  0.026415703  0.026133064            8 
  970000   0.86755028   -6.6773596    307.74073  0.026438207  0.026117745           10 
  971000   0.85887579   -6.7055398    307.91807  0.026426199  0.026102267            7 
  972000   0.88232704   -6.6583637    307.30553  0.026346496  0.026086893           32 
  973000   0.88957328   -6.6962364    307.83318  0.026364609  0.026071449           11 
  974000   0.85159065   -6.7071684     307.3858  0.026299265  0.026055836            5 
  975000   0.85539091   -6.6710906    308.04407  0.026328553  0.026040406           10 
  976000   0.85650362   -6.6910901    307.84239  0.026284357  0.026024981            7 
  977000   0.85232981   -6.7215784     307.3935  0.026219166  0.026009356           12 
  978000   0.85269717   -6.6845011    308.37474  0.026275967  0.025993842            7 
  979000    0.8628659   -6.6668529    308.82778   0.02628769  0.025978337           11 
  980000   0.85235006   -6.6997842    308.21413  0.026208684  0.025962942            8 
  981000   0.86269927   -6.7115701    307.84738  0.026150813  0.025947417           14 
  982000   0.85136709   -6.7170122    308.35402  0.026167177  0.025931861           13 
  983000   0.86796515    -6.657819    309.42323  0.026231199  0.025916321           10 
  984000   0.85785339    -6.699982    309.56734  0.026216746  0.025900835            9 
  985000   0.85492953   -6.6718602    309.13235  0.026153329  0.025885348           11 
  986000   0.85427132   -6.6858215    308.64088  0.026085267  0.025869939            6 
  987000   0.86973618   -6.6585799    309.07946  0.026095868  0.025854497           15 
  988000   0.87378016   -6.6832049    309.54911  0.026109068    0.0258389           31 
  989000   0.86510041   -6.6753419    309.50192  0.026078692  0.025823389           30 
  990000   0.85564918   -6.7007284    309.69243  0.026068386  0.025807898           10 
  991000   0.84896551   -6.6799954    310.68243   0.02612533  0.025792439           11 
  992000   0.85064418   -6.6806183    310.40691  0.026075849  0.025777178            6 
  993000   0.83676805   -6.6862104      310.865  0.026088033  0.025761936           11 
  994000   0.85936168   -6.7028907    310.35171  0.026018755   0.02574661            7 
  995000   0.84647552   -6.6909971    310.25346  0.025984377  0.025731261           14 
  996000   0.86624585   -6.6976248    311.08395  0.026027773  0.025715748            9 
  997000   0.85105136   -6.6736005    310.37716  0.025942591  0.025700251            6 
  998000   0.86965653    -6.696876    311.24856  0.025989359  0.025684931           14 
  999000   0.83565496   -6.7077842    311.00894  0.025943355  0.025669533            7 
 1000000   0.84804155    -6.671966    311.54117  0.025961765  0.025654244            4 
 1001000   0.85471741   -6.6817212    311.49383  0.025931888  0.025638838            6 
 1002000   0.87275196    -6.720178    311.95518  0.025944377  0.025623619           10 
 1003000    0.8513669   -6.6981776    312.24065  0.025942227  0.025608379            9 
 1004000   0.85346259   -6.7012176     311.8353  0.025882744  0.025593073           20 
 1005000   0.86277145   -6.6893094    312.14277  0.025882485  0.025577727           11 
 1006000   0.84699292   -6.7298697    312.08455  0.025851934  0.025562272            9 
 1007000   0.84974264   -6.7072393    312.58756  0.025867888  0.025546706           11 
 1008000   0.84943701   -6.6926757    312.91656  0.025869424   0.02553143           10 
 1009000   0.86652015   -6.6868522    312.74226   0.02582939  0.025516245           10 
 1010000   0.86017448   -6.7046254     313.2835  0.025848474  0.025501024           14 
 1011000   0.84229466   -6.7026681    312.90254  0.025791505  0.025485749            5 
 1012000   0.85183215   -6.6978491    312.79221  0.025756934  0.025470387           27 
 1013000   0.86180562    -6.718861    313.01953  0.025750208  0.025455196           10 
 1014000    0.8476631   -6.7298759    313.32217  0.025749685  0.025439787            9 
 1015000   0.84885521   -6.7220121    313.18841  0.025713334  0.025424235            6 
 1016000   0.86201885   -6.7192616     312.9977  0.025672383  0.025408911           12 
 1017000   0.84323614   -6.7261179    314.12687  0.025739665  0.025393705           21 
 1018000   0.85145567   -6.7210859    313.67835  0.025677664  0.025378484           11 
 1019000   0.87478768   -6.6777536    314.12649  0.025689115  0.025363235           19 
 1020000   0.83807124   -6.6957979    313.73738  0.025632139  0.025348011            7 
 1021000   0.85659368   -6.7068659    314.10838  0.025637315  0.025332795            9 
 1022000   0.83893191   -6.7206884    314.01831  0.025604885  0.025317476           13 
 1023000   0.84701744    -6.690275    315.12556  0.025670052   0.02530228            9 
 1024000   0.84904155   -6.7266141    314.96629  0.025632023  0.025287245           15 
 1025000   0.85408266   -6.7137012    315.74475  0.025670305    0.0252722            6 
 1026000   0.84222904   -6.7198588    315.06025  0.025589689  0.025257255            4 
 1027000   0.85517263   -6.6858217    315.76578  0.025622021  0.025242354            9 
 1028000   0.84985362   -6.7201944    315.33882  0.025562485  0.025227479           15 
 1029000   0.84846901   -6.7139096     316.1416  0.025602656  0.025212535            8 
 1030000   0.84333034   -6.7341601    315.52844  0.025528191  0.025197432           13 
 1031000   0.84720237    -6.719769    315.57433   0.02550714  0.025182305            8 
 1032000   0.83358058   -6.7147265    315.53236  0.025479034  0.025167233           10 
 1033000    0.8426894   -6.7111529    316.96605  0.025570027  0.025152184            8 
 1034000     0.833807   -6.7296371    316.20286  0.025483789  0.025137128            9 
 1035000   0.84042534    -6.758771    315.39872  0.025394422  0.025122104           15 
 1036000   0.82211225   -6.7166164    317.23402  0.025517537   0.02510719           12 
 1037000   0.85893072   -6.7104336    316.56576  0.025439228  0.025092318            5 
 1038000    0.8101174   -6.7366571    317.50472  0.025490103  0.025077454           24 
 1039000   0.82989228   -6.7067356    317.74847  0.025485119  0.025062837           10 
 1040000   0.84664551   -6.7165372    317.71385   0.02545784  0.025048297           10 
 1041000   0.82278745   -6.7153163    317.29268   0.02539967  0.025033887           15 
 1042000   0.85382062   -6.7251689     317.5079  0.025392506  0.025019389            7 
 1043000   0.84473723   -6.7147508    318.08838   0.02541454   0.02500482           11 
 1044000   0.84543998    -6.717621    318.60698  0.025431592  0.024990348           23 
 1045000   0.84278886   -6.7530938     318.1833  0.025373469  0.024975743           14 
 1046000   0.83843013   -6.7280506    318.42017  0.025368082  0.024961073           19 
 1047000   0.84393346   -6.7117346    318.59584  0.025357835   0.02494651           10 
 1048000   0.82889284   -6.7358576    318.86937  0.025355389  0.024931954           10 
 1049000    0.8296382   -6.7212978    319.69305  0.025396651  0.024917429            8 
 1050000   0.81341735   -6.7240354     318.3053  0.025262325  0.024902818           21 
 1051000   0.83373183    -6.735311     318.2559  0.025234372  0.024888066           11 
 1052000    0.8471201   -6.7248323     318.8739  0.025259339  0.024873352           10 
 1053000   0.84809101   -6.7316721    318.67809  0.025219855  0.024858454           10 
 1054000   0.82077332   -6.7434281    319.14174  0.025232585  0.024843685           19 
 1055000   0.83285386   -6.7453391    318.65551  0.025170262   0.02482879            8 
 1056000   0.83155339   -6.7793753    318.98698  0.025172584  0.024813849           23 
 1057000   0.83968813   -6.7439767     319.0333   0.02515242  0.024798851            9 
 1058000   0.82116161   -6.7582182    318.48315  0.025085314  0.024783866           11 
 1059000   0.84759134   -6.7765726    319.18616  0.025116947  0.024768781           22 
 1060000   0.82634293   -6.7617849    318.88475  0.025069556  0.024753831           10 
 1061000   0.82358283   -6.7462436    319.32148   0.02508023  0.024738714            9 
 1062000   0.83119596   -6.7403465    320.07969  0.025116108  0.024723837           11 
 1063000   0.82286023    -6.718045    319.82419  0.025072451  0.024709061            9 
 1064000   0.82450907   -6.7255496    320.43222  0.025096509  0.024694251           10 
 1065000    0.8379096   -6.7264299    320.42387   0.02507229   0.02467945           10 
 1066000   0.82599436   -6.7399028    320.63507  0.025065281  0.024664651           12 
 1067000   0.81919399   -6.7684839    320.35177  0.025019663  0.024649922           17 
 1068000   0.82774566   -6.7606182    320.32578  0.024994209  0.024635174           11 
 1069000   0.81937108   -6.7528706    320.86575  0.025012921  0.024620403           12 
 1070000   0.81792473   -6.7799525     321.0559  0.025004353  0.024605666           11 
 1071000   0.83845192   -6.7164414    321.07025  0.024982123  0.024590993           13 
 1072000   0.82851817   -6.7395484    320.81277  0.024938804  0.024576195           14 
 1073000   0.82208212   -6.7564485    321.39988  0.024961159  0.024561409           18 
 1074000   0.82685143   -6.7698644    321.45558  0.024942239  0.024546656           17 
 1075000   0.82704359   -6.7693884     320.7725  0.024866085  0.024531797            7 
 1076000   0.83904739   -6.7687855    321.38692  0.024890561  0.024516894           18 
 1077000   0.82844212   -6.7663775    321.17655  0.024851173  0.024502041           10 
 1078000   0.80775175   -6.7946173      321.172  0.024827768  0.024487188           12 
 1079000   0.83041982   -6.7778041    320.22252  0.024731427   0.02447217           16 
 1080000   0.83239994   -6.7790213    321.10866  0.024776903  0.024457274           17 
 1081000   0.80881487   -6.7662013    322.29405  0.024845363  0.024442442           13 
 1082000   0.81237394   -6.7442486    321.84844   0.02478808  0.024427631            8 
 1083000   0.81367184   -6.7415243    322.19284  0.024791693  0.024412777           12 
 1084000    0.8229177   -6.7612893    322.25405  0.024773528  0.024397896           10 
 1085000   0.81880589   -6.7514813    322.57188  0.024775106  0.024383042           19 
 1086000   0.82441682   -6.7706044    322.77046  0.024767531    0.0243683           20 
 1087000   0.82306773   -6.7715223    323.07948  0.024768436   0.02435368           10 
 1088000   0.82203499    -6.737389    322.62212   0.02471064  0.024339057           10 
 1089000   0.82529585   -6.7951663    322.96389  0.024714102  0.024324324           14 
 1090000   0.81190975   -6.7618645    323.09688  0.024701597  0.024309681            5 
 1091000   0.81356651      -6.7562    322.87447  0.024661967  0.024294979            7 
 1092000   0.82414839   -6.7722349    323.58085  0.024693288  0.024280175            4 
 1093000     0.811684   -6.7709502    324.11794  0.024711646  0.024265501            9 
 1094000   0.80932774   -6.7375755    324.47443  0.024716212  0.024251044            5 
 1095000   0.81608587   -6.7518979    323.69428  0.024634268  0.024236621           11 
 1096000   0.81711304    -6.764288    324.05975  0.024639579  0.024222283           16 
 1097000   0.81547271   -6.7859424     324.8464  0.024676877  0.024207859            6 
 1098000   0.80271156    -6.790807    324.27355  0.024610925  0.024193479           17 
 1099000   0.80253237   -6.7723238    324.23087  0.024585295  0.024178953            7 
 1100000   0.81831885   -6.7515352    323.48398  0.024506362  0.024164457           18 
 1101000   0.82277125   -6.7738882    323.31338  0.024471191  0.024149718            7 
 1102000   0.80910456   -6.7825259    324.32163  0.024525229  0.024134953           25 
 1103000   0.81136527   -6.7803989    325.07858  0.024560183  0.024120195           19 
 1104000    0.8187618   -6.7782483    324.58279  0.024500513  0.024105428           13 
 1105000   0.80219208   -6.7675331    323.80313  0.024419542  0.024090695            7 
 1106000   0.80341732   -6.7915878    324.57203  0.024455397  0.024075863           22 
 1107000   0.81415768   -6.8049244     324.3405  0.024415876   0.02406102            7 
 1108000   0.79587076   -6.7873287    324.60177   0.02441349  0.024046264           13 
 1109000   0.82536309   -6.7804938    324.59085  0.024390656  0.024031529           11 
 1110000   0.79505822   -6.7431233    325.54619  0.024440404  0.024016888            8 
 1111000   0.82131617   -6.7765957    325.29076  0.024399247  0.024002295           19 
 1112000     0.803088   -6.7708599     325.2114  0.024371358  0.023987701           11 
 1113000   0.80975575   -6.7850492    325.28409  0.024354903  0.023973143           14 
 1114000   0.82096887   -6.8027764    325.96907  0.024384281  0.023958436           24 
 1115000   0.81729115   -6.8289123    325.78714  0.024348815  0.023943743           14 
 1116000   0.82664807   -6.7874811    326.11094  0.024351175  0.023929101           11 
 1117000   0.80506958   -6.7729641    326.02143  0.024322697  0.023914504           18 
 1118000   0.79401779   -6.7759082    326.42664  0.024331145  0.023899977           22 
 1119000   0.81158675   -6.7598321    326.96403  0.024349421   0.02388543            9 
 1120000   0.81679944   -6.7888984     326.3125  0.024279204  0.023870944            9 
 1121000   0.83531139   -6.8173195    326.37554  0.024262232  0.023856319           16 
 1122000   0.80257944   -6.8009231    326.48204  0.024248517  0.023841838            8 
 1123000   0.81132314   -6.8122326     326.8727  0.024255915  0.023827425           23 
 1124000   0.81664677   -6.7945625    326.90377  0.024236638  0.023812938            8 
 1125000   0.80043087   -6.7704434    326.03474  0.024150722  0.023798548            8 
 1126000   0.80897108   -6.7839189    327.38388  0.024229121  0.023784109            6 
 1127000   0.82463252   -6.7936607    326.97118  0.024177106  0.023769673           15 
 1128000   0.79489368   -6.8146241     327.4135   0.02418835  0.023755299            7 
 1129000   0.80864978   -6.8000779    327.45773   0.02417019  0.023740859           13 
 1130000   0.80350741   -6.7710787    327.70042  0.024166698   0.02372647           17 
 1131000   0.82100013   -6.7995733    327.41169  0.024124056  0.023711956           12 
 1132000    0.8047975   -6.7622142    328.23282  0.024163194  0.023697581            9 
 1133000   0.79730059   -6.8042168    328.10617  0.024132552  0.023683204           11 
 1134000   0.81204088    -6.786278    327.83362  0.024091242  0.023668805           12 
 1135000   0.81565931   -6.8182218    328.21911  0.024098319  0.023654455           15 
 1136000   0.81742408    -6.801531     328.6077  0.024105612  0.023640134            6 
 1137000   0.81310365   -6.8072044    329.07488  0.024118652  0.023625967            9 
 1138000   0.80812399   -6.8040518    329.12652  0.024101239  0.023611688           46 
 1139000   0.79254118   -6.7971265    328.78815  0.024055323  0.023597369           18 
 1140000   0.80129541   -6.8362597    328.74283  0.024030909   0.02358303           17 
 1141000   0.80345158   -6.8269073     329.1558  0.024040009   0.02356869           22 
 1142000   0.79499566   -6.8190666    328.40805  0.023964394  0.023554325           24 
 1143000    0.7899693   -6.8322582    329.09531  0.023993534  0.023539995            9 
 1144000   0.78694619     -6.82427    328.77406  0.023949159  0.023525605           12 
 1145000   0.80018595   -6.8202901    328.99381  0.023944236  0.023511193           21 
 1146000   0.78813647   -6.8191479    329.62574  0.023969294  0.023496661           23 
 1147000   0.79594719    -6.824069    328.85074  0.023892091  0.023482179           13 
 1148000   0.78172739   -6.8275245    328.49002  0.023845094  0.023467741           15 
 1149000   0.80504683   -6.8329285    329.78818  0.023918493   0.02345333           14 
 1150000   0.77706506   -6.8020214    329.97843   0.02391148  0.023438974            5 
 1151000   0.80819232   -6.8008397     329.9905   0.02389158  0.023424584           11 
 1152000   0.79130784   -6.8130745    329.20126  0.023813749  0.023410161           11 
 1153000   0.81078423   -6.8343868    329.15351  0.023789644  0.023395711           11 
 1154000   0.80507746   -6.8553969    330.29219  0.023851256  0.023381228           18 
 1155000   0.80521418   -6.8186949    329.22718  0.023753765  0.023366716           27 
 1156000   0.79322452   -6.8371984    329.51662  0.023754081  0.023352338            9 
 1157000    0.7882396   -6.8132581    329.21677  0.023711954  0.023337799           15 
 1158000   0.78898095    -6.831076    330.09753   0.02375486  0.023323352           23 
 1159000   0.78200114   -6.8268454     329.8005  0.023713007  0.023308825           17 
 1160000   0.81000933   -6.8361522    329.13845  0.023645004   0.02329428           15 
 1161000   0.78309205   -6.8191754    329.80866  0.023672743  0.023279707           11 
 1162000   0.78435483   -6.8434422    329.21115   0.02360952  0.023264975           18 
 1163000   0.80261242   -6.8150491    329.65896  0.023621307  0.023250367           20 
 1164000   0.79255998   -6.8145352    330.22298  0.023641393   0.02323584            6 
 1165000    0.7871984   -6.8313184    330.02219  0.023606737  0.023221193           12 
 1166000   0.78001002   -6.8274522    329.37069  0.023539929  0.023206483           35 
 1167000   0.78714523   -6.8441442    329.27771  0.023513118  0.023191718           19 
 1168000   0.78222653   -6.8398181    329.11809  0.023481599  0.023176947           13 
 1169000   0.77698018   -6.8246513    329.75031  0.023506581  0.023162224           20 
 1170000   0.79619593   -6.8667323    329.05194  0.023436748  0.023147293           22 
 1171000   0.77775775   -6.8488939    329.22212  0.023428845  0.023132431           11 
 1172000   0.78207088   -6.8271668    329.76986    0.0234478  0.023117623           22 
 1173000   0.78097782   -6.8118345    330.55089  0.023483297  0.023102843           14 
 1174000   0.77686224   -6.8445222    329.80717  0.023410503  0.023087996            9 
 1175000   0.79452005   -6.8055488    330.30184  0.023425663  0.023073089           23 
 1176000   0.79630234   -6.8361604    328.91493  0.023307464  0.023058265           10 
 1177000   0.78155503   -6.8288091    329.39218  0.023321452  0.023043322           22 
 1178000   0.76657421   -6.8387632      329.746  0.023326684  0.023028366           17 
 1179000   0.76527362   -6.8499208    329.90509  0.023318143  0.023013372           23 
 1180000   0.78564054   -6.8317413    330.82561   0.02336339   0.02299839           28 
 1181000   0.78149039   -6.8294441    329.89217  0.023277743  0.022983431           35 
 1182000   0.77727039   -6.8594648    330.14112  0.023275601  0.022968397           49 
 1183000   0.77066709   -6.8471586    330.22769  0.023262024  0.022953296           22 
 1184000   0.76937937   -6.8401697    330.07831  0.023231863  0.022938141           22 
 1185000   0.77738288   -6.8353508    330.28367    0.0232267  0.022922995           44 
 1186000     0.748571   -6.8620789    329.63471  0.023161517  0.022907923           30 
 1187000   0.77703779   -6.8635569    329.54239  0.023135523   0.02289274           53 
 1188000   0.78541187   -6.8573713    330.03027  0.023150272  0.022877608           18 
 1189000   0.78394086   -6.8674903    329.72105  0.023109129  0.022862527           19 
 1190000   0.77851738   -6.8614281    329.85377  0.023099003  0.022847316           34 
 1191000   0.77124173    -6.875707    329.53334  0.023057188   0.02283214           52 
 1192000   0.78319232   -6.8573347    329.99485   0.02307011  0.022816953           28 
 1193000   0.77395806   -6.8644203    330.95532  0.023117863  0.022801867           25 
 1194000   0.78545938   -6.8534288    331.28733  0.023121673  0.022786785           24 
 1195000   0.78637853   -6.8546481    330.90665  0.023075778  0.022771707           67 
 1196000   0.79509817   -6.8079327    331.64342  0.023107819  0.022756732           37 
 1197000   0.77934275   -6.8864827    329.83121  0.022962351  0.022741716           22 
 1198000   0.77469558    -6.839762    331.17477  0.023036642  0.022726651           49 
 1199000   0.78529733   -6.8577312    331.32009  0.023027529  0.022711621           36 
 1200000   0.77442285    -6.850736     331.5179  0.023022077  0.022696555           11 
 1201000   0.77489783   -6.8736828    331.12297  0.022975505  0.022681519           30 
 1202000   0.78389337   -6.8562765    330.78058  0.022932653  0.022666414            8 
 1203000   0.77101356   -6.8453437    331.05135  0.022932346  0.022651327            9 
 1204000   0.76907414   -6.8574477    331.75702  0.022962142  0.022636287           17 
 1205000   0.75392227   -6.8304299    332.22644  0.022975549  0.022621325            9 
 1206000   0.76967757   -6.8689389    331.50929  0.022906944  0.022606348            6 
 1207000    0.7716311   -6.8884649    331.12053  0.022861125  0.022591371           19 
 1208000   0.75633836   -6.8846701    331.37501  0.022859755    0.0225763           34 
 1209000   0.78788965   -6.8541104    331.98455  0.022882861  0.022561285           18 
 1210000   0.77303718   -6.8924285    331.55869  0.022834621  0.022546413           10 
 1211000   0.75784096   -6.8602401    332.24865  0.022863243  0.022531487           29 
 1212000   0.76764449   -6.8084833    332.21684  0.022842192  0.022516675            7 
 1213000   0.76323457   -6.8463039    332.92422  0.022871958  0.022501788           20 
 1214000   0.78232394   -6.8884563    332.21998  0.022804776  0.022486926           15 
 1215000   0.76093874   -6.8693509    332.37259  0.022796474  0.022472007           22 
 1216000   0.76060251   -6.8657842    333.05243  0.022824317   0.02245711           21 
 1217000   0.75939723   -6.8628384    332.76345  0.022785774  0.022442274           10 
 1218000   0.77688714   -6.8699536    332.81769  0.022770778  0.022427467           29 
 1219000   0.76136629   -6.8756889    332.87406  0.022755951  0.022412616           21 
 1220000   0.75853238   -6.8690646    333.34166  0.022769239  0.022397829           46 
 1221000   0.77630127   -6.8976362    333.19969  0.022740901  0.022383036           16 
 1222000    0.7804396   -6.8663866    333.55647  0.022746622  0.022368323            7 
 1223000   0.76879368   -6.8643215    333.65668  0.022734851  0.022353546            9 
 1224000   0.75176077   -6.8608089    333.79316  0.022725569  0.022338797           13 
 1225000   0.77480757   -6.8880714    333.71192  0.022701491   0.02232404           17 
 1226000   0.73970043    -6.867236    333.16553  0.022645836  0.022309313           18 
 1227000   0.75617076   -6.8732492    333.86545  0.022674915  0.022294608           11 
 1228000   0.75747874   -6.8853425    333.37587  0.022623227  0.022279891           19 
 1229000   0.75437176   -6.8737793    333.62082  0.022621428  0.022265139           29 
 1230000   0.78364357    -6.891069    333.03457  0.022563318  0.022250313           13 
 1231000   0.76719567   -6.8617226    333.57299  0.022581437  0.022235511           23 
 1232000   0.76112898   -6.8770773    333.98818  0.022591192  0.022220723           26 
 1233000   0.75105198   -6.8696804    334.35365   0.02259757  0.022205989           13 
 1234000   0.75594949   -6.8509461    333.95991  0.022552668  0.022191152            9 
 1235000   0.77616032   -6.9162546    333.39478  0.022496274  0.022176348           11 
 1236000   0.76252108   -6.8589075    333.96988  0.022516847  0.022161578           12 
 1237000   0.78602476   -6.8816515    333.90846  0.022494507  0.022146848           32 
 1238000   0.75176027    -6.865791    334.28636  0.022501774  0.022132027           17 
 1239000   0.76589459   -6.8980869    334.36496    0.0224889  0.022117265           23 
 1240000   0.77260005   -6.8889668    334.14677    0.0224561   0.02210254           15 
 1241000   0.75482227   -6.8782102    334.16302  0.022439096   0.02208779           22 
 1242000   0.77783864   -6.8762434    333.90744  0.022403881  0.022073038           35 
 1243000   0.76210519   -6.9033305    334.22087   0.02240687  0.022058256           31 
 1244000   0.74696402   -6.8894404    334.85381  0.022431257  0.022043502           38 
 1245000   0.75479193   -6.8754834    333.70542  0.022336374  0.022028695           14 
 1246000    0.7408018   -6.8951001    334.15034  0.022348204  0.022013923           12 
 1247000   0.77939744   -6.8837719    334.02442  0.022321867  0.021999235            8 
 1248000   0.75335262   -6.9066677    334.65877  0.022346339  0.021984579           14 
 1249000   0.74534948   -6.8744455    335.25091  0.022367955  0.021970045           11 
 1250000   0.75338932   -6.9093278    334.69969  0.022313313  0.021955466           15 
 1251000   0.76451503   -6.9043496    334.81618  0.022303236  0.021940889           11 
 1252000   0.73666909   -6.8854669    335.13836  0.022306866  0.021926283           12 
 1253000   0.75674733   -6.9078067    335.99888  0.022346294   0.02191175           22 
 1254000   0.74047979   -6.9172448    335.53997  0.022297978  0.021897171           18 
 1255000   0.74563358   -6.9179034    334.57108  0.022215875  0.021882597           22 
 1256000   0.75786586   -6.9011115    334.72991  0.022208725  0.021867955           21 
 1257000   0.75405941   -6.8894175    335.29678  0.022228638  0.021853443           10 
 1258000   0.77404285   -6.9267412    335.81623  0.022245378  0.021838956           21 
 1259000   0.76418525   -6.8929854    335.36724  0.022197991   0.02182438           24 
 1260000   0.73107614   -6.8886002    335.21171  0.022170086  0.021809825           12 
 1261000   0.73914752   -6.9168589    335.60587  0.022178553  0.021795238           17 
 1262000   0.73806925   -6.9050796    335.49312  0.022153534  0.021780644           21 
 1263000   0.74394086   -6.9101126    335.91137   0.02216359  0.021766017           32 
 1264000   0.75907913   -6.9143022    335.28741  0.022104919  0.021751331           46 
 1265000   0.73600478   -6.9295942    335.56258  0.022105572  0.021736669           61 
 1266000   0.73727375   -6.9080167    335.96549  0.022114632  0.021722052           67 
 1267000   0.72951707   -6.9163291    335.19816  0.022046708  0.021707492           79 
 1268000   0.73663001   -6.9351883    336.03268  0.022084167   0.02169285           15 
 1269000   0.73461921   -6.9105598    335.27201  0.022016812  0.021678232           33 
 1270000   0.74272172   -6.9050206    335.75377  0.022031087  0.021663616           51 
 1271000   0.72406622   -6.9131224    335.25915  0.021981324  0.021648978           34 
 1272000   0.74375094   -6.9051226    336.45532  0.022042408   0.02163434           31 
 1273000    0.7379613   -6.9093663    336.36695  0.022019308  0.021619718           40 
 1274000   0.74948342   -6.9200671    336.00171  0.021978134  0.021605143           24 
 1275000   0.73821458   -6.9200853    336.09466  0.021966971  0.021590566           30 
 1276000    0.7321343    -6.927221    336.48514  0.021975257  0.021576051           30 
 1277000   0.74288932   -6.9486461    336.97213  0.021989828  0.021561494           91 
 1278000    0.7196035   -6.9215133    336.79379  0.021960993  0.021546995           68 
 1279000    0.7566548   -6.9454281    335.99063  0.021891492   0.02153247           35 
 1280000   0.73475482   -6.9350645    336.16052   0.02188545  0.021517985           46 
 1281000   0.73587772   -6.9255144     335.9964  0.021857689  0.021503408           33 
 1282000   0.72988921   -6.9440408    336.39768  0.021866724   0.02148892           31 
 1283000   0.73904367   -6.9224612    337.60274  0.021927951   0.02147445           40 
 1284000   0.74063903   -6.9396138    336.37774  0.021831369   0.02146006           44 
 1285000   0.73505007    -6.945508    337.37908  0.021879317  0.021445688           24 
 1286000   0.72942867   -6.9538945    336.41047  0.021799538  0.021431318           26 
 1287000   0.75141453   -6.9484244    337.62672  0.021861352  0.021416951           40 
 1288000   0.73789064   -6.9612782    337.67272  0.021847355  0.021402622           42 
 1289000   0.75637176   -6.9507406    338.08398  0.021856994  0.021388373           32 
 1290000   0.74881558   -6.9208066      338.215  0.021848515  0.021374088           18 
 1291000   0.75405186   -6.9184284    337.09079  0.021759023  0.021359849           20 
 1292000   0.74442138   -6.9188938    337.69491  0.021781148  0.021345629           10 
 1293000   0.75127422   -6.9150437    337.22183  0.021733812  0.021331408           29 
 1294000   0.73666965   -6.9148378    337.99953    0.0217671  0.021317195           29 
 1295000   0.75051209   -6.9201027    337.22125  0.021700209  0.021303002           14 
 1296000   0.73296463   -6.9210852    337.83055  0.021722643  0.021288756           16 
 1297000   0.73172709   -6.9241722    338.77345  0.021766477  0.021274551           20 
 1298000   0.73624425   -6.9493304    338.00443  0.021700336  0.021260314           32 
 1299000   0.73594532   -6.9582764    337.79177  0.021669988  0.021246011           31 
 1300000   0.73426699   -6.9389589    337.52105  0.021635965  0.021231686           23 
 1301000   0.74214721   -6.9476924    337.79812  0.021637082  0.021217355           32 
 1302000   0.73347072   -6.9645315    338.15122  0.021643063  0.021203099           23 
 1303000   0.72440978   -6.9241037    338.57956  0.021653847   0.02118888           45 
 1304000   0.73166003   -6.9729228    338.36646  0.021623623  0.021174619           47 
 1305000   0.74963534   -6.9539443    338.44589  0.021612126  0.021160354           26 
 1306000   0.72712943   -6.9669779    338.34785  0.021589322  0.021146141           18 
 1307000   0.73615064   -6.9367384    338.70719  0.021595715  0.021131919           30 
 1308000   0.72943982   -6.9377534    338.26613  0.021551104  0.021117694           30 
 1309000   0.73504953   -6.9661983    338.02222  0.021519113  0.021103408           58 
 1310000   0.72632765    -6.974525    338.47306  0.021531365  0.021089107           24 
 1311000   0.71804899   -6.9804087    338.44651  0.021513254  0.021074841           18 
 1312000   0.74234541   -6.9732003    339.38929  0.021556739  0.021060607           15 
 1313000   0.71641254   -6.9497814    338.43741  0.021479907   0.02104635           33 
 1314000   0.73861563    -6.956364    338.79587  0.021486293  0.021032114           16 
 1315000   0.72401091   -6.9428241    338.96231  0.021480501  0.021017905           22 
 1316000   0.72873877   -6.9397902     338.7271  0.021449284  0.021003609           28 
 1317000   0.73446188   -6.9656455    338.27092  0.021404133  0.020989368           15 
 1318000   0.71831863   -6.9412706    339.10441  0.021440592  0.020975069           19 
 1319000   0.72281849   -6.9775349     338.6637  0.021396494  0.020960776           13 
 1320000   0.73878834   -6.9405804    338.80332  0.021389098  0.020946479           24 
 1321000   0.72714161   -6.9680657    338.59221   0.02135959  0.020932213           39 
 1322000   0.71696951   -6.9445624    338.95026  0.021366002  0.020917996           36 
 1323000   0.72805635   -6.9740036    339.31538  0.021372851   0.02090378           33 
 1324000   0.75258037   -6.9455705    338.89531  0.021330269  0.020889549           16 
 1325000   0.72468177   -6.9684104    338.34929   0.02127983  0.020875256           21 
 1326000   0.72683867   -6.9577528    338.60316  0.021279736  0.020860944           14 
 1327000   0.72151956   -6.9725783     338.4168  0.021251997  0.020846569           31 
 1328000   0.70643922   -6.9879541    337.99752  0.021209683  0.020832188           40 
 1329000   0.71995605   -6.9995871    338.02522  0.021195461  0.020817733           39 
 1330000   0.70913018   -6.9708926    338.31238  0.021197518  0.020803238           43 
 1331000   0.72276213   -6.9431505    338.67598  0.021204356  0.020788817           77 
 1332000   0.72326492   -6.9507566    338.31482  0.021165842  0.020774457           38 
 1333000   0.72174711   -6.9733106    339.15624  0.021202566  0.020760104           21 
 1334000   0.71659603   -6.9590047    338.53947  0.021148143  0.020745781           24 
 1335000   0.71096866   -6.9564585    339.76939  0.021209076  0.020731442           48 
 1336000   0.72330586   -6.9694396    338.84431  0.021135499  0.020717119           29 
 1337000    0.7196843   -6.9297343    338.57703  0.021103031  0.020702746           14 
 1338000   0.70559843   -6.9878352     338.8083  0.021101663  0.020688337           27 
 1339000   0.72427812   -6.9740579    338.14372  0.021044543  0.020673918           21 
 1340000   0.71935441   -6.9710696    338.09187  0.021025614  0.020659514           15 
 1341000   0.71656293   -6.9569715    338.47171  0.021033539  0.020645169           45 
 1342000   0.72771284   -6.9567561     338.5747  0.021024261  0.020630765           24 
 1343000    0.7319563   -6.9877672    338.85456  0.021025972  0.020616364           19 
 1344000   0.71345012   -6.9812272    338.95718  0.021016691  0.020601955           43 
 1345000   0.73303893   -6.9832081    339.40596   0.02102887  0.020587561           40 
 1346000   0.71047215    -6.959757    338.64798  0.020966319  0.020573221           20 
 1347000   0.72725096   -6.9774458    339.88995  0.021027589  0.020558884           26 
 1348000   0.71813628    -6.954658    339.14996  0.020966244  0.020544535           10 
 1349000   0.72342842   -6.9783257    339.38128  0.020964992  0.020530231           11 
 1350000   0.70967094   -6.9939209    339.26942  0.020942557  0.020515947           20 
 1351000   0.69324477   -6.9687853     339.9549  0.020969338  0.020501695           25 
 1352000   0.71199408    -6.976487    339.14505  0.020903911  0.020487445           27 
 1353000   0.70719691   -6.9789199    338.76556  0.020865087  0.020473204           37 
 1354000   0.71260244     -6.98297    339.20489  0.020876716  0.020458965           52 
 1355000   0.71274153   -6.9703008    340.16048  0.020920079  0.020444713           66 
 1356000   0.73345584   -6.9599756    339.55691  0.020867558  0.020430476           51 
 1357000    0.7111922   -7.0006187    339.52858  0.020850441  0.020416201           23 
 1358000   0.70108351   -7.0153808    338.97285  0.020800985   0.02040189           39 
 1359000   0.72475919   -6.9792527    338.44129  0.020753084  0.020387507           64 
 1360000   0.69543957   -6.9632116    339.37957  0.020795317  0.020373157           91 
 1361000    0.7245859   -6.9776071    339.03185  0.020758747  0.020358745           26 
 1362000   0.70161023   -6.9884151    339.59362  0.020777877   0.02034436          184 
 1363000   0.70348947   -6.9868689    339.60828  0.020763529  0.020330021           40 
 1364000   0.71041785   -6.9792374    339.74842  0.020756868  0.020315755          114 
 1365000   0.71396352   -6.9952203      339.444  0.020723077   0.02030144           77 
 1366000   0.69609079   -7.0141782    338.58024  0.020655213  0.020287007           83 
 1367000   0.72202207   -7.0092596    339.08625  0.020670949  0.020272593          180 
 1368000   0.70402867   -7.0087169    338.50311  0.020620316  0.020258144          108 
 1369000   0.73325254   -6.9945394    338.74803  0.020620163  0.020243765           44 
 1370000   0.70206392   -7.0212463    339.40017  0.020644779  0.020229308           56 
 1371000   0.69678607   -7.0157159    338.55681  0.020578459  0.020214913           44 
 1372000   0.71372129   -6.9919248     338.8118  0.020578948  0.020200548           30 
 1373000   0.70973627   -7.0255288    339.19389   0.02058715  0.020186121           45 
 1374000   0.69994441   -7.0077673    340.09172  0.020626621  0.020171771           57 
 1375000   0.70345437   -7.0198855    340.10629  0.020612502  0.020157456           65 
 1376000   0.70683752   -7.0033784    339.37907   0.02055348   0.02014314           54 
 1377000     0.706894   -7.0184622    339.12176  0.020522982  0.020128835           16 
 1378000   0.70838149   -7.0225404    339.30831   0.02051937  0.020114487           35 
 1379000   0.69389511   -6.9978212    339.60973  0.020522706  0.020100143           50 
 1380000   0.70930585   -7.0217952    338.82657  0.020460541  0.020085765           37 
 1381000   0.70847892   -6.9951951    340.06844  0.020520664  0.020071467           27 
 1382000   0.69344605   -7.0170382    339.61182  0.020478282  0.020057161           31 
 1383000    0.6978026   -7.0145436    338.89056  0.020420015  0.020042911           38 
 1384000   0.68731544   -7.0179599    339.70716  0.020454429  0.020028646           62 
 1385000   0.69404495    -7.045626    338.60678  0.020373452  0.020014379           41 
 1386000   0.68481311   -7.0084371    339.92234  0.020437851  0.020000068           30 
 1387000    0.6914712   -7.0063715    340.00527  0.020428098   0.01998579           25 
 1388000   0.70454035   -6.9794279    339.72579  0.020396601  0.019971532           60 
 1389000    0.7004436   -7.0133635    340.41378  0.020423193  0.019957278           51 
 1390000   0.68895743   -7.0112448    339.94179  0.020380203   0.01994301           22 
 1391000   0.68973424   -7.0273569    339.35924  0.020330652  0.019928777           42 
 1392000   0.70201586   -7.0058461    339.57537  0.020328985  0.019914492           49 
 1393000   0.70100652    -7.000039    340.32319  0.020359128  0.019900277           22 
 1394000   0.69049537   -7.0278012    340.10425  0.020331435  0.019886022           71 
 1395000   0.70113066   -7.0235733    339.76604  0.020296657  0.019871818           38 
 1396000   0.69792839   -7.0168502    339.39813  0.020260156   0.01985758           46 
 1397000   0.68495088   -7.0301176    340.20909  0.020294028  0.019843373           24 
 1398000   0.70125112    -7.026149      340.528  0.020298522  0.019829181           24 
 1399000    0.6963283   -7.0369324    339.16256  0.020202678  0.019814985           27 
 1400000   0.70113413   -7.0155728    340.53527  0.020269957  0.019800832           17 
 1401000   0.69752014   -7.0502012     340.3551  0.020244771  0.019786698           25 
 1402000   0.68940187   -7.0353349    339.94184  0.020205768  0.019772546           37 
 1403000    0.6907028   -7.0330292    339.69727   0.02017684  0.019758354           48 
 1404000   0.68810913   -7.0028229    340.35351  0.020201419  0.019744209           36 
 1405000   0.70400625   -7.0523946    340.10991  0.020172593  0.019730033           34 
 1406000   0.68089296   -7.0327326    339.67638   0.02013255  0.019715864           30 
 1407000   0.70333263   -7.0237947    339.73763  0.020121868  0.019701647           32 
 1408000    0.6869804   -7.0374315    339.10292  0.020070012   0.01968745           95 
 1409000   0.69255493   -7.0347952    339.86028  0.020100561  0.019673248           78 
 1410000   0.69923829    -7.049218    340.02132  0.020095823  0.019659043           69 
 1411000   0.70118054   -7.0791494    340.17737  0.020090797  0.019644814          103 
 1412000   0.69813631   -7.0497109    339.65062  0.020045481  0.019630555           91 
 1413000   0.69331574    -7.065397    339.80076  0.020040149  0.019616332           90 
 1414000   0.70319749   -7.0305165    340.01978  0.020038884  0.019602127           49 
 1415000   0.68600086   -7.0377662    339.94409  0.020020264  0.019588003           62 
 1416000   0.68145458   -7.0567398    339.84749  0.020000441  0.019573879           86 
 1417000   0.69386267   -7.0573328    340.49174  0.020024214  0.019559816           55 
 1418000   0.67882116   -7.0490178    340.12092    0.0199883  0.019545746           60 
 1419000   0.70137598   -7.0360382    340.07884  0.019971743  0.019531639          277 
 1420000   0.68874118   -7.0385504    340.33743  0.019972854  0.019517583          190 
 1421000   0.67632948   -7.0658904    340.19646  0.019950532  0.019503523          277 
 1422000   0.68227175   -7.0574245      339.897  0.019918952  0.019489379          269 
 1423000   0.68233963   -7.0603409    340.41276  0.019935158  0.019475263          243 
 1424000   0.69053929   -7.0611836    340.32991   0.01991631  0.019461174          221 
 1425000   0.67285538   -7.0653517    340.68519  0.019923111  0.019447062          347 
 1426000   0.70560955   -7.0770308    340.67029  0.019908268  0.019432952          252 
 1427000   0.68400719   -7.0660629    340.94827  0.019910551  0.019418828          325 
 1428000   0.66975248   -7.0795066    340.80733  0.019888383  0.019404709          252 
 1429000   0.68046488   -7.0625936     340.1289  0.019834902  0.019390561          387 
 1430000   0.68015904   -7.0624405    340.95967  0.019869445  0.019376524          195 
 1431000   0.68531069    -7.079661    339.84901  0.019790881  0.019362479          228 
 1432000   0.68915015   -7.0912895    340.13635  0.019793782  0.019348433          316 
 1433000   0.68017639   -7.0724497    340.48429  0.019800203  0.019334364          315 
 1434000   0.68557501   -7.0597163    340.82416  0.019806146  0.019320305          306 
 1435000   0.66795296   -7.0704649    340.63638  0.019781439  0.019306274          295 
 1436000   0.67178934   -7.0846586    340.84895      0.01978    0.0192922          297 
 1437000   0.67775781   -7.0517125    340.85739  0.019766724  0.019278158          280 
 1438000     0.677657   -7.0514755     339.8845  0.019696599  0.019264125          326 
 1439000   0.67152493    -7.090793    340.46932  0.019716778  0.019250114          296 
 1440000   0.68695957   -7.0705893    340.37935  0.019697879  0.019236051          305 
 1441000   0.68266096    -7.085041    340.21135  0.019674494  0.019221991          298 
 1442000   0.68546994   -7.0717176    340.02347  0.019649993  0.019207927          326 
 1443000   0.66753605   -7.0972135    340.31551   0.01965324  0.019193881          327 
 1444000   0.68901726   -7.0946831    339.64912  0.019601173  0.019179803          411 
 1445000   0.66648233   -7.0965185    340.24394  0.019621911  0.019165732          385 
 1446000   0.67589654   -7.0897136     340.1355  0.019602092  0.019151619          451 
 1447000    0.6797007     -7.09596    339.89294  0.019574576  0.019137535          510 
 1448000   0.68713512   -7.0963672    339.84801  0.019558472   0.01912347          520 
 1449000   0.68590457   -7.1002605    340.21994  0.019566364  0.019109392          441 
 1450000   0.66667346   -7.1021261    340.02362  0.019541587  0.019095317          527 
 1451000   0.67963981   -7.0977731    340.58239  0.019560211  0.019081273          482 
 1452000   0.66002858   -7.0981057    339.93634  0.019509662  0.019067222          473 
 1453000   0.66219447   -7.1169197    339.91307  0.019494899  0.019053136          529 
 1454000   0.65866305   -7.1091684    339.86815  0.019478917   0.01903909          512 
 1455000   0.67533238   -7.0729123    340.81973   0.01952003  0.019025063          502 
 1456000   0.67711635   -7.1027924    340.24769  0.019473883  0.019011028          624 
 1457000   0.66006257    -7.108696    340.45002   0.01947209   0.01899699          606 
 1458000   0.68177446   -7.1009558    340.49148  0.019461105   0.01898297          691 
 1459000   0.66025153   -7.1045236    339.91224  0.019414681  0.018968956          677 
 1460000   0.66289566   -7.1019744    340.43959  0.019431483  0.018954972          787 
 1461000   0.67986303   -7.1058094    341.45985  0.019476377  0.018940994          734 
 1462000   0.66400559   -7.1134596    340.38772  0.019401945  0.018927015          833 
 1463000   0.66264523   -7.1251528    339.77597  0.019353838  0.018913009          755 
 1464000   0.65407056   -7.1200693    340.35293  0.019373459  0.018898965          756 
 1465000   0.65968654   -7.1219053    340.40628  0.019363269  0.018884974          741 
 1466000   0.68084275   -7.1549354    340.85586  0.019375617  0.018870972          749 
 1467000   0.66952888    -7.129914    340.16745  0.019323304  0.018856922          764 
 1468000   0.64830776   -7.1428594    340.09858  0.019306232  0.018842882          815 
 1469000   0.66948229   -7.1454468    340.49339  0.019315486  0.018828831          771 
 1470000   0.67740061   -7.1176533    339.71885  0.019258438   0.01881476          758 
 1471000   0.67777915   -7.1322806    339.87567   0.01925423  0.018800719          873 
 1472000    0.6690406   -7.1380488     339.6447  0.019228074  0.018786684          896 
 1473000   0.66055717   -7.1403795    339.60596  0.019212829  0.018772584          963 
 1474000   0.67968833   -7.1602654    339.67532  0.019203715  0.018758512          898 
 1475000   0.68058585   -7.1461637    340.02623  0.019210521  0.018744444          814 
 1476000   0.66652701   -7.1645894    339.49799  0.019167682  0.018730374          911 
 1477000   0.65843831   -7.1494308    340.81849  0.019229209  0.018716323          867 
 1478000    0.6542383   -7.1582013    339.74133  0.019155465  0.018702293          967 
 1479000   0.66169718   -7.1430305    339.83722  0.019147916  0.018688246         1002 
 1480000   0.65831303   -7.1441348    339.69499   0.01912697  0.018674209         1062 
 1481000   0.66180348    -7.152471    340.25033  0.019145304  0.018660175         1091 
 1482000   0.65880911   -7.1543289    339.60951  0.019096351  0.018646131         1115 
 1483000   0.64961198    -7.171951    339.79768  0.019094048  0.018632101         1139 
 1484000   0.64530297    -7.160043    340.01443  0.019093353   0.01861806         1214 
 1485000   0.66863031   -7.1953754    340.21589  0.019091801  0.018604015         1134 
 1486000   0.65709698   -7.1524485    339.86606  0.019059335  0.018589959         1181 
 1487000   0.68130183   -7.1815113    339.10733  0.019003997  0.018575846         1266 
 1488000   0.66523991    -7.181048    339.39934   0.01900758  0.018561757         1269 
 1489000   0.66051205   -7.1864811    338.57072   0.01894844  0.018547668         1340 
 1490000   0.67246212   -7.1960946    338.36201   0.01892405  0.018533552         1393 
 1491000   0.66044777   -7.1821794    338.82205  0.018937069  0.018519437         1343 
 1492000   0.64528165   -7.2134749     339.6056  0.018968141   0.01850531         1248 
 1493000   0.65482775   -7.1758185    339.52297  0.018950824  0.018491192         1313 
 1494000   0.66095139    -7.180925     339.1315  0.018916304  0.018477127         1272 
 1495000   0.65175592   -7.1970038    339.36129   0.01891646   0.01846305         1366 
 1496000   0.66964271   -7.1829483    339.35085  0.018903233  0.018448984         1341 
 1497000   0.64778929   -7.1881539    339.59702   0.01890431  0.018434913         1454 
 1498000   0.66242653    -7.180586    338.70524  0.018842081  0.018420835         1425 
 1499000   0.64721427   -7.1956359    338.74327  0.018831625  0.018406768         1474 
 1500000    0.6530214   -7.1982988    338.81222  0.018822901  0.018392663         1429 
 1501000   0.65044204   -7.2074025    338.19417  0.018776048   0.01837856         1501 
 1502000   0.64115042   -7.2280581    338.35356   0.01877239  0.018364444         1504 
 1503000   0.66046675   -7.2127409    338.53268  0.018769831  0.018350294         1512 
 1504000   0.66211323   -7.1853722    338.95009  0.018780479   0.01833618         1541 
 1505000   0.65543942   -7.2050305    338.62336  0.018749909  0.018322041         1564 
 1506000   0.64088382   -7.2343137     338.9246  0.018754128   0.01830786         1600 
 1507000   0.65327784   -7.2093667    338.63462  0.018725648  0.018293678         1736 
 1508000   0.64995702   -7.2349174    338.39081  0.018699757  0.018279497         1700 
 1509000   0.66169597    -7.228449    338.89709  0.018715324  0.018265312         1681 
 1510000   0.65339716   -7.2331894    338.50435  0.018681255   0.01825115         1679 
 1511000   0.64454178   -7.2367256    338.16311  0.018650072  0.018236944         1750 
 1512000     0.645792   -7.2374048    338.05443  0.018631748  0.018222742         1695 
 1513000   0.64911453   -7.2513127    338.28514   0.01863214  0.018208556         1820 
 1514000    0.6420051   -7.2426383     338.4124  0.018626838  0.018194402         1717 
 1515000   0.65401511   -7.2368188    337.59358  0.018569504  0.018180263         1693 
 1516000   0.65647533   -7.2227356    338.92327  0.018630347  0.018166141         1595 
 1517000   0.65441864   -7.2295553    338.37233  0.018587801  0.018152064         1616 
 1518000   0.63986543    -7.240717    337.87255   0.01854812  0.018137993         1637 
 1519000   0.65350716   -7.2415147    337.96937   0.01854122  0.018123921         1749 
 1520000   0.65887866   -7.2241138    338.33631   0.01854914  0.018109828         1735 
 1521000   0.65030508   -7.2389047    338.16568  0.018527596  0.018095721         1726 
 1522000   0.65664934   -7.2555393     338.2653  0.018520877  0.018081617         1773 
 1523000   0.64095514   -7.2430011    338.88831  0.018542805  0.018067512         1734 
 1524000   0.64459429    -7.228028    338.48154  0.018508396  0.018053404         1756 
 1525000   0.65021393   -7.2661468    338.21518  0.018481704  0.018039332         1795 
 1526000   0.63984389   -7.2370819    338.78933  0.018500947   0.01802525         1778 
 1527000   0.63513778   -7.2324827    337.18546  0.018401302  0.018011169         1829 
 1528000   0.64332905   -7.2462926    337.84557   0.01842526  0.017997046         1884 
 1529000   0.64440807   -7.2508802     338.3209  0.018439116  0.017982922         1827 
 1530000   0.64462956   -7.2606957    338.03178  0.018411317  0.017968814         1980 
 1531000   0.63287328   -7.2428323    337.88874  0.018391506  0.017954704         1942 
 1532000   0.64435175   -7.2788391     337.8359  0.018376627  0.017940613         1945 
 1533000   0.63029305   -7.2579124     338.0268  0.018375016  0.017926499         1878 
 1534000   0.64725431   -7.2662068    337.72868  0.018346843  0.017912393         1928 
 1535000   0.63590507   -7.2833713    337.79856  0.018338684  0.017898285         1927 
 1536000   0.63674676   -7.2971686    337.78863  0.018326206  0.017884172         2030 
 1537000   0.64784544   -7.2498696    337.79487  0.018314621  0.017870084         1985 
 1538000   0.64140748   -7.2871068    337.73898  0.018299684  0.017856008         1969 
 1539000   0.63442135   -7.2695563     337.7961  0.018290887  0.017841931         2039 
 1540000   0.64251807    -7.255337    337.32289  0.018253403  0.017827852         2068 
 1541000   0.63689055    -7.275847    337.77389  0.018265947   0.01781379         2042 
 1542000   0.63576711   -7.2723972    338.00707  0.018266703  0.017799726         2078 
 1543000   0.62953764   -7.2858838    337.82089  0.018244809  0.017785652         2079 
 1544000   0.65312752   -7.3153249    337.82308  0.018233111   0.01777158         2081 
 1545000   0.62395075    -7.274648    337.83163  0.018221771  0.017757537         2023 
 1546000   0.63253149   -7.2870276    337.03066   0.01816681   0.01774349         2123 
 1547000   0.63400959   -7.2821265    337.54526  0.018182787  0.017729486         2062 
 1548000   0.63751033    -7.302308    337.76006  0.018182604  0.017715468         2068 
 1549000   0.63840028    -7.285516    337.22435  0.018142046  0.017701423         2071 
 1550000   0.63405562   -7.2721201    337.77574  0.018159986  0.017687373         2119 
 1551000   0.63317162   -7.2990975    336.73151  0.018092172  0.017673331         2161 
 1552000   0.63144607   -7.2952964    336.85758  0.018087284  0.017659308         2123 
 1553000   0.63101524   -7.2968058    337.45292  0.018107583  0.017645283         2221 
 1554000   0.64075442   -7.2812135    337.63084  0.018105472  0.017631278         2205 
 1555000   0.62375751   -7.2957959    337.54553  0.018089257  0.017617265         2148 
 1556000   0.64433739   -7.3016971    338.06082  0.018105228  0.017603283         2100 
 1557000   0.63230612   -7.3104752    337.08893  0.018041583  0.017589262         2116 
 1558000   0.64062462    -7.293883    337.08064  0.018029559  0.017575277         2212 
 1559000   0.63586857   -7.3156767    336.99771  0.018013562  0.017561304         2145 
 1560000   0.63794613   -7.2938062    337.07595  0.018006194   0.01754732         2230 
 1561000   0.63857291   -7.3055718    336.67313  0.017973155  0.017533347         2273 
 1562000    0.6358941   -7.3031445    336.92076  0.017974859  0.017519377         2201 
 1563000   0.63207851   -7.3163682    336.27462  0.017928909  0.017505409         2290 
 1564000   0.64314366   -7.3270622    337.31076  0.017972654  0.017491469         2189 
 1565000   0.62264002   -7.3079816    337.16678  0.017953502   0.01747751         2272 
 1566000   0.62992073   -7.3115411    336.95286  0.017930655   0.01746357         2158 
 1567000   0.63169724   -7.3040657    336.39793  0.017889701  0.017449652         2250 
 1568000    0.6310469   -7.3114314    337.25776  0.017923988  0.017435733         2156 
 1569000   0.62872444   -7.2973438    336.51484  0.017873106  0.017421812         2202 
 1570000   0.62952291    -7.303334     337.2641  0.017901492  0.017407906         2225 
 1571000   0.62361853    -7.304974    337.74745  0.017915736  0.017394013         2226 
 1572000   0.62564159   -7.2981833    336.93785  0.017861421  0.017380131         2177 
 1573000   0.62604925   -7.3257306    337.44629  0.017877002  0.017366248         2199 
 1574000   0.62215097   -7.3321003    337.44293  0.017865466  0.017352386         2186 
 1575000   0.62720349   -7.2984323    336.89397  0.017825078  0.017338525         2212 
 1576000   0.61837978   -7.3247046    337.25929  0.017833085  0.017324674         2257 
 1577000   0.62375195   -7.3156602    337.49306  0.017834129  0.017310839         2225 
 1578000   0.62033639   -7.3140678    337.09531  0.017801823  0.017296995         2222 
 1579000   0.60762224   -7.3176422    336.65889  0.017767516  0.017283157         2254 
 1580000   0.63732551   -7.3221393     336.8133  0.017764415  0.017269327         2193 
 1581000   0.61749847   -7.3581637    337.47797  0.017788213  0.017255487         2216 
 1582000   0.62536643   -7.3086338    337.16744  0.017760611  0.017241673         2252 
 1583000    0.6277757   -7.3088684    336.13294  0.017694933  0.017227851         2219 
 1584000   0.60933401   -7.3262423    337.14192  0.017736844  0.017214041         2261 
 1585000    0.6127673   -7.3118551    336.58216  0.017696223  0.017200234         2261 
 1586000   0.61766989   -7.3097633    336.96343  0.017705098  0.017186421         2223 
 1587000    0.6251187   -7.3208441    336.60669   0.01767521  0.017172624         2300 
 1588000   0.62402497   -7.3310995    336.89381  0.017679146  0.017158839         2343 
 1589000   0.60681708   -7.3608459    336.91937  0.017669361  0.017145029         2354 
 1590000   0.61739037   -7.3329274    336.20484  0.017620799  0.017131269         2348 
 1591000   0.61819766   -7.3237049    336.25866  0.017612542  0.017117491         2202 
 1592000   0.61849671   -7.3407944    336.98818  0.017639666  0.017103743         2243 
 1593000   0.62242227   -7.3403323    336.71159  0.017614124  0.017090007         2281 
 1594000   0.61238661   -7.3201692    336.50744  0.017592401  0.017076287         2252 
 1595000   0.60896781    -7.356224    336.20875  0.017565765  0.017062539         2379 
 1596000   0.61855336   -7.3383907    336.47928  0.017568885  0.017048812         2329 
 1597000   0.60218806   -7.3243402    336.12313  0.017539299  0.017035088         2309 
 1598000   0.63293174   -7.3636918    336.01365  0.017522614  0.017021382         2295 
 1599000   0.62600471   -7.3556036    336.45815  0.017534821  0.017007677         2345 
 1600000   0.61359601   -7.3324743    336.09627  0.017505014  0.016993973         2396 
 1601000   0.60863817   -7.3136857    336.52239   0.01751626  0.016980298         2346 
 1602000    0.6088318   -7.3459549    336.49315  0.017503805  0.016966612         2324 
 1603000   0.60490441   -7.3376023    336.59009  0.017497925  0.016952946         2315 
 1604000   0.60186668   -7.3398423    336.55855  0.017485378  0.016939286         2324 
 1605000    0.6133534   -7.3451122    335.99536  0.017445242  0.016925624         2309 
 1606000   0.61682228   -7.3506171    336.37209  0.017453927  0.016911938         2379 
 1607000   0.60651942    -7.336005    336.39185  0.017444091  0.016898287         2382 
 1608000    0.6107535   -7.3058105    335.99145  0.017412492  0.016884641         2323 
 1609000   0.59900999   -7.3438213    336.05999   0.01740522  0.016871004         2280 
 1610000   0.61380503   -7.3509465    336.49899  0.017417132   0.01685738         2376 
 1611000   0.60408579    -7.349871    336.16542  0.017389066  0.016843757         2336 
 1612000   0.61136036   -7.3661463    336.29378  0.017384914  0.016830144         2334 
 1613000   0.60165571   -7.3490226    336.17798  0.017368154  0.016816546         2407 
 1614000   0.61747983   -7.3558654    336.40681  0.017369208  0.016802954         2377 
 1615000   0.59938973    -7.344794    336.39166  0.017357671  0.016789371         2387 
 1616000   0.59422514   -7.3624649     335.9148  0.017322339  0.016775803         2387 
 1617000   0.61856484    -7.345864    336.35498  0.017334311  0.016762231         2287 
 1618000   0.60316239   -7.3623609    335.85741  0.017297971  0.016748663         2408 
 1619000   0.60308551   -7.3615013      335.718  0.017280111  0.016735105         2343 
 1620000   0.60319267   -7.3660575    335.93895   0.01728081  0.016721548         2368 
 1621000   0.60562266   -7.3752745    336.27672  0.017287514  0.016708016         2317 
 1622000   0.61053182   -7.3720012    335.56101  0.017240085  0.016694495         2383 
 1623000   0.60502907   -7.3772711    335.61502  0.017232235  0.016680973         2401 
 1624000   0.60057889   -7.3574493    335.75465  0.017228789  0.016667471         2396 
 1625000   0.60985906   -7.3556381    336.35036  0.017248736  0.016653983         2413 
 1626000    0.5945409   -7.3622882     335.4886  0.017193963  0.016640512         2458 
 1627000    0.6078003   -7.3669555    336.07125  0.017213237  0.016627034         2385 
 1628000   0.60019151   -7.3662049    335.95218  0.017196569  0.016613563         2337 
 1629000   0.59692132   -7.3485172    335.84306  0.017180431  0.016600122         2429 
 1630000   0.61010145   -7.3424012    335.04166  0.017128919  0.016586687         2356 
 1631000   0.59514241   -7.3556182    335.63399  0.017148681  0.016573246         2387 
 1632000    0.6085837   -7.3610369    335.73861  0.017143516  0.016559797         2341 
 1633000   0.59231335   -7.3525575    336.23081  0.017158135  0.016546362         2414 
 1634000   0.59629584   -7.3670083    335.90289   0.01713091  0.016532938         2404 
 1635000   0.61219109   -7.3468245    335.80299  0.017115341  0.016519544         2336 
 1636000   0.60073232   -7.3691621    336.52586    0.0171417  0.016506153         2409 
 1637000   0.60576813   -7.3638082    335.41717   0.01707479   0.01649278         2335 
 1638000   0.60082181   -7.3797473    335.63112   0.01707525   0.01647941         2373 
 1639000   0.60676947   -7.3602114    335.59428  0.017062959  0.016466039         2357 
 1640000   0.60311063   -7.3524733    335.40848  0.017043114  0.016452684         2389 
 1641000    0.5926243   -7.3363275    335.45901  0.017035294  0.016439348         2324 
 1642000   0.59711576   -7.3737598     335.7451  0.017039439  0.016426029         2405 
 1643000   0.59798296   -7.3589784    335.93889  0.017038897  0.016412707         2449 
 1644000   0.58927516   -7.3648458    336.59688  0.017061886  0.016399382         2426 
 1645000    0.6003517   -7.3768278    336.06073  0.017024353  0.016386081         2401 
 1646000   0.59359016   -7.3760554    335.23414  0.016972162  0.016372761         2442 
 1647000    0.5934831   -7.3638129    335.11905  0.016956034  0.016359479         2491 
 1648000    0.5941777   -7.3677232    335.63827     0.016972  0.016346186         2434 
 1649000   0.59478171   -7.3761388    335.71061  0.016965363   0.01633291         2445 
 1650000    0.5927778   -7.3928954    335.95863  0.016967608  0.016319662         2445 
 1651000   0.58856147    -7.380702    335.20453  0.016919268  0.016306407         2418 
 1652000   0.59445558   -7.3915595    335.77484  0.016937794  0.016293165         2426 
 1653000   0.59929748   -7.3728693    334.94984  0.016885957   0.01627993         2436 
 1654000   0.59334665    -7.367921    335.64368  0.016910706  0.016266709         2392 
 1655000   0.58413768   -7.3823128    335.26682  0.016881511  0.016253497         2417 
 1656000   0.58986326    -7.384552    335.20789  0.016868352  0.016240276         2424 
 1657000   0.58117063   -7.3824006    335.49738  0.016872731  0.016227068         2494 
 1658000   0.58998883   -7.3993497    336.40157     0.016908  0.016213899         2349 
 1659000   0.58984883   -7.3862479    334.99573  0.016827191  0.016200727         2491 
 1660000   0.59844299    -7.381586    335.07519  0.016821044  0.016187566         2498 
 1661000   0.59478165   -7.3765235    335.57446  0.016835965  0.016174388         2485 
 1662000   0.60046065   -7.3751552    336.05187  0.016849773  0.016161241         2360 
 1663000   0.58950432   -7.3735488     335.3491  0.016804425  0.016148078         2499 
 1664000   0.57459846   -7.3911511    335.41695  0.016797724  0.016134955         2388 
 1665000   0.58868363   -7.3829353     335.1733   0.01677544  0.016121848         2481 
 1666000   0.60279086    -7.402545    335.41877  0.016777649  0.016108744         2437 
 1667000   0.56834494   -7.3853113     335.8007  0.016786678   0.01609565         2382 
 1668000   0.57872666   -7.3889752    335.22312  0.016747758  0.016082577         2411 
 1669000   0.59625472   -7.3872625    335.68126  0.016760598  0.016069503         2421 
 1670000   0.58149136   -7.4026786    335.43501  0.016738274  0.016056441         2461 
 1671000   0.59464515   -7.3758902    335.48317  0.016730659  0.016043394         2474 
 1672000   0.58479287   -7.3878279     335.6479  0.016728862  0.016030347         2539 
 1673000   0.58618549    -7.408303    335.73463  0.016723183  0.016017327         2469 
 1674000   0.58187587   -7.3797913    335.53209  0.016703111  0.016004302         2429 
 1675000   0.60284417   -7.4035005    335.45882  0.016689493  0.015991287         2507 
 1676000   0.57675085   -7.3839224    335.08303  0.016660851  0.015978277         2540 
 1677000   0.58018862   -7.4051386    334.75303  0.016634517  0.015965271         2570 
 1678000    0.5908749   -7.4104153    335.35778  0.016654638  0.015952279         2483 
 1679000   0.58993213   -7.4118156    336.01416  0.016677296    0.0159393         2439 
 1680000    0.5714315   -7.3969142    334.83793  0.016609024  0.015926318         2473 
 1681000   0.59503928   -7.3998901    335.06641   0.01661047  0.015913343         2488 
 1682000   0.58321167   -7.4036424    334.85842   0.01659029  0.015900379         2504 
 1683000   0.58517473   -7.4139163      334.925  0.016583729  0.015887436         2471 
 1684000   0.56491697   -7.3978308    335.39596  0.016597187  0.015874498         2536 
 1685000   0.57290026    -7.398617    334.77549  0.016556651  0.015861579         2553 
 1686000    0.5720546   -7.4102939    335.18051   0.01656685  0.015848679         2536 
 1687000   0.57837966   -7.3897482    334.52133  0.016524468  0.015835772         2517 
 1688000   0.57814581   -7.4063425    334.48289  0.016512781  0.015822876         2514 
 1689000   0.56482619    -7.405537    335.13087  0.016534975  0.015809986         2486 
 1690000   0.59568017   -7.4110857    334.51159  0.016494655  0.015797106         2521 
 1691000   0.59068577    -7.404557     335.4922  0.016533225  0.015784249         2548 
 1692000   0.57613463   -7.4056006    335.29233  0.016513609  0.015771405         2522 
 1693000   0.57893738   -7.4258013    335.46467  0.016512339  0.015758572         2502 
 1694000   0.57058513   -7.4084119    335.34343  0.016496627  0.015745745         2470 
 1695000     0.565536    -7.423875    335.16785  0.016478262  0.015732948         2531 
 1696000   0.58467956   -7.4186328    335.27411  0.016473767  0.015720141         2537 
 1697000   0.57509448   -7.3969479    334.83218  0.016442358  0.015707339         2462 
 1698000    0.5766312    -7.427942    335.14809  0.016448179  0.015694551         2556 
 1699000   0.58761059    -7.390134    335.23894  0.016442954  0.015681787         2498 
 1700000   0.58118197   -7.4210594    334.48058  0.016396107   0.01566902         2567 
 1701000   0.57229178   -7.4127003    334.89487  0.016406764  0.015656268         2516 
 1702000   0.56930247   -7.4327769    335.50703  0.016427097  0.015643525         2538 
 1703000   0.58609983    -7.411889     334.4308  0.016364787  0.015630791         2520 
 1704000    0.5680124    -7.415508     334.5243  0.016359756  0.015618067         2509 
 1705000   0.57527954   -7.4119468    334.93067  0.016370023  0.015605368         2577 
 1706000   0.56683753    -7.446029    334.69906  0.016349114   0.01559266         2596 
 1707000   0.56290823   -7.4252947    334.45365  0.016327556  0.015579963         2543 
 1708000   0.56731082   -7.4027853    334.68343  0.016329207   0.01556728         2567 
 1709000   0.56114201   -7.4289631    335.08435  0.016339202  0.015554614         2523 
 1710000   0.56558365   -7.4063669    335.25617   0.01633802  0.015541952         2531 
 1711000   0.58020522   -7.4357559    335.11259  0.016321478  0.015529307         2625 
 1712000   0.57101843   -7.4280662    334.31248  0.016272998  0.015516676         2582 
 1713000   0.58507596   -7.4356206    335.01622  0.016297734   0.01550405         2500 
 1714000    0.5753333   -7.4207701    334.83714  0.016279519  0.015491449         2599 
 1715000   0.57238766   -7.4293518     334.8354  0.016269942  0.015478844         2569 
 1716000   0.57573291   -7.4300742    334.44512  0.016241507  0.015466246         2564 
 1717000   0.56422182   -7.4194706    334.79299  0.016248932  0.015453653         2526 
 1718000   0.56592484   -7.4302203    334.75467  0.016237615  0.015441077         2583 
 1719000   0.56491543   -7.4397758     335.0487  0.016242423  0.015428519         2523 
 1720000   0.57421057    -7.422255    334.48523   0.01620568  0.015415969         2584 
 1721000   0.57441133   -7.4081619    334.60465  0.016202046  0.015403421         2533 
 1722000   0.57427288   -7.4352229    334.79972  0.016202077  0.015390903         2539 
 1723000   0.55754622   -7.4427653    334.80983  0.016193163   0.01537839         2582 
 1724000   0.57591164   -7.4307095     334.3067   0.01615945  0.015365875         2553 
 1725000   0.56334603   -7.4533551    334.85211  0.016176431   0.01535337         2519 
 1726000   0.56636396   -7.4409406    334.94645  0.016171613  0.015340895         2500 
 1727000   0.55515573   -7.4215146    335.07993   0.01616869   0.01532842         2539 
 1728000   0.56528732   -7.4550613    335.50123  0.016179651  0.015315959         2508 
 1729000   0.57774331   -7.4331622    334.22394   0.01610873  0.015303502         2557 
 1730000   0.55802012   -7.4482666    334.24395  0.016100383  0.015291053         2555 
 1731000   0.54419779   -7.4314594    334.22147      0.01609  0.015278607         2518 
 1732000   0.56331542   -7.4355851       334.93    0.0161148  0.015266188         2502 
 1733000   0.56877516   -7.4447555    335.00385  0.016109052  0.015253759         2574 
 1734000   0.54823955     -7.44896    335.12495  0.016105582  0.015241336         2546 
 1735000   0.55190818    -7.434363    334.48849   0.01606573  0.015228936         2540 
 1736000   0.56539408   -7.4492947    334.85594  0.016074114  0.015216548         2634 
 1737000   0.56509541   -7.4201503    334.31289  0.016038807  0.015204171         2595 
 1738000   0.56324511   -7.4434631    334.63413  0.016044981  0.015191809         2549 
 1739000   0.55975307   -7.4323984    334.87572  0.016047332  0.015179452         2555 
 1740000   0.55089215   -7.4310498     334.4228  0.016016418  0.015167107         2588 
 1741000    0.5435826   -7.4356123    334.58634  0.016015046   0.01515478         2544 
 1742000   0.56565482   -7.4613868     334.9769  0.016024536  0.015142465         2550 
 1743000    0.5550366   -7.4598338    334.85205  0.016009373  0.015130156         2595 
 1744000   0.56694062   -7.4509161    334.64643  0.015990368  0.015117863         2550 
 1745000   0.56116516   -7.4415428     335.1068   0.01600319  0.015105588         2603 
 1746000   0.57157307    -7.455868    335.30694  0.016003577  0.015093322         2589 
 1747000   0.56984026   -7.4407107    334.27052  0.015944978  0.015081065         2541 
 1748000   0.56385616   -7.4582966    334.96904  0.015969157  0.015068821         2525 
 1749000   0.55271996   -7.4700173    334.38706  0.015932297  0.015056581         2547 
 1750000   0.56503438   -7.4413485    334.24813  0.015916578  0.015044358         2601 
 1751000   0.55522981    -7.451519    334.22235  0.015906261  0.015032147         2599 
 1752000   0.54017637   -7.4323569    334.44008  0.015907538  0.015019953         2562 
 1753000   0.54069504   -7.4410421    334.30555  0.015892068  0.015007767         2533 
 1754000   0.55894856   -7.4561422    334.98522  0.015915299  0.014995575         2566 
 1755000   0.55802423   -7.4256567    334.53195  0.015884708  0.014983424         2499 
 1756000    0.5487713   -7.4571956    334.48857  0.015873603  0.014971271         2565 
 1757000   0.55293561   -7.4519465    334.64801  0.015872131  0.014959137         2529 
 1758000   0.56128727   -7.4625968    334.89533  0.015874826  0.014947013         2554 
 1759000   0.55063852   -7.4395702    334.13325  0.015829697  0.014934899         2551 
 1760000   0.54202215   -7.4564802    334.95877   0.01585979   0.01492279         2590 
 1761000   0.55469757    -7.460088    334.80727  0.015843615  0.014910682         2576 
 1762000   0.54045478   -7.4496703     333.8994  0.015791685  0.014898579         2607 
 1763000   0.53592162   -7.4514797    334.79419  0.015825023  0.014886499         2634 
 1764000   0.53325788   -7.4649644    334.61161  0.015807427  0.014874418         2572 
 1765000   0.54182842   -7.4481513    334.76678  0.015805797  0.014862353         2626 
 1766000   0.53694181   -7.4554966    334.55314  0.015786766   0.01485028         2609 
 1767000   0.54571587   -7.4733293    334.06093  0.015754618  0.014838233         2553 
 1768000    0.5417273   -7.4337181    334.00696  0.015743164  0.014826199         2530 
 1769000   0.53882755   -7.4693998    334.12066   0.01573962  0.014814181         2587 
 1770000   0.55008291   -7.4514886    334.13693  0.015731494   0.01480217         2535 
 1771000   0.54422841   -7.4475732    334.24407  0.015727652  0.014790168         2536 
 1772000   0.54855468   -7.4654584    334.76586  0.015743315  0.014778166         2557 
 1773000   0.53487932   -7.4686691     333.8844  0.015693006  0.014766173         2514 
 1774000   0.53955149   -7.4639569     334.3914  0.015707976  0.014754193         2604 
 1775000   0.53588171   -7.4695679    334.26734  0.015693302  0.014742225         2609 
 1776000    0.5490176   -7.4479874    333.81435  0.015663211  0.014730259         2564 
 1777000   0.54749126   -7.4521045    334.36089  0.015680027  0.014718302         2559 
 1778000   0.54455483   -7.4455815    334.67851  0.015686094  0.014706372         2552 
 1779000   0.54536539   -7.4445872    334.63787  0.015675373  0.014694441         2554 
 1780000   0.53344768   -7.4626831    334.65443  0.015667342  0.014682526         2586 
 1781000   0.55614343   -7.4689628    334.31179  0.015642513  0.014670611         2538 
 1782000   0.53796571   -7.4449306    334.23612  0.015630197  0.014658714         2564 
 1783000   0.53633772   -7.4697099    333.88679  0.015605103  0.014646837         2571 
 1784000   0.54346602   -7.4738315    333.75207  0.015590063  0.014634962         2568 
 1785000   0.54267623   -7.4838523    333.73373  0.015580473  0.014623105         2588 
 1786000    0.5391742   -7.4833727    334.32955   0.01559955  0.014611254         2605 
 1787000   0.54334129   -7.4785874    333.77779   0.01556509   0.01459941         2571 
 1788000   0.53405632   -7.4933833    334.06214  0.015569638  0.014587586         2605 
 1789000   0.54261786   -7.4914266    333.95158  0.015555785  0.014575763         2627 
 1790000   0.53816679   -7.4751367    334.34797  0.015565548  0.014563957         2585 
 1791000   0.54013589   -7.4771213    333.79236  0.015531005  0.014552181         2574 
 1792000   0.54023267   -7.4862965     333.9597   0.01553012  0.014540392         2548 
 1793000   0.54483252   -7.4974535    334.02511  0.015524498  0.014528621         2573 
 1794000   0.53508224   -7.4719869    334.27102  0.015527268  0.014516829         2564 
 1795000   0.52788317   -7.4778188    334.18003  0.015514393  0.014505065         2596 
 1796000    0.5480361   -7.4844941    334.21972  0.015507597  0.014493328         2619 
 1797000    0.5288417   -7.4787777    334.11957  0.015494323  0.014481593         2585 
 1798000   0.53587487   -7.4630387    334.40423  0.015498898  0.014469872         2539 
 1799000    0.5149449   -7.4849285    333.81226  0.015462862  0.014458143         2561 
 1800000   0.53336975   -7.4956529    334.22739   0.01547349  0.014446425         2589 
 1801000   0.54515824   -7.4768957    333.42302   0.01542768  0.014434733         2592 
 1802000   0.51987795   -7.4712572    333.40657  0.015418358   0.01442305         2629 
 1803000   0.53332627   -7.4780394    333.72496  0.015424522  0.014411365         2559 
 1804000   0.53895691   -7.4835734    334.08191  0.015432461  0.014399707         2574 
 1805000   0.52640696   -7.4704819    333.74827  0.015408507  0.014388038         2516 
 1806000   0.53178916   -7.4651528    333.68372  0.015396997  0.014376391         2513 
 1807000   0.53725583   -7.5002407    333.79431  0.015393576  0.014364758         2570 
 1808000   0.53539578   -7.4886568    333.52094  0.015372462  0.014353122         2538 
 1809000   0.51174343   -7.4635177    333.28648  0.015353164  0.014341503         2546 
 1810000   0.54208452   -7.4675225    333.86504  0.015371318    0.0143299         2560 
 1811000   0.52320382   -7.4963704    333.63533  0.015352261  0.014318307         2563 
 1812000   0.52498228   -7.4876422    333.10611  0.015319449  0.014306716         2607 
 1813000   0.53444452   -7.4979779     333.9537  0.015349959  0.014295142         2591 
 1814000   0.53309525   -7.4823661    333.61164  0.015325783  0.014283588         2595 
 1815000   0.52955197   -7.4856309     333.9791   0.01533421  0.014272036         2571 
 1816000   0.52501727   -7.4820464    333.36362  0.015297523  0.014260497         2635 
 1817000   0.53669826   -7.4904391    333.53526  0.015296976  0.014248968         2596 
 1818000   0.52139412   -7.4821757    333.66863  0.015294675  0.014237443         2589 
 1819000   0.52521653   -7.4732349    334.22049  0.015311549  0.014225946         2525 
 1820000   0.52530541   -7.5062596    333.64111  0.015276607  0.014214449         2615 
 1821000   0.52891018   -7.4804835    333.49892  0.015261712  0.014202961         2624 
 1822000   0.53626302   -7.4814583    333.71056  0.015263015  0.014191474         2581 
 1823000   0.51030084     -7.47281    334.20771  0.015277368  0.014180005         2574 
 1824000   0.51578884   -7.5024079    333.51728  0.015237449   0.01416854         2614 
 1825000   0.52079479   -7.4989032    334.23543  0.015261892  0.014157099         2558 
 1826000   0.51190905    -7.484475     333.3586  0.015213518  0.014145649         2600 
 1827000   0.52546181   -7.4947157    333.58686  0.015215602  0.014134205         2634 
 1828000   0.51870474   -7.4956801    333.29085  0.015193784  0.014122778         2627 
 1829000   0.52042977   -7.5030093    333.58783  0.015199008  0.014111347         2656 
 1830000   0.51678994    -7.507955    334.01711  0.015210251  0.014099943         2620 
 1831000   0.53059111   -7.5172296    333.76944  0.015190672  0.014088538         2597 
 1832000   0.52156633   -7.5056911    333.66345  0.015177559  0.014077143         2550 
 1833000   0.52038597   -7.4982852    333.01901  0.015139981   0.01406577         2626 
 1834000    0.5211088   -7.4900019      333.474  0.015152399  0.014054399         2619 
 1835000   0.52047483   -7.5096179    333.41355  0.015141397  0.014043051         2617 
 1836000   0.53454977   -7.4903209    333.55127    0.0151394  0.014031705         2601 
 1837000   0.51384379   -7.5009607    333.59282  0.015133044  0.014020373         2604 
 1838000   0.52275356   -7.4999316      333.285  0.015110854  0.014009062         2598 
 1839000   0.51771902   -7.4994309    333.17732  0.015097758  0.013997745         2599 
 1840000   0.50979469   -7.5096536    333.93982  0.015124086  0.013986441         2618 
 1841000   0.50438235   -7.4988996    332.89866  0.015068743  0.013975144         2600 
 1842000   0.50808373    -7.503894    333.34343  0.015080684  0.013963852         2604 
 1843000   0.52489637   -7.5017316    332.98781  0.015056421  0.013952575         2643 
 1844000   0.51838096   -7.4920061    333.22751  0.015059089  0.013941304         2600 
 1845000   0.52299538   -7.5004304    333.02165  0.015041628   0.01393006         2635 
 1846000   0.52300997   -7.4944553    333.33447  0.015047601  0.013918816         2608 
 1847000    0.5137071   -7.4946642     333.4642  0.015045308  0.013907583         2624 
 1848000   0.49870247   -7.5043242    332.86191  0.015010007  0.013896359         2602 
 1849000   0.51457553   -7.5125628    333.38606  0.015025512  0.013885146         2643 
 1850000   0.50941642    -7.505073    333.18238  0.015008216  0.013873938         2646 
 1851000   0.52044803   -7.5140387    333.40454  0.015010109  0.013862749         2654 
 1852000   0.51630484     -7.52437    332.77068  0.014973483  0.013851556         2656 
 1853000   0.51376596   -7.5129245    333.57274  0.015001472  0.013840382         2637 
 1854000   0.51161462   -7.5161428    333.15273  0.014974503  0.013829221         2608 
 1855000   0.51551702   -7.5242816    333.56506  0.014984953  0.013818064         2620 
 1856000   0.50645697   -7.5234388    333.47509   0.01497284   0.01380693         2646 
 1857000   0.51724317   -7.5139379    333.34097  0.014958758  0.013795789         2601 
 1858000   0.51030463   -7.5066987    333.11676  0.014940651  0.013784676         2599 
 1859000   0.50650049   -7.5003724    333.00517  0.014927612   0.01377358         2638 
 1860000   0.50528648   -7.5022023    333.14274   0.01492575  0.013762489         2595 
 1861000   0.50186399   -7.5249744    333.51689  0.014934484  0.013751402         2649 
 1862000   0.50665632   -7.5031453    333.28323  0.014916006  0.013740318         2658 
 1863000    0.5211818    -7.507432    332.97772  0.014894334  0.013729246         2657 
 1864000   0.50976372   -7.5067591    333.24754  0.014898406   0.01371819         2624 
 1865000   0.50898842   -7.5223563    332.91993  0.014875779   0.01370715         2643 
 1866000   0.50487766   -7.5219665    333.19499  0.014880091  0.013696107         2687 
 1867000   0.51117951   -7.5228666    332.57384  0.014844396   0.01368509         2651 
 1868000   0.51279713   -7.5317049    332.78826  0.014846014  0.013674071         2651 
 1869000   0.50763738   -7.5082318    332.86447  0.014841469  0.013663065         2608 
 1870000   0.50704652   -7.5252536    333.29881  0.014852888  0.013652068         2627 
 1871000   0.50306599   -7.5136118    333.12594   0.01483725  0.013641079         2653 
 1872000   0.50682982   -7.5083574    333.05166  0.014826018  0.013630114         2602 
 1873000   0.51591846   -7.5170283    333.06981   0.01481891  0.013619164         2618 
 1874000   0.50834544   -7.5258638    333.79228  0.014843129  0.013608216         2680 
 1875000   0.51511991   -7.5125027    332.93905  0.014797291  0.013597286         2650 
 1876000   0.50108043   -7.5292056    332.93918  0.014789409  0.013586355         2620 
 1877000    0.5037131   -7.5215112    333.02914  0.014785524  0.013575439         2685 
 1878000   0.51419325   -7.5372869    332.71103  0.014763535   0.01356454         2726 
 1879000   0.50107081   -7.5208785    332.91022  0.014764512  0.013553642         2631 
 1880000   0.49426666   -7.5135851    333.09301  0.014764761   0.01354275         2647 
 1881000   0.50002628   -7.5237183     333.0673  0.014755773  0.013531877         2651 
 1882000   0.49844175   -7.5233026    332.97843  0.014743997  0.013521012         2633 
 1883000   0.51637706   -7.5218465     333.3781  0.014753855  0.013510164         2627 
 1884000   0.48944167     -7.52482    332.74956  0.014718222  0.013499323         2608 
 1885000   0.49949768   -7.5323605    333.14205  0.014727765  0.013488488         2681 
 1886000   0.50341671   -7.5465829    333.20101  0.014722561  0.013477664         2654 
 1887000   0.49422153   -7.5179395    333.03665  0.014707501  0.013466856         2618 
 1888000   0.49888128   -7.5318003    333.14009  0.014704276  0.013456058         2659 
 1889000   0.50867943   -7.5223016    333.20553  0.014699379  0.013445281         2665 
 1890000   0.49521221   -7.5482375    332.92081  0.014679048  0.013434499         2663 
 1891000   0.50042726   -7.5265962    333.08614  0.014678571  0.013423725         2644 
 1892000   0.50109446   -7.5381279    332.77001  0.014656889   0.01341296         2681 
 1893000   0.48743063   -7.5350193    332.57346  0.014640494  0.013402219         2689 
 1894000   0.49459881   -7.5435262     333.2176  0.014661105  0.013391479         2717 
 1895000   0.49516436   -7.5287475    332.44908  0.014619572   0.01338075         2744 
 1896000   0.50819921   -7.5293072    332.86758  0.014630256  0.013370034         2696 
 1897000   0.49720536   -7.5412229    333.29268  0.014641218  0.013359323         2668 
 1898000   0.50049277   -7.5229794    332.90873  0.014616646  0.013348622         2724 
 1899000   0.49659801   -7.5206656    332.85242  0.014606478  0.013337928         2647 
 1900000   0.49313831   -7.5422711     332.8987   0.01460082   0.01332724         2729 
 1901000   0.49351131    -7.539839    333.21166  0.014606859  0.013316559         2703 
 1902000   0.48967653    -7.532561    333.02981  0.014591212  0.013305883         2635 
 1903000   0.49361933   -7.5443313    333.39503  0.014599537  0.013295227         2726 
 1904000   0.49179772   -7.5597581    332.69575  0.014561264  0.013284582         2788 
 1905000   0.49353108   -7.5390312    332.41551  0.014541361  0.013273948         2671 
 1906000    0.4901023   -7.5477825    332.73615   0.01454775  0.013263327         2713 
 1907000   0.48857556   -7.5415539    333.36118  0.014567435  0.013252708         2733 
 1908000    0.4873587    -7.552696    332.69426  0.014530672  0.013242109         2738 
 1909000   0.48081747   -7.5443905    333.20635  0.014545414   0.01323151         2727 
 1910000   0.49404185   -7.5437441    332.67307  0.014514532   0.01322093         2677 
 1911000    0.4954592   -7.5290022    332.62664  0.014504912  0.013210357         2718 
 1912000   0.49260554   -7.5552807     332.6774  0.014499538  0.013199789         2769 
 1913000   0.48949865   -7.5296096    332.62969   0.01448988  0.013189233         2721 
 1914000   0.48765302   -7.5472174    333.07277  0.014501601  0.013178689         2770 
 1915000   0.48711929   -7.5366359    332.49542  0.014468904  0.013168154         2729 
 1916000   0.48938076   -7.5437701    332.77808  0.014473647  0.013157624         2730 
 1917000   0.48759799   -7.5460308    333.35822  0.014491316  0.013147106         2714 
 1918000   0.48602295   -7.5425577    332.44997  0.014444298  0.013136607         2735 
 1919000   0.48313565   -7.5253093    332.68057  0.014446785  0.013126114         2733 
 1920000   0.48695789   -7.5628594     332.6483   0.01443786  0.013115647         2744 
 1921000   0.49426363   -7.5452783    332.72294  0.014433582  0.013105176         2724 
 1922000   0.49444074   -7.5629322    332.33898  0.014409425  0.013094716         2731 
 1923000   0.48616018   -7.5472536    332.17587  0.014394863  0.013084258         2687 
 1924000   0.47570276   -7.5400539    332.37776  0.014396126  0.013073808         2707 
 1925000   0.48194409   -7.5449166    332.60083  0.014398304  0.013063366         2712 
 1926000   0.46933886    -7.548772    332.28284   0.01437707  0.013052945         2710 
 1927000   0.48339671   -7.5513899    332.56175  0.014381671  0.013042531         2738 
 1928000   0.47477313   -7.5414472    332.47392  0.014370415  0.013032131         2702 
 1929000   0.48703089   -7.5536951    332.49784  0.014363999   0.01302174         2634 
 1930000   0.48756936   -7.5465356    332.95037  0.014376095  0.013011352         2681 
 1931000   0.46899755   -7.5462207    332.65296  0.014355815  0.013000976         2670 
 1932000   0.48022174   -7.5460224     332.8968  0.014358902  0.012990615         2688 
 1933000    0.4877226     -7.55919    332.31973  0.014326597  0.012980259         2683 
 1934000   0.48726223   -7.5523406    333.07839  0.014351878  0.012969916         2691 
 1935000   0.47433275   -7.5480922    331.64024  0.014282525  0.012959588         2736 
 1936000   0.47421112   -7.5574347    332.33895  0.014305223  0.012949263         2719 
 1937000   0.47528586   -7.5461348    332.50394  0.014304936  0.012938947         2738 
 1938000   0.48823156   -7.5383341    332.42976  0.014294365  0.012928641         2663 
 1939000   0.48092546   -7.5486257    332.53289  0.014291426  0.012918338         2698 
 1940000   0.47633674    -7.560094    332.34221  0.014275868  0.012908045         2773 
 1941000   0.48568439   -7.5542399    332.52521   0.01427637   0.01289777         2710 
 1942000    0.4800795   -7.5573241    332.46778  0.014266554  0.012887505         2721 
 1943000   0.47446158    -7.567805    332.50296  0.014260721  0.012877245         2672 
 1944000   0.47856782    -7.569263    332.81452   0.01426674  0.012866994         2731 
 1945000   0.47639762   -7.5595869    332.33686   0.01423894  0.012856765         2729 
 1946000   0.48846206   -7.5786801    331.90818  0.014213266  0.012846541         2704 
 1947000   0.46769315   -7.5728684    332.53237  0.014232682  0.012836323         2701 
 1948000   0.46995844   -7.5529304    332.52837  0.014225204  0.012826123         2693 
 1949000   0.46542488   -7.5620548    332.39917  0.014212381  0.012815933         2676 
 1950000    0.4651277   -7.5562632    332.34097  0.014202606  0.012805748         2738 
 1951000   0.48641211   -7.5638003     332.7677  0.014213553  0.012795569         2659 
 1952000   0.47472125   -7.5532075    332.54558  0.014196789  0.012785398         2729 
 1953000   0.46589185   -7.5794582    332.31581  0.014179715  0.012775236         2685 
 1954000   0.47191369   -7.5569856    332.27645   0.01417078  0.012765085         2700 
 1955000   0.47549133   -7.5653983    331.96003  0.014150044  0.012754946         2703 
 1956000   0.46742544    -7.573994    332.21778  0.014153791  0.012744806         2712 
 1957000   0.46954986   -7.5646763    331.81468  0.014129394  0.012734677         2699 
 1958000   0.47288876   -7.5869235    332.11269  0.014134861  0.012724571         2705 
 1959000   0.48309902    -7.553429    331.95869  0.014121095  0.012714465         2760 
 1960000   0.47854593   -7.5870065    332.59499  0.014140943  0.012704384         2782 
 1961000   0.47687557   -7.5780369    332.02502  0.014109511  0.012694303         2764 
 1962000   0.47943862   -7.5672703    332.22338  0.014110745  0.012684234         2756 
 1963000    0.4639357   -7.5787571    332.11128  0.014098798  0.012674176         2778 
 1964000   0.47001034   -7.5728509    332.36154  0.014102238  0.012664114         2699 
 1965000    0.4784642    -7.586886    332.06042  0.014082291   0.01265407         2776 
 1966000   0.47600313   -7.5832866    332.26291  0.014083711  0.012644039         2761 
 1967000   0.46167549    -7.566146    332.07226  0.014068474  0.012634008         2702 
 1968000   0.46624265   -7.5679982     332.4144  0.014075813  0.012623996         2662 
 1969000   0.46729485   -7.5572921    332.22838  0.014060791  0.012613994         2716 
 1970000   0.46147541   -7.5728599    332.49275  0.014064837  0.012603994         2718 
 1971000    0.4753205   -7.5687888    332.06333  0.014039545  0.012594006         2736 
 1972000   0.45896502   -7.5810088    332.06506  0.014032499  0.012584021         2714 
 1973000   0.46842341    -7.579793     332.1526  0.014029085  0.012574047         2767 
 1974000   0.46155448   -7.5913255    332.25685  0.014026378  0.012564088         2737 
 1975000    0.4648326   -7.5879798    332.77893  0.014041305  0.012554149         2710 
 1976000   0.46183593   -7.5743097    332.14185  0.014007332  0.012544208         2682 
 1977000   0.46347327   -7.5874192    332.25482  0.014005008  0.012534282         2751 
 1978000   0.45883874   -7.5857189    332.31149  0.014000316  0.012524357         2755 
 1979000   0.46468334    -7.570839    331.99463  0.013979899  0.012514441         2692 
 1980000   0.45998144   -7.5903632    332.42885  0.013991113  0.012504545         2677 
 1981000   0.46380673   -7.5811954    331.76174  0.013955988  0.012494663         2739 
 1982000   0.45950964   -7.5876631    332.25939   0.01396987  0.012484794         2752 
 1983000   0.45575704   -7.5789203    332.24748  0.013962325  0.012474932         2703 
 1984000   0.46860752   -7.5982939    331.86371  0.013939168  0.012465066         2753 
 1985000   0.46475373   -7.6031336    332.12252  0.013943011  0.012455215         2788 
 1986000   0.45925753   -7.5732684    331.54463  0.013911742   0.01244537         2730 
 1987000   0.45395376   -7.6062721    332.07975  0.013927183  0.012435534         2762 
 1988000   0.45694333   -7.5909133    332.19391  0.013924963  0.012425701         2719 
 1989000   0.46651424    -7.579952    331.58341  0.013892384  0.012415876         2758 
 1990000   0.45591132   -7.5858002     331.9293  0.013899887  0.012406056         2740 
 1991000   0.45848283    -7.587117    331.78533   0.01388688  0.012396248         2757 
 1992000   0.45888368   -7.6031921    331.66348  0.013874811  0.012386445         2733 
 1993000   0.46566843   -7.5918654    332.37202  0.013897475  0.012376661         2744 
 1994000   0.46014582   -7.6064981    331.68099  0.013861626   0.01236688         2717 
 1995000   0.45497706   -7.5924668    331.74883  0.013857512  0.012357103         2706 
 1996000    0.4456037   -7.5874283    331.75912  0.013850999  0.012347343         2713 
 1997000    0.4650306   -7.5957144    332.32382  0.013867627  0.012337591         2736 
 1998000   0.45849602   -7.5865959    331.95237  0.013845194  0.012327845         2715 
 1999000   0.46023287   -7.5921511    331.72837   0.01382893  0.012318112         2727 
 2000000   0.45266535   -7.5925186    332.16263   0.01384011  0.012308377         2687 
 2001000   0.44653559   -7.6008483    331.47828  0.013804692  0.012298658         2709 
 2002000   0.45609491   -7.5933815    331.10254  0.013782157  0.012288941         2750 
 2003000   0.45620775   -7.6072343    331.78626  0.013803722  0.012279241         2738 
 2004000   0.44808584   -7.5994722    331.66165  0.013791652  0.012269553         2690 
 2005000   0.45042116   -7.5989026    331.38655   0.01377334  0.012259866         2723 
 2006000    0.4573418     -7.60329    331.57506  0.013774305  0.012250197         2703 
 2007000    0.4513103   -7.5954867     331.4827  0.013763607  0.012240531         2714 
 2008000   0.44444775   -7.6010814    331.87827  0.013773168  0.012230874         2690 
 2009000   0.44386856   -7.5955127    331.71312  0.013759463  0.012221234         2732 
 2010000   0.44302948   -7.5911237    331.93827  0.013761952  0.012211599         2686 
 2011000   0.46160909   -7.6029717    331.64142  0.013742807   0.01220197         2752 
 2012000   0.44829935   -7.5944776    331.62054  0.013735112  0.012192353         2729 
Loop time of 4305.66 on 48 procs for 2000000 steps with 4000 atoms

Performance: 80266.495 tau/day, 464.505 timesteps/s
99.4% CPU use with 48 MPI tasks x no OpenMP threads

MPI task timing breakdown:
Section |  min time  |  avg time  |  max time  |%varavg| %total
---------------------------------------------------------------
Pair    | 260.79     | 280.41     | 295.01     |  46.4 |  6.51
Neigh   | 26.39      | 27.037     | 28.384     |   6.6 |  0.63
Comm    | 237.66     | 254.31     | 274.49     |  58.1 |  5.91
Output  | 4.5748     | 4.5767     | 4.6103     |   0.2 |  0.11
Modify  | 3656.2     | 3686.8     | 3707.4     |  20.1 | 85.63
Other   |            | 52.5       |            |       |  1.22

Nlocal:        83.3333 ave          89 max          74 min
Histogram: 1 0 1 2 9 5 14 4 7 5
Nghost:        1755.98 ave        1780 max        1733 min
Histogram: 1 4 2 8 10 9 7 4 2 1
Neighs:        10664.1 ave       11694 max        9281 min
Histogram: 1 0 2 6 9 9 8 7 5 1
FullNghs:      21328.7 ave       23002 max       18789 min
Histogram: 1 0 1 6 7 7 11 8 2 5

Total # of neighbors = 1023777
Ave neighs/atom = 255.94425
Neighbor list builds = 107949
Dangerous builds = 1

#clear
#
#next RN
#
#jump SELF
Total wall time: 1:11:48
