
units lj                  # Use reduced LJ style units
atom_style atomic         # Uncharged point particles
atom_modify map hash      # Needed for indexing of clusters etc
                          # Used to be able to find where atoms are in relation to each other.

lattice fcc 1.0 spacing 1 1 1
Lattice spacing in x,y,z = 1.5874011 1.5874011 1.5874011
region box block 0 10 0 10 0 10 units lattice
create_box 2 box
Created orthogonal box = (0.0000000 0.0000000 0.0000000) to (15.874011 15.874011 15.874011)
  3 by 4 by 4 MPI processor grid
create_atoms 1 box
Created 4000 atoms
  using lattice units in orthogonal box = (0.0000000 0.0000000 0.0000000) to (15.874011 15.874011 15.874011)
  create_atoms CPU = 0.015 seconds
set type 1 type/fraction 2 0.28 78393
Setting atom values ...
  1153 settings made for type/fraction
mass 1 1.0
mass 2 1.0
pair_style lj/cut  3.5
pair_modify tail  yes
pair_coeff 1  1  1.0  1.0   # Intearaction between 1 and 1 set with epsilon = 1 and sigma = 1
pair_coeff 1  2  1.5  0.8
pair_coeff 2  2  0.5  0.88

write_data data.0
System init for write_data ...
Neighbor list info ...
  update every 1 steps, delay 10 steps, check yes
  max neighbors/atom: 2000, page size: 100000
  master list distance cutoff = 3.8
  ghost atom cutoff = 3.8
  binsize = 1.9, bins = 9 9 9
  1 neighbor lists, perpetual/occasional/extra = 1 0 0
  (1) pair lj/cut, perpetual
      attributes: half, newton on
      pair build: half/bin/atomonly/newton
      stencil: half/bin/3d
      bin: standard
WARNING: Not all mixed pair coeffs generated from mixing. Use write_data with 'pair ij' option to store all pair coeffs. (../write_data.cpp:312)


#############################
#   M E L T   S Y S T E M   #
#############################

velocity all create 2.4 6583654 mom yes dist gaussian # Assign velocities
                                                    # Temperature 2.4, random number seed, zero linear momentum
                                                                                # Gaussian distribution

timestep 0.002   # simulation timestep
thermo 1000       # output thermodynamic data every 1000 steps bf 100

# Define a fix  in this case with index 1 applied to all
# particles in the simulation. This fix is for simulations
# in the anisotropic NPT ensemble. Note that we use the MTK
# correction.
fix 1 all npt temp 2.4 2.4 0.1 iso 5.68 5.68 0.5 mtk yes tchain 5 pchain 5 # Use NPT ensemble
                                                                         # Set temperature and pressure and damping
                                                                         # Numbers of thermostats in chain and in barostat
run 10000          # run for 10000 steps
Per MPI rank memory allocation (min/avg/max) = 3.642 | 3.644 | 3.648 Mbytes
Step Temp E_pair E_mol TotEng Press Volume 
       0          2.4   -6.5468678            0   -2.9477678   -3.9245899         4000 
    1000    2.4230325   -4.9735808            0   -1.3399406    5.6880657    4202.3404 
    2000    2.4278367   -4.9755436            0    -1.334699    5.4592702    4223.0447 
    3000    2.3636906   -4.9866173            0   -1.4419679    5.4924286    4217.5329 
    4000    2.4134316   -4.9534727            0   -1.3342304    5.8811698    4204.8128 
    5000    2.4182894   -4.9076466            0   -1.2811193    5.9685209    4221.2233 
    6000    2.4183219   -4.9770979            0   -1.3505219    5.7773404    4191.9759 
    7000    2.3989534   -4.9524513            0   -1.3549208    5.6211303    4221.8518 
    8000    2.4308891   -4.9692096            0   -1.3237876    5.8960548    4189.9785 
    9000    2.4007255   -4.9673487            0   -1.3671608    5.5529376    4227.6578 
   10000    2.4043219   -4.9821992            0    -1.376618    5.2415964    4243.1434 
Loop time of 2.37911 on 48 procs for 10000 steps with 4000 atoms

Performance: 726323.537 tau/day, 4203.261 timesteps/s
99.6% CPU use with 48 MPI tasks x no OpenMP threads

MPI task timing breakdown:
Section |  min time  |  avg time  |  max time  |%varavg| %total
---------------------------------------------------------------
Pair    | 1.0142     | 1.0983     | 1.1781     |   3.2 | 46.16
Neigh   | 0.20029    | 0.21008    | 0.22682    |   1.1 |  8.83
Comm    | 0.72818    | 0.80818    | 0.88054    |   4.0 | 33.97
Output  | 0.00024202 | 0.00024773 | 0.00030552 |   0.0 |  0.01
Modify  | 0.2073     | 0.24763    | 0.27614    |   4.0 | 10.41
Other   |            | 0.01466    |            |       |  0.62

Nlocal:        83.3333 ave         100 max          70 min
Histogram: 1 1 3 16 9 9 4 4 0 1
Nghost:        1575.38 ave        1612 max        1538 min
Histogram: 1 3 6 6 4 12 7 5 3 1
Neighs:        8988.92 ave       11028 max        7366 min
Histogram: 2 2 8 10 8 8 2 7 0 1

Total # of neighbors = 431468
Ave neighs/atom = 107.86700
Neighbor list builds = 910
Dangerous builds = 212

# Equilibrate just above the melting temperature to avoid step fn in T

fix 1 all npt temp 1.25 1.25 0.1 iso 5.68 5.68 0.5 mtk yes tchain 5 pchain 5
run 2000
Per MPI rank memory allocation (min/avg/max) = 3.643 | 3.645 | 3.649 Mbytes
Step Temp E_pair E_mol TotEng Press Volume 
   10000    2.4043219   -4.9821992            0    -1.376618    5.2415964    4243.1434 
   11000    1.2414404   -6.8084076            0   -4.9467126    5.8186976    3393.0995 
   12000    1.2239202   -6.7872231            0   -4.9518018      5.98525    3387.3547 
Loop time of 0.55951 on 48 procs for 2000 steps with 4000 atoms

Performance: 617683.033 tau/day, 3574.555 timesteps/s
99.6% CPU use with 48 MPI tasks x no OpenMP threads

MPI task timing breakdown:
Section |  min time  |  avg time  |  max time  |%varavg| %total
---------------------------------------------------------------
Pair    | 0.24165    | 0.26762    | 0.3025     |   2.6 | 47.83
Neigh   | 0.035894   | 0.038778   | 0.043382   |   0.8 |  6.93
Comm    | 0.16655    | 0.20362    | 0.23665    |   3.4 | 36.39
Output  | 5.1534e-05 | 5.2599e-05 | 6.4102e-05 |   0.0 |  0.01
Modify  | 0.040039   | 0.044657   | 0.050976   |   1.4 |  7.98
Other   |            | 0.004788   |            |       |  0.86

Nlocal:        83.3333 ave          90 max          77 min
Histogram: 3 4 2 10 7 6 7 3 2 4
Nghost:        1839.00 ave        1863 max        1810 min
Histogram: 2 2 4 4 9 7 7 5 4 4
Neighs:        11283.3 ave       13209 max        9722 min
Histogram: 1 1 6 13 10 8 5 2 1 1

Total # of neighbors = 541600
Ave neighs/atom = 135.40000
Neighbor list builds = 142
Dangerous builds = 8

#############################
# L I N E A R  Q U E N C H  #
#############################

# Define solid atoms. This closely follows ten Wolde  Ruiz-Montero and Frenkel  Faraday Discuss  1996  104  93-110
# Compute components of the per-atom q6 vector
compute q6 all orientorder/atom degrees 1 6 components 6 nnn NULL cutoff 1.3 # compute the Q6 parameter.
                                                                             # Use all neighbours within 1.3 unit cell.

# get number of connections
compute coord_number all coord/atom orientorder q6 0.5

# An atom is solid if it has 8 or more connections (of a possible 14)
variable is_solid atom c_coord_number>=8
group solid dynamic all var is_solid    # Must be dynamic to update
dynamic group solid defined

# do clustering
compute cluster solid cluster/atom 1.3 # Create a cluster where all atoms within are solid and max 1.3 units from another member

# define chunks one chunk per cluster
compute clus_chunks solid chunk/atom c_cluster nchunk every compress yes  # Says which atoms are in which chunk

# count the size of each chunk
compute size_chunks solid property/chunk clus_chunks count


# Find the maximum entry in the vector of chunk sizes
variable max_n equal max(c_size_chunks)


# Thermo style which includes this variable
# thermo_style custom step temp pe vol v_max_n

thermo ${N}  # Print the thermo information every 100 steps
thermo 1000  

# Reset the npt fix at a lower temperature (below freezing)
fix 1  all npt temp  ${temp} ${temp}  0.1  iso  5.68  5.68  0.5  mtk yes tchain  5  pchain  5
fix 1  all npt temp  0.45 ${temp}  0.1  iso  5.68  5.68  0.5  mtk yes tchain  5  pchain  5
fix 1  all npt temp  0.45 0.45  0.1  iso  5.68  5.68  0.5  mtk yes tchain  5  pchain  5

dump dmp2 all dcd ${N} traj.dcd
dump dmp2 all dcd 1000 traj.dcd


compute msd all msd com yes
variable twopoint equal c_msd[4]/6/(step*dt+1.0e-6)
fix 9 all vector 10 c_msd[4]
variable fit equal slope(f_9)/6/(10*dt)
thermo_style custom step temp pe c_msd[4] v_twopoint v_fit v_max_n

fix 1 all npt temp 1.25 ${temp} 0.1 iso 5.68 5.68 0.5 mtk yes tchain 5 pchain 5
fix 1 all npt temp 1.25 0.45 0.1 iso 5.68 5.68 0.5 mtk yes tchain 5 pchain 5
run 500000 # 5000000  # Run for this many steps
Neighbor list info ...
  update every 1 steps, delay 10 steps, check yes
  max neighbors/atom: 2000, page size: 100000
  master list distance cutoff = 3.8
  ghost atom cutoff = 3.8
  binsize = 1.9, bins = 8 8 8
  4 neighbor lists, perpetual/occasional/extra = 1 3 0
  (1) pair lj/cut, perpetual
      attributes: half, newton on
      pair build: half/bin/atomonly/newton
      stencil: half/bin/3d
      bin: standard
  (2) compute orientorder/atom, occasional
      attributes: full, newton on
      pair build: full/bin/atomonly
      stencil: full/bin/3d
      bin: standard
  (3) compute coord/atom, occasional
      attributes: full, newton on
      pair build: full/bin/atomonly
      stencil: full/bin/3d
      bin: standard
  (4) compute cluster/atom, occasional
      attributes: full, newton on
      pair build: full/bin/atomonly
      stencil: full/bin/3d
      bin: standard
Per MPI rank memory allocation (min/avg/max) = 9.806 | 9.814 | 9.819 Mbytes
Step Temp PotEng c_msd[4] v_twopoint v_fit v_max_n 
   12000    1.2239202   -6.7872231 7.5632039e-31 5.2522247e-33 8.3333333e+20            1 
   13000    1.2666373   -6.8237367   0.49690358 0.0031852793  0.040332419            1 
   14000    1.2293187   -6.8421733     0.994711 0.0059208986  0.040794021            1 
   15000     1.242635   -6.7994199    1.4805917 0.0082255091  0.040512185            3 
   16000    1.2314346   -6.8143415    1.9390825  0.010099388  0.040221809            3 
   17000    1.2000643   -6.8188439    2.5299206  0.012401571  0.040981822            1 
   18000    1.2052956   -6.8429074    3.0475953  0.014109237  0.041875585            3 
   19000    1.2401649   -6.8484093    3.5799875  0.015701699   0.04242604            1 
   20000    1.2467606   -6.8754283    4.1113259  0.017130524  0.042763204            1 
   21000    1.2495903   -6.8491897    4.5877244  0.018205255  0.042865616            1 
   22000    1.2350094   -6.9011526    5.1588999  0.019541287  0.043011013            2 
   23000    1.2347831    -6.841279    5.6284721  0.020393014  0.043082933            2 
   24000    1.2497746   -6.8259957    6.0953273   0.02116433  0.042957195            1 
   25000    1.2384094   -6.8416603      6.53081  0.021769366  0.042741037            1 
   26000    1.2319059   -6.9088288    7.0569136  0.022618312  0.042498373            4 
   27000    1.2306371   -6.8446896    7.4991491  0.023145522  0.042314862            2 
   28000    1.2146315   -6.8733264    8.0237011  0.023880062  0.042144539            2 
   29000    1.2554569   -6.8758899    8.4713251  0.024342888  0.041964163            2 
   30000    1.1967837   -6.8504453    8.9771883  0.024936634  0.041850321            2 
   31000    1.1958557   -6.8649974    9.3225414  0.025060595  0.041557972            3 
   32000     1.240449   -6.9194739    9.7253296  0.025326379  0.041251327            1 
   33000    1.2144626   -6.8984789    10.194293  0.025743163  0.040947086            2 
   34000    1.1706574   -6.9147644     10.56175  0.025886642  0.040679848            2 
   35000    1.2072158   -6.9196525    10.932193   0.02602903  0.040382499            1 
   36000    1.2352577   -6.8852416    11.348525  0.026269734  0.040085242            3 
   37000    1.2131755   -6.9310485    11.762031  0.026491062  0.039757959            2 
   38000    1.1759245   -6.9651858    12.084341  0.026500746    0.0394312            2 
   39000    1.2184269   -6.9231558    12.570852  0.026860796  0.039146719            1 
   40000    1.1924511   -6.9237327    12.890011  0.026854188  0.038861082            2 
   41000    1.2115983   -6.9426225     13.24663  0.026924044  0.038549239            1 
   42000    1.1839195   -6.8781799    13.781323  0.027343895  0.038283499            3 
   43000    1.2224554    -6.912914    14.281756  0.027677821  0.038116635            1 
   44000      1.18818   -6.9115874    14.773833  0.027980743   0.03797837            1 
   45000    1.1913566   -6.9274848    15.156901  0.028068335  0.037861592            2 
   46000     1.223685   -6.9136916    15.667558  0.028383257   0.03775913            2 
   47000     1.201731   -6.9282634     16.02684  0.028416382  0.037673013            1 
   48000    1.1972472   -6.9639728    16.469292   0.02859252  0.037576013            1 
   49000    1.2038415   -6.8633929    16.992731  0.028899202  0.037518107            2 
   50000    1.1646246   -6.9206976    17.419838  0.029033064  0.037470412            2 
   51000    1.1997257   -6.9647551    18.020161  0.029444707  0.037445019            3 
   52000    1.1786575   -6.9528936    18.428044  0.029532121  0.037455485            3 
   53000    1.1660688   -6.9638724    18.936822  0.029774877  0.037466268            3 
   54000     1.175386   -6.9933451    19.406549  0.029948378  0.037479639            2 
   55000    1.1774695   -6.9276623    20.036949  0.030359014  0.037513759            1 
   56000    1.1835327   -6.9176216    20.499382  0.030505032  0.037549284            2 
   57000     1.186992   -6.9647154    20.914392  0.030576597  0.037602609            1 
   58000    1.1719394   -6.9532787    21.423292  0.030780591  0.037656688            2 
   59000    1.1334131   -6.9789694    21.747881  0.030717346  0.037696488            1 
   60000    1.1926098   -6.9952466    22.167543  0.030788253  0.037704159            1 
   61000     1.163358   -6.9785817    22.638107  0.030926375  0.037714504            2 
   62000    1.1772283   -6.9598779    23.099969  0.031048346  0.037732767            1 
   63000    1.1629623   -6.9937969    23.631609  0.031258741  0.037748219            3 
   64000    1.1811472   -7.0079546    24.028745  0.031287428  0.037759003            2 
   65000    1.1730037    -7.019159    24.426505  0.031316032  0.037767478            3 
   66000    1.1624746     -7.02026    24.835288  0.031357686  0.037774301            2 
   67000    1.1534318   -6.9826872    25.153657  0.031285642  0.037753676            1 
   68000    1.1581376   -7.0010451    25.554247  0.031316479  0.037725737            1 
   69000    1.1520412   -7.0093694    25.896076  0.031275454  0.037683921            1 
   70000    1.1583613   -6.9960469    26.241333  0.031239682  0.037635884            2 
   71000    1.1398355   -6.9923444    26.473694  0.031072411  0.037569561            2 
   72000    1.1383775   -7.0081704     27.00215  0.031252488  0.037494408            1 
   73000    1.1821127    -6.987875    27.559225  0.031460302  0.037437229            4 
   74000    1.1721325   -7.0164819    27.915071   0.03143589    0.0373848            1 
   75000    1.1150221   -6.9943761     28.09777  0.031219744  0.037315062            2 
   76000    1.1690983   -7.0399612    28.465159  0.031211797  0.037231629            1 
   77000    1.1758759   -7.0247497    28.676347  0.031035007   0.03713947            1 
   78000    1.1539737   -7.0550092      29.0153  0.030999252  0.037037018            1 
   79000    1.1564812   -7.0596922    29.374655  0.030985923  0.036921898            1 
   80000    1.1401405   -7.0672685    29.767869  0.031008197  0.036813384            2 
   81000    1.1315734   -7.0518443    30.048061  0.030913643  0.036710223            2 
   82000    1.1368747   -7.0847303    30.413489  0.030908017  0.036610391            1 
   83000    1.1190275   -7.0561659    30.903471  0.031027581  0.036510518            2 
   84000    1.1288697   -7.0565353    31.211609  0.030963897  0.036409394            1 
   85000    1.1163811    -7.001114    31.517713  0.030899719  0.036302548            3 
   86000    1.1389272   -7.0549395    31.862087  0.030874116  0.036202433            3 
   87000    1.1363615   -7.0823844     32.35834  0.030994578  0.036109013            2 
   88000    1.1273555   -7.1046695     32.48096  0.030758485  0.036012375            3 
   89000    1.1307966   -7.0992007    32.667782  0.030587811   0.03589865            1 
   90000    1.1050921   -7.1406067    32.908622  0.030470946  0.035775464            1 
   91000    1.1538433   -7.0985247    33.166882  0.030372602    0.0356515            2 
   92000    1.1284182   -7.0555074    33.615087  0.030448449  0.035527304            2 
   93000    1.1069228   -7.1376486    33.642397  0.030145517  0.035402535            2 
   94000    1.1386214   -7.0975503    34.152995  0.030277477  0.035267849            1 
   95000    1.1196315   -7.0959377    34.302603  0.030090003  0.035136774            1 
   96000    1.1259239   -7.0891924    34.382951  0.029846312  0.035001178            1 
   97000    1.1184109   -7.1101844     34.76682  0.029868402  0.034857979            2 
   98000    1.1154874   -7.1078827    35.140857  0.029881681  0.034715589            2 
   99000    1.1231126   -7.1223309     35.32023  0.029730833  0.034576844            3 
  100000     1.108068   -7.1224706     35.67618   0.02973015  0.034439468            2 
  101000    1.1049419   -7.1213185    36.054754  0.029748146  0.034307763            1 
  102000    1.1351689   -7.0853907    36.207956  0.029581664   0.03417281            1 
  103000    1.0941324   -7.1147242    36.597127  0.029609326  0.034039268            1 
  104000    1.1161015   -7.1308897    36.838034  0.029517656  0.033912402            1 
  105000    1.0869878   -7.1002178    37.284641  0.029590984  0.033789111            3 
  106000    1.1084905   -7.1228089     37.46207  0.029451313   0.03366143            1 
  107000    1.1001089   -7.1010925    37.850224  0.029478368  0.033540429            2 
  108000    1.0964957   -7.1775571    38.034872  0.029347895   0.03342405            2 
  109000    1.0906012   -7.1461591    38.428404  0.029379514  0.033309192            2 
  110000    1.0912828   -7.1235796     38.62989  0.029265068  0.033192457            1 
  111000    1.0668522   -7.1458723    39.145038  0.029388167  0.033080063            3 
  112000    1.0897006   -7.1203304      39.4688  0.029366667  0.032973861            2 
  113000    1.1221315   -7.1872761    39.787275  0.029341648  0.032871851            2 
  114000    1.0667188   -7.1895569    39.969174  0.029217232  0.032771561            1 
  115000    1.0939808   -7.1954614    40.443676  0.029307012  0.032673204            2 
  116000     1.088973   -7.2084646    40.521522  0.029110289  0.032570329            1 
  117000    1.0839888   -7.1745221    40.991232  0.029196034  0.032468703            1 
  118000    1.0750163   -7.2199613    41.045415  0.028986875  0.032367963            1 
  119000    1.1087784   -7.1475894    41.613292  0.029140961  0.032271737            3 
  120000      1.07326   -7.1608994    41.811735  0.029035927  0.032179669            1 
  121000    1.0654619   -7.1675728    42.034811  0.028949594  0.032088428            3 
  122000    1.0996073   -7.1788998    42.245292  0.028856074  0.031996277            1 
  123000    1.0624046   -7.2120297    42.558774  0.028833858  0.031903979            1 
  124000    1.0787058   -7.1932483    43.066791  0.028942736  0.031811925            1 
  125000     1.062392   -7.1833217     43.36131   0.02890754  0.031725047            2 
  126000    1.0984705   -7.1927897    43.521727  0.028784211  0.031639167            1 
  127000    1.0689833   -7.1862778    43.668382  0.028653794   0.03154905            1 
  128000    1.0671871   -7.2670755    44.016875   0.02865682   0.03146103            2 
  129000    1.0926156   -7.2610909    44.140177  0.028514326  0.031367496            2 
  130000    1.0807288   -7.2022623    44.516017  0.028535908  0.031276161            2 
  131000    1.0457856   -7.2537296    44.671124  0.028416745  0.031184225            2 
  132000     1.078461   -7.2195112    45.098863  0.028471504  0.031095963            2 
  133000    1.0539349   -7.2162307    45.356241  0.028418697  0.031011857            2 
  134000    1.0422881   -7.2528485    45.562664   0.02833499  0.030923102            1 
  135000     1.067992   -7.2108311    45.691198  0.028204443  0.030834073            1 
  136000    1.0448107   -7.2493938    45.721058  0.028015354  0.030739616            6 
  137000    1.0507247   -7.2586048    46.015971   0.02799025   0.03064498            2 
  138000    1.0562948   -7.2091128    46.142568  0.027863869  0.030549962            3 
  139000    1.0576096   -7.1844598    46.681558  0.027986545  0.030460106            3 
  140000    1.0518405   -7.2299901    46.802298   0.02785851  0.030370087            1 
  141000    1.0386035   -7.2640629    47.146204  0.027864186  0.030281495            2 
  142000    1.0425473   -7.2778529    47.391406  0.027811858  0.030196105            2 
  143000    1.0336771   -7.2531457    47.799281  0.027855059  0.030111119            3 
  144000    1.0603609   -7.2800406    47.877425  0.027706843   0.03002463            3 
  145000    1.0519057   -7.3097528     48.17424  0.027686345  0.029939045            2 
  146000    1.0494428   -7.2480891    48.355903  0.027600401   0.02985582            3 
  147000    1.0391654   -7.2752024    48.658307  0.027584074  0.029771955            1 
  148000     1.038097   -7.2874698    49.114739  0.027654695  0.029690576            2 
  149000    1.0286034   -7.2493535    49.423423  0.027641735  0.029613155            1 
  150000    1.0212176   -7.2730469    49.377576  0.027431986  0.029534089            2 
  151000   0.99177733   -7.2880787    49.758425  0.027460499  0.029453752            2 
  152000    1.0033463   -7.2916479    50.020603  0.027423576  0.029375224            3 
  153000    1.0324349    -7.307389    50.309711  0.027401803  0.029299675            2 
  154000    1.0189392   -7.2915309    50.691703  0.027430575  0.029225157            2 
  155000     1.019838   -7.3170632    50.836028  0.027331198  0.029151419            1 
  156000   0.99663503   -7.3178108    50.998484   0.02724278  0.029079011            3 
  157000    1.0249844   -7.3080922     51.27058  0.027213683  0.029005006            1 
  158000   0.98750225   -7.3458328    51.568937  0.027198806  0.028931471            2 
  159000    1.0052852   -7.3383971    51.744576  0.027119798  0.028857577            2 
  160000    1.0081737   -7.2963642    51.838983   0.02699947  0.028783066            1 
  161000    1.0053587   -7.3259742    51.993671  0.026911838  0.028706852            3 
  162000   0.98071824   -7.3244845    52.283959  0.026895041   0.02863173            1 
  163000    1.0177133   -7.3216863    52.693286  0.026939308  0.028558461            3 
  164000   0.99530024    -7.298478    52.832351  0.026845706  0.028485676            2 
  165000    1.0089557   -7.3391647    52.982136  0.026758654  0.028410648            2 
  166000    1.0040622   -7.3692245    53.235405  0.026724601  0.028336701            2 
  167000   0.97760494   -7.3544394    53.465143  0.026679213  0.028266296            2 
  168000     0.994206   -7.3486707    53.418924  0.026497482  0.028194583            2 
  169000   0.99094624   -7.3662907    53.944036  0.026599623  0.028122279            1 
  170000    1.0060018     -7.33538      54.1511  0.026544657  0.028053762            2 
  171000    1.0121243   -7.3980111    54.472444  0.026546025  0.027984585            2 
  172000   0.97988833   -7.3805927    54.661914  0.026483485  0.027915679            3 
  173000    1.0068105   -7.3875709    54.753404  0.026374472  0.027847378            2 
  174000   0.99612251   -7.3802754    55.121223  0.026399053  0.027780658            1 
  175000   0.95904304   -7.3975099    55.230682  0.026300325  0.027713809            2 
  176000   0.97899111   -7.3360316    55.520837  0.026288275  0.027644963            1 
  177000   0.98228625   -7.3747626    55.653258  0.026202099  0.027575856            2 
  178000   0.97859739   -7.3441588    55.884364  0.026163092   0.02750683            1 
  179000   0.98004721   -7.3600484    55.861959  0.026006498  0.027436716            2 
  180000   0.99930826   -7.4119495    56.124333  0.025983488   0.02736741            3 
  181000   0.97126075   -7.3824007    56.346918  0.025942411  0.027297908            2 
  182000   0.96630572   -7.4078732    56.565171  0.025899803  0.027230194            2 
  183000   0.97219016   -7.3840479    56.688281  0.025814336  0.027161233            1 
  184000   0.95133781   -7.4016277    56.951077   0.02579306  0.027090975            4 
  185000   0.96497499   -7.4487098    56.952887  0.025654453  0.027020352            2 
  186000   0.97450433    -7.394292    57.410655   0.02572162  0.026951001            1 
  187000   0.98312435   -7.4350591    57.327793  0.025547145  0.026881113            2 
  188000   0.96761484   -7.4203289    57.708567  0.025580039  0.026813598            2 
  189000   0.95780222   -7.4211459    57.697099  0.025439638    0.0267441            1 
  190000   0.96134552   -7.4269989    57.917712  0.025402505  0.026674384            2 
  191000   0.96255209   -7.4225168    58.225929  0.025403983  0.026606072            3 
  192000   0.96687866   -7.4428693    58.471054  0.025378061  0.026537325            3 
  193000   0.94008587   -7.4720721    58.723105  0.025355399   0.02647015            2 
  194000   0.96016284   -7.4339083    59.108351  0.025390185  0.026405628            4 
  195000   0.96104503   -7.4531034     59.44623  0.025404372  0.026342385            2 
  196000   0.93925538   -7.4206857    59.563795  0.025324743  0.026280771            2 
  197000   0.96165872   -7.4606062    59.709881  0.025257987  0.026218609            1 
  198000    0.9409377   -7.4473737    59.718521  0.025134058  0.026154227            1 
  199000    0.9606661   -7.4566099    59.694425  0.024997665  0.026088628            2 
  200000   0.95964026   -7.4229636    60.101713   0.02504238   0.02602325            2 
  201000   0.94478088   -7.4481353    60.403689  0.025042989  0.025959357            1 
  202000   0.93881418   -7.4570555    60.496057  0.024957119  0.025895963            2 
  203000   0.94219819   -7.5003026    60.597514  0.024875827   0.02583252            1 
  204000   0.94061264   -7.4842394      60.9714  0.024906618  0.025769457            3 
  205000   0.95596013   -7.4691134    61.196001  0.024876423  0.025708827            3 
  206000   0.95938649   -7.4712719    61.486829  0.024873313  0.025648936            4 
  207000   0.93476845   -7.5132985    61.366263  0.024704615  0.025587729            2 
  208000   0.94435909   -7.5054321    61.582448  0.024672455  0.025525306            3 
  209000   0.93986446    -7.533825    61.520602  0.024529746  0.025462041            4 
  210000    0.9558901   -7.5294633    61.600098  0.024444483  0.025398198            2 
  211000   0.91619768   -7.5124797    61.780908  0.024400042  0.025333536            2 
  212000   0.92634237   -7.5170907      61.9415  0.024348074  0.025268181            1 
  213000    0.9126613   -7.5105717    61.818119  0.024185492   0.02520216            2 
  214000   0.92556721   -7.5155482    62.182985  0.024214558  0.025135342            1 
  215000   0.93804596   -7.4809427    62.505678  0.024227007  0.025069639            4 
  216000   0.90110054   -7.4783801     62.67914  0.024181767  0.025005024            2 
  217000   0.91883366   -7.5383922    62.578703   0.02403176  0.024941197            2 
  218000   0.92857817   -7.5514991    62.778254  0.023997803  0.024877137            1 
  219000   0.90956499   -7.5780022    62.903257   0.02393579  0.024812739            2 
  220000   0.92100019   -7.5559869    63.148205  0.023919774  0.024748004            2 
  221000   0.89459764   -7.5538943    63.158515  0.023815428  0.024684607            2 
  222000   0.90848011   -7.5682852    63.149464  0.023704754  0.024619196            3 
  223000   0.91296194   -7.5383641    63.405796  0.023694244   0.02455246            3 
  224000   0.89809879   -7.5467826    63.508551  0.023626693   0.02448735            3 
  225000   0.93759868   -7.5884652    63.604364  0.023557172  0.024421747            2 
  226000   0.92646159   -7.5654825    63.804923  0.023526889  0.024356484            4 
  227000   0.91973696   -7.5592178    63.958497  0.023479624  0.024291827            2 
  228000    0.8688403   -7.6145533     64.05903  0.023413388  0.024227094            2 
  229000     0.915851   -7.5616614    64.133201  0.023338137  0.024162532            3 
  230000   0.89970799   -7.5887086    64.274346  0.023287807  0.024097993            2 
  231000   0.90849199   -7.6036872    64.363304  0.023219085  0.024033476            2 
  232000   0.87866181   -7.5643471    64.444134  0.023148037  0.023968288            2 
  233000   0.88541713   -7.6185834    64.690973  0.023136972  0.023903883            5 
  234000   0.90196199   -7.6054636    64.612586   0.02301018  0.023838803            2 
  235000    0.9076954   -7.6152402    64.816545   0.02298459  0.023773653            1 
  236000   0.90771839   -7.6143241    64.841514  0.022896015  0.023707556            3 
  237000   0.88387083   -7.6220358    64.880293  0.022813042  0.023641166            2 
  238000   0.87266687   -7.6170425    64.911424   0.02272809  0.023574984            3 
  239000   0.89104614   -7.6218939    65.164644  0.022721284  0.023508849            2 
  240000   0.89990219   -7.6164925     65.15247  0.022622385  0.023443152            2 
  241000   0.90043669   -7.6454256    65.296955  0.022578477  0.023377344            2 
  242000    0.8620922   -7.6153084    65.350632  0.022503661  0.023311516            3 
  243000   0.89578938   -7.6575201    65.502315  0.022463071   0.02324491            2 
  244000   0.89017384   -7.6208922    65.556998  0.022389685  0.023177941            2 
  245000   0.89241253   -7.6673977    65.760958  0.022367673  0.023111417            4 
  246000   0.87512458    -7.654855    65.909957  0.022327221  0.023045283            1 
  247000   0.87840429   -7.6783483    65.977685  0.022259678  0.022979413            2 
  248000    0.8716084   -7.7000386    65.912594  0.022148049   0.02291405            1 
  249000   0.85876441   -7.6793448    66.155661  0.022140449  0.022848339            3 
  250000   0.86681403   -7.6875967    66.148873  0.022049624   0.02278251            2 
  251000   0.85396575   -7.6738517    66.217441  0.021984542  0.022716749            2 
  252000   0.86318517   -7.6712532    66.369524  0.021947594  0.022651683            2 
  253000   0.86038322   -7.6968596    66.608004  0.021939395  0.022587056            3 
  254000    0.8479387   -7.6602816    66.772801  0.021907087  0.022522736            2 
  255000   0.86495184   -7.6969783    66.799445  0.021829884  0.022458496            1 
  256000   0.86832885   -7.7119879    66.993159  0.021807669  0.022393938            2 
  257000   0.85592102   -7.6905979    67.039281   0.02173777  0.022330253            1 
  258000   0.87113545   -7.7149058    67.216072  0.021710618   0.02226678            4 
  259000   0.84201244   -7.7026098    67.471388  0.021708941  0.022203964            3 
  260000   0.84912153   -7.7080125    67.371956  0.021593576  0.022141232            1 
  261000   0.85492538   -7.7070524    67.446063  0.021534503  0.022078172            2 
  262000   0.84238987   -7.6978185    67.539739  0.021482105  0.022015194            3 
  263000   0.84418074   -7.7118031    67.699382  0.021451008  0.021952367            4 
  264000   0.83094867   -7.7265749    67.653426  0.021355248  0.021889655            2 
  265000   0.86936211   -7.7098912    67.837784  0.021332637  0.021826692            2 
  266000   0.83783014   -7.7369475    67.928183  0.021280759  0.021764308            1 
  267000   0.83744137   -7.7434306    67.939878  0.021204706  0.021701555            2 
  268000   0.83722865   -7.7754282    67.807269   0.02108435  0.021638395            2 
  269000   0.83943478   -7.7508263    67.992598  0.021063382  0.021574629            2 
  270000   0.82984917   -7.7057186    68.128792  0.021027405  0.021510973            4 
  271000   0.84005931   -7.7479746    67.933259  0.020889686  0.021447638            2 
  272000   0.83046661    -7.758545    68.013634   0.02083751   0.02138417            1 
  273000   0.84243189   -7.7569229    68.193905   0.02081621  0.021320333            1 
  274000   0.84303287   -7.7843128    67.995937   0.02068003  0.021256363            3 
  275000   0.83963522   -7.7356745     68.41597  0.020732112  0.021192585            3 
  276000   0.83462461   -7.7407658    68.380662  0.020646335  0.021129263            3 
  277000   0.81500381   -7.7729977    68.511526  0.020611169  0.021065756            1 
  278000   0.83204637   -7.7792782    68.472752  0.020525405  0.021002144            3 
  279000   0.81913075   -7.7991165    68.433864  0.020440222  0.020938133            1 
  280000   0.81698487    -7.773928    68.596752    0.0204157  0.020874064            2 
  281000   0.81540635   -7.8333905    68.536431  0.020325157  0.020810591            2 
  282000   0.79983708   -7.7985839    68.686217  0.020297345   0.02074681            2 
  283000    0.8008157   -7.7836831    68.596504  0.020199206  0.020683887            3 
  284000   0.81232036   -7.7857117    68.798511  0.020187357  0.020620804            4 
  285000   0.80632822   -7.7873257     68.91252   0.02014986  0.020557443            2 
  286000   0.82711652   -7.7911789    68.832709  0.020056151  0.020493879            7 
  287000   0.82938141   -7.8258866     68.77155   0.01996851  0.020430546            1 
  288000   0.81066927   -7.8151644    68.875181  0.019929161  0.020367112            2 
  289000   0.82537858   -7.8097344    68.938626  0.019878497  0.020303433            1 
  290000   0.79063406   -7.8418069    68.850987  0.019784766   0.02023997            6 
  291000   0.79446336   -7.8208228    69.090662  0.019785413  0.020176632            1 
  292000   0.77764573   -7.8385397    68.996641  0.019690822  0.020113438            3 
  293000   0.79517153   -7.8583913    69.096792  0.019652102   0.02005033            3 
  294000   0.77593045   -7.8427475    69.125514  0.019593399  0.019987767            3 
  295000    0.8052147   -7.8530139    69.351093  0.019590704   0.01992532            1 
  296000   0.80983819   -7.8292072    69.300401  0.019510248  0.019862747            1 
  297000   0.80588875   -7.8463332    69.238122  0.019427082  0.019799688            1 
  298000   0.80904033   -7.8331688    69.519619  0.019440609  0.019737623            4 
  299000   0.76760535    -7.831318    69.422868  0.019348625  0.019675577            1 
  300000   0.77850748   -7.8424599    69.383465  0.019273185  0.019613732            2 
  301000   0.79391391   -7.8602174    69.547592  0.019254594  0.019551873            3 
  302000   0.78556112   -7.8754615    69.547753  0.019190881  0.019489653            2 
  303000   0.79238658   -7.8760588    69.548534  0.019127759  0.019427773            2 
  304000    0.7705489   -7.8662331    69.648113  0.019092136  0.019366289            2 
  305000   0.77462123   -7.8892105    69.526593  0.018996337   0.01930491            4 
  306000   0.77617404   -7.9055061    69.755305  0.018996543  0.019243474            1 
  307000    0.7655615   -7.9094373    69.695838  0.018918523   0.01918218            2 
  308000   0.76074184   -7.8859019    69.784678  0.018881136  0.019120953            5 
  309000   0.78356475   -7.8995644    69.816496  0.018828613  0.019060801            3 
  310000   0.76982878   -7.8865783    70.025907  0.018824169  0.019000993            1 
  311000   0.75900969   -7.9212778    69.934496  0.018739147  0.018941274            5 
  312000   0.79973152   -7.9094193    70.028885  0.018704296  0.018881766            4 
  313000   0.77562624   -7.9287782    70.286268  0.018713064  0.018822886            2 
  314000   0.77153894   -7.9375252    70.036142  0.018587087  0.018763868            2 
  315000   0.74478476   -7.9436053    70.246839   0.01858382  0.018704827            5 
  316000   0.75853556   -7.9110558     70.22872  0.018520232  0.018646152            3 
  317000     0.752119   -7.9288503    70.388385  0.018503781  0.018587771            5 
  318000    0.7662875   -7.8965157    70.492633  0.018472912  0.018529787            2 
  319000   0.76317802   -7.9250684    70.127333  0.018319575  0.018471367            3 
  320000   0.75614547   -7.9353196    70.503294  0.018360233  0.018413294            5 
  321000   0.75838503   -7.9385644    70.445076  0.018287922   0.01835544            2 
  322000   0.75470774    -7.945924    70.697798  0.018296532  0.018298034            1 
  323000   0.73299111   -7.9382187    70.488383  0.018185857  0.018240676            3 
  324000   0.76163854   -7.9161116    70.447893  0.018119314  0.018183023            6 
  325000   0.73523392   -7.9567417    70.708428  0.018130366   0.01812563            3 
  326000   0.74305287   -7.9448466    70.827416  0.018105168  0.018068482            2 
  327000   0.75168003   -7.9813482    70.585061  0.017988038  0.018011446            3 
  328000   0.74072756   -7.9791943     70.56904  0.017929126  0.017954506            3 
  329000   0.74433457   -7.9816048    70.644678  0.017893789  0.017897616            2 
  330000   0.76257655   -7.9780958    70.729522   0.01786099  0.017841145            2 
  331000   0.71373061   -8.0043628    70.562877  0.017765075  0.017784373            2 
  332000   0.74940207    -7.997519    70.645639  0.017732339  0.017727044            2 
  333000   0.73640645   -7.9973303    70.586098  0.017664189  0.017670009            3 
  334000   0.73921497   -7.9790894    70.835622  0.017673558  0.017613592            3 
  335000   0.74238704   -7.9999395    70.940921  0.017646995  0.017557826            2 
  336000   0.73205241   -8.0041205    71.042544  0.017619678  0.017502109            2 
  337000   0.72513102   -7.9971786    70.960429  0.017547089  0.017446339            2 
  338000   0.70832937   -8.0223834    70.759339  0.017445596  0.017390347            2 
  339000   0.75073187   -7.9974542    71.037348  0.017462475  0.017334658            5 
  340000   0.72058667   -8.0142355    70.857232  0.017366969  0.017279155            5 
  341000   0.73120722   -8.0363736    70.818087  0.017306473  0.017223195            4 
  342000   0.71407923   -8.0365978    70.678454  0.017221845   0.01716745            2 
  343000    0.7239871   -8.0506945    71.013249  0.017252976  0.017111985            3 
  344000   0.71230104   -8.0376905    70.987887  0.017196678  0.017056739            3 
  345000   0.71797433   -8.0319868    70.798789  0.017101157  0.017000969            3 
  346000    0.7256539    -8.057737    70.810356  0.017054517  0.016945302            3 
  347000   0.71503297   -8.0698688    70.740626  0.016988623  0.016889694            4 
  348000   0.70765469   -8.0781337    70.763316  0.016945239   0.01683401            2 
  349000   0.70370154   -8.0545307     70.77918  0.016900473  0.016778306            2 
  350000   0.68659197   -8.0725123    70.827811  0.016863765  0.016722957            2 
  351000   0.69622513   -8.0917114    70.833594  0.016817093  0.016667731            2 
  352000   0.71042036   -8.0689985    70.919044  0.016789546   0.01661281            2 
  353000   0.71441833   -8.0837074     70.82753   0.01672038  0.016557999            3 
  354000   0.70189874   -8.0663493    70.782963  0.016662656  0.016503075            2 
  355000   0.71059895   -8.0949523    70.730931  0.016603505  0.016448298            1 
  356000   0.71146491   -8.0978433     70.65373  0.016538794  0.016393612            4 
  357000   0.70481362   -8.0750009    70.852189  0.016538793   0.01633922            2 
  358000   0.69726113   -8.0843492    70.833245  0.016488186  0.016285111            3 
  359000    0.6955805   -8.0796213    70.637308  0.016396775  0.016231016            3 
  360000   0.70454323   -8.0953642    70.926626  0.016418201  0.016177263            2 
  361000   0.67418887   -8.0894279    70.904494  0.016367612  0.016123895            3 
  362000   0.70188244   -8.0620206     70.83812  0.016307118  0.016070621            2 
  363000   0.66479597      -8.1114    70.892168  0.016274602  0.016017642            2 
  364000   0.68651721   -8.1231813    70.900027  0.016231691  0.015964713            3 
  365000   0.69022283   -8.0955255    70.958153  0.016200491  0.015912225            3 
  366000   0.69058835   -8.0909117    70.970176  0.016158965  0.015859677            3 
  367000   0.67745522   -8.1059175    70.930268  0.016105874   0.01580709            4 
  368000   0.68652107   -8.1138301    71.060908  0.016091691  0.015754751            5 
  369000   0.68070119   -8.1160725    70.964835  0.016026386  0.015702617            3 
  370000   0.67986672   -8.1298998    71.014981  0.015994365   0.01565079            3 
  371000   0.67680259   -8.1365818    71.002197  0.015948382  0.015598961            3 
  372000   0.66732557   -8.1332552    70.952143  0.015894297  0.015547287            2 
  373000   0.67119694   -8.1432308    70.981046  0.015858143  0.015495482            3 
  374000   0.67759817   -8.1481574     70.93846  0.015806252  0.015444019            2 
  375000   0.66114603   -8.1558458    71.032871  0.015785082  0.015392829            3 
  376000    0.6681877   -8.1295437    71.074579  0.015752345  0.015341762            2 
  377000   0.65518451   -8.1445669    70.955525  0.015684245  0.015290617            2 
  378000   0.66022475   -8.1674783    71.003718  0.015653377  0.015239763            2 
  379000   0.66531643    -8.187259    70.791017  0.015565307  0.015188901            2 
  380000   0.67477669   -8.1668811    71.061298  0.015583618   0.01513819            2 
  381000   0.65444745   -8.1666678    70.846869  0.015495816  0.015087624            2 
  382000    0.6600853   -8.1862448    70.841324  0.015454041  0.015037054            3 
  383000   0.65037167   -8.1823776    70.898487  0.015426129  0.014986691            2 
  384000   0.64560999   -8.1883639    70.859529  0.015377502  0.014936464            3 
  385000   0.65615729    -8.213879    70.826726   0.01533046  0.014886419            2 
  386000   0.65121049   -8.2114962    70.878203  0.015301857  0.014836372            2 
  387000   0.65197286   -8.1998375    70.927283  0.015272886  0.014786501            2 
  388000   0.65749542   -8.2219714    70.933273  0.015234809  0.014736697            2 
  389000   0.64304559   -8.1876502    70.882404  0.015184748  0.014687162            2 
  390000   0.66323878   -8.2230832    70.835481  0.015135786  0.014637724            3 
  391000    0.6420491   -8.2260838    70.778264  0.015084881  0.014588572            2 
  392000    0.6413365   -8.2295429    70.877535  0.015067503   0.01453956            2 
  393000   0.63785392   -8.2327298     70.66591   0.01498429  0.014490539            3 
  394000   0.65009207   -8.2503221    70.745518  0.014963096   0.01444173            1 
  395000   0.64063362   -8.2162303    70.817545   0.01494041  0.014393052            4 
  396000   0.64601556   -8.2164343    70.875656  0.014914911  0.014344551            2 
  397000   0.63738015   -8.2356132    70.873091  0.014876803  0.014296301            3 
  398000   0.61886299   -8.2334101    70.911968  0.014847564  0.014248509            1 
  399000   0.61562219   -8.2083495    70.918727  0.014811764  0.014200757            4 
  400000   0.63440903   -8.2413938    70.853836  0.014761216  0.014153207            2 
  401000   0.63488664   -8.2654585    70.858902  0.014725458  0.014105764            2 
  402000   0.60994415   -8.2381855     70.89084  0.014695448  0.014058542            2 
  403000   0.63072245   -8.2563914    70.832017  0.014646819  0.014011351            5 
  404000   0.62734059   -8.2303668    70.798063  0.014603561  0.013964418            1 
  405000   0.63366519   -8.2606434    70.876276  0.014583596  0.013917525            2 
  406000   0.62155748   -8.2618052    70.945453  0.014561875  0.013870757            1 
  407000   0.63197001   -8.2447141    70.882116  0.014513128  0.013824263            2 
  408000   0.61733073   -8.2659385    70.848949  0.014470782  0.013778002            4 
  409000   0.60608465   -8.2677078    70.811558  0.014427783    0.0137318            4 
  410000   0.61377067   -8.2935767    70.805119  0.014391284  0.013685708            2 
  411000   0.61053854   -8.3022156    70.889725  0.014373423  0.013639716            3 
  412000   0.60788355   -8.2790952    70.922638  0.014345194  0.013593958            3 
  413000   0.60363476   -8.2884165     70.77204  0.014280073  0.013548295            2 
  414000   0.60231763   -8.2901675    70.762216  0.014243602   0.01350281            3 
  415000   0.60633671   -8.3138071     70.77897  0.014212644  0.013457498            2 
  416000   0.60040094   -8.2983629    70.755776  0.014173833  0.013412463            3 
  417000   0.60140193    -8.296289    70.872315  0.014163132   0.01336759            5 
  418000   0.58817296   -8.3058948    70.844674  0.014123739  0.013322835            4 
  419000   0.59729984   -8.2909877    70.834205  0.014087948  0.013278316            4 
  420000   0.59850968   -8.3191995     70.94511  0.014076411  0.013233979            3 
  421000   0.60630478   -8.3128716    70.710498  0.013996536  0.013189662            5 
  422000   0.59124231   -8.3088601    70.675475  0.013956452  0.013145441            2 
  423000   0.59554471    -8.324003    70.725057  0.013933226   0.01310145            2 
  424000   0.58662056    -8.339126    70.652207  0.013886047  0.013057514            2 
  425000   0.58475488   -8.3214779    70.849177  0.013891995  0.013013689            3 
  426000   0.58803226   -8.3192284    70.721668  0.013834442  0.012970208            3 
  427000   0.58667216       -8.314     70.68686   0.01379525  0.012926878            4 
  428000   0.57716914   -8.3327763    70.838592  0.013792561  0.012883729            3 
  429000   0.59290647   -8.3301027     70.71051   0.01373553   0.01284084            2 
  430000    0.5817955   -8.3222463    70.743634  0.013710007  0.012798071            2 
  431000    0.5791235   -8.3385188    70.680986  0.013666084  0.012755369            3 
  432000   0.56617242   -8.3654339    70.729195  0.013643749  0.012712811            2 
  433000   0.57706811   -8.3667059    70.817729  0.013629278   0.01267041            2 
  434000   0.57064478   -8.3448369    70.810836  0.013596551    0.0126282            4 
  435000   0.56777161   -8.3581458    70.560112  0.013517263   0.01258595            1 
  436000   0.57434363     -8.35091    70.696918  0.013512408  0.012543912            3 
  437000   0.57527341   -8.3616464    70.670269  0.013476405  0.012502008            2 
  438000   0.57261076   -8.3693164    70.536581  0.013420202  0.012460376            2 
  439000   0.57202015   -8.3525633    70.607702  0.013403133  0.012418898            3 
  440000   0.55823952   -8.3724111    70.616828  0.013374399   0.01237749            2 
  441000   0.57522954   -8.3620816    70.554699  0.013332332  0.012336232            3 
  442000   0.56825057   -8.3909782    70.628658  0.013316112  0.012295076            1 
  443000   0.54801697   -8.3934661    70.661182  0.013292171  0.012254085            2 
  444000   0.55806571   -8.3851999    70.615598  0.013253678  0.012213408            2 
  445000   0.56164214   -8.3773855    70.571209  0.013215582  0.012172827            4 
  446000   0.54602556   -8.3798416    70.612183  0.013193607  0.012132422            2 
  447000   0.55526236   -8.3958844    70.565173  0.013155327  0.012092079            1 
  448000   0.56192972   -8.3919587    70.517807  0.013117152  0.012051865            1 
  449000   0.54740852   -8.3984452    70.484352  0.013081728  0.012011818            2 
  450000    0.5544752   -8.4079151     70.59165  0.013072528  0.011971942            4 
  451000   0.54777226   -8.4047892    70.603539  0.013045739  0.011932212            3 
  452000   0.56762573   -8.3900202    70.619646  0.013019846  0.011892637            1 
  453000   0.53884292   -8.3919295    70.582944  0.012984353  0.011853282            3 
  454000   0.53432329   -8.4094616    70.552085  0.012950089  0.011814059            2 
  455000    0.5359786   -8.4341838    70.616632  0.012933449     0.011775            3 
  456000   0.53717537   -8.4228376     70.51599  0.012886694  0.011735977            5 
  457000   0.52864317   -8.4317784    70.597587  0.012873375  0.011697127            2 
  458000   0.54052678   -8.3951827    70.476991  0.012823324  0.011658441            2 
  459000   0.53644992   -8.4262867     70.44279  0.012789178  0.011619888            3 
  460000   0.53078429   -8.4346349    70.423018  0.012757793  0.011581409            2 
  461000   0.53279671   -8.4360591    70.469522  0.012738525  0.011543102            1 
  462000   0.53636101   -8.4440954    70.358617  0.012690948   0.01150484            2 
  463000    0.5222705   -8.4344877    70.266408  0.012646942  0.011466735            7 
  464000   0.52570569   -8.4648537    70.251485  0.012617005   0.01142881            3 
  465000   0.51730531   -8.4448629    70.303736  0.012599236  0.011390973            2 
  466000   0.52289363   -8.4580849    70.331462  0.012577157  0.011353253            4 
  467000   0.52462023   -8.4515686    70.258788  0.012537257  0.011315626            4 
  468000   0.51595854   -8.4410744    70.347535  0.012526271  0.011278151            1 
  469000   0.51426647   -8.4645148    70.223283  0.012477484  0.011240919            2 
  470000   0.50984741   -8.4709798     70.26069  0.012457569  0.011203801            4 
  471000   0.49767742   -8.4699345    70.376064  0.012451533   0.01116685            2 
  472000   0.52604334   -8.4708525    70.280633  0.012408304  0.011130133            2 
  473000   0.49917281   -8.4844605    70.216067  0.012370695  0.011093509            1 
  474000   0.51891138   -8.4674966    70.294622  0.012358408  0.011056999            3 
  475000   0.51806559   -8.4672775    70.371205  0.012345825  0.011020619            2 
  476000    0.5130569   -8.4774577    70.334253   0.01231342  0.010984408            2 
  477000   0.51250912   -8.4755488    70.288208  0.012279561  0.010948359            1 
  478000   0.49812853   -8.4919381     70.30988   0.01225765  0.010912496            1 
  479000   0.50127573   -8.4951933    70.193075  0.012211739  0.010876752            1 
  480000   0.50556296    -8.487557    70.299328  0.012204744  0.010841118            2 
  481000   0.51220047   -8.4997265    70.219081  0.012165468  0.010805642            1 
  482000   0.50576358   -8.4937414     70.20236  0.012137338  0.010770237            2 
  483000   0.50184074   -8.5080385    70.141889  0.012101775  0.010735068            4 
  484000   0.49719341   -8.5052647    70.292096  0.012102634  0.010700022            2 
  485000   0.48127092   -8.4989399     70.29867  0.012078809  0.010665112            2 
  486000   0.49776161   -8.5049641    70.101503  0.012020148  0.010630359            3 
  487000   0.48784421   -8.4955002    70.307782  0.012030763  0.010595667            3 
  488000    0.4834438    -8.518679    70.217735  0.011990733  0.010561128            2 
  489000   0.48214233   -8.5089929     70.15502  0.011955525  0.010526699            2 
  490000   0.48301739   -8.5111756    70.229067  0.011943719  0.010492436            5 
  491000    0.4831581   -8.5164027    70.120136  0.011900906  0.010458317            3 
  492000   0.48385986   -8.5115925     70.07889  0.011869731  0.010424325            6 
  493000   0.48294075   -8.5173509    70.098386   0.01184895  0.010390413            2 
  494000    0.4781001   -8.5199388    70.104984  0.011826077  0.010356642            1 
  495000   0.47334125   -8.5334413    70.203153  0.011818713  0.010322972            1 
  496000   0.47349665   -8.5167724    70.161848  0.011787945  0.010289431            2 
  497000   0.47420067   -8.5376069    70.070848  0.011748968  0.010256021            2 
  498000   0.46720374   -8.5315491    70.144142  0.011737641  0.010222709            3 
  499000   0.47245519   -8.5425186    70.068558  0.011701496  0.010189551            2 
  500000    0.4677478   -8.5481965    69.920701   0.01165345  0.010156524            2 
  501000   0.47448585   -8.5454457    70.156537  0.011669417  0.010123645            3 
  502000   0.47108337   -8.5506245    69.971576  0.011615467  0.010090932            1 
  503000   0.47060158   -8.5444107    70.096471  0.011613067  0.010058303            1 
  504000   0.45535223   -8.5486198    69.991344  0.011572643  0.010025792            3 
  505000   0.45249933   -8.5597224    69.967867  0.011545853 0.0099934242            2 
  506000   0.45842576   -8.5457175    70.003566  0.011528914 0.0099611946            2 
  507000   0.45837181   -8.5581895    70.070211  0.011517129 0.0099291366            2 
  508000   0.46502506   -8.5583869    69.949246  0.011474614 0.0098972071            3 
  509000   0.45644399   -8.5464708    70.022019  0.011463985 0.0098653986            2 
  510000   0.44357464   -8.5409434    70.047001  0.011445588 0.0098336809            3 
  511000   0.44570448    -8.553549     69.92537  0.011403354 0.0098021604            4 
  512000   0.44041831   -8.5787325    69.973692  0.011388947 0.0097707094            4 
Loop time of 1192.98 on 48 procs for 500000 steps with 4000 atoms

Performance: 72423.636 tau/day, 419.118 timesteps/s
99.4% CPU use with 48 MPI tasks x no OpenMP threads

MPI task timing breakdown:
Section |  min time  |  avg time  |  max time  |%varavg| %total
---------------------------------------------------------------
Pair    | 73.653     | 79.162     | 85.472     |  35.2 |  6.64
Neigh   | 7.7022     | 8.0903     | 8.5757     |   8.1 |  0.68
Comm    | 75.741     | 83.787     | 90.166     |  41.4 |  7.02
Output  | 0.8235     | 0.82408    | 0.83438    |   0.2 |  0.07
Modify  | 1006.2     | 1010       | 1012.8     |   4.6 | 84.66
Other   |            | 11.15      |            |       |  0.93

Nlocal:        83.3333 ave          93 max          74 min
Histogram: 2 1 2 10 12 7 6 5 2 1
Nghost:        2033.52 ave        2071 max        2003 min
Histogram: 3 4 3 9 10 9 7 0 2 1
Neighs:        13140.0 ave       15450 max       11542 min
Histogram: 4 6 3 8 13 6 5 1 1 1
FullNghs:      26279.4 ave       29682 max       22792 min
Histogram: 1 1 3 11 9 4 13 3 2 1

Total # of neighbors = 1261412
Ave neighs/atom = 315.35300
Neighbor list builds = 26791
Dangerous builds = 0

#clear
#
#next RN
#
#jump SELF
Total wall time: 0:19:56
