
units lj                  # Use reduced LJ style units
atom_style atomic         # Uncharged point particles
atom_modify map hash      # Needed for indexing of clusters etc
                          # Used to be able to find where atoms are in relation to each other.

lattice fcc 1.0 spacing 1 1 1
Lattice spacing in x,y,z = 1.5874011 1.5874011 1.5874011
region box block 0 10 0 10 0 10 units lattice
create_box 2 box
Created orthogonal box = (0.0000000 0.0000000 0.0000000) to (15.874011 15.874011 15.874011)
  3 by 4 by 4 MPI processor grid
create_atoms 1 box
Created 4000 atoms
  using lattice units in orthogonal box = (0.0000000 0.0000000 0.0000000) to (15.874011 15.874011 15.874011)
  create_atoms CPU = 0.002 seconds
set type 1 type/fraction 2 0.44 78393
Setting atom values ...
  1760 settings made for type/fraction
mass 1 1.0
mass 2 1.0
pair_style lj/cut  3.5
pair_modify tail  yes
pair_coeff 1  1  1.0  1.0   # Intearaction between 1 and 1 set with epsilon = 1 and sigma = 1
pair_coeff 1  2  1.5  0.8
pair_coeff 2  2  0.5  0.88

write_data data.0
System init for write_data ...
Neighbor list info ...
  update every 1 steps, delay 10 steps, check yes
  max neighbors/atom: 2000, page size: 100000
  master list distance cutoff = 3.8
  ghost atom cutoff = 3.8
  binsize = 1.9, bins = 9 9 9
  1 neighbor lists, perpetual/occasional/extra = 1 0 0
  (1) pair lj/cut, perpetual
      attributes: half, newton on
      pair build: half/bin/atomonly/newton
      stencil: half/bin/3d
      bin: standard
WARNING: Not all mixed pair coeffs generated from mixing. Use write_data with 'pair ij' option to store all pair coeffs. (../write_data.cpp:312)


#############################
#   M E L T   S Y S T E M   #
#############################

velocity all create 2.4 8172548 mom yes dist gaussian # Assign velocities
                                                    # Temperature 2.4, random number seed, zero linear momentum
                                                                                # Gaussian distribution

timestep 0.002   # simulation timestep
thermo 1000       # output thermodynamic data every 1000 steps bf 100

# Define a fix  in this case with index 1 applied to all
# particles in the simulation. This fix is for simulations
# in the anisotropic NPT ensemble. Note that we use the MTK
# correction.
fix 1 all npt temp 2.4 2.4 0.1 iso 5.68 5.68 0.5 mtk yes tchain 5 pchain 5 # Use NPT ensemble
                                                                         # Set temperature and pressure and damping
                                                                         # Numbers of thermostats in chain and in barostat
run 10000          # run for 10000 steps
Per MPI rank memory allocation (min/avg/max) = 3.642 | 3.644 | 3.648 Mbytes
Step Temp E_pair E_mol TotEng Press Volume 
       0          2.4   -5.6445478            0   -2.0454478   -4.2010474         4000 
    1000    2.4375644   -4.9783824            0   -1.3229499    5.6198626    3828.2169 
    2000     2.340568   -4.9566925            0   -1.4467182    5.7392432    3821.9063 
    3000    2.4121276   -4.9812011            0   -1.3639143     5.286528    3859.3954 
    4000    2.3597674    -5.007506            0   -1.4687399     5.799123    3787.6102 
    5000    2.3493756   -5.0214947            0   -1.4983124    5.3198874    3825.2855 
    6000    2.3970244   -4.9756174            0   -1.3809797    6.0198659    3792.4799 
    7000    2.4202993   -5.0246969            0   -1.3951555    5.9130826    3778.1537 
    8000    2.4552164   -4.9775882            0   -1.2956842    5.4795713    3842.8637 
    9000    2.4084405   -4.9729734            0   -1.3612158    5.7456604    3815.2442 
   10000    2.3739796   -5.0279475            0   -1.4678684    5.8208497     3782.726 
Loop time of 2.63436 on 48 procs for 10000 steps with 4000 atoms

Performance: 655947.574 tau/day, 3795.993 timesteps/s
99.6% CPU use with 48 MPI tasks x no OpenMP threads

MPI task timing breakdown:
Section |  min time  |  avg time  |  max time  |%varavg| %total
---------------------------------------------------------------
Pair    | 1.1526     | 1.2197     | 1.3887     |   4.1 | 46.30
Neigh   | 0.21153    | 0.22146    | 0.26291    |   1.7 |  8.41
Comm    | 0.70506    | 0.91987    | 1.0242     |   6.1 | 34.92
Output  | 0.00024456 | 0.0002517  | 0.00039966 |   0.0 |  0.01
Modify  | 0.21702    | 0.25734    | 0.33923    |   5.7 |  9.77
Other   |            | 0.01575    |            |       |  0.60

Nlocal:        83.3333 ave          93 max          75 min
Histogram: 3 3 5 11 4 7 6 4 3 2
Nghost:        1704.81 ave        1750 max        1677 min
Histogram: 6 7 4 8 9 7 2 4 0 1
Neighs:        10075.5 ave       11240 max        8728 min
Histogram: 3 2 5 7 4 9 2 7 4 5

Total # of neighbors = 483626
Ave neighs/atom = 120.90650
Neighbor list builds = 907
Dangerous builds = 212

# Equilibrate just above the melting temperature to avoid step fn in T

fix 1 all npt temp 1.25 1.25 0.1 iso 5.68 5.68 0.5 mtk yes tchain 5 pchain 5
run 2000
Per MPI rank memory allocation (min/avg/max) = 3.643 | 3.645 | 3.649 Mbytes
Step Temp E_pair E_mol TotEng Press Volume 
   10000    2.3739796   -5.0279475            0   -1.4678684    5.8208497     3782.726 
   11000    1.2668158    -7.049009            0   -5.1492605    5.6411708    3003.4632 
   12000    1.2652789   -7.1307748            0   -5.2333309    5.7029861     2982.326 
Loop time of 0.641223 on 48 procs for 2000 steps with 4000 atoms

Performance: 538970.281 tau/day, 3119.041 timesteps/s
99.7% CPU use with 48 MPI tasks x no OpenMP threads

MPI task timing breakdown:
Section |  min time  |  avg time  |  max time  |%varavg| %total
---------------------------------------------------------------
Pair    | 0.27156    | 0.30742    | 0.35138    |   2.8 | 47.94
Neigh   | 0.040322   | 0.043343   | 0.048666   |   0.8 |  6.76
Comm    | 0.19077    | 0.24088    | 0.2789     |   3.4 | 37.57
Output  | 5.1885e-05 | 5.3627e-05 | 7.0026e-05 |   0.0 |  0.01
Modify  | 0.041405   | 0.044618   | 0.047594   |   0.7 |  6.96
Other   |            | 0.004903   |            |       |  0.76

Nlocal:        83.3333 ave          93 max          77 min
Histogram: 3 4 2 22 4 7 1 2 2 1
Nghost:        2009.15 ave        2036 max        1994 min
Histogram: 6 5 7 9 14 3 1 0 1 2
Neighs:        12809.5 ave       14428 max       11426 min
Histogram: 2 2 5 8 12 9 4 2 3 1

Total # of neighbors = 614858
Ave neighs/atom = 153.71450
Neighbor list builds = 145
Dangerous builds = 8

#############################
# L I N E A R  Q U E N C H  #
#############################

# Define solid atoms. This closely follows ten Wolde  Ruiz-Montero and Frenkel  Faraday Discuss  1996  104  93-110
# Compute components of the per-atom q6 vector
compute q6 all orientorder/atom degrees 1 6 components 6 nnn NULL cutoff 1.3 # compute the Q6 parameter.
                                                                             # Use all neighbours within 1.3 unit cell.

# get number of connections
compute coord_number all coord/atom orientorder q6 0.5

# An atom is solid if it has 8 or more connections (of a possible 14)
variable is_solid atom c_coord_number>=8
group solid dynamic all var is_solid    # Must be dynamic to update
dynamic group solid defined

# do clustering
compute cluster solid cluster/atom 1.3 # Create a cluster where all atoms within are solid and max 1.3 units from another member

# define chunks one chunk per cluster
compute clus_chunks solid chunk/atom c_cluster nchunk every compress yes  # Says which atoms are in which chunk

# count the size of each chunk
compute size_chunks solid property/chunk clus_chunks count


# Find the maximum entry in the vector of chunk sizes
variable max_n equal max(c_size_chunks)


# Thermo style which includes this variable
# thermo_style custom step temp pe vol v_max_n

thermo ${N}  # Print the thermo information every 100 steps
thermo 1000  

# Reset the npt fix at a lower temperature (below freezing)
fix 1  all npt temp  ${temp} ${temp}  0.1  iso  5.68  5.68  0.5  mtk yes tchain  5  pchain  5
fix 1  all npt temp  0.45 ${temp}  0.1  iso  5.68  5.68  0.5  mtk yes tchain  5  pchain  5
fix 1  all npt temp  0.45 0.45  0.1  iso  5.68  5.68  0.5  mtk yes tchain  5  pchain  5

dump dmp2 all dcd ${N} traj.dcd
dump dmp2 all dcd 1000 traj.dcd


compute msd all msd com yes
variable twopoint equal c_msd[4]/6/(step*dt+1.0e-6)
fix 9 all vector 10 c_msd[4]
variable fit equal slope(f_9)/6/(10*dt)
thermo_style custom step temp pe c_msd[4] v_twopoint v_fit v_max_n

fix 1 all npt temp 1.25 ${temp} 0.1 iso 5.68 5.68 0.5 mtk yes tchain 5 pchain 5
fix 1 all npt temp 1.25 0.45 0.1 iso 5.68 5.68 0.5 mtk yes tchain 5 pchain 5
run 5000000 # 5000000  # Run for this many steps
Neighbor list info ...
  update every 1 steps, delay 10 steps, check yes
  max neighbors/atom: 2000, page size: 100000
  master list distance cutoff = 3.8
  ghost atom cutoff = 3.8
  binsize = 1.9, bins = 8 8 8
  4 neighbor lists, perpetual/occasional/extra = 1 3 0
  (1) pair lj/cut, perpetual
      attributes: half, newton on
      pair build: half/bin/atomonly/newton
      stencil: half/bin/3d
      bin: standard
  (2) compute orientorder/atom, occasional
      attributes: full, newton on
      pair build: full/bin/atomonly
      stencil: full/bin/3d
      bin: standard
  (3) compute coord/atom, occasional
      attributes: full, newton on
      pair build: full/bin/atomonly
      stencil: full/bin/3d
      bin: standard
  (4) compute cluster/atom, occasional
      attributes: full, newton on
      pair build: full/bin/atomonly
      stencil: full/bin/3d
      bin: standard
Per MPI rank memory allocation (min/avg/max) = 9.832 | 9.837 | 9.844 Mbytes
Step Temp PotEng c_msd[4] v_twopoint v_fit v_max_n 
   12000    1.2652789   -7.1307748            0            0 8.3333333e+20            2 
   13000    1.2768909   -7.1343246   0.46158291 0.0029588647  0.037425606            2 
   14000    1.2375905   -7.1340116   0.87845065 0.0052288727  0.035154388            3 
   15000    1.2396702   -7.1380886    1.3100347 0.0072779703   0.03555456            1 
   16000    1.2573047   -7.1351656    1.7612561 0.0091732086   0.03613149            3 
   17000    1.2838558   -7.1418562    2.1446884  0.010513178  0.035619324            1 
   18000    1.2304746   -7.1319294    2.5378914  0.011749497  0.035300833            2 
   19000    1.2404813   -7.1698021    2.9411934  0.012899971  0.034865042            1 
   20000    1.2495818   -7.1538333    3.3725393  0.014052247  0.034636018            1 
   21000    1.2470678   -7.1785188     3.705754  0.014705373  0.034477569            1 
   22000    1.2483085   -7.1120521     4.092462   0.01550175  0.033976342            1 
   23000    1.2593606   -7.1451602    4.4475665  0.016114371  0.033613377            2 
   24000    1.2537807   -7.0848223    4.8222473  0.016743914  0.033261982            2 
   25000    1.2492869   -7.1760101    5.1644618  0.017214872  0.033003639            1 
   26000    1.2818066   -7.1815644    5.5711462  0.017856238  0.032791084            2 
   27000    1.2560533   -7.1197932     5.991388  0.018491938  0.032699672            1 
   28000    1.2503336   -7.1561114    6.4191142  0.019104506  0.032669998            2 
   29000    1.2355722   -7.1581953    6.8158953  0.019585906  0.032667944            2 
   30000    1.2679352   -7.1622188    7.1999028   0.01999973  0.032707891            1 
   31000    1.2434136   -7.1642012    7.5578654  0.020316842  0.032674128            1 
   32000    1.2361832   -7.1845005    7.9638729  0.020739252  0.032607617            1 
   33000    1.2283425   -7.1726582    8.5529886  0.021598456  0.032725284            1 
   34000    1.2598544   -7.1495837    9.0108936  0.022085523  0.032917282            4 
   35000    1.2318554   -7.1377102    9.4185203  0.022425048  0.033103015            1 
   36000     1.232607   -7.0904993    9.9196513  0.022962155  0.033246021            2 
   37000    1.2476757   -7.1830737    10.223583  0.023026086  0.033367664            2 
   38000    1.2154768   -7.1736002    10.648531  0.023352042  0.033477334            1 
   39000    1.2497164   -7.1604166    11.036322  0.023581883   0.03355337            2 
   40000    1.2155665   -7.1416482    11.368054  0.023683445    0.0336115            2 
   41000    1.2429375   -7.1655968    11.683142  0.023746223  0.033598285            2 
   42000    1.2405215   -7.0954683    12.090338  0.023988765  0.033538442            2 
   43000    1.2241652   -7.1052525    12.568695  0.024357936  0.033506276            2 
   44000    1.2563043   -7.1485201    12.928396  0.024485599   0.03353113            1 
   45000    1.2536649   -7.1666712    13.348817   0.02472003  0.033546525            2 
   46000    1.2377275   -7.1679302    13.886279  0.025156302  0.033583245            6 
   47000    1.2404394   -7.1198022    14.301851  0.025357892  0.033656766            2 
   48000    1.2677032    -7.113407    14.656836  0.025445896  0.033685539            3 
   49000    1.2711639   -7.1447404    15.106145  0.025690722  0.033719834            1 
   50000    1.2425853   -7.1454537    15.530157  0.025883594  0.033758505            1 
   51000    1.2550443   -7.1800925    15.987661  0.026123629  0.033799913            5 
   52000     1.261919   -7.1071848    16.438572  0.026343865  0.033838021            2 
   53000    1.2565227   -7.1421427    16.868085  0.026522146  0.033888571            2 
   54000    1.2595547   -7.1154275    17.320071  0.026728504  0.033952355            1 
   55000    1.2247952   -7.1679243    17.700159  0.026818422  0.033997742            5 
   56000    1.2054514   -7.1736446     17.87853  0.026604955  0.034014073            3 
   57000    1.2142368   -7.1621745    18.271552  0.026712795  0.033987393            1 
   58000    1.2590251   -7.1373814    18.771325  0.026970295  0.033979861            2 
   59000    1.2447437    -7.152026     19.15153  0.027050183   0.03398367            1 
   60000    1.2345169   -7.1755231    19.613604  0.027241116  0.033993174            1 
   61000    1.2158943   -7.1745209    19.992183  0.027311725  0.034003222            2 
   62000    1.2396459    -7.151447    20.457596  0.027496769  0.034020449            1 
   63000    1.2481291   -7.1200986    20.840926  0.027567362  0.034031033            2 
   64000    1.2227743   -7.1795848    21.152651  0.027542513  0.034024424            2 
   65000    1.2222704   -7.1526814    21.569368  0.027653036  0.034021049            1 
   66000    1.2308286   -7.1936395    22.000141  0.027777955  0.034023242            2 
   67000    1.2097169    -7.160267    22.350592  0.027799244  0.034008503            3 
   68000    1.2413933   -7.1843632    22.779109  0.027915574  0.034007925            4 
   69000    1.2137744   -7.1486407    23.364432  0.028217913  0.034006967            1 
   70000     1.244816   -7.1562455    23.901591  0.028454275  0.034034175            3 
   71000    1.2296132   -7.1946266    24.314327  0.028537942  0.034072312            2 
   72000    1.2634865   -7.1645445     24.92187  0.028844757  0.034114547            5 
   73000    1.2430269   -7.1559138    25.354736  0.028943763  0.034162266            1 
   74000    1.2438859   -7.1409892    25.761758  0.029010989  0.034205362            2 
   75000    1.2340314   -7.1408642    26.138786  0.029043095  0.034245408            2 
   76000    1.2405188   -7.0806511    26.646757  0.029217935  0.034283929            1 
   77000    1.2345995   -7.1290501    27.190885  0.029427365  0.034333465            3 
   78000     1.252782   -7.1747127    27.465094  0.029343049   0.03438262            1 
   79000    1.2396624   -7.1618824    27.745726  0.029267644   0.03441715            1 
   80000     1.245614   -7.1941865    28.172258  0.029346102  0.034435267            1 
   81000    1.2222232   -7.1002345    28.645282  0.029470454  0.034453903            2 
   82000    1.2389362   -7.1426459    29.003024  0.029474618   0.03446852            2 
   83000    1.2272992   -7.1804195    29.121785   0.02923874  0.034464895            2 
   84000    1.2458122   -7.1657806    29.453609   0.02921985  0.034447849            1 
   85000    1.2330217   -7.1422873    29.921416  0.029334722  0.034429523            2 
   86000    1.2674101   -7.1943885    30.266218  0.029327731  0.034415275            1 
   87000    1.2503864   -7.1829945    30.787804  0.029490234  0.034405095            1 
   88000    1.2398837   -7.1546597    31.077756  0.029429693  0.034393278            1 
   89000    1.2511972    -7.187008    31.351574  0.029355406  0.034377886            1 
   90000    1.2496695   -7.2101316    31.563334  0.029225309   0.03434646            2 
   91000     1.241419   -7.1854343    31.929237  0.029239228  0.034313607            2 
   92000    1.2410494   -7.1525752    32.421544   0.02936734  0.034271687            3 
   93000    1.2555386   -7.1746775    32.737014  0.029334242  0.034231152            1 
   94000    1.2177135   -7.1741873    33.094232  0.029338858  0.034194548            1 
   95000    1.2450658    -7.143914    33.658887  0.029525339  0.034164257            1 
   96000    1.2289188   -7.0958513    34.073183  0.029577415  0.034139114            1 
   97000    1.2312632   -7.1636542    34.591851  0.029718085  0.034117596            2 
   98000    1.2120733   -7.1673282    35.018216  0.029777394  0.034104702            1 
   99000    1.2393287   -7.1826604    35.265784  0.029685003  0.034091993            3 
  100000    1.2351101   -7.2114329    35.542427  0.029618689  0.034068108            1 
  101000    1.2439623   -7.2110577    35.900948  0.029621244  0.034041491            3 
  102000    1.2296733   -7.1979683    36.236229  0.029604762  0.034010545            1 
  103000    1.2400839   -7.1806626    36.555785  0.029575878  0.033980097            1 
  104000     1.236247   -7.1314155    37.057379  0.029693413  0.033946788            1 
  105000    1.2158337   -7.2041444    37.370257  0.029658934  0.033912951            2 
  106000    1.1879767   -7.1099307    37.742102  0.029671463  0.033880473            3 
  107000    1.2071082   -7.1595899    38.198325  0.029749474  0.033853417            1 
  108000    1.2348958   -7.2033553    38.662961  0.029832531  0.033828849            3 
  109000    1.2651589   -7.1528457    39.044472  0.029850514  0.033809652            1 
  110000    1.2295862   -7.2273043    39.368445  0.029824579  0.033784046            2 
  111000    1.2666602   -7.1692521    39.806016  0.029884396  0.033765976            2 
  112000    1.2507659   -7.1613999     40.42663  0.030079338  0.033750415            3 
  113000    1.2259792   -7.1684786    40.902023  0.030163734  0.033740281            1 
  114000    1.2052083   -7.1751973    41.477925   0.03032012  0.033737642            2 
  115000    1.2507684   -7.1656984    41.999256  0.030434244  0.033742798            2 
  116000     1.256387   -7.1626085    42.477581  0.030515504  0.033750094            1 
  117000    1.2199878   -7.2066355    42.715521   0.03042416   0.03375412            1 
  118000    1.2240363   -7.1982166    42.966183  0.030343349  0.033754987            1 
  119000    1.2389681   -7.1841146     43.45977  0.030434013  0.033755944            1 
  120000    1.2188755   -7.1527042    44.008877   0.03056172  0.033753935            1 
  121000    1.2443454   -7.2115144    44.304543   0.03051277  0.033759474            1 
  122000    1.2256772   -7.1688144    44.940014  0.030696731  0.033768451            2 
  123000     1.211509   -7.1553109    45.471548  0.030807281  0.033778887            3 
  124000     1.235304   -7.1476646    45.783267  0.030768325  0.033786323            5 
  125000    1.2173339   -7.1960255     45.95872  0.030639147  0.033791776            1 
  126000    1.2596234   -7.1524152    46.446598  0.030718649  0.033794934            3 
  127000    1.2482852   -7.1435252    46.901187  0.030775057  0.033800786            2 
  128000    1.2376673   -7.1764213    47.229724  0.030748518  0.033805322            2 
  129000    1.2383004   -7.2103201    47.431634   0.03064059  0.033809859            5 
  130000    1.2508049   -7.1656442    47.603796  0.030515254  0.033803086            2 
  131000      1.23266   -7.1907865    48.335878  0.030748014  0.033797994            3 
  132000    1.2676301   -7.2196771    48.821327  0.030821544  0.033800813            1 
  133000    1.1996434   -7.1986058     48.79436  0.030572907  0.033797736            2 
  134000    1.2139903   -7.1994323    49.373315  0.030704798  0.033790017            1 
  135000    1.2298138   -7.1553653    49.860506   0.03077809  0.033781908            1 
  136000    1.2205604   -7.1762824    50.300243  0.030821227  0.033773408            2 
  137000    1.2502029   -7.2000495    50.452087  0.030688617  0.033767304            3 
  138000    1.2295706   -7.1943366    51.373972   0.03102293  0.033766235            1 
  139000     1.244431    -7.233442    51.817373  0.031065571  0.033768364            2 
  140000     1.220176   -7.2402234     52.04563  0.030979541  0.033773274            4 
  141000    1.2269114   -7.1984532    52.547543  0.031056468   0.03377717            2 
  142000     1.239053   -7.2058747    52.926328  0.031060052  0.033781853            2 
  143000    1.2057071    -7.148838    53.413638  0.031126829  0.033786547            2 
  144000    1.2525536   -7.2119256    53.731254  0.031094476  0.033790104            1 
  145000    1.2339103   -7.1629142     54.16558  0.031129644  0.033794921            3 
  146000    1.1936654     -7.20246    54.496802   0.03110548   0.03379902            2 
  147000    1.2227839   -7.1292612    55.100433  0.031236073  0.033800437            1 
  148000    1.2529661   -7.1891754      55.5415  0.031273367  0.033801756            2 
  149000    1.2276462   -7.1478483    56.185272   0.03142353   0.03380708            2 
  150000    1.2057273   -7.2031777    56.143476   0.03119082  0.033810614            2 
  151000    1.2154617   -7.1363662    56.825515  0.031360659  0.033813941            1 
  152000    1.1939323   -7.2075045    57.143031  0.031328416  0.033818694            1 
  153000    1.2396829   -7.1491508    57.666346  0.031408685  0.033827041            1 
  154000     1.215069   -7.1780726    57.929983  0.031347393  0.033832556            2 
  155000    1.2184065   -7.2085504    57.976929  0.031170392  0.033836299            3 
  156000    1.2474108   -7.1945545    58.520322  0.031260855  0.033837624            1 
  157000    1.2349501   -7.1957204    58.957762  0.031293929  0.033839054            1 
  158000    1.2368644   -7.1150733    59.676877  0.031475146  0.033842558            1 
  159000    1.2063988   -7.1483947    60.064313  0.031480248  0.033850069            2 
  160000    1.2614263   -7.1847515     60.47259  0.031496141  0.033859153            2 
  161000    1.2242877   -7.1638997    60.877408  0.031510046  0.033866475            1 
  162000    1.2428449    -7.213968    61.013763  0.031385681  0.033868417            2 
  163000    1.2128634   -7.1633054    61.378025  0.031379358  0.033868023            2 
  164000    1.2187989   -7.1570086    61.900289  0.031453399  0.033864477            2 
  165000    1.2046966   -7.2074193    62.202314   0.03141531  0.033861706            3 
  166000    1.2344849   -7.1878912    62.600173   0.03142579  0.033861567            1 
  167000    1.2396509   -7.1747204    63.110821  0.031492426  0.033861737            3 
  168000    1.2255868   -7.1479731    63.260208  0.031379071  0.033857607            3 
  169000    1.2173724   -7.1911228    63.575125  0.031348681  0.033853683            4 
  170000    1.2200396   -7.2147936    64.048017  0.031396087  0.033849339            1 
  171000    1.2293563   -7.2172326    64.373237  0.031370973  0.033842741            3 
  172000    1.2270818   -7.1876485    64.529436  0.031264262  0.033833404            1 
  173000     1.232196   -7.2107902     64.99169  0.031306209  0.033825654            2 
  174000     1.231072   -7.2298067    65.438073  0.031340073  0.033817571            2 
  175000    1.2404886   -7.2474545    65.439625  0.031161726   0.03380624            3 
  176000    1.2103405   -7.2175957    65.914444   0.03120949   0.03379588       -1e+20 
  177000    1.2238793   -7.1378919    66.479119   0.03129902  0.033787078            2 
  178000    1.2148426   -7.1828753    66.958862  0.031347782  0.033777192            1 
  179000    1.2014055   -7.2531352    67.488879  0.031419404  0.033771572            2 
  180000    1.2387276   -7.1903052    68.235976  0.031590729  0.033767057            2 
  181000    1.2759184   -7.2302506    68.191521  0.031395728  0.033760886            2 
  182000    1.1846913   -7.2195206    68.608254  0.031414036  0.033754217            1 
  183000    1.2618934   -7.2019832    68.723087  0.031294666   0.03374695            1 
  184000    1.2246094   -7.1942508      69.0784  0.031285507  0.033736957            1 
  185000    1.2167676   -7.1685233    69.569349  0.031337544  0.033723826            2 
  186000    1.2076037   -7.1737505    69.653326  0.031206687  0.033710135            2 
  187000    1.2446897   -7.2260816    70.185288  0.031276866  0.033694486            2 
  188000    1.2561963    -7.196554    70.753128  0.031362202  0.033681185            4 
  189000    1.2318304   -7.2148181     71.10031  0.031349343  0.033669665            1 
  190000    1.2215288   -7.1846307    71.711269  0.031452311   0.03365982            2 
  191000    1.2318103   -7.2302966    72.326308  0.031555981  0.033655238            1 
  192000    1.2255778   -7.2094637    72.783942  0.031590252  0.033652024            2 
  193000    1.2489695   -7.2327161     72.96037   0.03150275   0.03365073            1 
  194000    1.2437856   -7.2230045    73.510651   0.03157674  0.033647418            3 
  195000    1.2177979   -7.1900811    74.026415   0.03163522  0.033644277            2 
  196000     1.227109   -7.2462667    74.395168  0.031630599  0.033642865            1 
  197000    1.2516644    -7.196297    74.712581  0.031604306  0.033642133            1 
  198000    1.2268645   -7.2317889    74.949999  0.031544612  0.033637234            1 
  199000    1.2181352    -7.219217     75.67717  0.031690607  0.033632822            2 
  200000    1.2392429   -7.2426222     75.37438  0.031405991  0.033626655            2 
  201000    1.1919739    -7.179524    76.173463  0.031581038  0.033620837            2 
  202000    1.2399626    -7.175893    76.569511  0.031588082  0.033617303            4 
  203000    1.2287912   -7.1919274    77.134438  0.031664384  0.033613966            2 
  204000    1.2198894    -7.195192    77.438478  0.031633365    0.0336099            2 
  205000     1.257354   -7.2545666    77.773309  0.031615166  0.033605778            3 
  206000    1.2200771   -7.1634679     78.24016   0.03165055  0.033601244            1 
  207000    1.2099813   -7.1969597    78.854364  0.031744913  0.033597906            1 
  208000    1.2143682   -7.1931263    78.950011  0.031630613  0.033593893            1 
  209000    1.1981339   -7.1968894    79.297438  0.031617798  0.033587653            1 
  210000     1.220544   -7.2734832    79.341845  0.031484859  0.033581101            4 
  211000    1.2001758   -7.2305944    79.831591  0.031529064   0.03357385            1 
  212000    1.2152908   -7.1901658    80.242744  0.031541959  0.033566204            2 
  213000    1.2359906   -7.1961524    80.581002  0.031526214  0.033558231            3 
  214000    1.2065257   -7.1594676    81.277423  0.031650087  0.033552028            1 
  215000    1.2008789   -7.2267325    81.805444  0.031707536  0.033547641            1 
  216000    1.2363578   -7.1844493    82.188683  0.031708597  0.033544576       -1e+20 
  217000     1.210934   -7.2385403    82.752745  0.031779088  0.033543737            2 
  218000    1.1827125   -7.2568899    82.725687  0.031622969  0.033541018            1 
  219000    1.2299564   -7.2114467     83.19975  0.031658961  0.033535706            1 
  220000    1.2252971   -7.2674341    83.166445  0.031502441  0.033528935            1 
  221000    1.2149245   -7.1908681    83.488771  0.031481437   0.03351988            2 
  222000    1.2040281   -7.2166342    84.145687  0.031586219   0.03351208            2 
  223000    1.2129641   -7.2307615    84.497786  0.031576153  0.033504771            4 
  224000    1.2400043   -7.2584942    84.078679   0.03127927  0.033495364            4 
  225000    1.2124045   -7.2422049    85.063089  0.031504848  0.033484022            1 
  226000    1.2051459   -7.2134003    85.255862  0.031436527  0.033475149            1 
  227000     1.229908    -7.207086    85.604596  0.031426063  0.033463935            3 
  228000    1.2270189   -7.2383755    86.104257  0.031470854  0.033452402            2 
  229000    1.2321825   -7.2368302    86.072832  0.031321991  0.033440077            1 
  230000       1.2229   -7.2444991    86.760947  0.031435126  0.033427315            2 
  231000    1.1878535   -7.2028208    87.029055  0.031395763  0.033416101            1 
  232000    1.2065797   -7.2130745    87.283685  0.031351898  0.033401758            2 
  233000    1.2135359   -7.2369566    87.408008  0.031261805  0.033387208            3 
  234000     1.217794   -7.2469536    87.868942  0.031292358  0.033371692            1 
  235000    1.2177935   -7.2375472    88.028337  0.031215722  0.033357059            2 
  236000    1.2016973   -7.1983387    88.713985   0.03132556  0.033342014            2 
  237000    1.2445825   -7.2490901    88.654964  0.031172631  0.033326382            3 
  238000    1.2278238   -7.1674244    89.228913  0.031242617  0.033309363            3 
  239000    1.2040357   -7.2261562    89.499544  0.031206256  0.033293166            2 
  240000     1.227989   -7.2714922    89.614938  0.031116298  0.033276568            1 
  241000    1.2385618   -7.2511607    90.087648  0.031150639  0.033260612            2 
  242000    1.2155102    -7.233105     91.03649  0.031348654  0.033246659            1 
  243000    1.2229806   -7.2351451    91.203128  0.031276793  0.033232735            3 
  244000    1.1949153   -7.2252259     91.40483  0.031217497  0.033218953            3 
  245000     1.211963   -7.2080172    91.678811  0.031183269  0.033202669            3 
  246000    1.1974947     -7.25358    91.669725   0.03105343  0.033186308            1 
  247000    1.1957202   -7.2105969    92.103369  0.031074011  0.033168863            1 
  248000    1.2170787   -7.2411841    92.070279  0.030937594  0.033150559            2 
  249000    1.2044224   -7.2356939    92.894294  0.031089121   0.03313043            1 
  250000    1.2481309    -7.208512    93.182773  0.031060924  0.033111741            1 
  251000    1.2173623   -7.2319115    93.738408  0.031121649  0.033093978            2 
  252000     1.230153    -7.272231    93.925191  0.031059918  0.033077209            1 
  253000    1.2205875   -7.2339502    94.577154  0.031151895  0.033062865            2 
  254000    1.2161769   -7.1876793    94.722495  0.031076934  0.033046802            1 
  255000     1.238391   -7.2797591    94.751841  0.030964654  0.033029726            3 
  256000    1.2035614    -7.247747    95.011366  0.030928179  0.033009509            1 
  257000    1.2089142   -7.2638938    95.307572  0.030903882  0.032990716       -1e+20 
  258000    1.2252682   -7.2100328    95.932914  0.030986083  0.032972114            1 
  259000    1.2110257   -7.2638705    96.060012   0.03090734  0.032953476            2 
  260000    1.2066707   -7.2160716    96.991368  0.031086977   0.03293594            1 
  261000    1.2193813   -7.2587303     97.12352  0.031010064  0.032918617            3 
  262000    1.2111271   -7.2813733    97.470021  0.031001915  0.032901005            1 
  263000    1.1989651   -7.2359255    97.655152  0.030942697  0.032883459            2 
  264000     1.200245   -7.2358042    98.192875  0.030995226  0.032866596            1 
  265000    1.1904776   -7.2668405    98.443129  0.030956959  0.032848973            1 
  266000    1.2137962   -7.2543773    98.831244  0.030962169  0.032831495            1 
  267000    1.2155337   -7.2629957    98.908303  0.030870257  0.032813853            1 
  268000    1.2008678   -7.1995295    99.935427  0.031074449  0.032797862            1 
  269000     1.217541   -7.2239728    99.876473  0.030940667  0.032782249            3 
  270000    1.2270226   -7.2025004    100.84062  0.031123649  0.032767937            1 
  271000    1.2134783   -7.2533662    101.16767  0.031109369  0.032754468            1 
  272000    1.1980782   -7.2247037    101.66244   0.03114658  0.032741548            2 
  273000    1.2064992   -7.2266704    101.78049  0.031068526  0.032728907            1 
  274000    1.1866283    -7.286361    101.38291  0.030834219  0.032716112            7 
  275000    1.1788627   -7.2662743    102.22976  0.030978716   0.03270164            3 
  276000    1.1877274   -7.2145295     102.7151  0.031013012  0.032686067            1 
  277000    1.2260818   -7.2189285     103.0732  0.031008784  0.032671121            2 
  278000    1.2337413    -7.240758    103.16315  0.030924205  0.032655571            4 
  279000     1.208745   -7.2539091    103.66225  0.030962441  0.032640193            2 
  280000    1.2055831   -7.2251948    103.33054  0.030753136  0.032621552            1 
  281000    1.2154385   -7.2448884     104.1197  0.030877727  0.032603383            2 
  282000    1.2111429    -7.217395    104.36502  0.030840727  0.032586196            2 
  283000    1.1735298   -7.2276569    104.69855  0.030829961  0.032568423            1 
  284000    1.2033668   -7.1983126    105.08231  0.030834012  0.032550723            3 
  285000    1.1948458    -7.248512    105.05124  0.030716736  0.032531957            1 
  286000    1.1933357   -7.2479593    105.26637  0.030672018  0.032513882            1 
  287000    1.2168332   -7.2628731    105.98729  0.030774473  0.032496039            2 
  288000    1.2006856   -7.2539381    105.94426  0.030655167  0.032479116            2 
  289000     1.212573   -7.2647045     106.4392  0.030691809  0.032460585            1 
  290000    1.1992751   -7.2184618    106.41583  0.030579262  0.032441516            2 
  291000    1.1998753    -7.227985    107.26672  0.030717846  0.032422301            3 
  292000    1.2083899    -7.304164    107.27738   0.03061569   0.03240501            2 
  293000    1.2153937   -7.2247354    108.07292  0.030737462  0.032388731            2 
  294000    1.1861845   -7.2918842    108.11566  0.030645027  0.032371523            3 
  295000    1.2062531   -7.2875115    108.41191  0.030624833   0.03235408            2 
  296000     1.218856   -7.2735157    108.65829  0.030590735   0.03233746            2 
  297000    1.2464536   -7.2679858    109.79481  0.030806625  0.032322249            1 
  298000    1.1837154   -7.2894941    109.87962  0.030726963  0.032307129            2 
  299000    1.2016226   -7.2348884    110.19332  0.030711628  0.032291034            2 
  300000      1.21602   -7.2824551    110.88036    0.0308001  0.032275813            1 
  301000    1.2097351   -7.2608696    111.26396  0.030803976  0.032262072            2 
  302000    1.2054695   -7.2793339    111.16587  0.030674908  0.032248115            1 
  303000    1.1987813   -7.2877941     111.7796  0.030742464  0.032234693            1 
  304000     1.183798   -7.2420388    112.41395  0.030815228  0.032221644            2 
  305000    1.2104129   -7.2305479    113.25682  0.030944487  0.032209704            1 
  306000    1.1937733   -7.2881515    112.68553  0.030687781    0.0321987            3 
  307000    1.2215027   -7.2317243    113.96915  0.030936251  0.032187164            3 
  308000    1.1913114   -7.2424449    114.55885  0.030995359  0.032178683            2 
  309000    1.2093353   -7.2249376    115.12388  0.031047433  0.032171942            2 
  310000    1.1937386   -7.2632119    115.83998  0.031139778  0.032166208            1 
  311000    1.1747015   -7.2718309    115.74366  0.031013843  0.032159485            1 
  312000    1.1993481   -7.2726078    115.91808  0.030961026  0.032153235            1 
  313000    1.2046553   -7.2501147    116.54458   0.03102891  0.032147787            2 
  314000    1.1929577   -7.2233244    117.58458    0.0312061  0.032142293            1 
  315000    1.2093989   -7.2624914    117.39892  0.031057916  0.032137057            1 
  316000    1.2098172    -7.248986    118.07395  0.031137646   0.03213262            1 
  317000    1.2085965   -7.2611394    118.16629  0.031063694  0.032128435            1 
  318000    1.1864383   -7.2927867    118.67661  0.031099739  0.032121821            2 
  319000    1.2099649   -7.2138532    119.05455  0.031100979  0.032115534            2 
  320000    1.2169913   -7.2452714    118.85898   0.03095286  0.032108001            1 
  321000    1.1762556   -7.2849271    118.48955  0.030760528  0.032100286            1 
  322000    1.1990921   -7.2744982    119.62397  0.030958585  0.032092224            3 
  323000     1.225214   -7.3285004    119.61021  0.030859186  0.032083725            2 
  324000    1.2064624    -7.255758     120.4893  0.030990045  0.032075396            2 
  325000    1.1761592   -7.2970572    120.35602  0.030860518  0.032066631            2 
  326000    1.1918231   -7.2663523    120.78215  0.030874782  0.032057871            3 
  327000    1.1922446   -7.2793299    121.35986  0.030927589   0.03204877            2 
  328000     1.185048   -7.2677566     121.2084  0.030794818  0.032038865            1 
  329000    1.1853584   -7.2893381    121.81814  0.030855659  0.032029687            1 
  330000    1.1884908   -7.2620857    122.00915  0.030810391  0.032020293            1 
  331000     1.205014   -7.2722282    122.53573  0.030849881   0.03201164            1 
  332000    1.2181037   -7.2833861    123.20871  0.030925882  0.032004002            1 
  333000    1.1896733   -7.2590321    123.01276  0.030783975  0.031994729            1 
  334000    1.2045242   -7.3109179    123.12457  0.030719703  0.031985877            1 
  335000    1.2168778   -7.2766964    124.31425  0.030923944  0.031977779            1 
  336000    1.1897506   -7.2572123    124.86503   0.03096851  0.031971157            2 
  337000    1.1924617   -7.2724575    124.97304  0.030903322   0.03196422            2 
  338000    1.1972719   -7.2711228    125.51606  0.030945775  0.031958165            2 
  339000    1.1860259   -7.2665173    125.88885  0.030946127  0.031951871            1 
  340000    1.2152956   -7.2343114    125.92087  0.030862958  0.031944327            1 
  341000    1.1963657   -7.3067566    125.97701  0.030786171  0.031936999            1 
  342000    1.1991385   -7.2875369    126.64877  0.030859836  0.031928445            1 
  343000     1.175621   -7.2698128    126.88782  0.030827945  0.031919864            3 
  344000     1.220243   -7.2749732    127.16956   0.03080658  0.031911457            2 
  345000    1.2138887   -7.2722648    127.54387  0.030807698  0.031902558            1 
  346000    1.2150489   -7.3021348     127.6451   0.03074304  0.031893512            5 
  347000    1.2121505   -7.2392208    128.84014  0.030941435  0.031885113            2 
  348000    1.1971992   -7.2537613    128.93383   0.03087496  0.031877009            1 
  349000    1.2061637   -7.2966859    128.77892  0.030749503  0.031868754            5 
  350000    1.1765059   -7.2074233    129.90719  0.030930284  0.031860285            2 
  351000    1.2163196   -7.2913608    129.45787  0.030735486  0.031852325            1 
  352000    1.2093752   -7.2702338    129.89579  0.030751845  0.031843142            1 
  353000    1.1873035    -7.277998    129.88815  0.030662924  0.031833803            1 
  354000     1.189603   -7.2728694    130.67613    0.0307618  0.031824437            2 
  355000    1.1975068   -7.2306258     131.2406  0.030807653  0.031814681            2 
  356000    1.1860841   -7.2548701    131.74146  0.030838358  0.031805549            2 
  357000    1.2136668   -7.2437258    132.18123  0.030854629  0.031797104            1 
  358000    1.2182222   -7.2682283    131.98019  0.030721645   0.03178858            5 
  359000    1.2185228   -7.2935918     132.1176  0.030667967   0.03177985            1 
  360000    1.1973886    -7.270772    132.79862  0.030740422  0.031771175            2 
  361000    1.1864487   -7.2235158    133.33957  0.030780142  0.031762692            2 
  362000    1.2005419   -7.2935302    133.24953  0.030674386  0.031754248            2 
  363000    1.2124664   -7.3125799    133.49456  0.030646135  0.031745169            3 
  364000    1.2078909   -7.2909105    134.24453  0.030733638  0.031735982            3 
  365000    1.2026331   -7.2879652    134.54977  0.030719125  0.031727622            2 
  366000    1.1982276   -7.2805459    134.57447  0.030640817  0.031719437            3 
  367000    1.1866365    -7.268785    135.53443  0.030775301  0.031710146            4 
  368000    1.1823305   -7.3071463    134.94125  0.030557347  0.031700493            1 
  369000    1.1838562   -7.2441374    136.03653  0.030721889  0.031690541            1 
  370000    1.1725283   -7.2881951    135.88504  0.030604738  0.031681018            2 
  371000      1.18935   -7.3035359     136.3233  0.030620688  0.031671097            2 
  372000    1.2176615   -7.2844096    136.13947  0.030497193  0.031660031            1 
  373000    1.2213007   -7.2886877    136.52095  0.030500658  0.031649639            1 
  374000    1.1859857   -7.2654345    136.92637  0.030509441  0.031638378            1 
  375000    1.1946903   -7.2593397    136.83779  0.030408399  0.031626218            1 
  376000    1.1914904   -7.3078011    136.95013  0.030352422  0.031613995            4 
  377000    1.1843936   -7.2762057    138.13886  0.030534672   0.03160276            3 
  378000    1.1881484   -7.2729991    137.84773   0.03038971  0.031591208            1 
  379000    1.1907945   -7.2858248    138.26103  0.030400403  0.031579649            2 
  380000    1.1680738    -7.285027    139.11209  0.030507038  0.031568447            2 
  381000    1.1688246   -7.2723963    139.14316  0.030433763  0.031556964            1 
  382000    1.1972534    -7.313183    139.08634  0.030341698  0.031545265            3 
  383000    1.1802855   -7.2544887    140.03105  0.030468026  0.031534038            2 
  384000    1.1946279    -7.314501    140.48723  0.030487681  0.031523489            1 
  385000    1.1747455   -7.2468627    140.68631  0.030451582  0.031513383            1 
  386000    1.1748575   -7.2674061    141.17662  0.030478544  0.031502916            1 
  387000    1.2058208   -7.2860135    141.28275  0.030422643  0.031492319            5 
  388000    1.1681063   -7.3135027     141.3491  0.030358485  0.031481158            2 
  389000    1.1887394   -7.2805046    141.82665  0.030382744  0.031470764            2 
  390000    1.1945111   -7.3104989     141.9273  0.030326346  0.031459487            2 
  391000    1.1695197   -7.3193103    142.23869  0.030315152   0.03144896            2 
  392000    1.1787722   -7.2626115    142.90212  0.030378853  0.031437669            1 
  393000    1.2035744   -7.3201853    143.18575  0.030361694  0.031426484            1 
  394000    1.1902571   -7.2899672    143.87437  0.030430282  0.031415537            1 
  395000    1.2114577   -7.2929996    143.94945  0.030369082   0.03140418            3 
  396000     1.183905   -7.3073099    143.95643  0.030293861  0.031394025            1 
  397000    1.1885432   -7.2646696    144.67781  0.030368977  0.031383032            1 
  398000    1.2017514   -7.2869078    144.97791  0.030355509  0.031372523            2 
  399000    1.2004908    -7.300835    145.36238  0.030359728  0.031361532            2 
  400000    1.1778916   -7.2648585    145.86625  0.030388802  0.031352002            2 
  401000    1.1896944    -7.325228    145.82847  0.030305169  0.031341693            2 
  402000    1.1753902   -7.2404388    147.17501  0.030508915  0.031331933            2 
  403000    1.1846346   -7.2737559    146.75567    0.0303465  0.031322752            5 
  404000    1.1776122   -7.2829599    147.60546  0.030446671  0.031313866            2 
  405000    1.1914326   -7.2928353    148.04565  0.030462068  0.031305142            2 
  406000     1.201569   -7.2909011    148.40224   0.03046023  0.031296624            1 
  407000    1.1831593   -7.2967425    148.66057  0.030438281  0.031288695            1 
  408000    1.1878881     -7.32637    148.69045  0.030369782  0.031280184            4 
  409000    1.1687431   -7.3001573    149.63471   0.03048792  0.031271816            1 
  410000    1.2067619   -7.2866474    149.88694  0.030464826  0.031263987            1 
  411000    1.1619736   -7.3185029    150.33813  0.030482183   0.03125702            2 
  412000    1.1963846   -7.3197409    150.03772  0.030347435  0.031249241            1 
  413000    1.1882082   -7.2649151    151.28502  0.030525629  0.031241925            2 
  414000    1.1715856    -7.294816    151.52697  0.030500598  0.031234974            2 
  415000    1.2035024   -7.2625274    151.28254  0.030378019  0.031227474            1 
  416000    1.1794917   -7.3386099    151.55106  0.030358786  0.031219076            2 
  417000    1.1602109   -7.3200997    151.67933  0.030311616  0.031211221            2 
  418000    1.1828561   -7.3078399    152.40114  0.030383003  0.031202779            4 
  419000    1.1665998    -7.271902    153.22788  0.030474916  0.031194693            3 
  420000    1.1821076   -7.2978746    152.90506  0.030338305  0.031186513            3 
  421000    1.1906931    -7.276165    153.43532  0.030371203  0.031178474            3 
  422000    1.1864927   -7.2403956    153.92522  0.030395976  0.031170876            2 
  423000    1.1804768   -7.2568078    154.18124  0.030374554  0.031163414            2 
  424000    1.1862971   -7.2881746    154.82951  0.030430329  0.031156002            4 
  425000    1.1713126   -7.2894629    154.92093  0.030376653  0.031148354            1 
  426000    1.1930021   -7.3011441    155.27477  0.030374563  0.031140333            3 
  427000    1.1774986   -7.2792188    156.31866  0.030507154    0.0311331            2 
  428000    1.1762524   -7.2765631    156.32084  0.030436301  0.031125895            1 
  429000    1.1695464   -7.2528364    155.96462  0.030296157  0.031118186            2 
  430000    1.1729943   -7.3364691    155.78134  0.030190182  0.031110184            2 
  431000    1.2044863    -7.256447    156.82198  0.030321343  0.031102218            3 
  432000    1.1789208   -7.3153514    157.00522  0.030286501  0.031094365            3 
  433000    1.1948399   -7.3027385    157.52115  0.030315848  0.031086035            3 
  434000    1.1700691   -7.2948069    158.17994  0.030372492   0.03107849            1 
  435000    1.1839193   -7.3176386    158.31672  0.030328874  0.031070829            1 
  436000    1.1656184   -7.2954865    158.52779  0.030299653  0.031062408            2 
  437000    1.1814966   -7.3250272    158.48737  0.030222611  0.031053866            1 
  438000    1.2102207   -7.2626538    159.56518  0.030358671  0.031045974            2 
  439000    1.1727421   -7.2662397     159.5577  0.030288097  0.031038614            4 
  440000    1.1830164   -7.2555434    160.15654  0.030332677  0.031031244            2 
  441000    1.1667052   -7.3473939    160.61903   0.03035129  0.031024371            4 
  442000    1.1590031   -7.3122657    161.60651  0.030468798  0.031017987            2 
  443000    1.1726429   -7.2552863    161.75525  0.030428001   0.03101179            3 
  444000      1.19208   -7.3191585    161.12978  0.030242076  0.031004957            2 
  445000     1.197123   -7.2577757    161.90713  0.030319687  0.030997521            3 
  446000    1.1688013   -7.3137404    161.92927  0.030255842  0.030990116            2 
  447000     1.156772    -7.315138    162.19633  0.030237944  0.030982168            2 
  448000    1.1828809   -7.3073799    162.47557  0.030222391  0.030974924            3 
  449000      1.16816   -7.2700374    163.33185  0.030314003  0.030967412            2 
  450000    1.1510043   -7.2862803    163.40779  0.030260702  0.030959981            1 
  451000    1.1756145   -7.2713668    163.59982  0.030229087  0.030952436            1 
  452000    1.1702689   -7.2970092    164.11613  0.030257398  0.030944701            2 
  453000     1.176475   -7.3125807    163.83081  0.030138118  0.030937245            2 
  454000     1.182364   -7.3250735    164.56416  0.030206343  0.030929386            1 
  455000    1.1613165   -7.3254339    165.07015  0.030232628  0.030922097            1 
  456000    1.1583785   -7.2874006    165.43678   0.03023333  0.030915236            1 
  457000    1.1679979   -7.3303178    165.57072  0.030191596  0.030908312            2 
  458000     1.179842   -7.2882935    166.21088  0.030242153  0.030900274            1 
  459000    1.1859485   -7.3725327    165.28328  0.030007858  0.030891965            1 
  460000    1.1632327   -7.3119439    166.41666  0.030147945  0.030883505            1 
  461000    1.1886539   -7.3028536    166.40981   0.03008131  0.030875148            1 
  462000      1.21187   -7.2858898    167.52574  0.030217486   0.03086754            2 
  463000    1.1882705   -7.3309342    167.39697  0.030129044  0.030860392            1 
  464000    1.1640433   -7.3230063    167.80528  0.030137443  0.030852272            3 
  465000    1.1941204   -7.3305591    168.19346  0.030142198  0.030844256            1 
  466000    1.1772569   -7.3185985    168.22366  0.030082915  0.030836483            2 
  467000    1.1718668   -7.3116821    168.64982  0.030094544  0.030828386            1 
  468000    1.1571738   -7.3359744    169.35076  0.030155051  0.030820941            3 
  469000    1.1717805   -7.2875557    170.58991   0.03031093  0.030814439            2 
  470000    1.1851951   -7.3022535     170.8092  0.030285319  0.030808003            1 
  471000    1.1504566   -7.2616844    171.73078  0.030384073  0.030802876            1 
  472000    1.1857871   -7.3300891    171.02293  0.030194726  0.030797643            1 
  473000    1.1649653   -7.3454724    172.00319  0.030303593  0.030792386            3 
  474000    1.1681175   -7.2814033    172.51764  0.030330106  0.030787213            1 
  475000    1.1708509    -7.279398    173.00468  0.030351697  0.030782105            3 
  476000    1.1566732   -7.2863684    173.09192  0.030303207  0.030777523            1 
  477000    1.1871078   -7.2972152    173.89434  0.030379864  0.030772485            1 
  478000    1.1851756     -7.30999    173.10576  0.030178829  0.030767229            2 
  479000    1.1716524   -7.3355218    173.26411  0.030143374  0.030761064            1 
  480000    1.1903387   -7.2628054    173.40999  0.030105901  0.030755223            2 
  481000    1.1769446   -7.3102858    173.83392  0.030116757  0.030749173            1 
  482000    1.1697313   -7.3138824    174.89439  0.030237619  0.030742875            2 
  483000     1.144052   -7.3357014    175.16399  0.030221531   0.03073665            1 
  484000    1.1695918   -7.3382227    175.23198  0.030170796  0.030730037            1 
  485000    1.1835277   -7.3823602    174.91323   0.03005382  0.030723273            2 
  486000    1.2021083    -7.307214    175.93847  0.030167776  0.030716625            4 
  487000    1.2092072     -7.31536    176.01039  0.030118137  0.030711724            4 
  488000    1.1802009    -7.324009    176.44602  0.030130809   0.03070619            3 
  489000    1.1826558   -7.2918296    177.51188  0.030250831  0.030701244            3 
  490000    1.1732676   -7.2775654    177.29567  0.030152324  0.030697057            2 
  491000    1.1981253    -7.309442    178.88371   0.03036044  0.030693274            4 
  492000    1.1880832   -7.3419729    178.77445  0.030280225  0.030689324            1 
  493000    1.1834572   -7.3100086    179.56199  0.030351926  0.030685616            1 
  494000    1.1479044   -7.3598492    179.14834  0.030220705  0.030682537            2 
  495000    1.1864659    -7.315015    180.65652  0.030413556  0.030678962       -1e+20 
  496000     1.195519   -7.3264497    180.36741  0.030303664  0.030676395            3 
  497000    1.1655926   -7.3657194    180.43696  0.030254352  0.030673112            2 
  498000    1.1613578   -7.3252497    181.50203  0.030371826  0.030669717            1 
  499000    1.1595012   -7.3191927    181.41054  0.030295681  0.030665962            5 
  500000    1.1689794   -7.3380516     181.2879   0.03021465   0.03066179            2 
  501000    1.1721212   -7.3124251    182.12629  0.030293794  0.030657731            2 
  502000    1.1953927   -7.3330452    182.08896  0.030227252  0.030653399            1 
  503000    1.2054934   -7.3230464     183.2062  0.030352253  0.030649241            1 
  504000    1.1717881   -7.3372992    183.58602  0.030354831  0.030645813            2 
  505000    1.1846741   -7.3249231    183.25259  0.030239701  0.030642279            1 
  506000    1.1849063   -7.3619775    183.03124  0.030143485  0.030637922            6 
  507000    1.2053149   -7.3171561    183.90788   0.03022812  0.030634004            1 
  508000    1.1804588   -7.3414565    184.75306   0.03030726  0.030630269            1 
  509000    1.1561771   -7.3735337     184.5087  0.030207711   0.03062614            3 
  510000    1.1632704   -7.3404639    184.95093  0.030220741  0.030621896            3 
  511000    1.1695321    -7.313951    185.03303  0.030174989  0.030618192            1 
  512000    1.1790425    -7.341542     185.5024  0.030192448  0.030614096            2 
  513000    1.1680684   -7.3352796     186.2009  0.030247059  0.030609669            2 
  514000    1.1788462   -7.3070902    186.62588  0.030257114  0.030605321            3 
  515000    1.1838837   -7.3229531    186.39255  0.030160608  0.030600414            1 
  516000    1.1781347   -7.2920428      187.087  0.030214309  0.030595709            1 
  517000    1.1560446    -7.272675    187.70145  0.030254907  0.030591134            2 
  518000    1.1802925   -7.3668672    187.11003  0.030101356  0.030586442            2 
  519000    1.1537371   -7.3517008    187.33424  0.030079358  0.030581601            2 
  520000     1.151949   -7.3025867    188.17674  0.030156529  0.030577025            2 
  521000    1.1626826   -7.3315467    187.82007  0.030041597  0.030571702            2 
  522000    1.1726608   -7.3555053     188.5979  0.030108222  0.030566132            1 
  523000    1.1745438   -7.2950682    189.53341  0.030199715  0.030560906            1 
  524000    1.1777533   -7.3306233    188.61744  0.029996412  0.030555995            3 
  525000    1.1654684   -7.3253722      189.472   0.03007492  0.030550536            5 
  526000    1.1723829   -7.3318626    189.74994  0.030061778  0.030545891            2 
  527000    1.1880924   -7.3715544    190.23187  0.030080941  0.030541192            1 
  528000    1.1923083   -7.3275867    190.86232  0.030123473  0.030536155            4 
  529000    1.1544689   -7.3329953    190.66885  0.030036051  0.030531512            3 
  530000    1.1669118   -7.3641767    190.59459  0.029967702  0.030526452            4 
  531000    1.1929546   -7.3506965    191.27769   0.03001847  0.030521501            2 
  532000    1.1654172   -7.3412919    192.04674   0.03008251  0.030516181            2 
  533000    1.1628356      -7.3457     192.4906  0.030095466   0.03051113            3 
  534000    1.1560803   -7.3183801    192.77652  0.030083726  0.030506605            2 
  535000    1.1639385   -7.3043521    193.94501  0.030209504  0.030502278            4 
  536000    1.1662096   -7.3997872    192.96992  0.030001542  0.030497231            3 
  537000    1.1604273   -7.3516807     193.3575  0.030005819  0.030492329            3 
  538000    1.1697547   -7.3645502    194.14527  0.030072068   0.03048726            1 
  539000     1.182002   -7.3390371    194.21025  0.030026321  0.030481637            1 
  540000    1.1482954   -7.3319484    194.37638  0.029996355  0.030476213            1 
  541000    1.1517055   -7.3593082    194.66365  0.029985159  0.030470663            1 
  542000     1.143397   -7.3470964    194.88912  0.029964502  0.030463943            2 
  543000     1.158279   -7.3428692    194.67698  0.029876762  0.030457894            1 
  544000    1.1726718   -7.3183107    195.54794   0.02995526  0.030451795            1 
  545000    1.1780189     -7.33424    196.24835  0.030007393  0.030446421            4 
  546000    1.1444012   -7.3542936    196.60067  0.030006207  0.030441087            2 
  547000     1.155889   -7.3051024    196.74474  0.029973299  0.030435319            2 
  548000    1.1695748   -7.3600167    197.11159  0.029974391  0.030429647            2 
  549000    1.1448507   -7.3647089    197.47318  0.029974678  0.030424044            2 
  550000    1.1765326   -7.3584757    197.21805  0.029881523  0.030418212            4 
  551000    1.1841898   -7.3580277    197.81008   0.02991683  0.030412376            2 
  552000    1.1582789   -7.3576506    198.45289  0.029959676   0.03040657            1 
  553000    1.1722296   -7.3392477    199.08678  0.030001022  0.030400821            4 
  554000    1.1543794   -7.2901075     199.2577  0.029972579   0.03039552            1 
  555000    1.1503854   -7.3872145    198.94184  0.029871146  0.030390055            3 
  556000    1.1543624   -7.3519164    199.37396  0.029882188  0.030383547            1 
  557000    1.1404387   -7.3311285    198.85005  0.029750157  0.030376911            3 
  558000    1.1525155   -7.3347883    199.91916  0.029856506  0.030369896            3 
  559000    1.1596909   -7.3907993    198.72935  0.029625722  0.030362635            4 
  560000    1.1511577   -7.3252177    199.84105  0.029738252  0.030355253            1 
  561000    1.1322458   -7.3820466      199.596  0.029648841   0.03034752            2 
  562000    1.1603565   -7.3544653    200.41818  0.029717999  0.030339904            3 
  563000    1.1734016   -7.4049535    200.07328  0.029614163   0.03033213            2 
  564000    1.1582974   -7.3485083    200.58408  0.029637128  0.030323994            4 
  565000    1.1488882   -7.3881864    200.82314  0.029619933  0.030315587            4 
  566000    1.1735073   -7.3748528    201.13666   0.02961376   0.03030775            1 
  567000    1.1743664   -7.3802534    201.53763  0.029620463  0.030299509            1 
  568000    1.1504555   -7.3600922    201.80812  0.029607999   0.03029151            1 
  569000    1.1623127   -7.3198898    202.90026  0.029715914  0.030283849            2 
  570000    1.1567753   -7.3526348    202.70391  0.029635075   0.03027639            5 
  571000    1.1389727    -7.329037     203.7125  0.029730371   0.03026889            9 
  572000    1.1629899   -7.3525578    203.17718  0.029600405  0.030261557            5 
  573000    1.1571911   -7.3475943    203.62131  0.029613337  0.030253717            2 
  574000    1.1873492   -7.3877558    203.62435  0.029562188  0.030245937            3 
  575000     1.146669   -7.3354894    204.47868  0.029634591  0.030238035            1 
  576000    1.1477909   -7.3563756    204.70973   0.02961657  0.030230249            1 
  577000    1.1767793   -7.3126809    204.93345  0.029597552  0.030222589            3 
  578000    1.1673354   -7.3438818    204.97587  0.029552461  0.030215056            2 
  579000    1.1483558    -7.327604    205.56665   0.02958645  0.030207212            1 
  580000    1.1661492   -7.3509402    205.63511  0.029545274   0.03019937            3 
  581000    1.1353951   -7.3921961    205.31178  0.029448047  0.030191222            2 
  582000    1.1708706   -7.3494953    206.63288   0.02958661  0.030183279            2 
  583000    1.1567369   -7.3403497    206.43417  0.029507457  0.030175151            1 
  584000    1.1521782   -7.3801886    206.48282  0.029463872  0.030166797            2 
  585000    1.1615908   -7.3783281     207.2542  0.029523391  0.030158613            2 
  586000    1.1677763   -7.3670336    207.80413  0.029551213  0.030150619            2 
  587000    1.1301335   -7.3608104    208.15147  0.029550181  0.030143019            1 
  588000    1.1423589   -7.3933854    208.15079  0.029499828   0.03013554            1 
  589000     1.164119   -7.3348896    208.56298  0.029508062  0.030128397            3 
  590000    1.1580644   -7.3767523    209.45315  0.029583779  0.030121387            1 
  591000    1.1257107   -7.4213845    209.09735  0.029483552  0.030114279            4 
  592000    1.1540275   -7.4060968    208.98643  0.029418135   0.03010657            3 
  593000    1.1425805   -7.3393545    210.28149  0.029550518  0.030099186            1 
  594000    1.1686914   -7.4031209    209.84031  0.029438876  0.030092152            2 
  595000    1.1480974   -7.3697854    210.98194  0.029549291  0.030085218            1 
  596000    1.1660994   -7.3445244    211.29795  0.029543897  0.030078331            1 
  597000     1.126138     -7.36713    211.23925  0.029486216  0.030071394            4 
  598000     1.160925    -7.350358    213.00012  0.029682291   0.03006474            3 
  599000    1.1613656   -7.4081582    212.69126  0.029589769  0.030058501            1 
  600000    1.1440029   -7.3624747    212.55106   0.02952098  0.030052334            2 
  601000    1.1506261   -7.3729135    213.54352  0.029609473  0.030046098            1 
  602000    1.1760917   -7.3630743    213.65507  0.029575729   0.03004023            2 
  603000    1.1345466   -7.3621026     214.4876  0.029641736  0.030034554            1 
  604000    1.1571516   -7.3165939    215.16922  0.029686702  0.030028737            1 
  605000    1.1640241   -7.3597438    214.73123  0.029577305  0.030023415            1 
  606000    1.1471677   -7.3810824    214.91634  0.029553952   0.03001768            1 
  607000    1.1450178   -7.3852127    215.19274   0.02954321    0.0300116            1 
  608000    1.1571488   -7.3137279    217.04733  0.029748812  0.030005986            1 
  609000    1.1560643   -7.3762236    216.74488  0.029658577  0.030000532            1 
  610000    1.1709749   -7.3415689    217.25811   0.02968007  0.029994971            1 
  611000    1.1752099   -7.3104899    217.93845  0.029724283  0.029989519            3 
  612000    1.1770388    -7.354069    216.94793   0.02954084  0.029983346           11 
  613000    1.1739072   -7.3920245    217.36222  0.029548969  0.029977428            4 
  614000    1.1646229   -7.4119705    217.67103  0.029542757  0.029971449            5 
  615000    1.1778436   -7.3392053    218.13846  0.029558057  0.029965529            6 
  616000    1.1566392   -7.3909322    217.98621  0.029489476  0.029959409            4 
  617000    1.1568916   -7.4224773    217.80395  0.029417064  0.029953167            1 
  618000    1.1549155   -7.3745956    219.35534  0.029578659  0.029946652            2 
  619000      1.12838   -7.3755845     219.6028  0.029564189  0.029940425            2 
  620000    1.1643991   -7.4007574    219.03826  0.029440627  0.029934045            2 
  621000    1.1465709   -7.3342908    219.55628  0.029462732  0.029927954            3 
  622000       1.1516   -7.3956077    220.13841  0.029493357   0.02992201            2 
  623000    1.1607316   -7.3775795    220.26317  0.029462704  0.029915707            1 
  624000    1.1589186    -7.379662    219.67529  0.029336978  0.029909599            5 
  625000    1.1487465   -7.3431238    221.01393  0.029468524  0.029903024            1 
  626000    1.1942604   -7.3631689     221.4695  0.029482095  0.029896767            2 
  627000    1.1500199   -7.3807237    221.09229   0.02938494  0.029889998            3 
  628000    1.1361925   -7.3659048    221.97597   0.02945541  0.029882861            2 
  629000    1.1436242   -7.4064326    221.94468  0.029404436   0.02987614            2 
  630000    1.1310002   -7.3773383    223.21886  0.029526305   0.02986983            1 
  631000    1.1480287   -7.3592039    222.66442  0.029406289  0.029863668            1 
  632000    1.1286531   -7.4063829    222.52982  0.029342012  0.029857476            2 
  633000       1.1472   -7.4074754    222.65576  0.029312238  0.029850623            4 
  634000    1.1415451   -7.3963211    223.07823  0.029321534  0.029843808            5 
  635000    1.1568626   -7.4089936    223.77542  0.029366853  0.029837331            1 
  636000    1.0944512   -7.4100533    224.18227  0.029373988  0.029830484            3 
  637000    1.1680967   -7.3837296     224.2357  0.029334864  0.029823747            2 
  638000    1.1570691   -7.3994453    224.48104   0.02932093  0.029817116            2 
  639000    1.1301254   -7.3610242    225.54165  0.029413361  0.029810765            2 
  640000    1.1413119   -7.3794441    225.24883  0.029329275  0.029804224            4 
  641000    1.1407809   -7.3791637    225.52854  0.029319884  0.029797593            2 
  642000    1.1046577   -7.3924192    225.91317   0.02932414  0.029791353            1 
  643000    1.1535418   -7.3792086    226.76382   0.02938878  0.029784972            2 
  644000    1.1304068   -7.3756497    226.49085  0.029307822  0.029778516            1 
  645000    1.1350697   -7.4065895    226.15949  0.029219572  0.029771558            2 
  646000    1.1690677   -7.3787329    227.29262  0.029320513  0.029764957            2 
  647000    1.1294828   -7.4223362     226.8569  0.029219075  0.029757904            1 
  648000    1.1384408   -7.4168111    226.46909  0.029124111  0.029750637            2 
  649000    1.1490946   -7.3846803    228.22251   0.02930438  0.029743694            3 
  650000    1.1510034   -7.3914569    227.41461  0.029155719  0.029736472            1 
  651000    1.1574509   -7.4085409    227.80536  0.029160952  0.029728859            2 
  652000    1.1434906   -7.3777336     229.1787  0.029291756  0.029721583            2 
  653000    1.1378659   -7.3609523    229.13558  0.029241397  0.029714126            2 
  654000    1.1604563   -7.3687131    228.85943  0.029161497  0.029706421            1 
  655000    1.1622495   -7.3855392    229.13144  0.029151583  0.029698543            1 
  656000    1.1434484   -7.3986095    229.42209  0.029144066  0.029690954            3 
  657000    1.1408191    -7.364851    230.00376  0.029173485   0.02968353            1 
  658000    1.1431164    -7.410584    229.70019  0.029090702  0.029676146            2 
  659000    1.1424821   -7.4324144    230.32243  0.029125244  0.029668644            2 
  660000     1.175668   -7.4218553    230.85289  0.029148092  0.029661261            5 
  661000    1.1368589   -7.4155167    231.27647  0.029157396  0.029654075            4 
  662000    1.1636149   -7.4067403    230.76601  0.029049094  0.029646463            3 
  663000    1.1549771   -7.3999823    231.68882  0.029121269   0.02963946            2 
  664000    1.1401308   -7.4496286    231.44079  0.029046284  0.029631592            2 
  665000    1.1496496   -7.3715673    231.67108  0.029031464  0.029623703            1 
  666000    1.1329014   -7.3905195    233.19435  0.029178472  0.029615839            2 
  667000    1.1311998   -7.4166948    232.43186  0.029039463  0.029608345            2 
  668000    1.1277493   -7.4259209    232.50998  0.029005736  0.029600766            2 
  669000     1.127572   -7.4060693    232.97586  0.029020412  0.029593115            2 
  670000      1.11252   -7.4139823    234.14565  0.029122593  0.029585463            2 
  671000    1.1309844   -7.4250604    233.92061  0.029051243  0.029577888            1 
  672000    1.1586947   -7.3934504    234.43702   0.02907205  0.029570662            3 
  673000     1.149754   -7.4127453    234.30834   0.02901292  0.029563468            6 
  674000    1.1278506   -7.3893173    234.63728  0.029010544  0.029556251            1 
  675000    1.1291677   -7.3895794    236.08727  0.029146577  0.029549267            2 
  676000    1.1267167   -7.4522921    235.22177  0.028996766  0.029542124            3 
  677000    1.1243425   -7.4263911    236.80416  0.029148715   0.02953502            2 
  678000    1.1641284   -7.4093225    236.28699  0.029042157  0.029527931            1 
  679000    1.1524967    -7.339344    236.66105  0.029045293  0.029521013            3 
  680000    1.1476932    -7.355217    236.99391  0.029043372  0.029514079            2 
  681000    1.1571894   -7.4286286    236.87626  0.028986326  0.029506568            2 
  682000    1.1359919   -7.3565968    237.60391  0.029032736  0.029499403            1 
  683000    1.1527954   -7.3801351    237.74196  0.029007072  0.029492199            2 
  684000    1.1668241   -7.4428229    236.62387  0.028828444  0.029484716            1 
  685000    1.1375994   -7.4110125    237.50502  0.028893554  0.029476995            3 
  686000    1.1370787   -7.4158898    238.15188  0.028930014  0.029469634            4 
  687000     1.119713   -7.4329498    238.25543  0.028900464  0.029462279            1 
  688000     1.141425    -7.404488     239.0002  0.028948667  0.029455061            1 
  689000    1.1361691   -7.3949511    240.55641  0.029094872   0.02944806            2 
  690000    1.1182121   -7.4178587    239.98019  0.028983114  0.029440806            1 
  691000    1.1178774   -7.4183454    239.91703  0.028933554  0.029433389            2 
  692000    1.1490813   -7.4325884    239.42143  0.028832061  0.029425983            1 
  693000    1.1429555   -7.3965532    241.17082   0.02900082  0.029418654            1 
  694000    1.1613436   -7.3983225     241.8832  0.029044573  0.029411834            2 
  695000    1.1425052    -7.347997    241.83824   0.02899739  0.029404862            1 
  696000    1.1338778   -7.3823654    241.61079  0.028928495  0.029398151            3 
  697000    1.1545688   -7.4606378    241.21372  0.028839517   0.02939115            3 
  698000    1.1291398   -7.4228118     242.5433  0.028956937   0.02938425            8 
  699000    1.1530827   -7.3976693    242.79557  0.028945586  0.029377365            2 
  700000    1.1326361   -7.4459517    243.32294  0.028967016  0.029370421            1 
  701000    1.1451535   -7.4430848    243.53692  0.028951131  0.029363849            5 
  702000    1.1533825   -7.3948476    243.73883  0.028933859  0.029357234            2 
  703000    1.1518282   -7.4187833    243.52324  0.028867145  0.029350593            2 
  704000    1.1507054   -7.3659587    244.70893  0.028966492  0.029343969            1 
  705000    1.1420219   -7.4025371      244.101  0.028853546  0.029337491            2 
  706000     1.123633   -7.3717906    244.73077  0.028887013  0.029330736            1 
  707000    1.1798211    -7.351006     245.5343  0.028940865  0.029324239            3 
  708000    1.1119539   -7.3524996    246.06428  0.028962369  0.029317808            3 
  709000    1.1077053   -7.3989604    246.47802  0.028970148  0.029310887            1 
  710000      1.13871   -7.4077515    246.22352  0.028899474   0.02930405            3 
  711000    1.1140986   -7.3699784    247.48563  0.029006755  0.029297794            4 
  712000    1.1220088   -7.4018872    246.76562  0.028881744  0.029291542            1 
  713000    1.1494847   -7.4184437    247.32677  0.028906823  0.029284745            2 
  714000    1.1293709   -7.4027919    248.00563  0.028945568  0.029278293            2 
  715000    1.1164974   -7.4159793    247.41881  0.028836692  0.029271582            1 
  716000    1.1411984   -7.4130146     248.9492  0.028974534  0.029264909            1 
  717000    1.1500222   -7.4038464    248.91458    0.0289301  0.029258392            1 
  718000    1.1235337   -7.4522568    248.02757  0.028786858  0.029252086            4 
  719000    1.1110446   -7.4143212    249.67644  0.028937927  0.029245431            3 
  720000    1.1520102   -7.4056198    249.10523  0.028831624  0.029239007            1 
  721000     1.139119   -7.4005237    250.04093  0.028899784  0.029232318            2 
  722000    1.1638281   -7.4336851    249.42966  0.028789204  0.029225909            1 
  723000    1.1492314   -7.4279878    250.04622  0.028820449  0.029219444            2 
  724000    1.1335758   -7.4006915    250.39277  0.028820531  0.029212876            1 
  725000    1.1223413   -7.3995527    251.56779  0.028915838   0.02920623            5 
  726000     1.144962   -7.3895265    251.30152  0.028845445  0.029199575            3 
  727000    1.1364639   -7.4523008    250.54505  0.028719056  0.029192789            2 
  728000    1.1455454   -7.4299957    251.00395  0.028732137   0.02918589            1 
  729000    1.1311829   -7.4306656    251.54853  0.028754976  0.029179027            1 
  730000     1.130013   -7.3485956    252.48068  0.028821996  0.029171875            2 
  731000    1.1217718   -7.4319456    250.99193  0.028612851  0.029164807            3 
  732000    1.1174402   -7.3981387    251.88941  0.028675935  0.029157291            2 
  733000    1.1195678    -7.404281    252.31262  0.028684928  0.029149806            5 
  734000    1.1384344    -7.390695     252.7942  0.028700522  0.029142583            3 
  735000    1.1163161   -7.4048896    253.53879  0.028745894  0.029134824            1 
  736000    1.1452999   -7.4205859    252.70363  0.028612277  0.029127153            2 
  737000    1.1358989   -7.4017848    253.45679  0.028658615  0.029119356            2 
  738000    1.1060716   -7.4314168    253.23687  0.028594949  0.029111773            2 
  739000    1.1390051   -7.4419614    253.26233  0.028559126  0.029104136            3 
  740000    1.1280345    -7.443944    254.40257  0.028648938  0.029096349            2 
  741000    1.1435315   -7.4100049    254.47964  0.028618942  0.029088755            1 
  742000    1.1061919   -7.4023729     254.7461  0.028610298  0.029081031            2 
  743000     1.144546   -7.4565284    253.77873  0.028463294  0.029073294            3 
  744000    1.1280551    -7.408559    254.23028  0.028475613  0.029065195            1 
  745000    1.1720851   -7.3783899     254.9257  0.028515179  0.029056762            1 
  746000    1.1370801   -7.4108851    255.04907  0.028490736   0.02904793            2 
  747000    1.0916712   -7.4148744       255.14   0.02846274  0.029039163            4 
  748000    1.1173397   -7.4058289    255.39526  0.028453126  0.029030338            2 
  749000    1.1492697    -7.430285    254.98059  0.028369002   0.02902143            2 
  750000    1.1457674   -7.4069936    255.67825  0.028408694  0.029012958            6 
  751000    1.1184732   -7.4535375    255.94302  0.028400246  0.029004437            2 
  752000      1.13717   -7.3837019    255.90045  0.028357762  0.028995784            2 
  753000    1.1356659   -7.4445652    255.69807  0.028297705  0.028987063            1 
  754000    1.1279386   -7.4252544    257.24628  0.028431286  0.028978461            2 
  755000    1.1315523   -7.4534127    256.02282  0.028258589  0.028969932            1 
  756000    1.1444359   -7.4258293     257.1975  0.028350694  0.028961349            2 
  757000    1.1648041   -7.4565353    257.33606  0.028328497  0.028952544            2 
  758000    1.1531107   -7.3951827    258.02422  0.028366779  0.028943878            3 
  759000    1.1446976   -7.4256407    258.30638  0.028360385  0.028935314            2 
  760000    1.1159557   -7.4470591    257.43452   0.02822747  0.028926757            6 
  761000    1.1133534   -7.3835708     259.2659  0.028390922  0.028918162            3 
  762000    1.1474087   -7.4166115    259.39759  0.028368066  0.028909845            2 
  763000    1.1130172    -7.452917    258.79464  0.028265032  0.028901469            2 
  764000    1.1210653   -7.4340732    259.63779  0.028320004  0.028893049            1 
  765000    1.1277965    -7.403146     259.7556  0.028295817  0.028884628            2 
  766000    1.1420538    -7.435892    259.38607  0.028218676  0.028876262            2 
  767000    1.1215146   -7.4344946    259.99964  0.028248548  0.028868019            2 
  768000    1.1329876   -7.4314232    261.09218  0.028330315  0.028859575            1 
  769000    1.1298068   -7.4333308    260.16225  0.028192702  0.028850907       -1e+20 
  770000    1.1445989   -7.4666056    260.69967   0.02821425  0.028842205            2 
  771000    1.1366802   -7.4079506    261.68146  0.028283772  0.028833879            2 
  772000     1.120213   -7.4349957    261.38021  0.028214617  0.028825394            2 
  773000     1.110187   -7.4395476     261.9971  0.028244621  0.028816712            2 
  774000     1.137454   -7.4325108    262.04423  0.028213204  0.028807792            2 
  775000    1.1380268   -7.4833814    261.21543  0.028087681  0.028799142            4 
  776000    1.1197569     -7.44109    262.37636  0.028176155  0.028790428            2 
  777000    1.1230968   -7.4214255    262.95419  0.028201865  0.028781656            5 
  778000    1.1230846   -7.4316149    263.21227   0.02819326  0.028773022            2 
  779000    1.1518916   -7.4740696    262.91887  0.028125682  0.028764003            1 
  780000    1.1350089    -7.411418    264.54283  0.028263123  0.028755209            3 
  781000    1.1236752   -7.4077929    264.34665  0.028206002  0.028746647            2 
  782000    1.1357126   -7.4403186    264.27584  0.028162387  0.028738227            1 
  783000    1.1297104   -7.4177272    265.18067  0.028222719  0.028729822            2 
  784000    1.1103498   -7.4524755    264.74233  0.028140129  0.028721572            4 
  785000     1.138464   -7.4789383    265.59811  0.028195129  0.028713115            3 
  786000    1.1167044   -7.4288024    266.03439  0.028205513  0.028704757            4 
  787000    1.1256073   -7.4894461    266.37285  0.028205511  0.028696741            2 
  788000    1.1334186    -7.424036     266.6163  0.028195464  0.028688673            2 
  789000    1.0836099   -7.4052493    267.29245  0.028231142  0.028680734            1 
  790000    1.1350664    -7.503417    267.20811   0.02818651  0.028672463            2 
  791000    1.0990935   -7.4482322    267.63499  0.028195848  0.028664304            1 
  792000     1.116464   -7.4526936    266.90929   0.02808389  0.028656124            3 
  793000     1.101392   -7.4577746    267.24198  0.028083436  0.028647612            2 
  794000    1.1312485   -7.4172715    268.03338  0.028131127  0.028639339            1 
  795000    1.1452258   -7.4365478    268.74844  0.028170696  0.028630993            2 
  796000    1.1111612   -7.4365822    269.02791  0.028164564  0.028622708            2 
  797000    1.1252046   -7.4498626     269.3573  0.028163666  0.028614652            3 
  798000    1.1422796   -7.4269734    269.42745  0.028135699  0.028606535            2 
  799000    1.1267225   -7.4480674     269.4156  0.028099249  0.028598388            3 
  800000    1.1346835   -7.4297859    269.38939  0.028061395  0.028589963            3 
  801000    1.1301361   -7.4380515    269.62442  0.028050813   0.02858156            2 
  802000    1.1300074   -7.4375289    270.90244  0.028148633  0.028573381            3 
  803000    1.1160209   -7.4520594    270.30397  0.028051471  0.028565054            3 
  804000    1.1183786   -7.4247164    271.07483  0.028096479  0.028556877            3 
  805000    1.0942401   -7.4887935    270.09132  0.027959764   0.02854819            1 
  806000    1.1538495   -7.4422269    270.65968  0.027983838   0.02853961            3 
  807000    1.1280444   -7.4235334    271.70616  0.028057225  0.028531193            3 
  808000    1.0899889     -7.45986    271.21181  0.027971516  0.028522712            2 
  809000    1.1146596   -7.4384573    271.71151  0.027988413  0.028514072            2 
  810000    1.1404259   -7.4440915    271.68871  0.027951514  0.028505597            2 
  811000     1.117705   -7.4512495    271.47155  0.027894734  0.028496509            4 
  812000    1.1470627   -7.4441783    271.81992  0.027896133  0.028487645            1 
  813000     1.117474   -7.4303359    272.37422  0.027918636  0.028478974            2 
  814000    1.1312062   -7.4432542    272.08487  0.027854716  0.028470172            2 
  815000    1.1233639   -7.4560347    272.49929  0.027862913  0.028461296            2 
  816000     1.125945   -7.4472721    273.33539  0.027914153  0.028452382            1 
  817000    1.1201116    -7.456084     273.0398  0.027849837  0.028443542            3 
  818000    1.1534079   -7.4879979    273.02769  0.027814557  0.028435034            3 
  819000    1.1007323   -7.4615298    273.96509  0.027875976  0.028426473            2 
  820000    1.1133891   -7.4537699    274.60239  0.027906747  0.028418331            2 
  821000    1.1416396   -7.4505631    274.58729  0.027871223  0.028410044            2 
  822000    1.1250212   -7.4755965    275.20411  0.027899848  0.028401769            1 
  823000    1.0896923   -7.4438478    275.30594   0.02787626  0.028393434            2 
  824000    1.1204566   -7.4462726    275.60956  0.027873135  0.028385162            3 
  825000    1.1298037   -7.4900349    276.39924  0.027919116  0.028377067            1 
  826000    1.1339472   -7.4381925    276.06403  0.027851496  0.028368684       -1e+20 
  827000    1.1501971   -7.4209976    276.60094  0.027871921  0.028360393            2 
  828000    1.1354848   -7.4767232    276.24384  0.027802319  0.028352054            1 
  829000    1.1591795   -7.4953832    275.93043  0.027737277  0.028343883            1 
  830000    1.1333428   -7.4414069    278.20844  0.027932575  0.028335701            2 
  831000    1.1313767   -7.4528831    278.57177  0.027935396   0.02832742            2 
  832000    1.1109694    -7.475999     277.4636  0.027790825  0.028319103            4 
  833000    1.1075957    -7.484996    278.29532  0.027840668  0.028310969            2 
  834000    1.1402671   -7.4453153    279.01109  0.027878806  0.028302798            4 
  835000    1.1269143   -7.4220667    279.01484  0.027845793  0.028295092            4 
  836000    1.1378122   -7.4715952    279.73955  0.027884724  0.028287337            2 
  837000    1.1219338   -7.4675328    278.99663  0.027777442  0.028279538            2 
  838000    1.1053005   -7.4657655     279.8709  0.027831235   0.02827182            3 
  839000    1.0919285   -7.4133564    280.54424  0.027864942  0.028264317            2 
  840000    1.1082305   -7.4526939    281.20257   0.02789708  0.028256904            2 
  841000    1.1189077   -7.4504519    281.09223  0.027852975  0.028249444            1 
  842000    1.1393794   -7.4555802    281.99919  0.027909659  0.028242028            2 
  843000    1.1105548   -7.4451575    282.27319  0.027903637  0.028234843            3 
  844000    1.1037957    -7.439772    282.93088  0.027935514  0.028227594            1 
  845000    1.1024034   -7.4439779    281.72391  0.027783423  0.028220267            2 
  846000    1.1313088   -7.4933376     282.2652    0.0278039   0.02821274            3 
  847000    1.1314902   -7.4890578    282.50833  0.027794995  0.028205077            2 
  848000    1.1323706   -7.5021072    282.74303  0.027785282  0.028197332            1 
  849000    1.1064123   -7.4481467    283.70741  0.027847214  0.028189642            2 
  850000    1.1076076   -7.4555507    283.04605  0.027749612  0.028182336            3 
  851000    1.0955101   -7.4751554    283.28047   0.02773996  0.028174641            2 
  852000    1.1170736   -7.4331683    284.25871  0.027803081  0.028167085            1 
  853000    1.0995592   -7.4962317    284.73783  0.027817295  0.028159496            1 
  854000    1.1278809   -7.4488577    284.25587  0.027737692  0.028151786            1 
  855000    1.1113549   -7.4485092    284.94105  0.027772032  0.028143937            5 
  856000    1.1222283   -7.4434517    285.04276   0.02774949  0.028136516            2 
  857000    1.1242547   -7.4465339    284.99992  0.027712944   0.02812923            5 
  858000    1.1126135   -7.4614927    285.67997  0.027746695  0.028121702            4 
  859000    1.0930121   -7.4398786     285.4467  0.027691763  0.028114101            2 
  860000    1.1219527   -7.4732832    286.11437   0.02772426  0.028106509            1 
  861000    1.1473592   -7.4965373    285.60074  0.027642348  0.028098927            2 
  862000    1.0910845   -7.4828789    287.50901  0.027794761  0.028091208            1 
  863000     1.120413   -7.4291826      287.595  0.027770857  0.028083362            3 
  864000    1.1062095    -7.470721    288.15723  0.027792943  0.028076009            2 
  865000    1.1126403   -7.4631217    288.05057  0.027750536  0.028068633            2 
  866000    1.1167762    -7.488186    287.58862   0.02767404  0.028061455            2 
  867000    1.1303239   -7.4522717    288.95113  0.027773081  0.028054078            2 
  868000    1.1117765   -7.5012817     287.8636  0.027636674  0.028046592            2 
  869000    1.1050245   -7.5155932    288.38465  0.027654838  0.028039181            1 
  870000    1.1073914   -7.4807829    290.18813  0.027795797  0.028031798            3 
  871000    1.1444871   -7.4536062    288.80018  0.027631092  0.028024408            2 
  872000     1.097557   -7.4337549    289.46115  0.027662571  0.028016687            1 
  873000    1.1054004   -7.4867094    289.65158  0.027649062  0.028009157            4 
  874000    1.1190318   -7.4618209    289.61592  0.027614028  0.028001688            4 
  875000    1.1016137   -7.4639862     290.8429  0.027699324  0.027994201            1 
  876000    1.0927944   -7.4792805    289.61544  0.027550936  0.027986932            1 
  877000    1.1290898   -7.4604001    291.40124   0.02768921  0.027979627            2 
  878000    1.0977658   -7.4703253    292.70935  0.027781829  0.027972105            1 
  879000     1.118658   -7.4841737    291.93668   0.02767697  0.027965393            3 
  880000     1.117428   -7.4565107    292.75846  0.027723339  0.027958773            1 
  881000    1.0988902   -7.4929935    292.94643  0.027709651  0.027952492            3 
  882000    1.1030149   -7.4648844    292.97831  0.027681246  0.027946106            2 
  883000     1.119123   -7.4678199    293.98835   0.02774522  0.027939737            2 
  884000    1.0920869   -7.4791903    292.99664  0.027620347  0.027933134            2 
  885000    1.0979965   -7.4695779     294.2744  0.027709454  0.027926557            2 
  886000    1.1027933    -7.478989    293.53856  0.027608969  0.027920183            1 
  887000    1.0973365    -7.500305     293.6807  0.027591197  0.027913244            1 
  888000    1.1186563   -7.4881909    294.93563  0.027677893  0.027906387            1 
  889000    1.1030303    -7.487242    295.10275  0.027662425  0.027899378            3 
  890000    1.1242031    -7.474356     295.4024    0.0276594  0.027892588            2 
  891000    1.1068691   -7.4996952    295.26473  0.027615481  0.027885715            2 
  892000    1.1159647   -7.4357141      295.961   0.02764957  0.027878795            2 
  893000    1.1159362   -7.4743387    295.91328  0.027614154  0.027871884            1 
  894000    1.1421179   -7.4465159    296.03258  0.027594387  0.027864814            1 
  895000    1.1072449   -7.4659841    295.95291  0.027556137  0.027857714            2 
  896000    1.1149659   -7.4694746    296.02731  0.027532302  0.027850559            2 
  897000    1.1170318    -7.458271    296.68047  0.027562288  0.027843602            1 
  898000    1.0993236   -7.4397861    296.88249  0.027550342   0.02783642            4 
  899000    1.0935401   -7.4652392     297.5295  0.027579672  0.027829395            3 
  900000     1.120736   -7.4704291     297.3217  0.027529787  0.027822611            2 
  901000    1.1035926   -7.4586113     298.1643  0.027577164  0.027815851            2 
  902000    1.0938178   -7.4852503    296.96135  0.027435453  0.027808554            3 
  903000    1.0837679   -7.4676775    298.26899  0.027525747   0.02780158            1 
  904000     1.083717   -7.4747859    297.81544  0.027453488  0.027794384            2 
  905000    1.1300616   -7.5207969    297.31722  0.027377277  0.027787037            2 
  906000     1.085843    -7.501128    298.17299  0.027425772  0.027779575            2 
  907000    1.1133545   -7.5236278    297.69885  0.027351971  0.027772247            2 
  908000    1.1110457   -7.4500483    298.85146   0.02742763   0.02776477            1 
  909000    1.0997594    -7.465412    299.33436  0.027441727  0.027757543            3 
  910000    1.1175068   -7.4795278    299.50755  0.027427431  0.027750022            2 
  911000    1.1104927   -7.4704746    298.93406  0.027344865  0.027742793            3 
  912000     1.116211   -7.4647208    300.56313  0.027463736   0.02773559            4 
  913000    1.0889118   -7.4859356    300.48805  0.027426803  0.027728518            1 
  914000    1.1096792   -7.4556062     300.6998  0.027416101   0.02772105            3 
  915000    1.0852212   -7.4583341    301.62362  0.027470275   0.02771379            2 
  916000    1.0960727   -7.5114298     300.6772  0.027354185  0.027706805            1 
  917000    1.0822449   -7.4437056    302.79982   0.02751725  0.027699691            6 
  918000    1.0825378   -7.5006191    302.55006  0.027464602  0.027692475            4 
  919000    1.1161348   -7.5531799    301.29616  0.027321016   0.02768536            2 
  920000     1.115824   -7.4813206    302.53461  0.027403497  0.027678375            4 
  921000    1.0949209   -7.4858142    303.34507  0.027447075  0.027671278            2 
  922000    1.0805213   -7.5006288    302.86007   0.02737347  0.027664274            3 
  923000    1.1082281   -7.5323676    302.26676  0.027290246  0.027656885            1 
  924000    1.1070914   -7.4853322    304.29974   0.02744406  0.027649894            4 
  925000    1.0920669   -7.5176073    303.60891  0.027352154  0.027643097            2 
  926000    1.1360763   -7.4850157    304.15646  0.027371892  0.027636203            4 
  927000    1.1271245   -7.5122179    304.12342  0.027339394  0.027629533            2 
  928000    1.1028645   -7.5323205    303.96925  0.027296089  0.027622441            2 
  929000    1.1216796   -7.4695322    305.17416   0.02737479  0.027615307            2 
  930000    1.1107463   -7.4885444    305.20717  0.027348312   0.02760832            3 
  931000    1.1013958   -7.4759101    305.69907  0.027362967  0.027601509            1 
  932000    1.1184749   -7.4707641    306.91537  0.027442361   0.02759492            1 
  933000    1.0973705   -7.4902069    306.51516  0.027377203   0.02758813            3 
  934000    1.1220492   -7.4711232    306.30474  0.027329117  0.027581474            1 
  935000    1.0908094   -7.4831537    306.86034  0.027349406   0.02757488            2 
  936000    1.0831457   -7.5239776    307.07425  0.027339232  0.027568079            1 
  937000    1.1056655   -7.4856193    308.26578  0.027416025  0.027561211            2 
  938000    1.0893756    -7.476482    307.83673  0.027348679  0.027554501            2 
  939000     1.111714   -7.4935334    307.49398  0.027289135  0.027547796            1 
  940000    1.1008664   -7.5264141    307.74282  0.027282165  0.027540797            1 
  941000    1.1185614   -7.5133878    308.57269  0.027326664  0.027534017            2 
  942000    1.1160874   -7.4955161    308.20345   0.02726499  0.027527312            4 
  943000    1.0934896   -7.5177647    308.66108  0.027276518  0.027520464            1 
  944000    1.1022975   -7.4896026    308.80095  0.027259971  0.027513873            4 
  945000    1.1022992   -7.5053245    309.44012  0.027287489  0.027507197            5 
  946000    1.0725971   -7.4792094    310.14371  0.027320623  0.027500648            1 
  947000    1.1081873   -7.4624464    311.64914  0.027424247  0.027494405            2 
  948000    1.0631741   -7.4830017    310.64839  0.027307348  0.027488204            2 
  949000    1.1035186   -7.4811038     310.5322   0.02726837  0.027481796            6 
  950000    1.0914417   -7.5146306    310.77622  0.027261072  0.027475345            1 
  951000      1.08304   -7.4906536      310.851  0.027238959  0.027468711            1 
  952000    1.1146534   -7.5244795    312.09551  0.027319285  0.027462034            2 
  953000    1.1304974   -7.5589905    310.45238  0.027146938  0.027455303            1 
  954000    1.0992471   -7.5387893    311.14606  0.027179076  0.027448532            4 
  955000    1.1041783   -7.5255264    312.05162  0.027229635  0.027441934            2 
  956000    1.1149529   -7.4462878    313.12016  0.027294295  0.027435555            1 
  957000    1.1044932   -7.4753115     313.8555  0.027329806  0.027429353            3 
  958000    1.0829353   -7.4985271    313.14627  0.027239585  0.027423034            2 
  959000    1.1087617   -7.5058215    313.36477  0.027230168  0.027416726            3 
  960000    1.1101938   -7.4709057    314.69481  0.027317258  0.027410119            1 
  961000    1.0965091   -7.5035518    313.47809  0.027183323  0.027403742            2 
  962000    1.1001437   -7.4827215    314.03024  0.027202897  0.027397434            2 
  963000    1.0944117   -7.4893573    315.49523  0.027301422  0.027391266            2 
  964000    1.0781307   -7.4901129    315.68341  0.027289368  0.027384889            1 
  965000    1.0988126   -7.5356292    314.81642   0.02718622  0.027378675            2 
  966000    1.0920989   -7.5115998    315.82233  0.027244852  0.027372213            4 
  967000     1.099618   -7.5537979    315.69235  0.027205476  0.027365875            1 
  968000    1.0937415   -7.4941025    316.19274  0.027220449   0.02735949            1 
  969000    1.1130148   -7.5315914    316.06934  0.027181746  0.027353175            1 
  970000    1.1026656   -7.5447327     315.9025   0.02713939  0.027346654            3 
  971000    1.0909758   -7.5032303    316.62303  0.027173278  0.027340292            1 
  972000     1.101731   -7.5394354    316.37407  0.027123977  0.027333786            3 
  973000    1.0780659   -7.5010071    316.35019  0.027094055  0.027327274            1 
  974000    1.0996661   -7.5201184    317.13037  0.027132989  0.027320678            1 
  975000    1.1144963    -7.526656    317.51669  0.027138178  0.027314033            1 
  976000    1.0884779   -7.5293222    317.30741  0.027092504  0.027307431            2 
  977000    1.0798839   -7.5159072    316.72978  0.027015505  0.027300591            1 
  978000    1.0973399   -7.5475139    317.44142  0.027048519  0.027293691            1 
  979000    1.1361733   -7.5486567    316.81837  0.026967856  0.027286965       -1e+20 
  980000    1.1076588   -7.5371391    318.21188  0.027058834  0.027280105            2 
  981000    1.0995516   -7.5321823    319.12963  0.027109211  0.027273321            1 
  982000    1.1036994   -7.5231302    318.27334  0.027008939  0.027266391            1 
  983000    1.1121844   -7.5306151    317.51524  0.026917196  0.027259477            1 
  984000    1.0814796   -7.5281388    318.31208  0.026957324  0.027252587            2 
  985000    1.0962955   -7.5088235    318.71105   0.02696371  0.027245452            2 
  986000    1.1076733   -7.4968557    319.16761  0.026974951  0.027238457            3 
  987000     1.085039    -7.488334    320.33282     0.027046  0.027231524            2 
  988000     1.076026   -7.5057973    320.32285  0.027017784  0.027224452            2 
  989000     1.085107   -7.5060497    320.46452  0.027002403  0.027217499            1 
  990000    1.0929217   -7.4878224    320.24156   0.02695636   0.02721085            2 
  991000    1.0988458   -7.5054846     320.6985  0.026967583  0.027204052            2 
  992000    1.1057806   -7.5123804    321.02319  0.026967674  0.027197331            2 
  993000     1.090376   -7.5201289    320.53479  0.026899529  0.027190315            2 
  994000    1.1125058   -7.5127284    321.33567   0.02693961  0.027183187            3 
  995000      1.10461   -7.5347052    321.15861  0.026897706  0.027175952            2 
  996000    1.1192405   -7.5199331      322.114  0.026950636  0.027168922            2 
  997000    1.1090104   -7.5295066    322.31587  0.026940477  0.027161919            2 
  998000    1.0793308   -7.4996716    321.72469  0.026864119  0.027155104            2 
  999000     1.104354   -7.5045332    323.12778  0.026954269  0.027148011            2 
 1000000    1.0787511   -7.5613248    321.33091  0.026777576  0.027140774            2 
 1001000    1.1006794   -7.5240482    323.63079  0.026942291  0.027133492            2 
 1002000    1.0994351   -7.5164454    322.14107  0.026791506  0.027126211            2 
 1003000    1.0807403   -7.5376506    322.23689  0.026772756  0.027118889            1 
 1004000    1.0888734    -7.555392    322.04034  0.026729776  0.027111407            3 
 1005000    1.0681399   -7.5749229    323.49837  0.026824077  0.027103854            4 
 1006000    1.0794443   -7.5153924    323.23839  0.026775877  0.027096518            2 
 1007000     1.075076   -7.5313849     324.1475   0.02682452  0.027089294            4 
 1008000    1.0916714   -7.5508351    322.96978  0.026700544  0.027082108            3 
 1009000    1.1148117   -7.5771634    323.40544  0.026710063  0.027074847            2 
 1010000    1.0825528   -7.5518965    325.57278   0.02686244   0.02706742            1 
 1011000    1.1021759    -7.530823    324.81257  0.026773209  0.027059966            1 
 1012000    1.0666059   -7.5409916    324.11699  0.026689476  0.027052557            3 
 1013000     1.090727   -7.5080675    324.95299  0.026731901  0.027045097            1 
 1014000    1.0880044    -7.535566    325.16046  0.026722589  0.027037533            4 
 1015000    1.0851489   -7.5543968    324.42462  0.026635847  0.027030021            2 
 1016000    1.0590133   -7.5503667    324.75279  0.026636548  0.027022341            2 
 1017000    1.0919144   -7.5395886    325.48661  0.026670486  0.027014819            3 
 1018000    1.1072165   -7.5413844    325.89618  0.026677814  0.027007509            3 
 1019000    1.0842136   -7.5281047     326.3252  0.026686719  0.026999957            3 
 1020000    1.0693378    -7.533401     326.3855  0.026665482  0.026992614            2 
 1021000    1.1047193   -7.5501069     327.0181  0.026690997  0.026985332            4 
 1022000    1.1024705   -7.5206611    327.21004  0.026680531  0.026978076            2 
 1023000    1.0773495   -7.5411516    326.60213  0.026604931  0.026970579            1 
 1024000    1.0717673   -7.5767754    327.04162  0.026614715  0.026963003            1 
 1025000    1.1026559   -7.5408525    327.97362  0.026664522  0.026955401            3 
 1026000    1.0986294   -7.5416675    328.11517   0.02665003  0.026948149            3 
 1027000    1.1021867   -7.5676289    327.61826   0.02658376   0.02694083            4 
 1028000    1.0881395   -7.5478248    328.61433  0.026638646  0.026933173            8 
 1029000    1.1075616   -7.5606665    327.94286  0.026558379  0.026925549            4 
 1030000    1.0926686   -7.5589968    328.82671  0.026604102  0.026918021            3 
 1031000    1.0955802   -7.5266688    329.59272  0.026640214  0.026910599            3 
 1032000    1.0929672   -7.5505204    329.71013   0.02662388  0.026903161            2 
 1033000    1.0918667   -7.5469317    329.86249  0.026610397  0.026895698            2 
 1034000    1.0798768   -7.5169759    330.19374  0.026611359  0.026888109            2 
 1035000    1.0909528   -7.5560678    330.15014  0.026582137   0.02688064            2 
 1036000    1.0814666   -7.5216459    329.98472  0.026543173   0.02687331            3 
 1037000    1.0793134   -7.5482566    329.72715  0.026496878  0.026865836            5 
 1038000    1.0898877   -7.5135287    331.32271  0.026599447  0.026858307            1 
 1039000    1.0857592   -7.5454883    330.86826  0.026537396  0.026850711            2 
 1040000    1.0917423   -7.5416307    330.57659  0.026488509   0.02684326            3 
 1041000     1.072174   -7.5653229    331.24518  0.026516585  0.026835641            2 
 1042000    1.0748104   -7.5303983    331.43246  0.026506115  0.026828172            3 
 1043000    1.0803722   -7.5228832    331.65317  0.026498336  0.026820732            2 
 1044000    1.0949656    -7.522735    333.30696  0.026604961  0.026813399            1 
 1045000    1.0981676   -7.5173475    332.41114  0.026508066  0.026805914            1 
 1046000    1.0844558   -7.5641597    331.66226   0.02642306  0.026798342            3 
 1047000    1.0955616   -7.5723969    332.18231  0.026439216  0.026790664            3 
 1048000    1.0921373   -7.5864458    332.32353  0.026425217  0.026782766            3 
 1049000     1.090846   -7.5212695    332.17871  0.026388521  0.026775023            3 
 1050000     1.064172   -7.5502873    332.41467  0.026382117   0.02676727            2 
 1051000    1.0918518   -7.5348751    334.40347  0.026514706  0.026759741            1 
 1052000    1.0975543   -7.5543077    334.11811  0.026466897  0.026752135            3 
 1053000    1.1026294   -7.5779825    333.91766  0.026425899  0.026744579            3 
 1054000    1.0841186   -7.5734305     333.4373  0.026362848  0.026736909            3 
 1055000    1.1066317   -7.5546314    334.24578   0.02640172  0.026729178            2 
 1056000    1.0692837   -7.5443818    333.61202  0.026326706  0.026721581            4 
 1057000    1.0830922   -7.5445722    335.33199    0.0264374  0.026713844            2 
 1058000    1.0966584   -7.5493933    335.03462  0.026388991  0.026706244            1 
 1059000    1.0800007   -7.5496107     335.2165  0.026378384  0.026698745            2 
 1060000    1.0781909   -7.5348349    334.69966  0.026312866  0.026691367            2 
 1061000    1.0887264   -7.5082277    336.35894   0.02641839  0.026683912            3 
 1062000    1.0797029    -7.551982    336.94304  0.026439347   0.02667637            2 
 1063000    1.0981719   -7.5217884    336.56075  0.026384506  0.026668942            2 
 1064000    1.0992362   -7.5543221    336.68219  0.026369219  0.026661643            2 
 1065000    1.0738075   -7.5717796    337.09988  0.026377143  0.026654294            1 
 1066000    1.0869463   -7.5416246    336.38308  0.026296363   0.02664691            3 
 1067000     1.092481   -7.5530775    337.29417  0.026342875   0.02663959            2 
 1068000     1.076456   -7.5582658       338.08  0.026379525  0.026632316            2 
 1069000     1.087473   -7.5180398    339.43452   0.02646044  0.026625094            2 
 1070000    1.0882192   -7.5432899    338.75694  0.026382939  0.026617841            2 
 1071000    1.0811818   -7.5453089    339.21005  0.026393561  0.026610819            2 
 1072000    1.0781266   -7.5887875    338.59407  0.026321057  0.026603509            1 
 1073000    1.0950314   -7.5353585     340.3921  0.026436168  0.026596426            4 
 1074000    1.0593701   -7.5380759    340.69313  0.026434911   0.02658948            1 
 1075000    1.0967376   -7.5985028    340.04558  0.026360122  0.026582244            2 
 1076000    1.0889933   -7.5800833    339.92923  0.026326613   0.02657511            1 
 1077000    1.0819391   -7.5893816    339.36809   0.02625875  0.026567855            7 
 1078000    1.0695013   -7.5871676    339.45772   0.02624132  0.026560662            4 
 1079000     1.082246    -7.570362    341.99695   0.02641311  0.026553511            2 
 1080000    1.0901348   -7.5430982     340.7275  0.026290702  0.026546394            2 
 1081000     1.080898   -7.5234187    341.68017  0.026339822  0.026539338            2 
 1082000    1.0725364   -7.5437621    341.90884   0.02633309  0.026532291            3 
 1083000    1.1017668   -7.5362526    342.25007  0.026335031  0.026525134            3 
 1084000    1.0610998   -7.5303261    341.93987   0.02628689  0.026517864            5 
 1085000      1.08091    -7.518586    341.58174  0.026235157  0.026510727            2 
 1086000    1.0955341   -7.5513625    340.67933  0.026141753  0.026503549            1 
 1087000    1.0864389    -7.574137    340.55714  0.026108337  0.026495944            2 
 1088000    1.0654923   -7.5688851    342.04839  0.026198559  0.026488469            2 
 1089000    1.0724912   -7.5557491      341.633  0.026142715  0.026480895            2 
 1090000    1.0852605   -7.5635592    341.65337  0.026120288  0.026473307            2 
 1091000    1.0860862   -7.5669566    342.73017  0.026178595  0.026465757            1 
 1092000    1.0569642   -7.5539346    344.25739  0.026271168  0.026458233            3 
 1093000    1.0877429    -7.571329      341.502  0.026037054  0.026450699            4 
 1094000    1.0936968   -7.6080392    342.89776  0.026119574  0.026443044            7 
 1095000    1.0795554   -7.5525138    343.96028  0.026176581   0.02643549            2 
 1096000    1.0866444   -7.5847362    344.69707  0.026208719  0.026428296            3 
 1097000    1.0897366   -7.5500066    344.12821  0.026141614   0.02642111            3 
 1098000    1.0894891   -7.5754923    343.85153  0.026096807   0.02641379            2 
 1099000    1.0232237   -7.5678055    343.91544  0.026077907  0.026406303            3 
 1100000    1.0872638   -7.5247775    345.09774  0.026143768   0.02639893            2 
 1101000    1.0782798   -7.5751613    344.86448  0.026102368  0.026391553            1 
 1102000    1.0678422   -7.5352324    345.34384   0.02611493  0.026384073            2 
 1103000    1.0679414   -7.5505968    345.15489  0.026076979  0.026376637            4 
 1104000    1.0786291   -7.5296657    345.44737  0.026075436  0.026369047            1 
 1105000    1.0474821   -7.5771286    345.20026  0.026033202  0.026361453            2 
 1106000    1.0831345   -7.6025341    345.31225  0.026018102  0.026353774            4 
 1107000    1.0923471    -7.566359    345.79358  0.026030832  0.026346025            1 
 1108000    1.0549135    -7.640215    344.65355  0.025921597  0.026338035            2 
 1109000    1.0574941   -7.5552918    345.76403  0.025981667  0.026330157            2 
 1110000    1.0741149   -7.5621738    344.77922  0.025884326  0.026322503            2 
 1111000    1.0798295   -7.5557771    347.03407  0.026030158   0.02631448            2 
 1112000    1.0963404   -7.5908343    346.23714  0.025947028  0.026306672            1 
 1113000    1.0809917   -7.5792301    346.63875  0.025953785  0.026298934            1 
 1114000    1.0871541   -7.5573474    346.85103  0.025946367    0.0262914            1 
 1115000    1.0590387   -7.5568933    348.18247  0.026022606  0.026283908            1 
 1116000    1.0764232   -7.5503055    347.56538  0.025953209  0.026276383            2 
 1117000    1.0773145   -7.5643318    347.95278  0.025958876  0.026269006            1 
 1118000    1.0606295   -7.5819901    348.12086  0.025948186  0.026261456            2 
 1119000    1.0472071   -7.5642235    348.53573  0.025955893  0.026253998            4 
 1120000    1.0757759   -7.5606987    348.98074  0.025965829  0.026246515            3 
 1121000    1.0428231   -7.5874389    348.83955   0.02593217  0.026238997            1 
 1122000    1.0769709    -7.599052    349.24443  0.025939129  0.026231451            2 
 1123000    1.0729561   -7.5517367    348.95935  0.025894876  0.026224038            2 
 1124000    1.0621245   -7.5717891    350.31474  0.025972326  0.026216368            2 
 1125000    1.0468839   -7.5558218    349.39684  0.025881248  0.026208601            4 
 1126000    1.0533089   -7.5971619    349.27668   0.02584937  0.026201044            3 
 1127000    1.0722463    -7.581519    350.39765   0.02590932  0.026193496            1 
 1128000    1.0787119   -7.6028506    348.52925  0.025748319  0.026185951            2 
 1129000    1.0596533   -7.6062546    350.54277  0.025874134   0.02617841            2 
 1130000    1.0696461   -7.5619406    350.81761  0.025871506  0.026170797            2 
 1131000    1.0755391   -7.5494893    352.32058  0.025959371  0.026163131            2 
 1132000    1.0663025   -7.6297788    349.90389  0.025758531   0.02615551            5 
 1133000    1.0720768   -7.6283745    351.20533  0.025831519  0.026147575            1 
 1134000    1.0594121    -7.576675    350.95169  0.025790101  0.026139629            2 
 1135000    1.0678583   -7.5593336    351.93042  0.025839238  0.026131906            1 
 1136000    1.0740085   -7.5974608    352.66159  0.025870128  0.026124214            5 
 1137000    1.0523914   -7.5750637    352.70823  0.025850794  0.026116678            7 
 1138000    1.0785291   -7.5844481    352.36152  0.025802689  0.026109063            4 
 1139000    1.0693462   -7.5872532    353.30114  0.025848781  0.026101608            3 
 1140000    1.0955021   -7.5746615    352.90281  0.025796989  0.026094149            3 
 1141000    1.0680406   -7.5448531    353.36372  0.025808042   0.02608645            2 
 1142000    1.0810596   -7.5982097    354.00856  0.025832498   0.02607887            2 
 1143000     1.098773   -7.5932557    354.26111  0.025828311  0.026071542            4 
 1144000    1.0694609   -7.5813667    354.68451  0.025836576  0.026064239            1 
 1145000    1.0551106   -7.6116551    354.69143  0.025814514  0.026056905            2 
 1146000    1.0742671   -7.5528548    355.69736  0.025865136  0.026049725            3 
 1147000    1.0633699   -7.5724101    355.62568  0.025837379  0.026042499            4 
 1148000    1.0660264   -7.5891705     355.4143  0.025799528  0.026035297            2 
 1149000    1.0626924    -7.560996    355.90264  0.025812492  0.026028035            3 
 1150000    1.0614483   -7.6171692    355.94385  0.025793032  0.026020739           12 
 1151000    1.0598933   -7.5614904    355.72467  0.025754754   0.02601332            2 
 1152000    1.0767086   -7.5575886    357.03703  0.025827331  0.026006372            2 
 1153000    1.0641246   -7.5712382    357.40864  0.025831789  0.025999469            1 
 1154000    1.0580946   -7.5741625    357.81288  0.025838596  0.025992362            1 
 1155000    1.0778631   -7.6447185    355.99621  0.025685152  0.025985155            2 
 1156000    1.0506115   -7.5701135     356.9347  0.025730587   0.02597789            1 
 1157000    1.0591942    -7.605196    357.05691   0.02571715  0.025970731            4 
 1158000    1.0432356      -7.5755    358.88938  0.025826812  0.025963607            1 
 1159000    1.0603401   -7.5390971    359.32101  0.025835563  0.025956514            4 
 1160000    1.0628668   -7.5661033    359.35157  0.025815487  0.025949468            4 
 1161000    1.0738704   -7.5596767    359.74837  0.025821732  0.025942522            2 
 1162000    1.0580946   -7.5951713    359.46889  0.025779467  0.025935449            2 
 1163000    1.0872309   -7.5650557    359.83881  0.025783807  0.025928462            6 
 1164000    1.0950888   -7.5851303    358.33985  0.025654342  0.025921319            2 
 1165000    1.0446103   -7.6095979    358.33121  0.025631703  0.025914062            2 
 1166000    1.0823709   -7.5659137    360.22067  0.025744759   0.02590709            1 
 1167000    1.0540736   -7.5666181    359.57223  0.025676395  0.025900033            6 
 1168000     1.066357   -7.5691406    360.04463  0.025688116  0.025892726            2 
 1169000    1.0596786     -7.56621     359.8382  0.025651426  0.025885449            3 
 1170000    1.0770932   -7.5822465    360.16962  0.025653107  0.025878047            1 
 1171000    1.0484722   -7.6182853    359.16537  0.025559733  0.025870469            2 
 1172000    1.0650559   -7.5567016    360.91938  0.025662641  0.025863059            3 
 1173000    1.0644127   -7.6027092    359.67645  0.025552462  0.025855661            1 
 1174000    1.0749168    -7.619315    359.33763  0.025506646  0.025848151            4 
 1175000    1.0632798   -7.5938811    360.07337  0.025537118  0.025840736            4 
 1176000    1.0436956   -7.5824316    361.52382  0.025618184  0.025833381            3 
 1177000    1.0574387   -7.5592954    361.24967  0.025577009   0.02582615            4 
 1178000    1.0919843   -7.5740787    362.71631  0.025659049  0.025818822            1 
 1179000    1.0767539   -7.5829466    361.90826  0.025580171  0.025811416            2 
 1180000    1.0647433   -7.6082894    362.24916  0.025582568  0.025804076            2 
 1181000    1.0650446   -7.6329702    361.43819  0.025503683  0.025796691            1 
 1182000    1.0724058   -7.6017289    362.40801   0.02555048  0.025789293            3 
 1183000    1.0765591   -7.6025721    362.61195  0.025543248  0.025781999            2 
 1184000    1.0645843   -7.5637009    364.28822  0.025639655  0.025774883            1 
 1185000    1.0539557   -7.5995298    363.42965   0.02555764   0.02576768            2 
 1186000    1.0484039   -7.6360253    363.05044  0.025509446  0.025760437            5 
 1187000    1.0669977   -7.5999318    363.63222  0.025528799  0.025753221            4 
 1188000    1.0595089   -7.5780471    363.84404  0.025522169  0.025746093            2 
 1189000    1.0622417   -7.5950857    364.76802  0.025565462  0.025739067            4 
 1190000    1.0751979    -7.635209    362.80108  0.025406238  0.025731691            3 
 1191000    1.0532293    -7.633924    363.17514  0.025411079  0.025724166            3 
 1192000    1.0782343   -7.6113448    363.27274  0.025396585  0.025716671            1 
 1193000    1.0693779   -7.6019751    365.06285  0.025500339  0.025709173            4 
 1194000    1.0658858   -7.6185974    364.62239   0.02544824  0.025701599            1 
 1195000    1.0555294   -7.5884777    364.97144  0.025451286  0.025694147            2 
 1196000    1.0449219   -7.5910044    364.59746  0.025403948  0.025686663            3 
 1197000    1.0609946   -7.6290061     364.0355  0.025343602  0.025679083            2 
 1198000    1.0521806   -7.6210399    364.75516  0.025372507  0.025671484            6 
 1199000    1.0716765   -7.6067541    364.54872  0.025336997  0.025663861            2 
 1200000    1.0491175   -7.6890738    364.16661  0.025289348  0.025656043            4 
 1201000    1.0680007   -7.6165763    363.88508  0.025248757  0.025648345            3 
 1202000    1.0467404   -7.6738767    366.06948  0.025379193  0.025640633            2 
 1203000    1.0732385   -7.6093475    366.29626  0.025373806  0.025632869            2 
 1204000    1.0450818   -7.5880394     365.6946  0.025311088  0.025625328            1 
 1205000    1.0931116    -7.598609    366.52575  0.025347562  0.025617892            1 
 1206000    1.0470795   -7.6167851    366.09494  0.025296776  0.025610345            4 
 1207000    1.0428912   -7.6606534    366.16238  0.025280473  0.025602712            4 
 1208000    1.0720341   -7.6278632    367.16741  0.025328878  0.025595181            2 
 1209000    1.0441993   -7.6051409    367.49311  0.025330377  0.025587751            2 
 1210000    1.0928538   -7.5927275    369.16958  0.025424902   0.02558053            1 
 1211000    1.0635981   -7.6171013     368.0067  0.025323885  0.025573172            4 
 1212000     1.064673   -7.5906791    369.34379  0.025394925   0.02556592            1 
 1213000    1.0441128   -7.6130865    369.95533  0.025416002  0.025558809            3 
 1214000    1.0487103    -7.596424    371.21948  0.025481842  0.025551728            3 
 1215000    1.0406034    -7.642048     367.9465  0.025236385  0.025544482            2 
 1216000    1.0298941   -7.6371262    369.09933  0.025294636  0.025537152            1 
 1217000    1.0565467   -7.6312568    370.34061  0.025358847  0.025529808            3 
 1218000    1.0511779   -7.5996192    369.84506  0.025304123  0.025522445            2 
 1219000     1.064796   -7.6244264    370.11972  0.025302141  0.025515184            3 
 1220000    1.0606702   -7.5982009    370.23627  0.025289363  0.025507841            3 
 1221000    1.0770764   -7.6027124    371.09129  0.025327006  0.025500445            4 
 1222000      1.05758   -7.6135041    369.59525  0.025204259  0.025493178            1 
 1223000    1.0574776   -7.6211813    371.06895  0.025284066  0.025485979            1 
 1224000     1.049336   -7.5983228    371.62164  0.025301038  0.025478813            2 
 1225000    1.0679396   -7.6302725    371.49599  0.025271836  0.025471594            2 
 1226000    1.0536396   -7.6003629    372.48591  0.025318509  0.025464577            2 
 1227000    1.0743789   -7.6402492    372.32182  0.025286731   0.02545762            1 
 1228000    1.0404135    -7.649769    371.69557  0.025223641   0.02545077            1 
 1229000    1.0396353   -7.6255263    372.73199  0.025273393  0.025443881            1 
 1230000    1.0485561   -7.6351325    372.57527  0.025242227  0.025436946            3 
 1231000    1.0342489   -7.5990751    374.06257  0.025322405  0.025429989            1 
 1232000    1.0760921    -7.648767    373.13419  0.025239055  0.025422983            1 
 1233000    1.0551392   -7.5990419    373.57586  0.025248436  0.025415975            5 
 1234000    1.0370073   -7.5989012     374.7148  0.025304889  0.025408944            3 
 1235000    1.0714783     -7.62329    374.45754  0.025267041  0.025401813            2 
 1236000    1.0302928   -7.6114714    374.04053  0.025218482   0.02539478            2 
 1237000    1.0519914    -7.587475     375.8051   0.02531697  0.025387819            2 
 1238000    1.0390558   -7.5726123     375.9915  0.025309067  0.025381138           11 
 1239000    1.0544713   -7.6044329    375.73094  0.025271115  0.025374397            2 
 1240000    1.0457689   -7.6255599    375.71115  0.025249405  0.025367492            2 
 1241000     1.037404   -7.6482153    375.19353  0.025194301  0.025360663            1 
 1242000    1.0400134   -7.6310133    376.73735    0.0252776  0.025353753            1 
 1243000    1.0579567   -7.6205171    375.71247  0.025188554   0.02534685            3 
 1244000    1.0626039   -7.5816973    377.58788  0.025293936  0.025340069            6 
 1245000    1.0498254   -7.6623712    377.05524  0.025237968  0.025333292            2 
 1246000    1.0588092   -7.5974337    377.68053  0.025259532  0.025326489            3 
 1247000    1.0579529   -7.6148993     377.6811  0.025239314  0.025319595            2 
 1248000    1.0616701   -7.6469095    376.20747  0.025120691  0.025312638            2 
 1249000    1.0457261   -7.6572444    375.90456  0.025080368  0.025305663            2 
 1250000    1.0378251   -7.6445462    377.28287  0.025152191  0.025298716            2 
 1251000    1.0467652   -7.6365421    377.93377  0.025175444  0.025291687            2 
 1252000    1.0727796   -7.6130762    378.14236   0.02516922   0.02528469            2 
 1253000    1.0429916   -7.6514826    378.21613  0.025154039  0.025277749            2 
 1254000    1.0535292   -7.6713295    377.54155  0.025089151   0.02527068            2 
 1255000    1.0492969   -7.6532087    377.11385  0.025040761  0.025263611            2 
 1256000    1.0614889   -7.5884529    379.39596  0.025172238  0.025256658            2 
 1257000    1.0586615   -7.6517871    377.45339  0.025023428  0.025249584            1 
 1258000    1.0475508   -7.5824218    379.00678  0.025106437  0.025242452            4 
 1259000     1.059346   -7.6577401    379.12463  0.025094296   0.02523537            3 
 1260000    1.0549253   -7.6576356    377.78817   0.02498599  0.025228339            2 
 1261000    1.0349574   -7.5804623    379.91203  0.025106531  0.025221185            2 
 1262000    1.0484473   -7.6463478    379.62101   0.02506742  0.025214203            3 
 1263000    1.0455416   -7.5828636    379.95778  0.025069793   0.02520733            1 
 1264000    1.0766258   -7.6014326    380.42231  0.025080585  0.025200578            1 
 1265000    1.0526559    -7.609314    380.45026  0.025062599  0.025193701            1 
 1266000    1.0540256   -7.6017642    381.04953  0.025082249  0.025186803            3 
 1267000    1.0482356   -7.6241372    380.88986  0.025051951  0.025179873            1 
 1268000    1.0514772   -7.6608608     379.9644  0.024971372  0.025172931            3 
 1269000    1.0261472   -7.6560248    379.75192  0.024937741  0.025165833            1 
 1270000    1.0675718    -7.623745    381.56102  0.025036812  0.025158778            2 
 1271000     1.030742   -7.6565147    381.33504  0.025002298  0.025151867            4 
 1272000    1.0444988    -7.641895    380.99689  0.024960488  0.025144926            1 
 1273000    1.0472683   -7.6017832    381.96264  0.025004101  0.025138024            4 
 1274000    1.0509433    -7.654662    382.12172   0.02499488  0.025131163            3 
 1275000    1.0450062   -7.6258133    383.62084  0.025073257  0.025124199            3 
 1276000    1.0449659   -7.6116638    383.22849  0.025027984  0.025117452            2 
 1277000    1.0585546    -7.628816    383.52971  0.025028042  0.025110681            1 
 1278000    1.0619086   -7.6417451    382.55698   0.02494503  0.025103686            1 
 1279000    1.0550335    -7.653649    382.48947  0.024921128  0.025096624            1 
 1280000    1.0513754   -7.6463234    382.54998  0.024905598  0.025089617            2 
 1281000    1.0492436   -7.6134392    383.29256  0.024934463  0.025082439            4 
 1282000    1.0483665   -7.6202972    384.29709   0.02498031  0.025075536            3 
 1283000    1.0561739   -7.6629247    382.56317  0.024848219   0.02506862            4 
 1284000    1.0615189   -7.6152644    383.90088  0.024915686  0.025061554            2 
 1285000    1.0645685   -7.6645505    382.24727  0.024789058  0.025054505            3 
 1286000    1.0438452   -7.6359643    384.27857   0.02490141  0.025047555            3 
 1287000    1.0527261   -7.6269128    384.88897  0.024921586   0.02504065            1 
 1288000    1.0539881   -7.6374173    384.64647  0.024886547  0.025033763            1 
 1289000    1.0713704   -7.6045319    386.28419  0.024973118  0.025026898            2 
 1290000    1.0418244   -7.6303802    385.62207  0.024910986  0.025020122            2 
 1291000    1.0323959   -7.6947977    384.86413  0.024842766  0.025013083            2 
 1292000    1.0496137   -7.6019511    386.38256  0.024921476  0.025006242            2 
 1293000    1.0461594   -7.6627867    385.63812  0.024854223  0.024999271            2 
 1294000     1.038474   -7.6513686    384.67394  0.024772923  0.024992181            5 
 1295000    1.0276044   -7.6837241    386.35116  0.024861722   0.02498504            1 
 1296000    1.0367872   -7.6272762    384.85277  0.024746191  0.024977906            1 
 1297000    1.0223614   -7.6510428    385.75027  0.024784777  0.024970743            3 
 1298000    1.0470859   -7.6251509    387.18783  0.024857976  0.024963605            2 
 1299000    1.0313164   -7.6412761    385.28481  0.024716757  0.024956299            2 
 1300000    1.0710745   -7.6354436    386.61939  0.024783294  0.024949069            4 
 1301000    1.0659012    -7.623624    386.07521  0.024729388  0.024941892            2 
 1302000    1.0287926   -7.6722103    387.28179  0.024787621  0.024934559            3 
 1303000    1.0352271   -7.6775925    386.22414  0.024700955  0.024927288            2 
 1304000    1.0335498   -7.6857582    386.04879  0.024670807  0.024920032            3 
 1305000    1.0586868   -7.6711537    386.70689  0.024693927  0.024912789            3 
 1306000     1.051361   -7.6832286    386.55206  0.024665139  0.024905465            2 
 1307000    1.0373924   -7.6601007    387.52711  0.024708436  0.024898136            2 
 1308000    1.0322374   -7.6649132    387.72429  0.024702108  0.024890809            3 
 1309000    1.0465089   -7.6744626    386.31048  0.024593232   0.02488337            4 
 1310000    1.0176036   -7.6465909    388.14838  0.024691373  0.024876003            3 
 1311000    1.0233788   -7.6653011    387.95596  0.024660308  0.024868823            3 
 1312000    1.0611418    -7.640445    387.81792  0.024632744  0.024861692            3 
 1313000    1.0458479   -7.6894825    387.55274  0.024597153  0.024854375            1 
 1314000    1.0446281   -7.6779642    387.87391  0.024598802  0.024847183            2 
 1315000    1.0276449   -7.6306975    388.63112  0.024628081  0.024839909            3 
 1316000    1.0402441   -7.6385308    388.83492  0.024622272  0.024832686            3 
 1317000      1.02895      -7.6515    388.59405  0.024588335  0.024825407            2 
 1318000    1.0498021   -7.6693124    389.02426   0.02459688  0.024817981            1 
 1319000    1.0232434   -7.6605925    389.56144  0.024612171  0.024810608            2 
 1320000    1.0249207   -7.6766065    388.95581  0.024555291  0.024803115            2 
 1321000    1.0240444   -7.6463443    389.67531  0.024582091  0.024795626            1 
 1322000     1.025328    -7.663411    389.14779  0.024530244   0.02478823            2 
 1323000    1.0167215   -7.6764764    388.18606  0.024451125  0.024780662            6 
 1324000    1.0356445   -7.6804945    388.32549  0.024441433  0.024773012            1 
 1325000    1.0415035   -7.6542359    389.43185  0.024492569  0.024765427           10 
 1326000    1.0702507   -7.6648274    389.60527  0.024484997  0.024757941            3 
 1327000    1.0522363   -7.6392726    390.06605  0.024495482  0.024750388            6 
 1328000    1.0283537   -7.6481695    390.01623   0.02447391  0.024742829            1 
 1329000    1.0299526   -7.6766519    390.43541  0.024481779  0.024735289            2 
 1330000    1.0553575   -7.6414955    391.54979  0.024533195  0.024727981            1 
 1331000     1.055743   -7.6454371    390.42847  0.024444557  0.024720505            1 
 1332000    1.0357108    -7.623751    391.21588  0.024475468  0.024713083            3 
 1333000    1.0267014   -7.6512803    390.44238  0.024408751  0.024705589            3 
 1334000    1.0447068   -7.6363546    392.34084  0.024509048  0.024698055            3 
 1335000    1.0297507   -7.6747946    391.68574  0.024449797  0.024690458            1 
 1336000    1.0169812   -7.7071163    390.98569   0.02438783   0.02468274            3 
 1337000    1.0201623   -7.7314688    390.94986  0.024367356  0.024675125            4 
 1338000    1.0332101   -7.6965777    392.12345  0.024422238  0.024667417            2 
 1339000    1.0394503   -7.6794599    392.33409  0.024417108  0.024659832            4 
 1340000    1.0332218   -7.6796063    392.59561   0.02441515  0.024652247            3 
 1341000    1.0277663   -7.6887029    391.24619  0.024313086  0.024644587            2 
 1342000    1.0148833   -7.6662795    392.72129  0.024386568  0.024636926            5 
 1343000    1.0212124   -7.6635732    392.60669  0.024361298  0.024629279            2 
 1344000     1.041497    -7.628071    394.01357  0.024430405  0.024621662            6 
 1345000    1.0593399   -7.6594539    393.10186  0.024355753  0.024614171            5 
 1346000     1.023022    -7.657069    393.64766   0.02437145  0.024606599            3 
 1347000   0.99743937   -7.6787724    392.39882  0.024276096  0.024598942            2 
 1348000    1.0648215    -7.689878    392.38086  0.024256977  0.024591144            5 
 1349000    1.0558879   -7.6658482    393.07523   0.02428189  0.024583313            3 
 1350000    1.0398587   -7.7137299    391.80996    0.0241858  0.024575554            3 
 1351000    1.0308683   -7.6770732    393.03927  0.024243725   0.02456773            3 
 1352000    1.0375172     -7.67513     393.1784  0.024234369  0.024559896            2 
 1353000    1.0382073   -7.6692996    392.21971   0.02415741  0.024552066            3 
 1354000    1.0316002   -7.6505797    394.07743  0.024253904  0.024544331            2 
 1355000    1.0445616   -7.6606081      394.857  0.024283948   0.02453658            1 
 1356000    1.0183526   -7.6735137    394.29293  0.024231375  0.024528829            4 
 1357000    1.0377945    -7.674723    394.01732  0.024196593  0.024521039            2 
 1358000     1.036402   -7.6868375    393.99411  0.024177351  0.024513257            1 
 1359000    1.0530377   -7.6305387    395.43889  0.024248154  0.024505499            2 
 1360000    1.0205068   -7.6662222    395.66561  0.024244216  0.024497883            3 
 1361000    1.0116301   -7.7303797    394.37856  0.024147597  0.024490137            2 
 1362000    1.0319842   -7.6513448    395.08856  0.024173309   0.02448238            2 
 1363000    1.0054026    -7.697698    395.06755  0.024154289  0.024474659            2 
 1364000    1.0592882   -7.6797503    395.18733  0.024143898  0.024466856            3 
 1365000    1.0210794   -7.6824153    395.95271  0.024172937  0.024459089            1 
 1366000    1.0213983   -7.6441876    397.01416  0.024219995  0.024451431            3 
 1367000     1.059636   -7.6555182    397.06051  0.024205103    0.0244439            1 
 1368000    1.0428637    -7.664122     398.0915  0.024250213  0.024436271            3 
 1369000    1.0397687   -7.6318566    397.18555  0.024177353  0.024428604            4 
 1370000    1.0355172   -7.6376611    399.00097  0.024270132  0.024421167            1 
 1371000    1.0274718   -7.6848008    397.17853  0.024141656  0.024413672            3 
 1372000    1.0393901   -7.6612565    397.20932  0.024125931  0.024405988            7 
 1373000     1.029199   -7.6756109    396.00541  0.024035288  0.024398204            3 
 1374000    1.0435906   -7.6715778    398.08665  0.024144023  0.024390521            4 
 1375000    1.0309411   -7.6921039    396.81851  0.024049607  0.024382816            3 
 1376000    1.0384823   -7.6827362    398.90932  0.024158752  0.024375308            2 
 1377000    1.0429617   -7.7083061    397.17542  0.024036276  0.024367688            1 
 1378000    1.0386924   -7.7176769    397.33728  0.024028621  0.024359956            2 
 1379000    1.0390243   -7.6954864    398.56854  0.024085602  0.024352132            2 
 1380000    1.0258217   -7.6734886    397.88106  0.024026634  0.024344468            1 
 1381000    1.0147592   -7.6611617    400.12963  0.024144921  0.024336799            1 
 1382000    1.0292536    -7.683916     398.1079  0.024005541  0.024329047            2 
 1383000    1.0335746   -7.6995124    398.24649  0.023996535  0.024321352            2 
 1384000    1.0528558   -7.6761266     400.0765  0.024089385  0.024313563            1 
 1385000    1.0362837   -7.6584105    400.17813  0.024078107  0.024305844            2 
 1386000     1.053617   -7.6830969    399.70121  0.024032059    0.0242981            4 
 1387000    1.0293437   -7.7295533    399.53649  0.024004836  0.024290393            2 
 1388000    1.0427485   -7.6771814    399.38998  0.023978745  0.024282603            2 
 1389000    1.0375999   -7.6955092    399.71699  0.023981101  0.024274912            2 
 1390000    1.0080598   -7.6876761    399.48465  0.023949919  0.024267147            3 
 1391000    1.0098162   -7.7053034    399.23255  0.023917598  0.024259419            2 
 1392000    1.0312377   -7.7414081     399.9729  0.023944738  0.024251606            2 
 1393000     1.025972   -7.6955571    401.38612  0.024012091  0.024243809            2 
 1394000    1.0278839   -7.6846102    401.17425  0.023982201  0.024236213            2 
 1395000    1.0201676   -7.6905264    401.03407  0.023956635  0.024228622            2 
 1396000    1.0151424   -7.6998328    400.21373  0.023890504  0.024220966            3 
 1397000    1.0196825   -7.6613946    402.04325  0.023982537  0.024213238            2 
 1398000    1.0187461   -7.6805731    401.89787  0.023956716  0.024205564            2 
 1399000    1.0334463   -7.7188865    401.09476  0.023891754  0.024197908            1 
 1400000    1.0431808   -7.7116512     401.2651  0.023884827  0.024190123            3 
 1401000    1.0355319   -7.6662542    402.14934  0.023920374  0.024182427            4 
 1402000    1.0284981   -7.6862839    400.62552  0.023812739  0.024174613            4 
 1403000    1.0448986    -7.676293    401.57006  0.023851868  0.024166841            2 
 1404000    1.0269207   -7.6919717    402.97784  0.023918438  0.024159102            2 
 1405000    1.0100315   -7.7374503    401.10342  0.023790239  0.024151271            6 
 1406000   0.98575922   -7.7071479     402.9243  0.023881241  0.024143428            4 
 1407000     1.038903   -7.6845586     402.5138  0.023839955  0.024135602            5 
 1408000   0.99878957   -7.7096318    402.69184  0.023833561  0.024127712            5 
 1409000    1.0221309   -7.6820682    404.18569  0.023904997  0.024119968            2 
 1410000    1.0351261   -7.6915523     402.8957  0.023811803   0.02411219            3 
 1411000    1.0304656   -7.6700297    402.42016  0.023766841  0.024104488            9 
 1412000    1.0254158   -7.7184724    402.82257  0.023773759   0.02409659            6 
 1413000    1.0093348   -7.6922377    403.87956  0.023819271  0.024088691            2 
 1414000    1.0159404   -7.6922753    403.59926  0.023785907  0.024080781            2 
 1415000     1.008635   -7.7087287    403.18096  0.023744462  0.024072994            1 
 1416000    1.0071296   -7.6877904    404.07515  0.023780317  0.024065183            3 
 1417000    1.0285217   -7.7250103    404.20176  0.023770981  0.024057454            4 
 1418000    1.0320655   -7.7070563    404.27402  0.023758464  0.024049672            2 
 1419000    1.0350049   -7.7130894    404.38866  0.023748453  0.024041855            2 
 1420000    1.0580862   -7.7313829    402.75975  0.023636136  0.024033955            2 
 1421000    1.0140471     -7.70445    404.62198  0.023728711  0.024026051            2 
 1422000    1.0340801   -7.6931832    403.75191  0.023661035  0.024018045            2 
 1423000    1.0065341   -7.7037403     404.2648  0.023674444  0.024009951            5 
 1424000     1.020687   -7.6789616    404.87203  0.023693354  0.024002006            3 
 1425000    1.0158102   -7.6745345    404.90965  0.023678927  0.023994052            4 
 1426000    1.0005544    -7.680961     405.1725  0.023677683  0.023986064            5 
 1427000    1.0325815   -7.6617281    404.97242  0.023649406   0.02397812            1 
 1428000    1.0357837   -7.7182261     404.5177  0.023606308   0.02397018            2 
 1429000    1.0419916   -7.6972242    405.85407   0.02366772  0.023962246            3 
 1430000    1.0288866   -7.7107069    405.49739  0.023630384    0.0239544            3 
 1431000    1.0390509   -7.7249067    404.33854  0.023546386    0.0239465            5 
 1432000    1.0258627   -7.6858514    405.39058  0.023591165  0.023938655            2 
 1433000    1.0128946   -7.7239511    407.15428  0.023677267   0.02393084            2 
 1434000    1.0116482   -7.7053851    406.51528  0.023623621  0.023922956            1 
 1435000    1.0108392   -7.7077545    406.55199  0.023609291  0.023915201            2 
 1436000    1.0238162   -7.7165409    406.01312  0.023561578  0.023907385            5 
 1437000    1.0152088   -7.7209771    406.53289  0.023575324  0.023899499            4 
 1438000    1.0312748   -7.6625442    408.96924  0.023700118  0.023891677            3 
 1439000    1.0092548    -7.724187    407.22771  0.023582795  0.023883919            2 
 1440000    1.0089128   -7.7013971    407.98632  0.023610319  0.023876093            1 
 1441000    1.0265137   -7.7144871      406.566  0.023511798  0.023868303            2 
 1442000    1.0294116   -7.6479961    408.71809  0.023619862  0.023860589            3 
 1443000    1.0281356   -7.7259312    408.23623  0.023575666  0.023852851            2 
 1444000    1.0140917   -7.7244158    408.16648  0.023555314  0.023845094            1 
 1445000    1.0312737   -7.6399995    410.14139  0.023652906    0.0238373            4 
 1446000    1.0276616    -7.708444    408.12848  0.023520544  0.023829418            1 
 1447000     1.031801   -7.7027043     408.6039  0.023531669  0.023821557            3 
 1448000    1.0232708   -7.6638928     409.7573  0.023581797  0.023813781            3 
 1449000    1.0320223   -7.6822661    409.57649  0.023555124  0.023805966            2 
 1450000    1.0062523   -7.6672895    409.88974  0.023556882  0.023798161            1 
 1451000    1.0415147   -7.7067292     409.7747   0.02353404  0.023790248            1 
 1452000    1.0099965   -7.7086865    409.46714   0.02350018  0.023782471            6 
 1453000     1.022042   -7.7230002    410.30036  0.023531794  0.023774598            4 
 1454000    1.0144233   -7.7420889    409.97538  0.023496984  0.023766829            3 
 1455000    1.0380114   -7.7516638     409.7016  0.023465155  0.023758957            3 
 1456000    1.0097331   -7.7369268    410.48196  0.023493702   0.02375116            2 
 1457000    1.0054237    -7.720507    409.70279  0.023433012  0.023743415            3 
 1458000    1.0090643   -7.6954577    410.43151  0.023458591  0.023735654            2 
 1459000    1.0347071   -7.6922861    411.01944  0.023476093  0.023727956            1 
 1460000   0.99619398   -7.6990448    411.02394  0.023460271  0.023720181            3 
 1461000     1.032923   -7.6964757    410.12036  0.023392674  0.023712355            2 
 1462000    1.0125737   -7.6734868    410.42239  0.023393889  0.023704472            2 
 1463000   0.98701721   -7.7555905    409.60101  0.023331113   0.02369648            3 
 1464000   0.99685488   -7.7392619    410.26465  0.023352951  0.023688468            2 
 1465000    1.0137506   -7.8150193     409.0143  0.023265887  0.023680409            2 
 1466000    1.0216843   -7.6898544    411.30305  0.023380119  0.023672349            1 
 1467000    1.0060479     -7.72256    410.81675  0.023336557   0.02366436            3 
 1468000   0.98795484   -7.7344816    408.65442  0.023197912  0.023656312            2 
 1469000    1.0020884   -7.7151907     410.9404    0.0233118    0.0236482            3 
 1470000    1.0116143   -7.7568559    410.16676  0.023252084  0.023640092            2 
 1471000    1.0106497   -7.7127554     410.7808  0.023271063  0.023631995            2 
 1472000   0.98948471   -7.7249053    411.50714  0.023296373  0.023623844            1 
 1473000    1.0149417   -7.7433439    411.71673  0.023292415  0.023615724            1 
 1474000    1.0169388   -7.7223969    411.83695   0.02328341  0.023607671            1 
 1475000    1.0140453   -7.7117296    411.51475  0.023249421  0.023599551            4 
 1476000    1.0188243   -7.7315528    410.85874  0.023196632  0.023591452            3 
 1477000    1.0114181   -7.7048979     412.0511    0.0232482  0.023583455            1 
 1478000    1.0223126   -7.7090814    411.48575  0.023200595  0.023575458            2 
 1479000    1.0144225   -7.7002099    413.43166  0.023294549  0.023567488            2 
 1480000    1.0272565   -7.6934976    412.90736  0.023249288  0.023559659            4 
 1481000    1.0446071   -7.7298937    413.75652  0.023281371  0.023551737            2 
 1482000    1.0227592    -7.742562    413.87471  0.023272307  0.023543783            2 
 1483000    1.0013976   -7.7388329    412.97482  0.023206047  0.023535804            1 
 1484000     1.028728   -7.7238464    412.69127  0.023174487  0.023527884            4 
 1485000    1.0435342   -7.6987854    413.79166  0.023220632  0.023519926            2 
 1486000    1.0052679   -7.7411906    413.69427  0.023199544  0.023511804            4 
 1487000    0.9924203   -7.7284289    413.05007  0.023147841  0.023503691            5 
 1488000    1.0092549   -7.7170957    414.56438  0.023217091  0.023495576            2 
 1489000    1.0088688   -7.7298194     412.8999  0.023108345  0.023487439            4 
 1490000     1.018259   -7.7392284    412.88963  0.023092261  0.023479246            1 
 1491000    1.0135369   -7.7405095     413.2833  0.023098776  0.023471056            5 
 1492000   0.99146347   -7.7326363    413.51998  0.023096514  0.023462926            3 
 1493000    1.0167104   -7.6617996    414.19787  0.023118881  0.023454706            2 
 1494000    1.0075077   -7.7221533    412.93624  0.023033034  0.023446618            1 
 1495000   0.99488453   -7.7070443    413.96158  0.023074781  0.023438374            2 
 1496000     1.032319   -7.6992719    415.50793  0.023145495  0.023430248            2 
 1497000    1.0171343   -7.7206356    414.42365  0.023069676   0.02342205            2 
 1498000    1.0165123   -7.7416711    413.28411  0.022990883  0.023413844            3 
 1499000     1.014293    -7.727807    413.75884  0.023001937   0.02340561            2 
 1500000   0.98602747   -7.7387218    414.49522  0.023027512  0.023397378            5 
 1501000    1.0087066   -7.7714712     413.8652  0.022977193  0.023389096            4 
 1502000    1.0033166   -7.7356384     414.9559  0.023022409   0.02338088            4 
 1503000    1.0300604   -7.7754212    413.03067  0.022900347  0.023372653            2 
 1504000    1.0437418   -7.7359588    414.66742   0.02297581  0.023364505            2 
 1505000   0.98781487   -7.7069743    415.96136   0.02303219  0.023356407            2 
 1506000    1.0051728   -7.7152911     415.6533   0.02299985  0.023348316            5 
 1507000    1.0165276   -7.7313906    416.68683   0.02304174  0.023340288            6 
 1508000     1.013842   -7.7479914    415.90267  0.022983127  0.023332142            2 
 1509000    1.0083614   -7.7391315    415.81555  0.022963086  0.023324046            1 
 1510000    1.0028112   -7.7812289    415.02207  0.022904088  0.023316012            4 
 1511000    1.0089261   -7.7691647    416.97912  0.022996863  0.023307903            3 
 1512000    1.0014748   -7.7837497     416.2945  0.022943921  0.023299804            3 
 1513000   0.99198683   -7.7938315    416.42633  0.022936017  0.023291685            2 
 1514000   0.98702707   -7.7138687    417.82506  0.022997857  0.023283554            3 
 1515000    1.0228778   -7.7186313    417.16376  0.022946302  0.023275641            2 
 1516000    1.0146029   -7.7170814    417.81459  0.022966941  0.023267691            3 
 1517000    1.0102406   -7.7407923    417.97902  0.022960834  0.023259753            4 
 1518000   0.99710254   -7.7610534    417.62948   0.02292652  0.023251741            2 
 1519000    1.0007342   -7.7474654    418.45411  0.022956666  0.023243851            2 
 1520000    1.0011079   -7.7877304    417.60387  0.022894949   0.02323586            3 
 1521000    1.0332849   -7.7128271    419.39327  0.022977935  0.023227946            2 
 1522000   0.99413654   -7.6980725     420.1298  0.023003165  0.023220094            2 
 1523000    1.0176813   -7.7165613    419.88754  0.022974805  0.023212268            2 
 1524000   0.98933402   -7.7735686    419.09923  0.022916625  0.023204452            3 
 1525000     0.996832   -7.7364148    418.41325  0.022864112  0.023196536            1 
 1526000    1.0204979   -7.6885872    420.60359  0.022968741  0.023188707            1 
 1527000    1.0001414   -7.7402247    420.88398  0.022969001  0.023180962            1 
 1528000    1.0088521   -7.7498793     419.3417  0.022869857  0.023173152            2 
 1529000   0.98252306   -7.7105618    420.59532  0.022923224  0.023165327            3 
 1530000    1.0198694   -7.7411527    420.94291  0.022927174  0.023157542            2 
 1531000    1.0275821   -7.7504522    420.73917  0.022901109  0.023149747            2 
 1532000    1.0049394   -7.7385499    420.89543   0.02289466  0.023142017            2 
 1533000   0.99457973   -7.7077243     420.9498  0.022882681  0.023134254            1 
 1534000    1.0361923   -7.7127165    421.75041  0.022911256  0.023126528            2 
 1535000    1.0306957   -7.7480067    421.99632  0.022909681  0.023118787            1 
 1536000    1.0073605   -7.7377868    422.66324  0.022930948  0.023111001            3 
 1537000    1.0109665   -7.7579786    421.89464  0.022874357  0.023103211            4 
 1538000     1.000495   -7.7413598    421.97732  0.022863964  0.023095427            3 
 1539000   0.97912464   -7.7502819    422.05031   0.02285306  0.023087733            2 
 1540000    1.0073851   -7.7420148    422.41678  0.022858051   0.02307999            2 
 1541000    1.0057623   -7.7412601    421.90118  0.022815335  0.023072274            4 
 1542000    1.0095452   -7.7642546     422.2097  0.022817213  0.023064482            3 
 1543000   0.97281648   -7.7621316    422.76503  0.022832417  0.023056645            2 
 1544000   0.99695888   -7.7454004    423.51537  0.022858126  0.023048861            3 
 1545000   0.99542355   -7.7440936    422.29458  0.022777485  0.023041106            2 
 1546000    1.0174903   -7.7272222    423.19092  0.022811067  0.023033396            2 
 1547000   0.98226785   -7.7837698    421.75189  0.022718805  0.023025518            2 
 1548000    1.0192999   -7.7505855    422.52874  0.022745949  0.023017659            1 
 1549000    1.0057052   -7.7779062     423.0975  0.022761862   0.02300988            2 
 1550000   0.99716857   -7.7642252    422.59408  0.022720112  0.023002149            6 
 1551000    1.0101925   -7.7531242    423.28507  0.022742589  0.022994425            5 
 1552000    1.0100157   -7.7634523    424.63727  0.022800541  0.022986618            3 
 1553000    1.0041703   -7.7754808    423.69972   0.02273555  0.022978822            4 
 1554000   0.99890538   -7.7568356    425.08044  0.022794961   0.02297121            3 
 1555000     1.010805   -7.7242883    425.79311  0.022818494  0.022963586            1 
 1556000   0.99000122   -7.7140889    425.68661  0.022798126  0.022956074            2 
 1557000   0.99028041   -7.7161752    425.89755  0.022794774   0.02294853            3 
 1558000    1.0207923   -7.7276794     424.7176   0.02271703  0.022940999            5 
 1559000   0.96693673   -7.7356057    425.73969  0.022757093  0.022933385            2 
 1560000     1.000158   -7.8025652    424.87206  0.022696157  0.022925684            2 
 1561000    1.0106547   -7.7486943    425.22828  0.022700634  0.022918101            8 
 1562000   0.98390134   -7.7037756    427.22036   0.02279238  0.022910572            3 
 1563000     1.006973   -7.7706735    425.56641  0.022689615  0.022903137            3 
 1564000    1.0131905   -7.7781347    425.23971    0.0226577   0.02289557            3 
 1565000   0.97827589   -7.7714242    426.29661    0.0226995  0.022888001            2 
 1566000   0.98664987   -7.7394301    426.75415  0.022709352  0.022880491            2 
 1567000    1.0240671   -7.7351014    426.22445   0.02266669   0.02287298            3 
 1568000    1.0081799   -7.7473188    426.71522  0.022678317  0.022865394            4 
 1569000    1.0028771    -7.756594    426.16478  0.022634628  0.022857831            2 
 1570000    1.0007028   -7.7375054    425.91816  0.022607121    0.0228503            2 
 1571000   0.98988461   -7.7567997     427.3108  0.022666603  0.022842789            2 
 1572000    0.9950421   -7.7949783    426.38983  0.022603363  0.022835208            5 
 1573000     0.985343   -7.7909984    427.68176  0.022657436  0.022827598            2 
 1574000   0.98632828   -7.7853814    426.77837  0.022595213  0.022819893            4 
 1575000   0.98480457   -7.7772179    427.70984   0.02263015   0.02281234            4 
 1576000    1.0186234   -7.7923623    427.84968  0.022623185  0.022804718            1 
 1577000   0.98692524   -7.7725613    427.78724   0.02260554  0.022797207            4 
 1578000    1.0102559   -7.7661048    428.48915  0.022628282  0.022789737            2 
 1579000   0.99552743   -7.7884157    426.51489  0.022509758  0.022782213            3 
 1580000    1.0029113   -7.7635699    427.99166    0.0225734  0.022774603            3 
 1581000   0.98304453   -7.7981399    428.24014  0.022572219  0.022767132            2 
 1582000   0.99690462   -7.7258427    429.84549  0.022642514  0.022759674            3 
 1583000   0.99406814   -7.8029927      428.193  0.022541219  0.022752062            6 
 1584000   0.98123631   -7.7708657    430.10161    0.0226274  0.022744484            1 
 1585000    1.0079249   -7.7685427    429.71578  0.022592838  0.022736982            2 
 1586000    1.0226926   -7.7698627    430.67212  0.022628842  0.022729601            1 
 1587000   0.99187912   -7.7733975     429.3484  0.022545074  0.022722089            6 
 1588000   0.99731954   -7.7642328    429.48122  0.022537848  0.022714699            4 
 1589000    1.0156611    -7.750237    431.08672  0.022607862  0.022707334            3 
 1590000    1.0210147    -7.739243    431.11694  0.022595227  0.022700096            1 
 1591000    1.0037262   -7.7579561    430.73818  0.022561187  0.022692785            2 
 1592000    1.0074454   -7.7669118    431.11534  0.022566758  0.022685371            4 
 1593000    1.0130059   -7.7619742    431.78273  0.022587504  0.022678012            3 
 1594000   0.99541349   -7.7794057    430.42153  0.022502171  0.022670681            4 
 1595000    1.0045906   -7.7556906    431.35385  0.022536774  0.022663355            2 
 1596000   0.98140882   -7.7644607    431.49332  0.022529935  0.022656034            2 
 1597000   0.99895635   -7.7643252    432.24501  0.022555051  0.022648746            3 
 1598000   0.99477472   -7.7493746    432.50455  0.022554472  0.022641463            2 
 1599000    1.0152871   -7.7081805    434.00529  0.022618579  0.022634367            2 
 1600000   0.99644823   -7.7702268    434.02156  0.022605289  0.022627238            3 
 1601000    0.9875146   -7.7859988     433.4116  0.022559421  0.022620113            3 
 1602000   0.99336578    -7.796862    433.08058   0.02252812  0.022613064            2 
 1603000    0.9740046   -7.7724248    434.27469  0.022576143  0.022606003            4 
 1604000   0.99418314   -7.7412997    434.94176  0.022596725  0.022598889            2 
 1605000   0.98636323   -7.7857425    434.31362  0.022550032  0.022591741            3 
 1606000   0.99702146   -7.7777736    435.09235  0.022576398  0.022584661            2 
 1607000   0.98392795   -7.8142144    433.33548  0.022471245  0.022577596            1 
 1608000    1.0177744   -7.8072398     434.2592  0.022505141  0.022570535            1 
 1609000   0.98328693   -7.7480239    434.84661  0.022521577  0.022563503            4 
 1610000   0.98017891   -7.7727028    435.53857  0.022543404   0.02255648            2 
 1611000   0.99248381   -7.8009634    435.19341  0.022511556   0.02254936            3 
 1612000     1.001108   -7.7503261    436.18577  0.022548892  0.022542316            1 
 1613000   0.98891389   -7.7615926    435.52961  0.022501013  0.022535314            3 
 1614000    0.9957503   -7.8053194    435.24437  0.022472345  0.022528236            2 
 1615000    1.0198584   -7.8209701    434.77983   0.02243446  0.022521146            2 
 1616000    1.0174789   -7.7580869    435.46933  0.022456133  0.022514053            2 
 1617000   0.95359045   -7.7435921     436.7402  0.022507741  0.022507099            2 
 1618000   0.99579124    -7.743737     436.0094  0.022456191  0.022500143            1 
 1619000    1.0153254   -7.7760082    435.91845  0.022437639  0.022493194            1 
 1620000    1.0090049   -7.7613098      436.597  0.022458694  0.022486238            1 
 1621000    1.0057636   -7.7756803    436.91502  0.022461188  0.022479328            3 
 1622000   0.99549642   -7.7798401    436.74371  0.022438539  0.022472346            2 
 1623000   0.98820431    -7.810601    436.65555  0.022420186   0.02246543            5 
 1624000   0.99671844    -7.751233    437.22874  0.022435793  0.022458529            2 
 1625000   0.98586918    -7.784802    437.65154  0.022443669  0.022451681            3 
 1626000    1.0308285   -7.7998302    437.71956  0.022433352  0.022444746            2 
 1627000   0.97740646   -7.7537303    439.24812  0.022497855  0.022437918            1 
 1628000   0.97068879    -7.769561    438.27057  0.022433997  0.022431194            2 
 1629000   0.98742008   -7.7878859     438.3908  0.022426376  0.022424412            2 
 1630000   0.99857058   -7.7742217    439.32387   0.02246032   0.02241776            3 
 1631000   0.97540715   -7.7869595    440.66811  0.022515231  0.022411078            3 
 1632000    0.9941437   -7.7880741    439.03992  0.022418297  0.022404421            7 
 1633000    1.0027339    -7.739316    441.20622  0.022515116  0.022397771            6 
 1634000   0.97384662   -7.7444425     440.9364  0.022487576  0.022391163            2 
 1635000   0.98095538   -7.7974228    439.79511  0.022415653  0.022384412            1 
 1636000   0.96923883   -7.8082726    439.03593  0.022363281   0.02237762            3 
 1637000    1.0032287    -7.777066    439.96859  0.022397098  0.022370812            3 
 1638000   0.98877317   -7.7633378    440.93478  0.022432579  0.022364128            2 
 1639000   0.99449133   -7.7674679    440.62619  0.022403203  0.022357409            2 
 1640000   0.98073666   -7.7655593    441.73177   0.02244572  0.022350637            2 
 1641000    1.0009495   -7.7608042    441.55779  0.022423207  0.022343887            1 
 1642000   0.99684898    -7.783729    440.05245  0.022333153  0.022337067            3 
 1643000   0.97323604   -7.7888636    439.77737  0.022305608  0.022330131            2 
 1644000   0.97914859   -7.8507176    440.77749  0.022342736  0.022323237            2 
 1645000   0.99463322   -7.8186408    440.08471  0.022294058  0.022316285            1 
 1646000   0.98377441   -7.7831208    440.86912  0.022320227  0.022309429            3 
 1647000   0.96606492   -7.7463758    441.39311  0.022333187  0.022302658            2 
 1648000   0.97853887   -7.7601205    443.10359  0.022406128  0.022295947            1 
 1649000   0.98423192   -7.7889015    441.68821  0.022321013  0.022289263            2 
 1650000    0.9886672    -7.785585     441.7998  0.022313121  0.022282582            4 
 1651000   0.97551383   -7.7735199    442.43937  0.022331888  0.022275924            2 
 1652000   0.99444354   -7.8137561    441.79904   0.02228607  0.022269323            3 
 1653000   0.98227509   -7.7909336    442.00927  0.022283185  0.022262662            1 
 1654000   0.99982052   -7.8123772    443.87695  0.022363812  0.022255926            2 
 1655000    1.0024448   -7.8116217    443.19313  0.022315867  0.022249345            3 
 1656000    1.0117073   -7.7838396    444.17222  0.022351662  0.022242784            2 
 1657000   0.96875324   -7.8103007    443.00304  0.022279372  0.022236284            4 
 1658000    1.0049743   -7.7829596    445.03683  0.022368156  0.022229753            4 
 1659000   0.97411464   -7.7942149    444.12511  0.022308876    0.0222233            6 
 1660000   0.98870614     -7.77824    444.74453  0.022326533  0.022216789            2 
 1661000   0.98642746   -7.7920439    445.08797  0.022330322  0.022210281            6 
 1662000    1.0059318   -7.7523398    445.55961  0.022340534  0.022203805            4 
 1663000   0.98912889   -7.7919466    445.34519  0.022316356    0.0221973            3 
 1664000   0.97210737   -7.8059901     445.1968  0.022295513    0.0221908           10 
 1665000   0.99170589   -7.7384665     447.1123  0.022377993  0.022184391            1 
 1666000    0.9679338   -7.8018679    445.80369  0.022299104  0.022177888            2 
 1667000   0.98262882   -7.7984584    445.11148  0.022251124  0.022171314            2 
 1668000   0.99803379   -7.7807944    444.57807  0.022211135  0.022164737            1 
 1669000   0.98670379   -7.7560583    446.47068  0.022292325  0.022158212            1 
 1670000   0.98043998   -7.7718123    446.32951  0.022271932  0.022151689            1 
 1671000   0.98678665   -7.8077375    446.21706  0.022252995  0.022145294            3 
 1672000   0.99652043   -7.8052457    446.12558  0.022235127  0.022138813            1 
 1673000   0.99987717   -7.8389249    446.23349  0.022227211  0.022132259            4 
 1674000   0.99831943   -7.7560672    447.63332  0.022283618   0.02212577            2 
 1675000   0.97503694   -7.8260857    446.18812  0.022198414  0.022119327            2 
 1676000   0.98575341    -7.827815    447.18227    0.0222346  0.022112824            4 
 1677000   0.97932259   -7.7776877    448.42286  0.022282988  0.022106386            2 
 1678000   0.97441841   -7.7675587    448.17058   0.02225718  0.022099992            4 
 1679000    1.0000328   -7.8241112    447.08385  0.022189987  0.022093559            2 
 1680000   0.99770031   -7.8261089    448.34607  0.022239389  0.022087094            1 
 1681000    1.0019076   -7.8520344    447.32844  0.022175711  0.022080673            3 
 1682000    0.9730766   -7.7719734    449.39515   0.02226492  0.022074299            3 
 1683000   0.97061043   -7.7914943    448.62326  0.022213471  0.022067933            4 
 1684000   0.98264634   -7.7972657     448.9278   0.02221535  0.022061455            3 
 1685000   0.99001301   -7.8030564    447.75242  0.022144036  0.022055064            3 
 1686000   0.98218037    -7.787502    447.84704  0.022135579   0.02204859            2 
 1687000   0.98891111   -7.8067778    449.56882   0.02220751  0.022042099            2 
 1688000   0.98782758   -7.8232968    449.23446  0.022177847  0.022035646            2 
 1689000   0.99093815   -7.7847916    449.87984  0.022196558   0.02202914            5 
 1690000    1.0079544   -7.7976029    448.73892  0.022127166  0.022022659            2 
 1691000   0.96790132   -7.7984646    448.56101  0.022105313  0.022016138            1 
 1692000   0.98353084    -7.805716    448.94832  0.022111324  0.022009652            4 
 1693000   0.99168913   -7.7954836    449.06684  0.022104097  0.022003052            1 
 1694000    0.9844633   -7.7998919    448.06911  0.022041967  0.021996541            6 
 1695000   0.97800498   -7.8160216    449.29044  0.022089009  0.021989978            2 
 1696000   0.98146268   -7.8487213     450.0128  0.022111478  0.021983535            3 
 1697000   0.97666281   -7.7788629    449.83968  0.022089947  0.021977023            3 
 1698000   0.98468751   -7.7888884    450.71836  0.022120061   0.02197056            2 
 1699000   0.99321196   -7.8165856    449.76186  0.022060126  0.021964098            3 
 1700000   0.97067915   -7.7952381    450.68042  0.022092177  0.021957568            1 
 1701000    1.0064411   -7.8461615    448.19682  0.021957516  0.021950928            9 
 1702000   0.98141783   -7.8072834    450.34427  0.022049758  0.021944323            3 
 1703000    0.9853392   -7.8474094    450.76524   0.02205741  0.021937701            2 
 1704000   0.97446751   -7.8106571     450.9809  0.022055013   0.02193107            3 
 1705000   0.97784525   -7.8004351    451.23633  0.022054562  0.021924495            2 
 1706000   0.95706594   -7.8655427    449.16639  0.021940523    0.0219179            1 
 1707000   0.97034211   -7.8125192    451.02502  0.022018406  0.021911344            2 
 1708000   0.95282046    -7.792719    451.82747  0.022044666  0.021904806            2 
 1709000   0.97320831   -7.8105856      451.141  0.021998293   0.02189826            2 
 1710000   0.99571057   -7.7809536    451.88673   0.02202177  0.021891691            3 
 1711000   0.98066837    -7.800293    450.72571  0.021952353  0.021885324            1 
 1712000   0.97652357   -7.8202342    450.20633  0.021914249  0.021878826            2 
 1713000   0.95729232   -7.7952241    450.09161  0.021895875  0.021872241            2 
 1714000   0.99379924    -7.841934    451.50952  0.021952038  0.021865579            2 
 1715000   0.96242661    -7.813558    452.70274  0.021997218  0.021859011            3 
 1716000   0.97859363    -7.811921    452.19992  0.021959981  0.021852369            3 
 1717000   0.98958312   -7.8519994    451.05912  0.021891823  0.021845716            4 
 1718000   0.95904083    -7.885633    450.15794  0.021835368  0.021838995            1 
 1719000   0.96193931   -7.8494274    451.25993  0.021876088  0.021832141            4 
 1720000   0.99235306   -7.8273621    452.23771  0.021910742  0.021825482            5 
 1721000   0.97692957   -7.8390455    450.45931  0.021811898  0.021818796            2 
 1722000   0.95839843   -7.8494382    452.38762  0.021892548  0.021812106            2 
 1723000   0.97464954   -7.8166683    452.17303  0.021869464  0.021805441            1 
 1724000   0.97444413   -7.8357251    452.69058  0.021881795  0.021798868            2 
 1725000   0.98080078   -7.8231411    453.68657  0.021917226  0.021792344            4 
 1726000   0.97519685   -7.8460412    452.29256  0.021837223  0.021785855            2 
 1727000   0.98796819   -7.8344201    452.39434  0.021829489   0.02177928            3 
 1728000   0.97376395   -7.7967823     453.3735  0.021864077  0.021772714            1 
 1729000   0.98144355   -7.7834305    453.20948  0.021843526  0.021766198            2 
 1730000   0.98246525   -7.8370967    451.70134  0.021758253  0.021759659            1 
 1731000   0.98156192   -7.8216641    454.34552  0.021872979  0.021753052            4 
 1732000   0.97817094   -7.8340192    453.64636  0.021826711  0.021746461            6 
 1733000   0.95844836   -7.8056877    455.19245  0.021888462  0.021739919            2 
 1734000   0.96690763   -7.8068578    454.78842  0.021856421  0.021733429            3 
 1735000    0.9666922   -7.8645457    453.28512   0.02177162  0.021726845            3 
 1736000    0.9994649   -7.8313189     453.2071  0.021755333  0.021720302            7 
 1737000   0.99143318   -7.8685237    454.49514  0.021804603  0.021713734            2 
 1738000   0.98181404   -7.8357362    454.66701  0.021800298  0.021707187            3 
 1739000   0.96310593   -7.8271163    455.04774  0.021806006  0.021700594            1 
 1740000   0.96799056   -7.8549714    453.35716  0.021712508  0.021693983            2 
 1741000   0.97344084   -7.8292596    454.66129  0.021762459  0.021687308            3 
 1742000   0.97303579   -7.8213067    454.61873   0.02174793  0.021680687            1 
 1743000   0.98016612   -7.8327446    454.53626   0.02173151  0.021674114            5 
 1744000   0.96921118   -7.8357663    453.80876  0.021684287  0.021667588            1 
 1745000   0.96715342   -7.8363075    455.07054  0.021732117   0.02166097            3 
 1746000   0.94173924   -7.8605404    456.00271  0.021764161  0.021654358            4 
 1747000   0.98286651   -7.8283493    455.47679  0.021726617  0.021647843            2 
 1748000   0.96025478   -7.8281465    455.65155  0.021722519  0.021641354            2 
 1749000   0.96571462   -7.8725251    455.27109  0.021691971  0.021634764            7 
 1750000   0.97211265   -7.8255645    456.22711  0.021725101  0.021628302            4 
 1751000   0.95342154   -7.8418981    456.16454  0.021709715  0.021621789            4 
 1752000   0.98306767   -7.7973089    457.79105  0.021774689  0.021615332            3 
 1753000   0.96982795   -7.8554598    456.04157  0.021679101   0.02160881            2 
 1754000   0.98607881   -7.8568362    457.03888  0.021714124  0.021602358            3 
 1755000   0.94826737   -7.8464222      457.667  0.021731576  0.021595866            1 
 1756000   0.95461552   -7.8099745    458.20383  0.021744677  0.021589514            3 
 1757000   0.97464724   -7.8035348    457.96638  0.021721039  0.021583172            2 
 1758000   0.98115001   -7.8234561    458.95724  0.021755652  0.021576849            2 
 1759000   0.98615689   -7.8882076    456.64454  0.021633719  0.021570427            4 
 1760000   0.94810377    -7.843918    459.03372  0.021734551  0.021563996            1 
 1761000   0.96586633   -7.8367097    458.42628  0.021693464  0.021557635            2 
 1762000    0.9888766    -7.834269    458.65832  0.021692126  0.021551284            2 
 1763000   0.95936006   -7.8226203    459.78889  0.021733262  0.021544906            4 
 1764000   0.95773138   -7.8436401    458.49786  0.021659952  0.021538484            2 
 1765000   0.94497043   -7.8413971    459.92287  0.021714961  0.021532117            1 
 1766000   0.96502016   -7.8465392    459.47528  0.021681544  0.021525788            4 
 1767000   0.98144009   -7.8529117    459.19222  0.021655924  0.021519444            6 
 1768000   0.97452018   -7.8242583    458.42263  0.021607401  0.021513165            2 
 1769000     0.973968   -7.8497386    460.27177  0.021682296  0.021506811            1 
 1770000   0.98073377   -7.8544876    458.52559  0.021587834  0.021500466            1 
 1771000   0.98277656   -7.8303153     460.6808  0.021677056  0.021494121            2 
 1772000   0.96915169   -7.8623603    459.94763  0.021630344  0.021487789            5 
 1773000   0.97011011   -7.7926674    459.91954  0.021616824  0.021481482            3 
 1774000   0.96801323   -7.7931675    462.16368  0.021710056  0.021475182            2 
 1775000   0.96389732   -7.8680704    460.63613   0.02162611  0.021468856            1 
 1776000   0.97511519   -7.8555987    460.17889  0.021592478  0.021462508            6 
 1777000   0.97059041    -7.832018    460.49901  0.021595339  0.021456109            3 
 1778000   0.96261068   -7.8828146    460.11136  0.021565025  0.021449739            1 
 1779000   0.95958227   -7.8605627    459.10284   0.02150566  0.021443241            2 
 1780000   0.95538881   -7.8349469    459.72136  0.021522536  0.021436729            3 
 1781000   0.96515625   -7.8323497    460.41972  0.021543127  0.021430297            3 
 1782000   0.96645015   -7.8259387    460.77933  0.021547855  0.021423845            3 
 1783000   0.96891786   -7.8074098     461.0088  0.021546495  0.021417436            1 
 1784000   0.97865229   -7.8605459    461.19564  0.021543144  0.021411067            7 
 1785000   0.96664467   -7.8622552    461.21098  0.021531792  0.021404586            3 
 1786000   0.95768603   -7.8379408    461.98147  0.021555686  0.021398118            3 
 1787000   0.95636609   -7.8855235    460.29428  0.021464945  0.021391679            1 
 1788000   0.95639598   -7.8457768    461.12569   0.02149169  0.021385264            2 
 1789000   0.96846245   -7.8475212    462.72773  0.021554301  0.021378912            1 
 1790000   0.95628976   -7.8628913    461.31497  0.021476488  0.021372513            3 
 1791000    0.9642417   -7.8249044    462.08224  0.021500197  0.021366095            2 
 1792000   0.94096442   -7.8348928    462.01909  0.021485263  0.021359733            3 
 1793000   0.97980676   -7.8470004    462.20619  0.021481976  0.021353377            5 
 1794000    0.9681188    -7.842465    463.50543  0.021530353  0.021347002            7 
 1795000   0.97130154   -7.8769587    462.14424  0.021455165  0.021340626            3 
 1796000   0.97779417   -7.8802359    463.34237  0.021498811  0.021334228            2 
 1797000   0.97936292   -7.8490786    462.42568  0.021444337  0.021327842            2 
 1798000   0.98127281   -7.8773121    463.42082  0.021478533  0.021321449            4 
 1799000   0.94850858   -7.8158599    462.75915  0.021435944  0.021315066            1 
 1800000   0.95373263   -7.8061555    464.70909   0.02151431  0.021308746            5 
 1801000   0.95730367   -7.8597218    462.12969  0.021383014  0.021302356            1 
 1802000   0.95273664   -7.8283168    463.71664  0.021444536  0.021295957            1 
 1803000   0.96331278   -7.8383004    463.48501  0.021421936  0.021289607            4 
 1804000   0.95551531   -7.8640558    464.15673  0.021441091  0.021283371            2 
 1805000   0.96740173   -7.8594397    463.86975  0.021415963  0.021277023            2 
 1806000   0.95665691   -7.8560768    463.59938  0.021391629  0.021270603            1 
 1807000   0.96341225     -7.84879    464.25164  0.021409871  0.021264144            2 
 1808000   0.96242634   -7.8327856    464.75744  0.021421342  0.021257734            3 
 1809000   0.94964346   -7.8552676    463.94654  0.021372146  0.021251311            4 
 1810000   0.94599724   -7.8780598    464.08709  0.021366809  0.021244874            2 
 1811000   0.96644846   -7.8617266    463.54185  0.021329921  0.021238452            2 
 1812000   0.97762325   -7.8656781    462.95362  0.021291097   0.02123196            2 
 1813000    0.9764768   -7.8565271    464.46041  0.021348612  0.021225421            4 
 1814000   0.95890025   -7.8752832    463.24548  0.021281031  0.021218851            2 
 1815000   0.96883717   -7.8758582    463.27651   0.02127073  0.021212255            2 
 1816000   0.94775447   -7.8575333    463.62938   0.02127521  0.021205718            2 
 1817000   0.95977601   -7.8790873    463.03394  0.021236193  0.021199107            2 
 1818000    0.9724806   -7.8554132    463.77393  0.021258431    0.0211926            2 
 1819000   0.94781629   -7.8530897    464.73699  0.021290864  0.021186017            4 
 1820000   0.96855633   -7.8512672    464.13488  0.021251597  0.021179437            2 
 1821000   0.96022383   -7.8357834    465.09271   0.02128376  0.021172921            2 
 1822000   0.94820912   -7.8678842    466.15706  0.021320758  0.021166471            2 
 1823000   0.94454965   -7.8485434    464.55013  0.021235607  0.021159923            2 
 1824000   0.94994075   -7.8684704     464.5951  0.021226019  0.021153397            1 
 1825000   0.97702513   -7.8650184    465.31998  0.021247488  0.021146959            4 
 1826000   0.96372128   -7.8430009     466.0425  0.021268825    0.0211405            2 
 1827000   0.96936287   -7.8769744    467.42584  0.021320281  0.021134046            7 
 1828000   0.95606115   -7.8682751    465.66991   0.02122857  0.021127522            2 
 1829000   0.95764947   -7.8613585    464.66906  0.021171362  0.021120983            1 
 1830000   0.95389417   -7.8796259    464.25848  0.021141097  0.021114321           10 
 1831000   0.95072256   -7.8716275    465.39542  0.021181295  0.021107703            1 
 1832000   0.96412762   -7.8428305    466.39894  0.021215381  0.021101142            3 
 1833000   0.95438518   -7.8772513    466.41849  0.021204696  0.021094582            2 
 1834000   0.95665422   -7.8455165    467.47979  0.021241357  0.021087988            3 
 1835000   0.93845311   -7.9000391    465.03449  0.021118732  0.021081331            7 
 1836000    0.9619317   -7.8594053     465.9513  0.021148842  0.021074735            2 
 1837000   0.95417813   -7.8772575    466.01732  0.021140325  0.021068198            1 
 1838000    0.9290834   -7.8493033    466.41509  0.021146858  0.021061617            4 
 1839000   0.94522403   -7.8714893    466.98064  0.021160986  0.021055028            4 
 1840000   0.93609223      -7.8452    465.29948  0.021073346  0.021048427            2 
 1841000   0.95354827   -7.8908012     466.9941  0.021138607   0.02104184            5 
 1842000   0.95459841   -7.8901135    466.42966  0.021101595  0.021035253            4 
 1843000   0.96576698   -7.8732758    466.31685  0.021085045  0.021028631            3 
 1844000   0.95246828   -7.8379615    468.17193  0.021157444  0.021022047            3 
 1845000   0.96642332   -7.9045103    466.53909  0.021072226  0.021015526            5 
 1846000   0.96751787   -7.8530888    467.80167  0.021117807  0.021009035            2 
 1847000   0.96957667   -7.8884548    468.12298  0.021120871  0.021002554            2 
 1848000   0.95547215   -7.8729916     468.3749  0.021120802  0.020996039            3 
 1849000   0.95577184   -7.8675059    467.89648  0.021087817  0.020989497            4 
 1850000   0.97302946   -7.8765676      466.197  0.020999865  0.020982958            2 
 1851000   0.93522827   -7.8745155    467.24803  0.021035838  0.020976479            3 
 1852000   0.95477077    -7.889835    466.82093  0.021005262  0.020969973            3 
 1853000   0.96974048   -7.8442381    468.75779   0.02108103  0.020963437            2 
 1854000   0.94062263   -7.8810323    468.60603  0.021062839  0.020956918            1 
 1855000   0.95559718   -7.8629681    468.05726  0.021026831  0.020950416            3 
 1856000   0.94597845   -7.8950184     467.8368  0.021005603  0.020943802            5 
 1857000   0.97953893   -7.9028157    467.45786  0.020977287  0.020937207            2 
 1858000   0.97892893   -7.8946506    467.85194  0.020983671   0.02093058            3 
 1859000   0.95568506   -7.8989363    468.66184  0.021008689  0.020923964            2 
 1860000   0.96142065   -7.8976281    469.19333  0.021021206  0.020917421            4 
 1861000   0.94444237   -7.8521499    469.12884  0.021007023   0.02091082            3 
 1862000   0.94853735   -7.8911669    468.50698   0.02096791  0.020904159            6 
 1863000   0.93595549   -7.8624969    467.68373  0.020919831  0.020897517            1 
 1864000   0.96197573   -7.8697075    469.75678  0.021001287  0.020890941            3 
 1865000   0.94939176   -7.8553812    469.86225  0.020994738  0.020884435            1 
 1866000   0.98519035   -7.9061862     467.6583  0.020885062  0.020877866            2 
 1867000   0.93863164   -7.8719547    469.89067  0.020973517  0.020871337            6 
 1868000   0.96956037   -7.8660974    470.28007  0.020979661  0.020864809            1 
 1869000   0.94104835   -7.8932249    469.49601  0.020933476  0.020858214            3 
 1870000   0.94955673   -7.8736911    469.37607  0.020916937  0.020851647            3 
 1871000   0.97101377   -7.9112466    469.19888  0.020897866    0.0208451            6 
 1872000   0.94070193   -7.8754039    469.84018   0.02091525  0.020838489            3 
 1873000   0.95326356   -7.9147548    468.81877  0.020858639  0.020831904            1 
 1874000    0.9742022   -7.8793269    470.15124  0.020906761  0.020825299            3 
 1875000   0.93905085   -7.9024234    469.75247  0.020877888  0.020818776            1 
 1876000   0.92046007   -7.9039796    468.91135  0.020829395  0.020812177            7 
 1877000   0.95300077   -7.8853205    470.20193  0.020875596  0.020805559            2 
 1878000   0.95598489   -7.8860113    470.07103  0.020858672  0.020799048            3 
 1879000    0.9515557   -7.9027378    470.10634  0.020849137  0.020792512            2 
 1880000   0.97405223   -7.9217261    470.16648  0.020840713  0.020785957            1 
 1881000   0.96409471   -7.8601028    471.81499  0.020902666  0.020779453            6 
 1882000   0.94783797   -7.9295771    470.46735  0.020831888  0.020772976            1 
 1883000   0.95570898   -7.8849199    472.99025  0.020932477  0.020766518            2 
 1884000   0.95662802   -7.8345615    472.50186  0.020899764  0.020760121            5 
 1885000   0.95914453   -7.8827539     473.2132  0.020920124  0.020753704            2 
 1886000    0.9476421   -7.8876249    470.91344  0.020807416  0.020747266            2 
 1887000   0.94916027   -7.8610784    472.39923  0.020862004  0.020740865            2 
 1888000   0.94399142   -7.8904625     471.4838  0.020810549  0.020734371            8 
 1889000   0.93166577   -7.8956869    473.21323  0.020875826  0.020727889            4 
 1890000   0.94814713   -7.9089136    471.34864  0.020782568  0.020721392            1 
 1891000   0.95317516   -7.9263462    472.19832  0.020809022  0.020714925            4 
 1892000   0.91772134   -7.8722209    473.74378  0.020866093  0.020708423            2 
 1893000   0.91875645   -7.8745141    472.86835  0.020816532  0.020701908            4 
 1894000   0.95864817   -7.9509014    472.65799  0.020796286  0.020695305            6 
 1895000   0.93143156   -7.9038699    471.81195  0.020748107  0.020688714            2 
 1896000   0.95883131   -7.9106055     472.2277  0.020755437  0.020682131            3 
 1897000   0.93697107   -7.8925153    473.05738  0.020780943  0.020675657            2 
 1898000   0.93928418   -7.8784486    473.50498  0.020789646  0.020669201            4 
 1899000    0.9714648   -7.8813501    474.39467   0.02081774  0.020662715            3 
 1900000   0.95473229    -7.885255    473.55545  0.020769976   0.02065618            4 
 1901000   0.95395468   -7.8968618    472.78041  0.020725075  0.020649699            3 
 1902000   0.93682858   -7.9118247    473.45755  0.020743847  0.020643173            2 
 1903000    0.9912325     -7.96458    472.03969  0.020670857  0.020636636            2 
 1904000   0.92914405    -7.932226    472.37084  0.020674494  0.020630063            2 
 1905000    0.9553298   -7.9117726    473.93453  0.020732044  0.020623523            2 
 1906000   0.96661452   -7.8840406     475.5356  0.020791168  0.020617066            4 
 1907000     0.954932   -7.9035232    473.70082  0.020700088  0.020610648            3 
 1908000   0.95559099   -7.9043023    474.85639  0.020739709  0.020604239            3 
 1909000   0.94825684    -7.938011    473.87563  0.020686032  0.020597792            1 
 1910000   0.95336432   -7.9370856    472.05579  0.020595803  0.020591326            2 
 1911000   0.94470862   -7.8867983    474.33832   0.02068456  0.020584875            4 
 1912000   0.95758768    -7.914524    474.59696  0.020685014    0.0205784            2 
 1913000   0.93504132   -7.8968306    474.11549  0.020653227  0.020571956            3 
 1914000   0.95007189   -7.9209176    475.59331  0.020706779  0.020565558            1 
 1915000   0.94995214   -7.9056743    474.84262  0.020663299  0.020559094            2 
 1916000   0.97532306    -7.945309    475.08914  0.020663237  0.020552615            3 
 1917000   0.93695668   -7.9568921    474.13793  0.020611108  0.020546081            2 
 1918000   0.95359415   -7.8874477    475.45427  0.020657554  0.020539559            2 
 1919000   0.93626886   -7.9032553    476.89478  0.020709344  0.020533068            2 
 1920000   0.93383189   -7.8879456    475.11289  0.020621219  0.020526619            9 
 1921000   0.94696674   -7.9193753    476.10883  0.020653689  0.020520216            2 
 1922000   0.95248146   -7.9339365    475.13434  0.020600691  0.020513708            4 
 1923000   0.95122767   -7.9205294    475.44829  0.020603583  0.020507212            5 
 1924000   0.94106821   -7.9482804    475.65391  0.020601781  0.020500738            1 
 1925000   0.91919984   -7.9212953    476.02802  0.020607274  0.020494241            2 
 1926000   0.91720087   -7.9229124    476.68859  0.020625155   0.02048776            3 
 1927000    0.9533785   -7.8924283    476.25046  0.020595505  0.020481322            1 
 1928000   0.95204116   -7.8872857    476.83099  0.020609915  0.020474939            2 
 1929000   0.95680778   -7.9245082    476.96538  0.020605036  0.020468573            3 
 1930000   0.93668663   -7.9256409    475.97628  0.020551653  0.020462144            1 
 1931000   0.95755009    -7.917649    477.18273  0.020593075  0.020455747            2 
 1932000   0.93292566   -7.9303649    477.02782  0.020575734  0.020449395            2 
 1933000   0.96737877   -7.9149717    477.97431  0.020605894  0.020443059            2 
 1934000   0.96326196    -7.925411    478.06099  0.020598974  0.020436697            1 
 1935000   0.94349897   -7.9113457    477.90544   0.02058163  0.020430389           12 
 1936000   0.95367669   -7.9180877    477.31488  0.020545578  0.020424048            2 
 1937000    0.9529476   -7.9520619    476.70031  0.020508532  0.020417696            4 
 1938000   0.94594595   -7.8968904    478.54056  0.020577079   0.02041137            3 
 1939000   0.92510844   -7.9431373    477.14248  0.020506381  0.020404981            2 
 1940000   0.93978694   -7.9222141     478.1986  0.020541177  0.020398604            2 
 1941000   0.92687977   -7.9107345    477.78334  0.020512766  0.020392231            2 
 1942000   0.93091802   -7.9522951    477.11617  0.020473574  0.020385853            6 
 1943000   0.91678066   -7.9082523    478.28278  0.020513072  0.020379528            2 
 1944000   0.93111522   -7.9211464    477.26097  0.020458718  0.020373172            4 
 1945000    0.9407368   -7.9520476    478.68394  0.020509166  0.020366768            2 
 1946000   0.95913834   -7.9167543    478.15542  0.020475994  0.020360431            7 
 1947000   0.94684042   -7.9572664    479.00204  0.020501714  0.020354074            2 
 1948000   0.93026806   -7.9209737    479.03408   0.02049256  0.020347749            4 
 1949000   0.93885084   -7.9223722    479.01841  0.020481375  0.020341429            3 
 1950000    0.9312976   -7.8997939    479.66804  0.020498634  0.020335057            3 
 1951000   0.94139421   -7.9025602    479.00094  0.020459633  0.020328695            1 
 1952000   0.95441103   -7.9163144    478.80153  0.020440639  0.020322363            2 
 1953000    0.9289148   -7.9407217    480.29725  0.020493994   0.02031604            2 
 1954000   0.93863214   -7.9142074     478.9876  0.020427653  0.020309644            5 
 1955000     0.969228   -7.9107669    479.84026  0.020453549  0.020303256            2 
 1956000   0.94640438   -7.9683531     479.5389  0.020430253  0.020296925            3 
 1957000   0.94101899   -7.9452064    479.92899  0.020436424  0.020290578            3 
 1958000   0.93758261   -7.9301422     481.1539   0.02047812  0.020284248            2 
 1959000   0.92559493   -7.9412473    479.88458  0.020413671   0.02027792            2 
 1960000   0.92783526   -7.9296932    480.10582  0.020412662  0.020271566            2 
 1961000   0.92917373   -7.9051682    481.68125  0.020469202  0.020265255            3 
 1962000   0.92509178   -7.9225377    480.18452  0.020395197  0.020258965            2 
 1963000   0.92693963   -7.9100443    481.89547   0.02045744  0.020252604            2 
 1964000   0.94846395   -7.9604175    479.03825  0.020325792  0.020246205            2 
 1965000   0.95735635   -7.9642672    480.25232  0.020366935  0.020239767            1 
 1966000   0.94711591   -7.9093101    480.17114  0.020353134  0.020233346            3 
 1967000   0.91175315   -7.9207742     480.2551  0.020346344  0.020226887            5 
 1968000   0.93198195   -7.9390218    479.60311  0.020308397  0.020220455            2 
 1969000    0.9326796   -7.9167911    480.19694  0.020323216  0.020213985            4 
 1970000   0.94177518   -7.9082835    481.48893  0.020367552  0.020207524            1 
 1971000   0.95252394   -7.9595103    479.44077  0.020270623  0.020201088            4 
 1972000   0.93837556    -7.922754    481.09669   0.02033032  0.020194596            3 
 1973000   0.94191682   -7.9582894    480.44183  0.020292357  0.020188109            3 
 1974000   0.93483605   -7.9552168     479.5646  0.020245044   0.02018163            3 
 1975000   0.92920373   -7.9801825    480.54699  0.020276244  0.020175153            2 
 1976000    0.9515419   -7.9650383    480.59328  0.020267935  0.020168651           11 
 1977000   0.95016768   -7.9451844    479.07835  0.020193827  0.020162162            2 
 1978000   0.93155208   -7.9552039    479.88844  0.020217747   0.02015565            5 
 1979000     0.940448   -7.9661476    479.84302  0.020205618  0.020149154            3 
 1980000    0.9530144   -7.9414839    480.51607   0.02022374  0.020142639            5 
 1981000   0.92387675   -7.9561101    481.38529  0.020250096  0.020136112            3 
 1982000   0.93484757   -7.9600084    481.39544  0.020240306  0.020129605            3 
 1983000    0.9366478   -7.9415864    480.89011  0.020208863  0.020123066            4 
 1984000   0.94495429   -7.9229451    481.60948  0.020228893  0.020116574            3 
 1985000   0.95355487   -7.9308088    482.11206  0.020239801  0.020110138            3 
 1986000    0.9678927   -7.9475575    481.22082  0.020192213  0.020103634            6 
 1987000   0.93446552   -7.9346565    482.09272  0.020218618  0.020097201            2 
 1988000   0.93388059    -7.953929    481.17603  0.020170021  0.020090696            2 
 1989000    0.9407832   -7.9439747    481.78765  0.020185506  0.020084169            4 
 1990000   0.94363407   -7.9307878    481.47845  0.020162414  0.020077674            5 
 1991000   0.94633835   -7.9275557    482.19422  0.020182246  0.020071219            2 
 1992000   0.91965873   -7.9369487     481.7729  0.020154489  0.020064754            4 
 1993000    0.9375684   -7.9705814    481.29765  0.020124504  0.020058262           10 
 1994000   0.93597062   -7.9695454    481.37461  0.020117628  0.020051766            3 
 1995000   0.94529917   -7.9558385    482.86049  0.020169611  0.020045314            1 
 1996000   0.93615525   -7.9209888      484.002  0.020207164  0.020038884            4 
 1997000   0.93046685   -7.9804233    482.83639  0.020148405  0.020032423            2 
 1998000   0.91767962   -7.9232291    483.09257  0.020149006  0.020025978            6 
 1999000   0.93617676   -7.9295786    483.29023  0.020147167  0.020019568            2 
 2000000   0.93763198   -7.9527425    482.97958  0.020124149  0.020013184            6 
 2001000   0.92211699   -7.9536955    483.58833  0.020139444  0.020006693            2 
 2002000   0.93842616   -7.9335409    483.14668  0.020111001  0.020000307            6 
 2003000    0.9240002   -7.9292614    483.40157  0.020111565  0.019993918            3 
 2004000   0.92603204   -7.9275747    483.90354  0.020122403  0.019987483            3 
 2005000   0.92950201   -7.9626052    483.71698  0.020104613  0.019981136            4 
 2006000    0.9271397   -7.9582416    482.52152  0.020044928  0.019974773            2 
 2007000     0.947895   -7.9531568    484.11804  0.020101231  0.019968388            4 
 2008000    0.9270146   -7.9264483    485.33009  0.020141521  0.019961978            4 
 2009000      0.92417   -7.9907507    483.16372  0.020041634  0.019955523            2 
 2010000   0.92269174   -7.9617458    484.57746  0.020090276  0.019949169            5 
 2011000   0.93444206   -7.9465512    484.95771  0.020096043  0.019942811            4 
 2012000   0.92297116   -7.9437355    484.93248   0.02008501  0.019936453            3 
 2013000   0.94044539   -7.9447232    483.87444  0.020031232  0.019930067            5 
 2014000   0.91476972   -7.9318529    484.09482  0.020030405  0.019923635            2 
 2015000   0.92819081   -7.9531787    484.39589  0.020032915  0.019917225            2 
 2016000   0.93022056   -7.9840434    483.51641  0.019986624  0.019910766            2 
 2017000   0.90859223   -7.9392014    485.11801  0.020042886  0.019904328            1 
 2018000   0.94544939   -7.9624561    483.87081  0.019981451  0.019897829            4 
 2019000     0.921756   -8.0010629    483.28556  0.019947398  0.019891323            2 
 2020000   0.93863748   -7.9343503    485.34668  0.020022553   0.01988488            3 
 2021000   0.92245252   -7.9429111    485.71167  0.020027695  0.019878511            4 
 2022000    0.9502885     -7.93215    485.98992  0.020029258  0.019872178            5 
 2023000    0.9565951     -7.93333    485.71688   0.02000811  0.019865812            4 
 2024000   0.93563832   -7.9740578    485.88816  0.020005277  0.019859418            4 
 2025000   0.93129698    -7.971722    485.45192  0.019977445  0.019853088            3 
 2026000   0.92573077    -7.961432    486.54628  0.020012598  0.019846756            7 
 2027000   0.94624006     -7.95102    485.18656  0.019946824  0.019840387            3 
 2028000   0.93908186   -7.9396428    486.39295  0.019986561  0.019834001            2 
 2029000   0.93496175   -7.9608871    485.06923  0.019922344   0.01982756            3 
 2030000   0.93179758   -7.9335459     485.2532  0.019920082  0.019821128            3 
 2031000   0.92519245    -7.998652    485.50463  0.019920591  0.019814696            6 
 2032000   0.90031327   -7.9779192    486.72424  0.019960804  0.019808247            2 
 2033000   0.92408042   -7.9657728    486.26741   0.01993226  0.019801867            3 
 2034000   0.91356135   -7.9525382    485.97264  0.019910383  0.019795508            1 
 2035000   0.95717431   -7.9404648    487.38216   0.01995832  0.019789125            7 
 2036000   0.92388048    -7.953773    485.37719  0.019866453  0.019782813            2 
 2037000   0.92836227    -7.936609    487.25219  0.019933406  0.019776518            3 
 2038000   0.94445239   -7.9567876    486.88633  0.019908666  0.019770204            2 
 2039000   0.91421949   -7.9828298    486.58632  0.019886641  0.019763859            4 
 2040000   0.93456746   -7.9690652    487.59737  0.019918193  0.019757529            2 
 2041000   0.92231503   -7.9848645    486.93895  0.019881551  0.019751213            3 
 2042000   0.91744888   -7.9649122    487.71587   0.01990352  0.019744931            3 
 2043000   0.91886067    -7.964169    486.48584  0.019843606  0.019738568            2 
 2044000   0.92180554   -7.9635781    487.61666  0.019880001  0.019732229            2 
 2045000   0.92806525   -7.9520329    488.48643  0.019905722  0.019725934            5 
 2046000   0.92427295   -7.9850761    486.76801  0.019826002  0.019719661            2 
 2047000   0.92151386   -7.9888413    487.22482  0.019834914  0.019713349            2 
 2048000    0.9096166   -7.9787585     487.9677  0.019855456  0.019707016            1 
 2049000   0.93491518   -7.9561606    487.97579  0.019846095  0.019700725            2 
 2050000   0.91310217   -7.9347011    489.66352  0.019905021  0.019694468            2 
 2051000    0.9169562   -7.9903026    488.02324  0.019828671  0.019688191            2 
 2052000   0.92365982   -7.9427133    488.88237  0.019853897  0.019681953            2 
 2053000   0.92697033   -7.9490945    489.66834   0.01987613  0.019675673            6 
 2054000   0.92456524   -7.9717821    488.17441  0.019805843  0.019669426            3 
 2055000   0.91800755   -7.9812215    488.14832  0.019795147  0.019663074            2 
 2056000   0.92543437   -7.9855551    488.65539  0.019806071  0.019656754            5 
 2057000   0.91749886   -7.9819807    487.99534  0.019769703  0.019650426            1 
 2058000   0.92362596   -7.9356469    488.43814  0.019778026  0.019644077            3 
 2059000    0.9059361   -8.0021266    488.93041  0.019788344   0.01963771            4 
 2060000   0.92001469   -7.9537617    489.43197  0.019799028  0.019631406            5 
 2061000   0.93096661   -7.9666301    489.83026  0.019805525  0.019625164            2 
 2062000   0.92703373   -7.9721441    489.21092  0.019770891  0.019618821            3 
 2063000   0.89705116   -7.9722667    489.58034   0.01977623  0.019612497            5 
 2064000   0.90923505   -7.9668175    489.60537  0.019767659  0.019606262            2 
 2065000   0.91126713   -7.9426005    491.42151  0.019831376       0.0196            3 
 2066000   0.92994692   -7.9803421    489.05195    0.0197262  0.019593736            2 
 2067000    0.9150545   -7.9910369    489.92493  0.019751852  0.019587444            2 
 2068000   0.92598137   -7.9361097    489.64307  0.019730942  0.019581173            2 
 2069000   0.93132772    -7.963566    490.39979  0.019751885  0.019574904            5 
 2070000   0.93472364   -7.9384008    490.79732  0.019758346  0.019568638            4 
 2071000   0.90923382     -7.96554    490.01834  0.019717461  0.019562417            3 
 2072000   0.92803818    -7.937182    489.99485     0.019707  0.019556164            6 
 2073000   0.91984288   -7.9894937    490.19842  0.019705677  0.019549829            3 
 2074000   0.92186407   -7.9827571    490.31084  0.019700693  0.019543484            5 
 2075000   0.91101491   -7.9834679    490.94948  0.019716847   0.01953716            6 
 2076000   0.92019075   -7.9667262    491.20172  0.019717474  0.019530926            5 
 2077000   0.94566889   -7.9408821     491.5532  0.019722083  0.019524704            2 
 2078000   0.92102652   -7.9809788     491.2026  0.019698532  0.019518491            2 
 2079000    0.9411053   -7.9719621    491.95356  0.019719158  0.019512306            5 
 2080000   0.92003792   -7.9588276    491.57594  0.019694549  0.019506073            2 
 2081000   0.90524368   -7.9923563    491.53534  0.019683459   0.01949981            2 
 2082000   0.93739786   -7.9448742    491.52044  0.019673409  0.019493544            1 
 2083000   0.93923792   -7.9698443    491.90224  0.019679238   0.01948736            3 
 2084000     0.916703   -7.9717051    491.62942  0.019658886  0.019481118            2 
 2085000   0.92587716   -7.9580129    491.90559  0.019660495  0.019474934            2 
 2086000   0.92575641   -8.0105116    490.90808  0.019611221   0.01946866            2 
 2087000   0.91782875    -7.925074     492.9578  0.019683669  0.019462452            2 
 2088000   0.91351847   -7.9882314    491.36047  0.019610491   0.01945623            2 
 2089000   0.92739807   -8.0094241    490.56351  0.019569312  0.019450018            6 
 2090000   0.91836398   -7.9839622    492.41389  0.019633727  0.019443806            2 
 2091000   0.91485012   -7.9370162    492.72007   0.01963654   0.01943765            2 
 2092000   0.91813079   -7.9705082    493.45331  0.019656362  0.019431506            3 
 2093000    0.9316216   -8.0085949    492.10733   0.01959338  0.019425351            2 
 2094000   0.92616595   -7.9897222    494.12851  0.019664458  0.019419183            5 
 2095000   0.91498225   -8.0137198    492.39141  0.019585975  0.019412942            3 
 2096000   0.91092115   -8.0057463    492.09728  0.019564936  0.019406693            3 
 2097000     0.927661   -8.0180299    493.84137  0.019624915  0.019400446            5 
 2098000   0.91819688   -8.0127986    494.07278  0.019624753  0.019394205            5 
 2099000   0.92940869   -8.0311351     492.6846   0.01956029  0.019387937            4 
 2100000   0.91408486   -8.0289476    492.38391  0.019539044  0.019381753            4 
 2101000   0.90883611   -8.0234182    492.49025  0.019533962  0.019375537            2 
 2102000    0.9005035   -8.0215467    493.12804  0.019549954  0.019369326            4 
 2103000   0.90443541   -7.9945194    492.78999  0.019527262  0.019363144            4 
 2104000   0.93124227   -8.0011003    492.90117  0.019522385  0.019357001            3 
 2105000   0.91603909   -7.9828611    494.14171  0.019562221   0.01935083            5 
 2106000   0.90345539   -8.0217964    492.83013  0.019501034   0.01934466            3 
 2107000   0.90703396   -7.9844283    495.32974   0.01959064  0.019338487            4 
 2108000   0.91952376   -7.9913556    492.89243  0.019484995  0.019332307            4 
 2109000   0.89076791   -7.9999552    495.01796  0.019559742  0.019326108            7 
 2110000   0.91022202   -8.0095388     494.2231   0.01951908   0.01931991            3 
 2111000   0.93770646   -7.9884475    494.73699   0.01953012  0.019313734            6 
 2112000   0.91194321   -8.0083906    495.11588  0.019535822   0.01930764            3 
 2113000   0.91832228    -7.989406    495.52193  0.019542591  0.019301553            3 
 2114000   0.92322906   -8.0084854    494.61027  0.019497409  0.019295408            5 
 2115000   0.90941092   -8.0038029    495.93529  0.019540398   0.01928931            2 
 2116000   0.87862851   -8.0284025    495.09476  0.019498061  0.019283182            3 
 2117000   0.89844974   -8.0195466    495.01929   0.01948588  0.019277084            2 
 2118000   0.91015897   -7.9717779    496.98969  0.019554206  0.019271026            1 
 2119000   0.89330248    -7.981134    495.67161  0.019493142  0.019265004            4 
 2120000   0.90598752    -7.993212     497.1308  0.019541305  0.019258936            2 
 2121000   0.91160089   -8.0075676    495.24651  0.019458059  0.019252883            2 
 2122000   0.90680086   -8.0118034    496.56873  0.019500814  0.019246789            3 
 2123000   0.90166702    -7.994401    495.82898  0.019462591  0.019240707            2 
 2124000   0.92620962   -8.0261283    496.22513  0.019468971  0.019234592            1 
 2125000    0.8979246   -8.0078976    495.37502  0.019426471   0.01922851            3 
 2126000   0.92738512    -8.018046    494.87078  0.019397569  0.019222386            5 
 2127000   0.90880421   -8.0438022    495.72891   0.01942207  0.019216268            3 
 2128000   0.91563097      -8.0129    496.94991  0.019460758  0.019210185            6 
 2129000   0.91270185   -8.0319833    495.28125  0.019386302  0.019204074            5 
 2130000   0.90812088   -8.0323746    496.52931  0.019426029  0.019197914            2 
 2131000   0.90017015   -8.0081378    496.30206  0.019408027   0.01919179            5 
 2132000   0.89039304   -8.0040117    496.79407  0.019418155  0.019185689            2 
 2133000   0.90980085    -7.985011    498.95219  0.019493366  0.019179644            4 
 2134000   0.91085885   -8.0217849    496.75087  0.019398269  0.019173556            3 
 2135000   0.91863003   -7.9701222    497.93631  0.019435453  0.019167459            2 
 2136000   0.92194725   -8.0483174    496.20001  0.019358615  0.019161368            3 
 2137000   0.88529925   -8.0116362    495.60947  0.019326528  0.019155251            3 
 2138000   0.91074534   -8.0285395    496.77485  0.019362911  0.019149143            2 
 2139000   0.90656133   -7.9769665    496.81022  0.019355237  0.019143055            2 
 2140000   0.92783556   -8.0233058    497.81521  0.019385327  0.019136958            2 
 2141000   0.91561412   -8.0198648    497.65759  0.019370138   0.01913086            4 
 2142000   0.92525705   -8.0164246    498.24174  0.019383821   0.01912477            3 
 2143000   0.90207256   -8.0115725    497.88774   0.01936101  0.019118652            2 
 2144000   0.92110887   -8.0181137    496.70764  0.019306112  0.019112573            3 
 2145000   0.89524166   -8.0414496    495.52834  0.019251295  0.019106421            3 
 2146000   0.89841638   -8.0282709    497.01958  0.019300232  0.019100248            4 
 2147000   0.90513993   -8.0001883    498.93948  0.019365761   0.01909407            6 
 2148000   0.91279307   -7.9946053    497.60006  0.019304782  0.019087903            3 
 2149000   0.88991761   -7.9876306    498.40363   0.01932696  0.019081772            5 
 2150000   0.90307378   -8.0318862    496.61703  0.019248722  0.019075613            1 
 2151000   0.90921407   -8.0187437    496.62204  0.019239968  0.019069442            2 
 2152000   0.88803942    -7.994169    499.22861  0.019331963  0.019063309            2 
 2153000   0.86845815   -7.9852001    498.54893  0.019296676   0.01905726            2 
 2154000    0.9152135   -8.0210204    498.43339  0.019283248  0.019051155            3 
 2155000     0.905829   -8.0057619    498.59223  0.019280442  0.019045058            7 
 2156000   0.91379979   -7.9865234     500.3874  0.019340886  0.019038932            2 
 2157000   0.92274602   -7.9790578    499.23864  0.019287538  0.019032847            4 
 2158000    0.9067732   -8.0214925    497.96854  0.019229554  0.019026782            5 
 2159000     0.906101   -7.9959059    498.77054  0.019251603  0.019020702            2 
 2160000     0.911579   -7.9696541    499.57213  0.019273616  0.019014628            1 
 2161000   0.89925545   -8.0268239    499.36981  0.019256895  0.019008577            3 
 2162000   0.90779423   -8.0472858    498.23981  0.019204433  0.019002497            2 
 2163000   0.89840759   -8.0395301    498.99882  0.019224797  0.018996451            5 
 2164000   0.90741477   -8.0123706    498.66142   0.01920292  0.018990351            2 
 2165000   0.92617839   -8.0228256    498.58689  0.019191181  0.018984313            7 
 2166000   0.88101663   -8.0371527    499.59912  0.019221265  0.018978222            3 
 2167000   0.89072766   -8.0316477    497.93741  0.019148493  0.018972148            4 
 2168000   0.91829676    -8.015876    500.30065  0.019230498   0.01896606            4 
 2169000   0.90995412    -8.003827    500.48889  0.019228865      0.01896            6 
 2170000   0.89935794   -8.0071669    499.81245  0.019194026  0.018953961            2 
 2171000   0.90968282    -8.019515    499.75209  0.019182869  0.018947888            5 
 2172000   0.92441436   -7.9937484    500.08943  0.019186979  0.018941796            3 
 2173000   0.90801987    -8.023837    499.97739  0.019173853  0.018935703            2 
 2174000   0.91128694   -8.0367001    500.21823  0.019174265  0.018929605            2 
 2175000   0.90502514   -8.0042805    500.10949  0.019161283  0.018923486            4 
 2176000   0.92549609   -8.0178036    500.30149   0.01915983  0.018917418            3 
 2177000   0.91139269   -8.0282884    500.44171  0.019156397  0.018911387            3 
 2178000   0.89309322   -8.0027852    500.62565  0.019154639  0.018905337            8 
 2179000   0.89574714   -8.0323411    499.05068  0.019085616  0.018899241            4 
 2180000   0.89773177    -8.029882    500.67572   0.01913898  0.018893163            2 
 2181000   0.89249475   -8.0093644    501.22653  0.019151251  0.018887119            1 
 2182000    0.9180135   -8.0452726    499.69179   0.01908386  0.018881037            3 
 2183000   0.90543445   -8.0517394    500.54492  0.019107685  0.018874973            5 
 2184000   0.89358449   -8.0284131    500.73536  0.019106203  0.018868921            3 
 2185000   0.90005648   -8.0482783     500.7381  0.019097563  0.018862824            2 
 2186000    0.8970477   -8.0271107    500.40591  0.019076163   0.01885675            2 
 2187000   0.88413221   -8.0104828    500.60722  0.019075111  0.018850605            3 
 2188000   0.88655722   -8.0623902    500.18521   0.01905032  0.018844458            4 
 2189000   0.91004921   -8.0118994    501.92518  0.019107857   0.01883837            2 
 2190000   0.91100226   -8.0075614    501.87207  0.019097111  0.018832306            4 
 2191000   0.90920559    -8.035646    500.95312  0.019053443  0.018826285            1 
 2192000   0.89876378    -7.976945    502.64284  0.019108989  0.018820258            2 
 2193000   0.89042787   -8.0026943    502.41747  0.019091711  0.018814295            2 
 2194000   0.88604336   -8.0586582    501.41224  0.019044828  0.018808299            3 
 2195000   0.88585377   -8.0475757    502.72132  0.019085851  0.018802261            3 
 2196000   0.92754397   -8.0216204    502.15317    0.0190556  0.018796274            1 
 2197000   0.90423181    -8.028319    501.24562  0.019012503  0.018790233            3 
 2198000   0.89958428   -8.0421325    500.45235  0.018973777  0.018784182            2 
 2199000   0.91213598    -8.046143     501.9008  0.019020039  0.018778092            2 
 2200000   0.90562204   -8.0700846    501.48301  0.018995569  0.018772026            2 
 2201000   0.89042132   -8.0424496    502.18309  0.019013444  0.018765946            4 
 2202000    0.8940498   -8.0579948    502.38166  0.019012324   0.01875994            1 
 2203000   0.89928369   -7.9565245    502.73003  0.019016872  0.018753933            5 
 2204000   0.88117404   -8.0488847     503.0133  0.019018954  0.018747849            6 
 2205000   0.87621856   -8.0304511     501.7736  0.018963477  0.018741782            2 
 2206000   0.89247753   -8.0699411    501.45672   0.01894291   0.01873573            3 
 2207000   0.88605865   -8.0458064    502.10119  0.018958661  0.018729653            2 
 2208000   0.90193227    -8.024075    504.32554  0.019034025  0.018723661            3 
 2209000   0.91175813   -8.0417994    502.24148  0.018946789  0.018717666            2 
 2210000   0.89648352   -8.0291111    502.82312  0.018960148   0.01871164            2 
 2211000   0.90903657   -8.0374348    502.73267  0.018948163  0.018705587            3 
 2212000   0.90632289   -8.0174436    503.60377  0.018972415  0.018699591            2 
 2213000   0.90249187   -8.0579428    503.42221  0.018957004   0.01869357            6 
 2214000   0.89630941   -8.0452002    502.10607  0.018898903  0.018687532            2 
 2215000   0.91405379   -8.0215389    504.18496  0.018968584  0.018681522            5 
 2216000   0.89675177   -8.0423952    502.84329   0.01890957  0.018675518            5 
 2217000   0.88461445   -8.0173197    503.21796  0.018915124  0.018669535            4 
 2218000   0.90445537   -8.0656746    501.56226  0.018844389  0.018663535            2 
 2219000   0.90926623   -8.0620316    504.04002  0.018928948  0.018657531            1 
 2220000   0.90468776   -8.0409838    503.75805  0.018909837   0.01865149            6 
 2221000   0.89713355   -8.0390318    504.42957  0.018926518  0.018645444            4 
 2222000   0.90563223   -8.0702883    503.79205  0.018894091  0.018639364           11 
 2223000   0.87609926   -8.0610833    502.74144  0.018846208  0.018633328            4 
 2224000   0.87591807   -8.0834755    502.90122  0.018843721  0.018627261            4 
 2225000   0.89179864   -8.0924993     503.7147  0.018865719  0.018621219            5 
 2226000   0.88996178   -8.0283036    503.94803  0.018865979  0.018615202            5 
 2227000   0.90390182   -8.0367283    505.17795   0.01890353  0.018609238            4 
 2228000   0.90100055   -8.0451781    504.71833  0.018877855  0.018603297            2 
 2229000   0.90173449   -8.0762437    504.35268  0.018855716   0.01859731            3 
 2230000   0.89340399   -8.0784601     503.7861  0.018826087  0.018591295            1 
 2231000   0.89577492   -8.0536124    504.22844  0.018834172  0.018585323            7 
 2232000   0.88913863     -8.01167    506.51715  0.018911184  0.018579386            4 
 2233000   0.88278887   -8.0236525    506.88666  0.018916505  0.018573466            2 
 2234000   0.92527766   -8.0527236     504.4672  0.018817786  0.018567589            2 
 2235000   0.91896397   -8.0395613    505.68259  0.018854683  0.018561732            3 
 2236000   0.88227388   -8.0364424    505.98177    0.0188574  0.018555803            7 
 2237000   0.90874693    -8.060598    504.73611  0.018802567  0.018549854            2 
 2238000   0.89825899   -8.0379698    506.06722   0.01884373  0.018543927            4 
 2239000   0.88209033   -8.0493457    504.49112  0.018776653  0.018537955            2 
 2240000   0.88676164   -8.0502897    506.09303  0.018827866  0.018532008            2 
 2241000   0.88139699   -8.0572821    506.18492  0.018822881  0.018526048            2 
 2242000   0.89121536   -8.0378668    506.19123   0.01881472  0.018520088            3 
 2243000   0.88042923   -8.0570606    505.48708  0.018780171  0.018514142            2 
 2244000   0.91064551   -8.0423742    504.93742   0.01875139  0.018508164            5 
 2245000   0.86027413   -8.0555091    505.84695  0.018776799  0.018502181            5 
 2246000   0.87604912     -8.06768    505.21827  0.018745112  0.018496223            2 
 2247000   0.87446259   -8.0490351    505.35449  0.018741822  0.018490286            2 
 2248000   0.89434821   -8.0255583    505.58079  0.018741874  0.018484374            2 
 2249000   0.89379639   -8.0631415    506.97086  0.018785047  0.018478424            3 
 2250000   0.89362012   -8.0551959    506.27525  0.018750935  0.018472454            9 
 2251000   0.88569153   -8.0461179    506.32548  0.018744465  0.018466573            5 
 2252000   0.90468259   -8.0714126    505.48595  0.018705075  0.018460652            5 
 2253000   0.89672844   -8.0603094    505.63467  0.018702274  0.018454705            1 
 2254000   0.91349638   -8.0295572    507.39862  0.018759192  0.018448788            2 
 2255000   0.88842567   -8.0743853    507.68029  0.018761282  0.018442887           14 
 2256000    0.8922508   -8.0710468    506.57485  0.018712132  0.018436941            3 
 2257000   0.88904438   -8.0846119    506.23121  0.018691154  0.018431065            2 
 2258000   0.87639463   -8.0567573    506.84504   0.01870553  0.018425157            6 
 2259000   0.88768978   -8.0826136    505.68509  0.018654459  0.018419223            2 
 2260000   0.88489263   -8.0592232    508.02664  0.018732546  0.018413263            3 
 2261000   0.88630612   -8.0920864    507.22224  0.018694613   0.01840737            2 
 2262000   0.89377153   -8.0768822    507.52072  0.018697344  0.018401516            3 
 2263000    0.8992816   -8.0639001    507.77071  0.018698288  0.018395611            4 
 2264000   0.89565309    -8.079211    506.36542  0.018638303  0.018389743            4 
 2265000   0.89335891   -8.0870115    506.80113  0.018646105  0.018383852            5 
 2266000   0.89978236   -8.0463052    509.07373  0.018721452  0.018377984            5 
 2267000   0.88456674   -8.0726085    507.76254  0.018664996  0.018372167            3 
 2268000   0.88389921   -8.0934764    507.53773  0.018648506  0.018366282            2 
 2269000   0.88596034   -8.0579729     507.5717  0.018641534  0.018360369            5 
 2270000   0.88921683   -8.0919771    507.32448  0.018624247  0.018354446            4 
 2271000    0.8792489    -8.057415    507.49784  0.018622407  0.018348542            7 
 2272000   0.88419743   -8.0542833    509.05222  0.018671223  0.018342675            2 
 2273000   0.91304999   -8.0682479    508.86492  0.018656142  0.018336827            5 
 2274000    0.8870538   -8.0626885    508.69301  0.018641638  0.018330983            1 
 2275000   0.88448815   -8.0669854    508.62383   0.01863091  0.018325202            1 
 2276000   0.88767599   -8.0612171    508.37622  0.018613658  0.018319375            8 
 2277000   0.87811073   -8.0987765     508.8746  0.018623723  0.018313571            4 
 2278000   0.88298002   -8.0642089    509.51664  0.018639034  0.018307769            3 
 2279000   0.88619562   -8.1129793    508.58972  0.018596962  0.018301956            3 
 2280000   0.86798046   -8.0558829    508.61921  0.018589883  0.018296126            2 
 2281000   0.88220372   -8.0670067    509.20458  0.018603119  0.018290306            2 
 2282000   0.87698444   -8.0497391    508.79126  0.018579874  0.018284486            4 
 2283000    0.8916257   -8.0460841    510.50346  0.018634233  0.018278697            2 
 2284000   0.90289464   -8.0767266    510.37952  0.018621553  0.018272881            3 
 2285000   0.86327803   -8.0917112    509.76955  0.018591158  0.018267108            5 
 2286000   0.91920589   -8.0530996    509.59324  0.018576598  0.018261317            1 
 2287000   0.87673741   -8.0610722    510.45919  0.018600029   0.01825557            2 
 2288000   0.87575853   -8.0717095    510.02497  0.018576084  0.018249804            2 
 2289000   0.88621525   -8.0732034    511.14577  0.018608773  0.018244028            5 
 2290000   0.88814709   -8.0600151    509.98604  0.018558444  0.018238272            6 
 2291000   0.87338532   -8.0843835     510.2888  0.018561356  0.018232453            3 
 2292000   0.89265534    -8.084534    510.93362  0.018576702  0.018226665            3 
 2293000   0.89372312   -8.0510815    510.94385  0.018568973  0.018220872            3 
 2294000   0.87691784   -8.0747986    508.99366  0.018490034  0.018215056            2 
 2295000   0.88066655   -8.0937326    510.50175  0.018536737  0.018209221            2 
 2296000   0.88833981   -8.0872206    509.58148  0.018495263  0.018203379            2 
 2297000   0.88660423   -8.0700852    511.14207  0.018543828  0.018197576            4 
 2298000   0.89189378   -8.0476134     510.7914  0.018523042  0.018191788            5 
 2299000   0.88185456   -8.1156906    509.12865  0.018454714  0.018185943            5 
 2300000   0.87611693   -8.0956906    508.93596  0.018439709  0.018180032            2 
 2301000   0.87881859   -8.1042884    509.84287   0.01846454  0.018174147            6 
 2302000   0.87776764   -8.0744872    510.27212  0.018472058  0.018168272            2 
 2303000   0.90094383   -8.1102914    510.57045  0.018474832  0.018162449            3 
 2304000   0.86882418   -8.0577579    511.21478  0.018490118    0.0181566            6 
 2305000   0.89154592    -8.076721    509.81446   0.01843147  0.018150776            5 
 2306000   0.87296267   -8.1293223     509.1879  0.018400835  0.018144897            1 
 2307000   0.88864232   -8.1041368    510.19623  0.018429282  0.018138986            2 
 2308000   0.87555133   -8.1197509    510.45045  0.018430475  0.018133088            4 
 2309000   0.87791193   -8.0983605    509.69285  0.018395151   0.01812721            7 
 2310000   0.89606353   -8.0630615    510.22501  0.018406386  0.018121365            2 
 2311000   0.88732736   -8.1233919    509.27648  0.018364218  0.018115478            1 
 2312000   0.87056089   -8.0795768    511.80544  0.018447428  0.018109553            4 
 2313000   0.87598749   -8.1021466    510.03707  0.018375741  0.018103691            2 
 2314000   0.88962255   -8.1173469     509.9502  0.018364672  0.018097842            8 
 2315000   0.89322426   -8.0528406    512.10452  0.018434288   0.01809197            7 
 2316000   0.88128751   -8.0884374    511.81608   0.01841595  0.018086158            2 
 2317000   0.88032813   -8.0669374    511.14006  0.018383688  0.018080347            5 
 2318000   0.86583533   -8.0641004    511.37245  0.018384112  0.018074517            4 
 2319000   0.87771809   -8.0660871    512.42473  0.018413998  0.018068695            2 
 2320000   0.87298832   -8.0697532    511.95854  0.018389315  0.018062886            3 
 2321000   0.87942874   -8.0850365    511.90675  0.018379533  0.018057095            3 
 2322000   0.86931073    -8.094112    511.25844  0.018348351  0.018051253            4 
 2323000   0.88456554   -8.0764888    512.27669   0.01837698  0.018045453            3 
 2324000   0.87022615   -8.0873347    511.82575  0.018352903  0.018039658            1 
 2325000   0.89958393   -8.0954359    512.60692  0.018373008   0.01803382            3 
 2326000   0.87897996   -8.0861524    511.50671  0.018325692  0.018027974            3 
 2327000   0.89012233   -8.0883026    511.27119  0.018309382  0.018022166            4 
 2328000   0.87224016    -8.065431    514.02263  0.018400008  0.018016399            4 
 2329000   0.89277165   -8.0724818    513.12009  0.018359814  0.018010687            3 
 2330000   0.86058523   -8.1209207    511.74641  0.018302804  0.018004901            3 
 2331000    0.8619401   -8.0855642    512.46013  0.018320468  0.017999056            4 
 2332000   0.87698049   -8.1249651    512.07499  0.018298849  0.017993232            5 
 2333000   0.88601411   -8.1550435    510.22159  0.018224803  0.017987371            3 
 2334000   0.88640506   -8.1093396    510.19204   0.01821594  0.017981409            2 
 2335000   0.87065652   -8.1372777    510.83872  0.018231218  0.017975456            2 
 2336000   0.88416184   -8.0815833    511.67616  0.018253288  0.017969561            4 
 2337000   0.88138993   -8.1026615    511.63349  0.018243956  0.017963659            4 
 2338000   0.87289621   -8.1221328    510.66688  0.018201699  0.017957772            2 
 2339000   0.87817339   -8.1397559    510.63651  0.018192836  0.017951886            2 
 2340000   0.88482593     -8.09009    512.22362  0.018241582  0.017945986            5 
 2341000   0.88437431   -8.0956352    512.94862  0.018259598  0.017940135            2 
 2342000   0.88600408   -8.1170617    511.72903  0.018208406  0.017934292            3 
 2343000   0.86636831   -8.0719506    512.65525  0.018233577  0.017928435            3 
 2344000   0.87773309   -8.0763567    512.65168  0.018225671  0.017922658            4 
 2345000   0.86280539   -8.0636322    514.23834  0.018274284  0.017916869            3 
 2346000   0.87886699   -8.1314643    513.17906  0.018228867   0.01791106            6 
 2347000   0.87876496   -8.0888978    513.60066   0.01823607   0.01790529            3 
 2348000   0.87107391   -8.0901395    513.29462  0.018217441  0.017899532           10 
 2349000   0.88077535   -8.0888725    513.96051  0.018233309  0.017893751            3 
 2350000   0.85008157   -8.0947688    513.72171  0.018217082  0.017887966            2 
 2351000   0.87934223   -8.0954151    513.52281  0.018202283  0.017882189            3 
 2352000   0.90557227   -8.1030033    512.55399  0.018160218  0.017876427            3 
 2353000   0.87342975   -8.1112934    512.32341  0.018144334  0.017870598            3 
 2354000   0.87537587   -8.0524998    515.37084  0.018244507  0.017864831            2 
 2355000   0.88384786    -8.107926    513.63539   0.01817535  0.017859047            5 
 2356000   0.86442845   -8.0962709    513.25398  0.018154145  0.017853267            1 
 2357000   0.91118932   -8.1037012    513.83976  0.018167153  0.017847502            4 
 2358000   0.86904946   -8.1232265     514.2502  0.018173954  0.017841718            6 
 2359000   0.86032254   -8.1329833    514.76562  0.018184457  0.017835924            6 
 2360000   0.87280578    -8.123993    514.70236  0.018174518  0.017830166            1 
 2361000   0.86885632   -8.0878155    513.98642  0.018141551  0.017824378           15 
 2362000   0.86873899   -8.1184225     513.9895  0.018133979  0.017818598            1 
 2363000   0.87638603   -8.1176424    514.95648  0.018160406   0.01781278            4 
 2364000   0.88121331   -8.0941585     514.3622  0.018131775  0.017806988            3 
 2365000   0.88814895   -8.1276112    513.77683  0.018103482   0.01780122            3 
 2366000   0.86564279    -8.094367    514.03545   0.01810494  0.017795432            4 
 2367000   0.88713389   -8.0805829    514.90398  0.018127869  0.017789687            3 
 2368000   0.88103304   -8.0975713    515.79368  0.018151523  0.017783938            6 
 2369000   0.87499193   -8.1039564    514.96064  0.018114558  0.017778225            3 
 2370000   0.86172429   -8.1291502    514.96088  0.018106923   0.01777249            2 
 2371000   0.88209321   -8.0980849    515.16663  0.018106517  0.017766749            3 
 2372000   0.87495166    -8.119715    513.85174  0.018052689  0.017760991            1 
 2373000   0.86986734   -8.0873728    515.13834  0.018090263  0.017755202            6 
 2374000   0.87618089   -8.0935744    514.58794  0.018063323  0.017749478            2 
 2375000   0.86153957   -8.1117272    514.52308  0.018053441  0.017743734            5 
 2376000   0.88273313   -8.1077318    514.72777  0.018053022  0.017737947            4 
 2377000   0.85873862    -8.087472    513.80033  0.018012913  0.017732137            2 
 2378000   0.85612278   -8.1204117    514.49322   0.01802962  0.017726327            2 
 2379000    0.8722183   -8.0738634    515.94115   0.01807276  0.017720497            4 
 2380000   0.86492758   -8.0993658    515.54726  0.018051375  0.017714715            2 
 2381000   0.89044252   -8.0952031    515.25753  0.018033653  0.017708927            1 
 2382000    0.8688545   -8.0991171    516.09108  0.018055243  0.017703165            2 
 2383000   0.87365588   -8.0588482    517.37921  0.018092713  0.017697464            2 
 2384000   0.86879134   -8.1212796    515.51044    0.0180198  0.017691784            8 
 2385000   0.86459528   -8.0963957    515.62064  0.018016095  0.017686042            1 
 2386000   0.87000535    -8.148644    515.08429  0.017989812  0.017680287            3 
 2387000   0.85700455   -8.1354791    515.40439   0.01799345  0.017674487            2 
 2388000   0.87644122   -8.1179254    515.72884  0.017997238  0.017668688            2 
 2389000   0.88403589   -8.1174384    515.81413  0.017992679  0.017662938            3 
 2390000   0.86189637   -8.1441662    514.95497  0.017955194  0.017657206            2 
 2391000    0.8813722    -8.163651    515.15928  0.017954806  0.017651418            4 
 2392000   0.88478691   -8.1850927    514.50969  0.017924669  0.017645592            6 
 2393000   0.86606801    -8.164983    514.91408  0.017931261  0.017639789            5 
 2394000    0.8742703   -8.1600518     516.1972  0.017968435  0.017634015            4 
 2395000   0.86383874   -8.1196979    516.47882  0.017970731   0.01762826            3 
 2396000   0.86093517   -8.1106102    515.74296  0.017937638  0.017622515            2 
 2397000    0.8648453   -8.1000443    517.13613  0.017978589   0.01761677            2 
 2398000   0.86647573   -8.1253338    516.94651  0.017964502  0.017611023            5 
 2399000   0.86355731   -8.1306334    515.93054  0.017921722  0.017605267            2 
 2400000   0.87137316    -8.170568    515.35103  0.017894133  0.017599547            2 
 2401000   0.86208169   -8.1541342    516.28932  0.017919246  0.017593811            6 
 2402000   0.85934887   -8.1323957    516.52308  0.017919896  0.017588039            2 
 2403000   0.87343921   -8.1131006    516.95055  0.017927263  0.017582275            3 
 2404000   0.88206069    -8.135225    514.57301   0.01783739  0.017576551            3 
 2405000   0.87289421   -8.1079189    516.20049  0.017886365  0.017570829            3 
 2406000   0.88047258   -8.1533036    515.34738  0.017849383  0.017565072            3 
 2407000   0.87955063   -8.0962882    516.03953   0.01786593  0.017559315            4 
 2408000   0.87746222   -8.1244583    516.62595  0.017878805  0.017553571            4 
 2409000   0.86823852   -8.1336041    516.74292   0.01787543  0.017547811            4 
 2410000   0.84258738   -8.1436542    517.28272  0.017886678  0.017542037            2 
 2411000   0.87427235   -8.1244243    517.10371  0.017873072  0.017536261            6 
 2412000   0.86651247   -8.1467407    517.39898  0.017875863  0.017530529            4 
 2413000   0.89345006   -8.1184225    517.77636  0.017881488  0.017524784            2 
 2414000    0.8469089   -8.1238088    516.73775  0.017838227  0.017519035            3 
 2415000   0.86764432   -8.1063635    518.01209  0.017874813  0.017513301            3 
 2416000   0.87094374   -8.1427163    517.53398  0.017850924  0.017507546            6 
 2417000   0.87856495   -8.1272724    517.45926  0.017840962  0.017501779            3 
 2418000   0.84544909   -8.1551844    515.90946  0.017780172  0.017495992            2 
 2419000   0.88253944   -8.1696409    515.91869   0.01777314  0.017490194            4 
 2420000   0.85210784    -8.131634    517.28832  0.017812959  0.017484426            5 
 2421000   0.85883128   -8.1636261    516.21496  0.017768655    0.0174787            2 
 2422000   0.87043515   -8.1155988    517.41884   0.01780274  0.017472968            1 
 2423000   0.86013384   -8.1338861    517.36772  0.017793635  0.017467215            1 
 2424000   0.86697801   -8.1121024    517.80191  0.017801221  0.017461458            4 
 2425000   0.85945744   -8.1617361    516.38448  0.017745171  0.017455667            4 
 2426000   0.85525673   -8.1490154    516.38604   0.01773791  0.017449863            4 
 2427000   0.86122612    -8.139655    516.87097  0.017747252  0.017444088            6 
 2428000   0.85906492   -8.1149296    518.05887  0.017780714  0.017438358            3 
 2429000   0.85703776   -8.1422752    517.84085  0.017765914  0.017432612            2 
 2430000   0.86976388   -8.1195274    518.30726  0.017774597  0.017426886            6 
 2431000   0.88197276   -8.1453803    517.54771  0.017741249  0.017421166            2 
 2432000   0.85590834   -8.1642034    516.59656  0.017701362    0.0174154            3 
 2433000   0.86464575   -8.1588906    518.04226  0.017743604  0.017409616            6 
 2434000   0.87893567   -8.1204193    518.54482   0.01775352  0.017403839            4 
 2435000   0.87314774   -8.1162023    518.48402  0.017744149  0.017398099            3 
 2436000   0.85857625   -8.1233342    520.00691  0.017788961  0.017392395            4 
 2437000   0.86667273   -8.1069953    518.49973  0.017730124  0.017386707            2 
 2438000   0.86145847   -8.1310769    518.68258  0.017729101  0.017381002            3 
 2439000   0.86139888   -8.1723552    517.89185  0.017694815  0.017375277            3 
 2440000   0.84607435   -8.1493706    518.66795  0.017714069  0.017369492            3 
 2441000   0.84372028    -8.148473    518.31308  0.017694698  0.017363698            3 
 2442000   0.86275009   -8.1491327    518.88469  0.017706958  0.017357934            2 
 2443000   0.85504758   -8.1286483    518.57119  0.017689016  0.017352205            2 
 2444000   0.85652614   -8.1187867    518.49562  0.017679201  0.017346451            4 
 2445000    0.8562901   -8.1504906    517.76052  0.017646916  0.017340705            4 
 2446000     0.843833   -8.1355193    518.29821   0.01765802  0.017334951            5 
 2447000    0.8647433   -8.1363288    518.81625  0.017668446   0.01732919            3 
 2448000   0.85478328   -8.1598514     519.0637  0.017669652  0.017323432            3 
 2449000   0.87347491    -8.139672    519.63144  0.017681756  0.017317697            4 
 2450000   0.86769603   -8.1799762    517.76365  0.017611008  0.017311966           10 
 2451000   0.87388313    -8.137144     518.7365    0.0176369  0.017306263            3 
 2452000   0.85585284   -8.1474416    517.43746  0.017585558  0.017300563            2 
 2453000   0.84805272    -8.182265    518.91552  0.017628602  0.017294815            3 
 2454000   0.86553075   -8.1475168    519.25842  0.017633062  0.017289113            9 
 2455000   0.85527374   -8.1420014    520.46088  0.017666697  0.017283387            3 
 2456000   0.87008943    -8.130569    519.58308  0.017629719  0.017277668            2 
 2457000   0.87277979    -8.138614    520.13801  0.017641365  0.017271971            2 
 2458000    0.8469918   -8.1814912    518.61783   0.01758265  0.017266227            4 
 2459000   0.87682883   -8.1929802    518.84869  0.017583323  0.017260477            7 
 2460000   0.83782351   -8.1824888    519.93144  0.017612854  0.017254737            4 
 2461000   0.85731746   -8.1544178    518.91984  0.017571442  0.017248988            3 
 2462000   0.86006888   -8.1263991    520.07162  0.017603291  0.017243302            3 
 2463000   0.85691654   -8.1612098    519.26247  0.017568767  0.017237635            4 
 2464000   0.84976019   -8.1575584    519.13552  0.017557343  0.017231961            7 
 2465000   0.83984562   -8.1477124    520.97851  0.017612526  0.017226321            2 
 2466000   0.86007444    -8.182798    517.96697  0.017503615  0.017220612            4 
 2467000   0.86091572   -8.1486191    518.06876  0.017499958  0.017214876            4 
 2468000   0.86248872    -8.173964    519.35975  0.017536458   0.01720912            5 
 2469000   0.84121156   -8.1361937    519.34745  0.017528941  0.017203368            5 
 2470000   0.85586939   -8.1765382    518.41797  0.017490485  0.017197595            4 
 2471000   0.87094905   -8.1651697    519.79985   0.01753001  0.017191851            3 
 2472000   0.87418771   -8.1719828    519.93335  0.017527419  0.017186122            7 
 2473000   0.85147064   -8.1836019    519.20495  0.017495786  0.017180381            4 
 2474000   0.86899384   -8.1626072    520.03817   0.01751678  0.017174637            3 
 2475000   0.86105698   -8.1446096    520.24173  0.017516557  0.017168921            2 
 2476000   0.84390701   -8.1664242    519.57062  0.017486895  0.017163214            2 
 2477000   0.85513203   -8.1737457    519.16465  0.017466177  0.017157476            2 
 2478000   0.84725472   -8.1653953    519.50731  0.017470652  0.017151748            3 
 2479000   0.84052918   -8.1315026    519.51955  0.017464016  0.017146018            3 
 2480000   0.87713284   -8.1657028    520.77828   0.01749927  0.017140316            4 
 2481000   0.87141013   -8.1944849    519.97943  0.017465385  0.017134566            2 
 2482000   0.86068491   -8.1934811    520.29889  0.017469074  0.017128799            1 
 2483000    0.8864636   -8.1972785    519.78484  0.017444786  0.017123002            3 
 2484000     0.865931   -8.1992827    519.38068  0.017424204  0.017117234            2 
 2485000   0.85170008   -8.1586117    519.22637  0.017412018  0.017111486            3 
 2486000   0.86532943   -8.1592582    520.20902  0.017437953  0.017105743            7 
 2487000   0.85747097   -8.1843265    521.14195  0.017462202  0.017099982            5 
 2488000   0.85554398   -8.2178763    519.70168  0.017406943  0.017094237            3 
 2489000   0.86436664    -8.168372    520.14879  0.017414919  0.017088491            3 
 2490000   0.85401221   -8.1641481    520.82314  0.017430493  0.017082754            2 
 2491000   0.84712441   -8.1720585    520.36731  0.017408247  0.017077071            2 
 2492000   0.86754631   -8.1632465    520.13359  0.017393445  0.017071352            3 
 2493000   0.86488685   -8.1849871     520.1454  0.017386863  0.017065624            4 
 2494000   0.84436623   -8.1580246    519.65558  0.017363525  0.017059908            4 
 2495000   0.85651922   -8.1648843    521.57824  0.017420783  0.017054195            3 
 2496000   0.85704546   -8.1831519    520.80208   0.01738789  0.017048514            2 
 2497000   0.83581504   -8.1718827     520.1643  0.017359641   0.01704277            4 
 2498000   0.83669295   -8.1891955    519.17619  0.017319729     0.017037            4 
 2499000   0.84144725   -8.1896064    518.98507  0.017306425  0.017031251            3 
 2500000   0.84161225   -8.1815133    520.69341  0.017356447  0.017025502            4 
 2501000   0.86587618   -8.1275408    521.85324  0.017388153  0.017019787           12 
 2502000   0.84578877   -8.1584526    521.06485  0.017354944  0.017014109            6 
 2503000    0.8561145   -8.2167894      518.754  0.017271075  0.017008383            3 
 2504000   0.85231056   -8.2105386    519.62535  0.017293176  0.017002616            3 
 2505000   0.86957757   -8.1585777    522.20903  0.017372223  0.016996886            3 
 2506000   0.84875244   -8.2001146    520.30515   0.01730198  0.016991107            7 
 2507000    0.8422942   -8.1810239    519.46822  0.017267259  0.016985324            4 
 2508000   0.85929515   -8.1550571    520.92248  0.017308695  0.016979564            4 
 2509000   0.85877485   -8.1686463    519.84752  0.017266093  0.016973814            2 
 2510000   0.84588451   -8.1752093    521.65481  0.017319217  0.016968042           12 
 2511000   0.84518671   -8.2080295    520.27529  0.017266537  0.016962261            1 
 2512000   0.83979309   -8.1885096    520.74549  0.017275262  0.016956489            2 
 2513000   0.85429388   -8.1661009    520.92283  0.017274268  0.016950721            4 
 2514000   0.85404081   -8.2103987    520.36788  0.017249002  0.016944947            1 
 2515000   0.85789973   -8.1795817    520.74471  0.017254629  0.016939201            6 
 2516000    0.8493795   -8.1922975    521.30604  0.017266363  0.016933475            6 
 2517000   0.82935802   -8.1719788    521.41098  0.017262978  0.016927743            5 
 2518000   0.85416509   -8.1911653    519.99116  0.017209133  0.016922009            6 
 2519000   0.84872899   -8.1864099    520.98159  0.017235067  0.016916236           10 
 2520000   0.83984737   -8.1376041    521.17434  0.017234601  0.016910476            5 
 2521000   0.84125134   -8.1846529     520.9968  0.017221896  0.016904691            2 
 2522000   0.84819002    -8.177843    520.23211    0.0171898  0.016898928            5 
 2523000   0.84078743   -8.1590458    521.18898  0.017214592  0.016893182            6 
 2524000   0.86315944   -8.1857786    520.25532  0.017176945  0.016887417            2 
 2525000   0.84334804   -8.1714361    521.30907   0.01720492  0.016881685            3 
 2526000   0.85580501   -8.1753858    522.29053  0.017230487  0.016875961            2 
 2527000    0.8458103   -8.1357458    522.19106  0.017220388   0.01687025            3 
 2528000   0.85495487   -8.1811453    521.67965  0.017196718  0.016864523            2 
 2529000   0.82889807   -8.1848604    521.16422  0.017172935  0.016858784            4 
 2530000   0.85607356   -8.2045517    519.90212  0.017124576  0.016852969            2 
 2531000   0.85318258   -8.1815901    521.02612  0.017154818  0.016847169            6 
 2532000   0.86424427   -8.2230373    520.67203  0.017136389   0.01684138            3 
 2533000   0.82693168   -8.2192351    520.02035  0.017108184  0.016835586            4 
 2534000   0.86183899    -8.200208    520.30945   0.01711094  0.016829791            5 
 2535000   0.83241243   -8.1890013    520.29004  0.017103551  0.016824013            3 
 2536000   0.84457088    -8.206334     520.9957  0.017119995  0.016818249            5 
 2537000   0.85038181   -8.1730634    521.84643  0.017141191   0.01681248            5 
 2538000    0.8540207   -8.1664983    522.54963  0.017157527  0.016806728            5 
 2539000   0.82969768   -8.1823126    521.19709  0.017106377  0.016800979            2 
 2540000    0.8379551   -8.2206799    520.47627  0.017075993   0.01679524            5 
 2541000   0.82825184   -8.1795384    521.31213  0.017096685  0.016789484            3 
 2542000   0.84052029   -8.1998073    521.69859  0.017102629   0.01678375            4 
 2543000   0.85603495   -8.1877451    521.66156   0.01709469  0.016777995            2 
 2544000   0.84918719   -8.1878731    522.62016  0.017119371   0.01677227            2 
 2545000   0.83686127   -8.1610818    522.51609  0.017109237  0.016766552            4 
 2546000    0.8423759   -8.1861945     522.1745  0.017091336  0.016760813            6 
 2547000   0.83907619   -8.2132729    521.73696   0.01707031  0.016755061            6 
 2548000   0.84493044   -8.1805777    521.75296  0.017064134   0.01674934            5 
 2549000    0.8595184    -8.188622    522.28721  0.017074905  0.016743619            2 
 2550000   0.84602617   -8.1817534    522.18556  0.017064888  0.016737926            5 
 2551000   0.83737593   -8.1589046    522.45697  0.017067064  0.016732229            3 
 2552000   0.82242839   -8.1689009    522.74392  0.017069747  0.016726484            3 
 2553000   0.84182402   -8.1883474    522.35444  0.017050347  0.016720721            3 
 2554000   0.84263273    -8.209925    522.01918  0.017032732  0.016714945            2 
 2555000   0.84670443   -8.1945893    522.28503  0.017034737  0.016709203            5 
 2556000   0.85214805   -8.1907955    521.84677  0.017013784  0.016703452            2 
 2557000    0.8221403   -8.1995144    521.11439  0.016983261  0.016697707            4 
 2558000   0.82877457   -8.2126226    521.32121   0.01698336  0.016691965            5 
 2559000   0.84946175   -8.1980329    521.56937  0.016984804  0.016686206            5 
 2560000   0.84116195   -8.2000027    522.15745  0.016997313  0.016680444            5 
 2561000   0.84299684   -8.2245062    521.98357  0.016985018  0.016674682            8 
 2562000   0.84035464   -8.2484082    521.45981  0.016961352  0.016668927            6 
 2563000   0.85227482   -8.1991433    521.83083  0.016966798  0.016663166            2 
 2564000    0.8414533   -8.2442225    521.60917  0.016952976  0.016657387            4 
 2565000   0.82302902   -8.2033157    522.94044  0.016989618  0.016651633            9 
 2566000   0.85594998   -8.2345621    521.51153  0.016936592  0.016645845            3 
 2567000   0.83896657   -8.2169394    522.13304   0.01695017  0.016640093            6 
 2568000   0.83026017   -8.2168077    521.73621  0.016930692   0.01663432            6 
 2569000   0.83734271   -8.2261872    522.78769   0.01695821  0.016628588            5 
 2570000   0.85855376   -8.2054485    522.03115   0.01692708  0.016622807            2 
 2571000   0.82918162   -8.2078182    523.55657  0.016969939  0.016617053            3 
 2572000     0.833799   -8.2311427    521.95669  0.016911505  0.016611312            3 
 2573000   0.84642297   -8.2220772    520.86956  0.016869723  0.016605566            2 
 2574000   0.82062093   -8.2304141    522.48605  0.016915503  0.016599804            3 
 2575000   0.85575242   -8.2216226    522.54944  0.016910985  0.016594067            3 
 2576000   0.85986833   -8.2269257    522.49678  0.016902717  0.016588324            6 
 2577000   0.84252838   -8.2076453    523.65076  0.016933474  0.016582575            2 
 2578000   0.85113622   -8.2247157    522.39829   0.01688642  0.016576813            4 
 2579000   0.85700567   -8.1999333    524.13763  0.016936074  0.016571066            6 
 2580000   0.83355085   -8.2193738    522.90833  0.016889804  0.016565355            4 
 2581000    0.8282154   -8.2126065    524.09096  0.016921444  0.016559675            7 
 2582000   0.83023699   -8.1705628    523.22946  0.016887086  0.016554029            4 
 2583000   0.84708354   -8.1730059    524.23703  0.016913054  0.016548398            3 
 2584000   0.84564558   -8.1910408    523.12182  0.016870544  0.016542744            2 
 2585000   0.83952732   -8.2245695    523.25545  0.016868325  0.016537074            4 
 2586000   0.84705269   -8.2254989     522.6962   0.01684378  0.016531363            4 
 2587000   0.82777287   -8.1998494    522.47837  0.016830253   0.01652567            4 
 2588000   0.83317317   -8.2379473    522.43055   0.01682221  0.016519975            7 
 2589000   0.85502218    -8.222205    524.80153  0.016892028  0.016514282            1 
 2590000   0.84047203   -8.2212859    523.17617   0.01683321  0.016508629            6 
 2591000    0.8435709   -8.1934647    522.63044  0.016809161   0.01650296            1 
 2592000    0.8369717    -8.174228    524.73873  0.016870458   0.01649726            1 
 2593000    0.8373061   -8.2113381    524.05497  0.016841978  0.016491581            3 
 2594000   0.83679414   -8.2127358    524.25374   0.01684187  0.016485882            3 
 2595000   0.82585246   -8.2417368    524.01319  0.016827655  0.016480171            5 
 2596000   0.81641075    -8.213662    522.24602  0.016764446   0.01647449            3 
 2597000   0.84610994    -8.220277    524.50625  0.016830517  0.016468831            4 
 2598000   0.83726351   -8.2340568    523.83654  0.016802558  0.016463159            9 
 2599000   0.83375338   -8.1908416    524.92384  0.016830956  0.016457496            2 
 2600000   0.83668412   -8.2151631    523.17637  0.016768473  0.016451818            5 
 2601000   0.84584943   -8.2055173     525.5798   0.01683903  0.016446139            5 
 2602000   0.82184201   -8.2147477    523.44535  0.016764199  0.016440494            4 
 2603000   0.83061555   -8.1989995    525.24318  0.016815315  0.016434859            6 
 2604000    0.8361357   -8.2272407    524.02203  0.016769778  0.016429221            3 
 2605000   0.82378444   -8.2458043    523.65899  0.016751727  0.016423509            3 
 2606000    0.8318798   -8.2337969     524.3525  0.016767476  0.016417796            4 
 2607000   0.83065304   -8.2312834    523.12742  0.016721884  0.016412084            5 
 2608000   0.83261814    -8.211629    524.67962   0.01676507   0.01640639            2 
 2609000    0.8258479   -8.2396638    523.89705  0.016733648  0.016400732            3 
 2610000   0.84768557   -8.2281903    524.99726  0.016762365  0.016395047            4 
 2611000   0.83716336   -8.1888305    524.57115  0.016742345  0.016389392            4 
 2612000   0.83851561   -8.2202151    524.20014  0.016724099  0.016383677            2 
 2613000   0.81776447   -8.2318464    523.66944  0.016700773  0.016377966            2 
 2614000   0.82877381   -8.1928821     524.3921  0.016717422  0.016372279            2 
 2615000   0.83070324   -8.2351313    524.38162  0.016710695  0.016366592            6 
 2616000   0.83069042   -8.2360491    523.11006  0.016663802  0.016360915            5 
 2617000   0.83416501   -8.2096872    524.20526  0.016692309  0.016355221            3 
 2618000   0.82899386   -8.2200001    523.14375  0.016652144   0.01634956            4 
 2619000   0.84270839   -8.2315236    523.49612  0.016656998  0.016343865            3 
 2620000   0.84104305   -8.2343889    524.79654  0.016692002  0.016338201            5 
 2621000   0.84109504   -8.1979335    525.07757  0.016694568  0.016332529            3 
 2622000   0.83328831   -8.2243922    525.59994  0.016704804  0.016326846            4 
 2623000   0.82940223   -8.2213059      524.829  0.016673942  0.016321155            8 
 2624000   0.82848654   -8.2073771    524.55623  0.016658925  0.016315502            4 
 2625000   0.82252249   -8.2354631    524.67931  0.016656486  0.016309837            3 
 2626000   0.83371744    -8.199954    525.03175  0.016661327  0.016304167            7 
 2627000   0.82001761   -8.1805123    524.44518  0.016636378  0.016298515            7 
 2628000   0.83278238   -8.2110891    524.98193  0.016647068  0.016292871            4 
 2629000    0.8322457   -8.2206031    525.55922  0.016659034  0.016287226            3 
 2630000   0.82295893    -8.227468    524.40669  0.016616182  0.016281567            2 
 2631000   0.83611356    -8.228052     525.5092  0.016644786  0.016275903            5 
 2632000   0.84137176   -8.2094368    524.72182  0.016613533  0.016270238            2 
 2633000   0.83332939   -8.2174237     524.8139  0.016610137  0.016264558            3 
 2634000   0.81918267   -8.2428649    525.02219  0.016610421  0.016258871            3 
 2635000   0.84551781   -8.2370114    524.42698  0.016585294  0.016253217            2 
 2636000   0.84941263   -8.2174936    523.16542  0.016539119  0.016247532            4 
 2637000   0.82391312   -8.2554206    524.34163  0.016570017   0.01624188            4 
 2638000   0.82963378   -8.2423812    524.59886  0.016571862  0.016236203            5 
 2639000   0.81375232   -8.2142936    525.76094  0.016602278  0.016230549            3 
 2640000   0.83523023   -8.2508226    524.55871   0.01655804  0.016224885            2 
 2641000   0.84099694   -8.2392795    525.68919  0.016587441   0.01621923            3 
 2642000   0.81859483   -8.2325812    524.58381  0.016546297  0.016213577            2 
 2643000   0.83555402   -8.2368751    525.01101  0.016553507  0.016207917            3 
 2644000   0.81325352    -8.222391    524.93145  0.016544738  0.016202256            1 
 2645000   0.83017603   -8.2355563    525.77149  0.016564949    0.0161966            5 
 2646000   0.84411462   -8.2325177    525.29321  0.016543626  0.016190976            4 
 2647000   0.82871533   -8.2328415    525.31364  0.016538019  0.016185344            4 
 2648000   0.82452505   -8.2286728    526.36975   0.01656501  0.016179711            4 
 2649000   0.83035792    -8.243417    524.85254  0.016511027  0.016174084            4 
 2650000   0.81817177   -8.2239747    526.17682  0.016546441  0.016168471            5 
 2651000    0.8386749   -8.2622489    525.99177  0.016534382  0.016162847            2 
 2652000   0.82635637   -8.2517007    526.42884  0.016541882  0.016157216            2 
 2653000   0.81348062   -8.2060936    526.88318  0.016549918  0.016151583            8 
 2654000   0.82810627    -8.209087    525.39052  0.016496814  0.016145961           13 
 2655000   0.82540234   -8.2556858    525.59314   0.01649696  0.016140338            5 
 2656000   0.84332513   -8.2454652    526.07156  0.016505759  0.016134736            2 
 2657000   0.83510811   -8.2330535    525.48253  0.016481073    0.0161291            4 
 2658000   0.81904115   -8.2699471    524.43842  0.016442138  0.016123432            6 
 2659000   0.85696081   -8.2397136    525.00541  0.016453724  0.016117779            4 
 2660000   0.81110473   -8.2606579    526.12808  0.016482709  0.016112132            2 
 2661000    0.8337619     -8.25673    524.84139   0.01643622  0.016106502            6 
 2662000    0.8162427   -8.2182676    526.97554  0.016496855  0.016100923            2 
 2663000   0.82508414   -8.2617596    525.19162  0.016434836  0.016095332            4 
 2664000   0.84552411   -8.2567988    525.94855  0.016452345  0.016089706            3 
 2665000   0.82439622   -8.2485714    526.27901  0.016456504  0.016084096            3 
 2666000   0.83143552   -8.2749248    526.88366  0.016469232  0.016078501            6 
 2667000   0.83607279   -8.2469144    525.17907  0.016409795  0.016072911            2 
 2668000    0.8339515   -8.2439259     527.0196  0.016461132  0.016067338            4 
 2669000   0.81698736   -8.2428262    526.49234  0.016438502  0.016061763            3 
 2670000   0.82401158   -8.2554548    525.58127   0.01640391  0.016056221            3 
 2671000   0.84044095    -8.257141    526.60911  0.016429836  0.016050669            6 
 2672000   0.82231444   -8.2575405    525.97691   0.01640397  0.016045138            7 
 2673000   0.83013745   -8.2293601    527.12841  0.016433733  0.016039591            4 
 2674000   0.82588775   -8.2458829     527.1432  0.016428048  0.016034037            4 
 2675000   0.81148059   -8.2361057    527.30354  0.016426902  0.016028522           10 
 2676000    0.8245546   -8.2515229    526.20982  0.016386704  0.016023016            3 
 2677000   0.81508248   -8.2440682    528.15907  0.016441261  0.016017509            5 
 2678000   0.82226182   -8.2252789    527.12253  0.016402867  0.016011969            2 
 2679000   0.79668292   -8.2374992    526.52468  0.016378147  0.016006447            3 
 2680000   0.81052918   -8.2413265    527.55034  0.016403929  0.016000931            5 
 2681000   0.82407202   -8.2635855    527.71583  0.016402954  0.015995413            2 
 2682000   0.83002781   -8.2582967    527.54376  0.016391491  0.015989897            6 
 2683000   0.82114811   -8.2656911    527.46394  0.016382903  0.015984393            6 
 2684000   0.81492394   -8.2607976     527.7899  0.016386919  0.015978875            3 
 2685000   0.81349079   -8.2629382    527.28434  0.016365125  0.015973356            5 
 2686000   0.81495347   -8.2929081    527.12927  0.016354222  0.015967832           10 
 2687000   0.83578435   -8.2689319    527.58128  0.016362154   0.01596231           21 
 2688000   0.82239155   -8.2672187    527.05635  0.016339793  0.015956781            2 
 2689000   0.82151508    -8.250938    527.08827  0.016334705  0.015951244            5 
 2690000   0.82333571   -8.2133669    528.54888  0.016373881  0.015945759            3 
 2691000   0.81339715   -8.2436207    528.24724  0.016358455  0.015940269            2 
 2692000   0.80247718   -8.2599106    527.52552  0.016330037  0.015934765            2 
 2693000   0.81377177   -8.2579802    528.61949  0.016357826  0.015929273           11 
 2694000   0.80640447   -8.2592442    527.67449  0.016322522  0.015923782            3 
 2695000   0.81720974   -8.2564288    525.96329  0.016263553  0.015918303            3 
 2696000   0.84177299   -8.2703378    528.19685  0.016326559  0.015912789            9 
 2697000   0.82343146   -8.2898885    527.70274  0.016305239  0.015907283           15 
 2698000   0.82294648   -8.2647255    528.51917  0.016324412  0.015901768            7 
 2699000   0.80671857   -8.2573374    528.30236   0.01631167  0.015896286            5 
 2700000   0.80052439   -8.2665555    528.01862  0.016296871  0.015890811            5 
 2701000   0.81506605   -8.2660793    529.33138   0.01633134   0.01588532            2 
 2702000   0.82671655   -8.2759827    528.30188  0.016293544   0.01587981            3 
 2703000   0.81997592   -8.2791041    528.21836  0.016284941  0.015874286            3 
 2704000   0.81780588   -8.2479992    528.64052  0.016291929  0.015868769            7 
 2705000   0.80992997   -8.2400886    529.15811  0.016301852  0.015863302            7 
 2706000   0.81613242   -8.2536009     528.3933  0.016272275  0.015857831            3 
 2707000   0.80738416   -8.2564392    528.20033  0.016260323  0.015852344            5 
 2708000   0.83949293   -8.2735116    528.37842  0.016259799  0.015846863            7 
 2709000   0.81944274   -8.2220475    528.06131  0.016244042  0.015841417            4 
 2710000   0.81961127   -8.2278287    528.56703  0.016253599  0.015835974            9 
 2711000   0.81407848   -8.2275579    528.59711  0.016248528  0.015830523            2 
 2712000   0.81212899   -8.2275721     529.5488   0.01627178  0.015825075            6 
 2713000   0.81886371   -8.2383335    529.11722  0.016252526  0.015819653            9 
 2714000   0.82803778   -8.2615798    527.94986  0.016210693  0.015814208            2 
 2715000   0.83294094   -8.2807074    528.53666  0.016222734  0.015808753            3 
 2716000   0.79925539   -8.2432259    528.55592  0.016217352  0.015803276            4 
 2717000   0.81427675   -8.2490935    528.49424  0.016209491  0.015797788            3 
 2718000   0.81640625   -8.2778962    527.96136  0.016187189  0.015792316            3 
 2719000   0.82944647   -8.2714393    528.69586  0.016203747  0.015786821            4 
 2720000   0.81859762   -8.2938319    527.05838  0.016147622  0.015781304            6 
 2721000   0.81337639   -8.2826492    528.90494   0.01619824  0.015775805            7 
 2722000   0.81164185   -8.2459077    528.42951  0.016177734  0.015770338            6 
 2723000   0.81563061   -8.2603368    528.92687  0.016187014  0.015764843            2 
 2724000   0.80968948   -8.2626041    529.42168  0.016196209  0.015759347            4 
 2725000   0.80903381   -8.2700141    528.63449  0.016166192  0.015753848            8 
 2726000   0.81699819   -8.2390703    529.64215  0.016191066  0.015748341            2 
 2727000   0.82380819   -8.2785536    528.81535  0.016159863  0.015742902            4 
 2728000   0.80856495   -8.2476903    529.27186  0.016167884  0.015737459            2 
 2729000   0.81454851    -8.277953    528.99489  0.016153502  0.015732024            2 
 2730000   0.79974178   -8.2471747    529.32858  0.016157771  0.015726585            9 
 2731000    0.8193777   -8.2527283    529.39153  0.016153775  0.015721175           10 
 2732000   0.79641683   -8.2598109    528.77233  0.016128975  0.015715754            4 
 2733000   0.79292339   -8.2366823    530.52418   0.01617649  0.015710338            3 
 2734000   0.81099714   -8.2128581    529.71054  0.016145774  0.015704919            2 
 2735000   0.80572641   -8.2615804    529.51467  0.016133902   0.01569949            3 
 2736000   0.80206166   -8.2879797    528.30449  0.016091145  0.015694011            3 
 2737000   0.82210505   -8.2622216    530.18746  0.016142597  0.015688525            4 
 2738000   0.80155336   -8.2796814    528.89855  0.016097472  0.015683085            3 
 2739000   0.82058114   -8.2222367     530.6819  0.016145853  0.015677658            3 
 2740000    0.8203343   -8.2631555    529.50283  0.016104101   0.01567221            6 
 2741000   0.81360935   -8.2543742    528.73224  0.016074797  0.015666732            2 
 2742000   0.80031644   -8.2882097    528.79652  0.016070889  0.015661256            3 
 2743000   0.81494717   -8.2934224    530.04101  0.016102838  0.015655792            4 
 2744000   0.81883883   -8.2798075    529.29708  0.016074377  0.015650344            4 
 2745000   0.79633812   -8.2887929    528.61272  0.016047745  0.015644883            2 
 2746000   0.80764265    -8.272657    529.69029  0.016074602  0.015639436            4 
 2747000   0.83215919   -8.2832302     529.5537  0.016064607  0.015634008            2 
 2748000   0.80027572   -8.2638725    529.91684  0.016069773  0.015628577            4 
 2749000   0.80171347   -8.2855473    529.99636  0.016066338  0.015623164            4 
 2750000   0.79049161   -8.2902248    530.41295   0.01607312  0.015617734            2 
 2751000   0.80419723   -8.3018703    529.69729  0.016045598  0.015612302            5 
 2752000   0.80110413   -8.3061635    529.28092   0.01602716  0.015606872            6 
 2753000   0.82024628   -8.2947639    528.46302   0.01599658  0.015601438            5 
 2754000   0.80334129   -8.2955093    529.46553  0.016021107  0.015596028            5 
 2755000   0.82241393   -8.2737454    530.62603  0.016050394  0.015590631            3 
 2756000   0.80659984   -8.2837069    531.16986  0.016061014  0.015585237            3 
 2757000   0.80625714   -8.2584838    530.06612  0.016021827  0.015579849            6 
 2758000   0.79853886    -8.315891    529.58581  0.016001505  0.015574433            6 
 2759000   0.80609118    -8.317941    528.84143  0.015973222  0.015569004            4 
 2760000   0.81799255   -8.3261632    529.96619  0.016001395  0.015563577            3 
 2761000   0.79877959   -8.2809412    530.78388  0.016020279  0.015558148            3 
 2762000   0.81015351   -8.3136633     530.9276  0.016018815   0.01555275            4 
 2763000   0.80352031   -8.2847953    530.41988  0.015997704  0.015547357            3 
 2764000   0.81173872    -8.287919    529.50792  0.015964421  0.015541984            5 
 2765000    0.8120414   -8.2976811    529.67412  0.015963656   0.01553662            3 
 2766000   0.80306208   -8.3432528    530.50363  0.015982876  0.015531228            4 
 2767000   0.80550389   -8.3047005    530.62954  0.015980892  0.015525849            4 
 2768000   0.80519138    -8.299258     530.1559  0.015960859  0.015520486            3 
 2769000   0.81294928   -8.2985284    531.31651  0.015990024  0.015515111            4 
 2770000   0.79727388   -8.3286922    530.21752  0.015951189  0.015509733            3 
 2771000    0.8174693   -8.2938984    531.23122  0.015975918  0.015504336            6 
 2772000    0.8050742   -8.3068683    530.47126  0.015947308  0.015498977            7 
 2773000   0.78439205   -8.2870417    531.01244  0.015957821  0.015493618            2 
 2774000   0.78987572   -8.2968535    530.26358  0.015929572  0.015488259            5 
 2775000   0.80921971   -8.3017657    530.92055   0.01594356  0.015482893            4 
 2776000    0.8040512   -8.2804723    531.05462  0.015941841  0.015477546            6 
 2777000   0.81905735   -8.2701584    530.46614  0.015918441   0.01547222            4 
 2778000   0.80857968   -8.2876344    531.19712  0.015934639  0.015466903            1 
 2779000    0.8214558   -8.2794749    530.79168  0.015916747  0.015461577            6 
 2780000   0.80444712   -8.2676017    532.08499   0.01594979  0.015456258            2 
 2781000   0.81568906   -8.2631447    531.53315  0.015927518  0.015450926            4 
 2782000   0.80739379    -8.317111    531.52026  0.015921407  0.015445598            3 
 2783000   0.80530972   -8.3126073    530.73596  0.015892201  0.015440261            7 
 2784000   0.81562845   -8.3154978    532.37908  0.015935676  0.015434916            9 
 2785000   0.79841656   -8.2889869    532.24317  0.015925888  0.015429568            2 
 2786000   0.78982253   -8.2849582    531.17367  0.015888181  0.015424231            4 
 2787000   0.81060454   -8.2644531    531.67098   0.01589735  0.015418913            1 
 2788000   0.81726335    -8.267653    532.33771  0.015911577  0.015413573            3 
 2789000   0.81729271   -8.3375047    530.16492   0.01584095  0.015408239            3 
 2790000   0.80809001   -8.2988104    530.53702  0.015846386  0.015402899            4 
 2791000   0.79435333   -8.3107441    531.44448  0.015867804  0.015397564            4 
 2792000   0.79930258   -8.2893131    531.11162  0.015852186  0.015392215            3 
 2793000   0.81417319    -8.285011    529.42952  0.015796322   0.01538686            2 
 2794000   0.81233359   -8.3213146    530.89987  0.015834522  0.015381489            5 
 2795000   0.81244945   -8.3300025    531.15288  0.015836401  0.015376154            2 
 2796000   0.81994449   -8.3077467    530.63098  0.015815182  0.015370815            3 
 2797000   0.80500374    -8.304055    531.01321  0.015820916  0.015365476            3 
 2798000   0.82357939   -8.3164635    531.52136  0.015830395  0.015360134            3 
 2799000   0.80459825   -8.2818372    531.64077  0.015828295  0.015354777            6 
 2800000   0.78809997   -8.3024323    532.37634  0.015844534  0.015349422            5 
 2801000    0.8099188   -8.2717271    531.29188  0.015806613  0.015344068            3 
 2802000   0.80229006   -8.3167112    531.16436  0.015797179  0.015338738            3 
 2803000   0.81192683   -8.3132101    532.08834  0.015819014  0.015333401            4 
 2804000   0.81261479   -8.2820007    532.54917  0.015827067  0.015328056            2 
 2805000    0.7936652   -8.2925569    531.92592  0.015802909   0.01532271            6 
 2806000   0.80361974   -8.2873265    531.97905  0.015798855  0.015317382            4 
 2807000   0.80013638   -8.3292979    531.40165  0.015776085  0.015312038            3 
 2808000   0.79612101   -8.2907455    531.93801  0.015786384  0.015306694            4 
 2809000   0.80754175   -8.3124106    531.58795  0.015770379  0.015301352            6 
 2810000   0.80338138   -8.3460605    530.48699  0.015732117  0.015295991            3 
 2811000   0.81468361   -8.3373007    530.01737  0.015712598  0.015290625            5 
 2812000   0.79827916   -8.3522051    529.76807  0.015699623  0.015285254            2 
 2813000   0.79621121   -8.3254761    530.47424  0.015714962  0.015279859            4 
 2814000   0.79872941   -8.3348243    530.95624  0.015723651  0.015274494           13 
 2815000   0.80216234   -8.3137468    532.10452  0.015752058  0.015269151            7 
 2816000    0.8123697    -8.309935    530.27204  0.015692236  0.015263802            3 
 2817000   0.80771683    -8.328416    531.41841  0.015720578  0.015258432            3 
 2818000   0.79065743   -8.3370054    530.10678  0.015676212  0.015253073            6 
 2819000   0.80154371   -8.3185606    531.12454  0.015700737  0.015247697            2 
 2820000   0.80327827   -8.3419922    531.23881  0.015698546  0.015242322            5 
 2821000   0.80321115   -8.3406835    530.53766  0.015672269  0.015236959            8 
 2822000   0.78566909   -8.3327158    531.86605  0.015705943  0.015231601            7 
 2823000   0.77947381   -8.3327596    532.12165  0.015707925  0.015226264           11 
 2824000   0.78370636   -8.2914908    531.60213  0.015687032  0.015220925            3 
 2825000   0.79769284   -8.3442589    530.50757  0.015649191  0.015215616            6 
 2826000   0.77487055   -8.3412608    531.53304  0.015673892  0.015210289            5 
 2827000   0.80512748   -8.3070174    532.42526  0.015694649  0.015204955            6 
 2828000   0.79971634   -8.3361982    531.32399  0.015656647  0.015199615            5 
 2829000   0.81076272   -8.3494154    531.49694  0.015656208  0.015194283            5 
 2830000   0.81600572   -8.3162736     532.0893  0.015668118  0.015188959            6 
 2831000   0.79863031   -8.3310068    531.60424  0.015648306  0.015183659            3 
 2832000   0.80665137   -8.3399642    531.80275  0.015648622  0.015178346            4 
 2833000   0.78973489   -8.3332207    532.50045  0.015663621  0.015173011            5 
 2834000   0.80221708   -8.3533259    531.26197  0.015621676  0.015167692            5 
 2835000   0.79897239   -8.3499384    531.44735  0.015621615  0.015162348            3 
 2836000   0.78110048   -8.3586553     531.2578  0.015610537  0.015156965            3 
 2837000   0.82035795   -8.3714327    531.23665  0.015604414  0.015151622            3 
 2838000   0.79464353   -8.3439881    531.14477  0.015596217  0.015146301            4 
 2839000    0.8065437   -8.3356985    531.88303  0.015612394  0.015140983            7 
 2840000   0.79277595   -8.3228614    531.76515  0.015603438   0.01513566            2 
 2841000   0.80704811   -8.3610033    531.59646  0.015592997  0.015130348            3 
 2842000   0.81888265   -8.3248347    531.76221  0.015592371  0.015125025            3 
 2843000   0.80650213   -8.3224054    531.46418   0.01557815  0.015119732            4 
 2844000   0.79262738   -8.3213166    533.17014   0.01562266  0.015114446            4 
 2845000   0.78623072   -8.3604813     531.7782  0.015576397  0.015109178            4 
 2846000   0.79457492   -8.3636638    532.40989   0.01558942  0.015103882            5 
 2847000   0.78745608   -8.3488709    532.84182  0.015596588   0.01509859            3 
 2848000   0.80793595   -8.3450963    533.91474  0.015622505   0.01509331            4 
 2849000   0.80612001   -8.3506051     533.2026  0.015596192  0.015088038           10 
 2850000   0.79003169   -8.3538114    532.14149  0.015559693  0.015082753            3 
 2851000   0.81278676   -8.3713674    531.48166  0.015534948  0.015077466            2 
 2852000   0.78104094   -8.3623479    530.71241  0.015507025   0.01507216            6 
 2853000   0.80002569   -8.3292355    532.18427  0.015544581  0.015066859            4 
 2854000   0.79128665   -8.3549345    532.45482  0.015547034  0.015061586            5 
 2855000   0.79458023   -8.3488776    532.00049  0.015528327   0.01505632            6 
 2856000   0.80307363   -8.3587105    532.24135  0.015529918  0.015051054            5 
 2857000   0.80582319   -8.3548673    533.05916  0.015548336  0.015045787            9 
 2858000   0.79801427   -8.3486689    533.03704  0.015542251  0.015040533            4 
 2859000   0.78123314   -8.3136537    533.00884  0.015535993  0.015035278            3 
 2860000   0.78910006   -8.3354111      533.119   0.01553377  0.015030033            4 
 2861000   0.80754893   -8.3385262    533.18833   0.01553036  0.015024788           11 
 2862000   0.80782746   -8.3289148     534.2433  0.015555652  0.015019547            6 
 2863000   0.78442066   -8.3270236    532.58409  0.015501924   0.01501429            3 
 2864000   0.78569327   -8.3424488    533.04999  0.015510067  0.015009025            5 
 2865000   0.79432523   -8.3437321    532.79788  0.015497321  0.015003746            1 
 2866000   0.79337431   -8.3640027    532.09315  0.015471422  0.014998463            4 
 2867000   0.78385706   -8.3663389     532.7677  0.015485632  0.014993169            5 
 2868000   0.78487607   -8.3777462    532.01959  0.015458496  0.014987861            2 
 2869000   0.77974102   -8.3567663    533.04516  0.015482896  0.014982574            4 
 2870000   0.77590362   -8.3203389    533.54872  0.015492123  0.014977337            3 
 2871000   0.77900399   -8.3721064    533.43059  0.015483298  0.014972109            6 
 2872000   0.79971966   -8.3325478    532.94723  0.015463882  0.014966891            3 
 2873000   0.79712998   -8.3505095    533.84616  0.015484573  0.014961662            3 
 2874000   0.78952196   -8.3417912    534.28779  0.015491991  0.014956438            6 
 2875000   0.78889126   -8.3455266    533.19908  0.015455046  0.014951211            9 
 2876000   0.79940466   -8.3491737    533.39747   0.01545542  0.014945993            3 
 2877000   0.78324194   -8.3681946    533.49205  0.015452788  0.014940764            4 
 2878000   0.78407666   -8.3486996    533.57472  0.015449812  0.014935523            8 
 2879000     0.778578   -8.3716721    531.93505  0.015396985  0.014930265            5 
 2880000   0.79781006   -8.3616064    533.28551  0.015430715  0.014924997            5 
 2881000   0.80060398   -8.3455154    533.31389   0.01542618   0.01491975            4 
 2882000   0.79354588    -8.344504      533.123  0.015415308   0.01491451            4 
 2883000    0.7826923   -8.3617127    533.91725  0.015432919  0.014909275            3 
 2884000   0.78995146   -8.3641981    533.41293  0.015412995  0.014904041            4 
 2885000   0.80605535   -8.3629575    534.31753  0.015433782   0.01489882            2 
 2886000   0.79217887   -8.3356035    534.09933  0.015422134  0.014893578            6 
 2887000   0.77779189   -8.3284716    535.11566  0.015446128  0.014888347            6 
 2888000   0.77567212   -8.3726718      533.016  0.015380194  0.014883115           13 
 2889000   0.77814322   -8.3553936    533.71693  0.015395089  0.014877889            4 
 2890000   0.78872579   -8.3475785    533.79829  0.015392108  0.014872647            3 
 2891000   0.78893718   -8.3444017    534.03923  0.015393728  0.014867398            3 
 2892000   0.79807612    -8.385188     532.9278   0.01535638   0.01486212            4 
 2893000   0.78693089   -8.3862765    532.72814   0.01534532  0.014856839            5 
 2894000   0.79075673   -8.3747302    533.10456  0.015350857  0.014851589            8 
 2895000   0.76668378   -8.3885896    532.58511  0.015330602  0.014846339            3 
 2896000   0.78912244   -8.3533694    533.67174  0.015356576   0.01484109            3 
 2897000   0.79628951   -8.3702071    532.83296  0.015327148  0.014835861            9 
 2898000    0.8039013   -8.3854638    532.23513  0.015304668  0.014830611            3 
 2899000    0.7858839   -8.3495129    533.77855  0.015343755  0.014825357            3 
 2900000   0.79163582    -8.373365    532.29961  0.015295966  0.014820085            6 
 2901000   0.79487867   -8.3832445    533.05766  0.015312469  0.014814832            2 
 2902000   0.78422375    -8.397805    532.32434  0.015286134  0.014809595            5 
 2903000   0.77999259   -8.3502835    533.31844  0.015309405  0.014804344            1 
 2904000   0.78689195   -8.3183288    533.00793  0.015295223  0.014799111            1 
 2905000   0.78418124     -8.36165    532.76386  0.015282957  0.014793877            2 
 2906000    0.7801337   -8.3340014    533.57017  0.015300819  0.014788636            2 
 2907000   0.77537065   -8.3554371    534.59936  0.015325059  0.014783409            5 
 2908000   0.78461209   -8.3542263    532.52632  0.015260383  0.014778188            5 
 2909000   0.78925705   -8.3505401    532.43868  0.015252626  0.014772979            2 
 2910000   0.80191127   -8.3357792    533.86595  0.015288257   0.01476778            2 
 2911000   0.78297342   -8.3578426    533.76674  0.015280165  0.014762567            2 
 2912000   0.78848073   -8.3565096    533.85117  0.015277334  0.014757352            4 
 2913000   0.79926643   -8.3591136    534.41851   0.01528832  0.014752144            4 
 2914000   0.79888449   -8.3361231    534.42837  0.015283355  0.014746927            3 
 2915000   0.79244462   -8.3483384    533.95128  0.015264473   0.01474173            6 
 2916000   0.77371008    -8.359618     533.9282  0.015258579  0.014736517            3 
 2917000   0.77811828   -8.3941939    531.78907  0.015192237  0.014731293            2 
 2918000   0.77888885   -8.3661158     533.1551  0.015226042  0.014726052            4 
 2919000   0.78880056   -8.3910069    532.15835   0.01519237  0.014720814            4 
 2920000   0.77887685   -8.3653129     533.2958  0.015219629  0.014715561            3 
 2921000   0.77312832   -8.3817593    532.23199  0.015184069  0.014710314            3 
 2922000   0.79037512   -8.3834126    533.48227   0.01521453  0.014705089            5 
 2923000   0.76866308   -8.3556985    533.65569  0.015214269  0.014699861            3 
 2924000   0.79735846    -8.373289     532.0325  0.015162805  0.014694616            3 
 2925000    0.7648347   -8.3711464     532.7055  0.015176795  0.014689373            2 
 2926000   0.77066169   -8.3836831     534.0022  0.015208538  0.014684145            4 
 2927000   0.79272071   -8.3532921    533.34961  0.015184763  0.014678923            5 
 2928000   0.78122236   -8.3871366    531.24252  0.015119607  0.014673694            5 
 2929000   0.78823725   -8.3969102    531.98932  0.015135693  0.014668471            7 
 2930000   0.77772072   -8.3585753    532.95941  0.015158117  0.014663219            2 
 2931000    0.7905673   -8.3739871    532.33423  0.015135171  0.014657978           10 
 2932000    0.7837581    -8.401531    533.34629  0.015158774   0.01465274            4 
 2933000   0.78275005   -8.3763748    532.58202  0.015131891  0.014647525            4 
 2934000   0.78486146    -8.413975    532.20773  0.015116102  0.014642283            3 
 2935000   0.77307476   -8.4001581    533.05683   0.01513506  0.014637044            4 
 2936000   0.80016785   -8.3633885    533.85857  0.015152661  0.014631832            8 
 2937000   0.77294996   -8.4061375    533.33927  0.015132768  0.014626598            5 
 2938000   0.80205462   -8.3781871    533.04948  0.015119398  0.014621374            4 
 2939000   0.78183479   -8.3941366    533.31856  0.015121883  0.014616146            6 
 2940000   0.77526731   -8.3843332    533.27336  0.015115458  0.014610895            3 
 2941000   0.79250036    -8.369664    533.08704  0.015105039  0.014605652            3 
 2942000   0.77752807   -8.3961454    531.75584  0.015062198  0.014600412            4 
 2943000   0.78422373   -8.3679278    532.84201  0.015087836  0.014595166            5 
 2944000   0.78501129    -8.386335    532.86396  0.015083332   0.01458995           11 
 2945000   0.78494679   -8.3878095    533.29921  0.015090527  0.014584721            4 
 2946000   0.80324153   -8.3930234    533.39442  0.015088097  0.014579496            6 
 2947000   0.77474286   -8.3782815    533.45511  0.015084694  0.014574291            4 
 2948000   0.77922363   -8.3710841    534.76153  0.015116506  0.014569114            3 
 2949000   0.78461343   -8.3982491    534.36261  0.015100108  0.014563934            3 
 2950000    0.7774297   -8.3564448    533.50202  0.015070679  0.014558729            4 
 2951000   0.77932449   -8.3825479    533.08427  0.015053775   0.01455356            6 
 2952000   0.77809954   -8.3880377       532.73  0.015038674   0.01454836            3 
 2953000   0.77971469   -8.4061424    532.77271  0.015034787  0.014543163            3 
 2954000   0.77924682   -8.3696445    533.39036  0.015047121  0.014537981            7 
 2955000   0.79728443   -8.3547545    533.53982  0.015046244  0.014532805           11 
 2956000   0.76396359   -8.3896567    534.17819  0.015059151   0.01452762            8 
 2957000   0.77223223   -8.3628734    533.89091  0.015045962  0.014522434            5 
 2958000   0.76340384   -8.3926556    532.96004  0.015014651  0.014517257            2 
 2959000   0.77470017   -8.3701261    532.98063  0.015010156  0.014512073            4 
 2960000   0.76659299   -8.3734683    534.01979  0.015034341  0.014506894            2 
 2961000    0.7690769   -8.3727227     533.8013  0.015023115  0.014501708            3 
 2962000   0.75621358   -8.3878881    532.91449  0.014993093  0.014496524            3 
 2963000   0.77040997   -8.3669194    533.67724  0.015009485  0.014491332            3 
 2964000   0.77972173   -8.3941162    534.26454  0.015020933  0.014486151            5 
 2965000   0.78429479   -8.4021475    533.58192  0.014996681  0.014480969            2 
 2966000   0.77585616   -8.3860135    534.07976  0.015005612  0.014475806            5 
 2967000   0.77615951   -8.3688169    534.40293  0.015009632  0.014470624            5 
 2968000    0.7831327   -8.3905568    534.12812  0.014996859  0.014465448            4 
 2969000   0.77030335   -8.3717259    534.05062  0.014989632  0.014460276            2 
 2970000   0.79874613   -8.3670801    534.26895  0.014990711  0.014455127            8 
 2971000   0.77182045   -8.3937564     533.5967   0.01496681  0.014449949            4 
 2972000   0.76708411   -8.3665955    532.96223  0.014943983  0.014444783            8 
 2973000   0.75647777   -8.3834299    534.43666  0.014980285  0.014439615            6 
 2974000   0.77385562   -8.4196115    533.81623  0.014957863  0.014434435            8 
 2975000   0.76590014   -8.3959033    532.64974  0.014920161  0.014429252            8 
 2976000    0.7581348   -8.4020752    534.07644  0.014955097  0.014424069            2 
 2977000   0.77837653   -8.4210571    533.59787  0.014936678   0.01441891            7 
 2978000   0.77238911   -8.4090872     534.1699  0.014947669  0.014413742            6 
 2979000   0.77299424   -8.4109635    533.39765  0.014921049  0.014408581            4 
 2980000   0.76794478   -8.4113412    532.89391  0.014901955   0.01440341            7 
 2981000   0.78000505   -8.4183691    534.83612   0.01495125  0.014398233            3 
 2982000    0.7918966   -8.4222938    533.63749   0.01491274  0.014393057            7 
 2983000   0.78238081   -8.4188634     532.5258  0.014876685  0.014387857            5 
 2984000   0.77519565   -8.4340377    533.36174  0.014895044  0.014382653           12 
 2985000   0.78848009   -8.4254861    532.72118  0.014872171  0.014377461            7 
 2986000   0.77514547   -8.4035992    534.00551  0.014903034  0.014372263           13 
 2987000   0.76448871   -8.4272983    533.80505  0.014892452   0.01436709            7 
 2988000   0.77500184   -8.4179577    533.78231  0.014886834  0.014361908            9 
 2989000   0.77800286   -8.4108433    534.53132  0.014902736   0.01435674            9 
 2990000   0.77856171   -8.4081489    532.81169  0.014849824  0.014351591            6 
 2991000   0.77799601   -8.4042116    533.56645  0.014865888  0.014346429            4 
 2992000   0.77522207   -8.3919761    533.86462  0.014869224  0.014341261            8 
 2993000   0.77190047   -8.4153881    532.84522  0.014835873  0.014336076            3 
 2994000   0.75994922   -8.3940521    534.99617  0.014890786  0.014330896            3 
 2995000   0.77284167   -8.3979724    533.01872  0.014830793  0.014325731            2 
 2996000   0.78036974   -8.4231354    533.79706  0.014847493  0.014320547            1 
 2997000   0.77443967   -8.4164305    533.07152  0.014822365  0.014315358            3 
 2998000   0.77573115   -8.4322791    532.43449  0.014799713  0.014310168            4 
 2999000   0.77836268   -8.4130569    532.63972  0.014800481  0.014304973            2 
 3000000   0.77733748   -8.4068908     533.7577  0.014826603  0.014299796            6 
 3001000   0.75489998   -8.4059502     533.0634  0.014802382  0.014294631            2 
 3002000   0.76871992    -8.377695    533.83628  0.014818906  0.014289459            1 
 3003000   0.76414383   -8.3942945    532.56018   0.01477856  0.014284297            6 
 3004000   0.78321189   -8.3817939    533.83753  0.014809075  0.014279155            6 
 3005000   0.78333767   -8.3936284    534.08347  0.014810967  0.014274009            5 
 3006000   0.76991028   -8.3868992    534.60192  0.014820412  0.014268865            9 
 3007000   0.77742829   -8.4098891    534.59196  0.014815208  0.014263702            3 
 3008000   0.78064378   -8.4014404    533.85009   0.01478973  0.014258555            5 
 3009000   0.76545814     -8.39367    533.59818  0.014777838   0.01425341            7 
 3010000   0.78022297   -8.3937178    534.61588  0.014801104  0.014248267            3 
 3011000    0.7782576   -8.3900103    533.31808   0.01476027  0.014243122            3 
 3012000   0.77194669   -8.4021515    533.87619  0.014770811   0.01423799            2 
 3013000   0.76848005   -8.3934043    534.33968  0.014778728  0.014232862            6 
 3014000   0.77098775   -8.4185706    533.65305   0.01475484  0.014227734            7 
 3015000   0.78098544   -8.3624545    534.21437  0.014765461  0.014222615            3 
 3016000   0.78212184   -8.3919322    534.84345  0.014777947  0.014217482            3 
 3017000   0.78434115   -8.4116573    533.44273  0.014734359  0.014212344            3 
 3018000   0.77194331   -8.4241468    533.73368  0.014737511  0.014207199            3 
 3019000   0.75120441   -8.4041242    533.16359  0.014716893   0.01420204            3 
 3020000   0.76003272   -8.4192036    534.24328  0.014741812  0.014196885            4 
 3021000   0.77169193   -8.4261428    533.18051  0.014707616  0.014191754            3 
 3022000   0.76225551   -8.4401144    533.07667  0.014699886  0.014186611            9 
 3023000   0.76310271   -8.4239565     532.8921  0.014689936  0.014181466            4 
 3024000   0.76200616   -8.4332992    532.76607  0.014681605  0.014176317            4 
 3025000   0.77132442   -8.3910478    533.80422   0.01470535  0.014171191            2 
 3026000   0.75411367   -8.3871321    533.97798  0.014705276  0.014166086            2 
 3027000   0.76851929   -8.3950712    532.91956   0.01467128  0.014160975            3 
 3028000   0.77279871   -8.3943333    534.00876   0.01469641  0.014155847            8 
 3029000   0.77585159   -8.4077913    534.48314  0.014704609  0.014150737            1 
 3030000   0.77156068   -8.4141223    533.57552  0.014674794  0.014145631            8 
 3031000   0.78212096   -8.4276317    534.23249  0.014688015  0.014140529            6 
 3032000   0.77770801   -8.4276382    532.55018  0.014636933  0.014135405            5 
 3033000   0.77423963   -8.4089066    534.63205  0.014689308  0.014130301            2 
 3034000   0.76436627   -8.4227623    534.35942  0.014676978  0.014125219            4 
 3035000   0.75849574   -8.4013004    534.62221  0.014679358  0.014120134            4 
 3036000    0.7404683   -8.3881067    535.51204  0.014698947  0.014115071            4 
 3037000   0.77699113   -8.4083474     534.7151   0.01467224  0.014110004            2 
 3038000   0.76890754   -8.3875776    534.31824  0.014656524  0.014104942            3 
 3039000   0.77750095   -8.4028341    534.48994  0.014656409   0.01409987            6 
 3040000   0.77435079   -8.3886727    535.01537  0.014665991  0.014094779            4 
 3041000   0.75186756   -8.4085299    534.79274  0.014655068  0.014089696           11 
 3042000   0.77272319   -8.4400152     533.7981  0.014623003   0.01408459            9 
 3043000   0.77502083   -8.4325989     533.3307  0.014605398  0.014079489            3 
 3044000   0.76178108   -8.4328681    534.70656  0.014638265  0.014074398            7 
 3045000   0.75205302   -8.4185239    535.11963  0.014644763  0.014069321           17 
 3046000   0.75465591   -8.4311458    533.74891  0.014602454  0.014064248            4 
 3047000   0.77225123   -8.4177813    534.69321  0.014623488  0.014059186            6 
 3048000   0.78219419   -8.4076723    535.27859  0.014634695  0.014054122            6 
 3049000   0.76834414   -8.4143515    534.49008  0.014608344  0.014049061            7 
 3050000   0.76089771   -8.4124808    534.14108  0.014594019  0.014044012            6 
 3051000   0.75751611   -8.4545696    534.10735  0.014588314  0.014038951            3 
 3052000   0.75504962    -8.414197    535.76854  0.014628892  0.014033898            2 
 3053000    0.7595568    -8.424514    535.31924  0.014611837  0.014028841            6 
 3054000   0.76059743   -8.4086104    534.93591  0.014596592  0.014023809            3 
 3055000     0.760574   -8.4358077     533.2417    0.0145456  0.014018764            2 
 3056000   0.76256678   -8.3945563    535.62767  0.014605903  0.014013719            4 
 3057000   0.75667135   -8.4188872     534.9822   0.01458353  0.014008667            6 
 3058000   0.76101548   -8.4059318    534.96855  0.014578389  0.014003606            4 
 3059000   0.75921033   -8.4415448    534.16955  0.014551856   0.01399855            5 
 3060000    0.7643642   -8.4347561    532.91624  0.014512969  0.013993493            7 
 3061000   0.74837856   -8.4397982    534.83398  0.014560437  0.013988431            3 
 3062000    0.7648997   -8.4267823    535.23023  0.014566466  0.013983381            2 
 3063000   0.76400033   -8.4218423    534.18119   0.01453317  0.013978334            4 
 3064000   0.75245987   -8.4206541    534.00302  0.014523581  0.013973291            2 
 3065000   0.75308979   -8.4182763    534.85809  0.014542091  0.013968243            2 
 3066000   0.76427915   -8.4061457    534.91895  0.014539002  0.013963195            4 
 3067000   0.77446854    -8.407444    534.75818  0.014529893  0.013958148            2 
 3068000     0.753625   -8.4121098    535.40795  0.014542806  0.013953116            6 
 3069000   0.76155016   -8.4216294    534.70365  0.014518943  0.013948063            3 
 3070000   0.75669029   -8.4395461    534.09574  0.014497713  0.013943016            2 
 3071000   0.76791576    -8.421755    534.87479  0.014514132  0.013937983            1 
 3072000   0.74461664   -8.4495861    534.26958   0.01449299  0.013932954            2 
 3073000   0.75190077   -8.4577531    534.16089  0.014485326  0.013927905            2 
 3074000   0.75902143   -8.4456807    534.46934  0.014488976  0.013922853            2 
 3075000   0.77601355   -8.4284911    534.99295  0.014498454  0.013917817            4 
 3076000   0.74233561   -8.4361278     535.6316  0.014511042  0.013912787            2 
 3077000   0.77064548   -8.4195202    534.98509  0.014488817  0.013907769            3 
 3078000   0.76920707   -8.4167887    534.38073  0.014467748  0.013902747            4 
 3079000   0.74788069    -8.431371    534.56043  0.014467912  0.013897697            4 
 3080000   0.74992264   -8.4871994    533.96797  0.014447185  0.013892658            3 
 3081000   0.76973865    -8.477817    535.50155  0.014483976  0.013887618            5 
 3082000   0.75808529   -8.4634707    534.24016   0.01444517  0.013882568            3 
 3083000   0.74416126   -8.4749225    534.45324  0.014446244  0.013877527            3 
 3084000   0.76410031   -8.4452671    534.58499   0.01444512  0.013872482            6 
 3085000   0.76152443   -8.4731998    533.92942  0.014422729  0.013867447            4 
 3086000   0.77123548   -8.4308461    535.10289  0.014449743  0.013862415            1 
 3087000   0.76705601   -8.4534693    535.56169  0.014457448  0.013857401            2 
 3088000   0.76555592   -8.4416019     535.3233  0.014446333  0.013852376            4 
 3089000   0.77033793   -8.4427895    534.09982  0.014408649  0.013847357            3 
 3090000   0.75145485   -8.4512491    535.51806  0.014442235  0.013842348            5 
 3091000   0.75348194   -8.4768613    534.94211  0.014422035  0.013837335            7 
 3092000   0.75481083   -8.4376037    535.18397  0.014423889  0.013832309            5 
 3093000   0.77139055   -8.4293156    536.02714  0.014441943  0.013827309            3 
 3094000   0.75814158   -8.4492707    534.32482  0.014391425  0.013822309            2 
 3095000   0.77072995   -8.4450167    534.47264  0.014390755  0.013817309            2 
 3096000   0.74128673   -8.4450617    534.54722  0.014388114  0.013812295            3 
 3097000   0.76886713   -8.4617973    535.08673  0.014397985  0.013807277            6 
 3098000   0.74831551   -8.4456098    535.90985  0.014415479  0.013802279            2 
 3099000   0.75704466   -8.4438156    534.58916  0.014375314   0.01379728            3 
 3100000   0.75529186   -8.4560008    535.43982  0.014393544  0.013792297           11 
 3101000   0.75377556   -8.4405222     535.3627   0.01438683  0.013787313            2 
 3102000   0.75355987   -8.4749397    535.05791  0.014374004  0.013782302            3 
 3103000   0.74014827   -8.4741913    533.64173  0.014331339  0.013777296            6 
 3104000   0.76344834   -8.4565019    535.09185  0.014365653  0.013772291           10 
 3105000   0.75082307   -8.4544688    534.85049  0.014354549    0.0137673            5 
 3106000   0.74403548    -8.471167    535.19455  0.014359158  0.013762313            5 
 3107000   0.75922845   -8.4630712    534.60253  0.014338658  0.013757309            6 
 3108000   0.75186911   -8.4750615    534.86074  0.014340968  0.013752293            5 
 3109000   0.74697854     -8.47495    534.90444  0.014337527   0.01374729            3 
 3110000   0.75906138     -8.47479    533.84313  0.014304478  0.013742284            5 
 3111000   0.77315837   -8.4591074    535.50695  0.014344448  0.013737274            4 
 3112000   0.76229345   -8.4558203    535.19557  0.014331501  0.013732275            3 
 3113000   0.76149185   -8.4843294    533.99041  0.014294636  0.013727268            4 
 3114000    0.7598372   -8.4857695    534.14998  0.014294315  0.013722262            9 
 3115000   0.76273166   -8.4617974     532.9183  0.014256776  0.013717259            9 
 3116000   0.74116141   -8.4610992    534.75738  0.014301385  0.013712259            7 
 3117000   0.76389236   -8.4444377    534.41651  0.014287683  0.013707266            6 
 3118000   0.73662912   -8.4435606    534.96123   0.01429766  0.013702293            5 
 3119000   0.75098288    -8.440148    536.50685  0.014334371   0.01369732            5 
 3120000   0.76102516   -8.4676989    535.52759  0.014303622  0.013692361            3 
 3121000   0.76735064   -8.4442608    535.95096  0.014310343  0.013687398            4 
 3122000   0.73605005    -8.468698    535.16952  0.014284901  0.013682454            8 
 3123000   0.72760396   -8.4646476     534.5647  0.014264188  0.013677498            7 
 3124000   0.75908413    -8.447998    534.95429  0.014270014  0.013672535            4 
 3125000   0.75984694   -8.4854631    534.89718  0.014263925   0.01366757            4 
 3126000   0.75765045   -8.4576403    535.57187  0.014277348  0.013662618            2 
 3127000   0.74072283   -8.4666129    534.94514   0.01425608  0.013657674            4 
 3128000   0.76147121   -8.4665124    534.75615  0.014246487  0.013652712            4 
 3129000   0.75027094   -8.4442046    535.45897  0.014260652  0.013647756           11 
 3130000   0.76228083   -8.4652628    535.48375  0.014256756  0.013642806            9 
 3131000   0.74323059   -8.4577581    535.00548  0.014239473  0.013637845            3 
 3132000   0.75928423   -8.4820472    535.73276  0.014254277  0.013632891            5 
 3133000   0.73694727   -8.4795055    534.74152  0.014223362  0.013627949            8 
 3134000   0.75404863   -8.4970402    535.57764  0.014241056  0.013623003            7 
 3135000   0.75104261   -8.4680802    534.93086  0.014219321  0.013618057            4 
 3136000   0.76282086   -8.4690226    535.17357  0.014221236  0.013613121            5 
 3137000   0.75330503   -8.4704837    535.55279  0.014226777  0.013608177           11 
 3138000   0.75957869   -8.4744448    535.47822  0.014220263   0.01360323            5 
 3139000   0.74476358   -8.4834688    535.77601  0.014223638  0.013598281            7 
 3140000   0.75874535   -8.4716975    536.32732   0.01423374  0.013593339            4 
 3141000   0.73469064   -8.4965421    534.58864   0.01418308  0.013588391            4 
 3142000   0.73555995   -8.4801506     535.2036  0.014194876  0.013583437            7 
 3143000   0.73603442   -8.4789013    533.99298  0.014158261  0.013578474            5 
 3144000   0.75782108   -8.4778085    534.93296  0.014178672  0.013573527            4 
 3145000   0.73758188   -8.4638278    534.94425  0.014174463  0.013568586            3 
 3146000   0.74469249   -8.4648919    534.18554  0.014149861   0.01356365            7 
 3147000   0.75512934   -8.4795544    533.86627   0.01413691  0.013558692            7 
 3148000    0.7449949   -8.4888187    535.02799  0.014163172  0.013553753            5 
 3149000   0.75025806   -8.4605008    536.41833  0.014195468  0.013548814            2 
 3150000   0.74048105   -8.4795771    535.03629  0.014154399  0.013543881            4 
 3151000   0.74312531   -8.4893852     535.0499  0.014150267  0.013538941            6 
 3152000   0.75665908   -8.4760918    535.08952  0.014146825  0.013533994            2 
 3153000   0.73710775   -8.4785236    534.25056  0.014120165  0.013529045            4 
 3154000   0.74609131    -8.472734    535.35466   0.01414486  0.013524106            7 
 3155000    0.7487494   -8.4819644    535.00925  0.014131253   0.01351916           13 
 3156000   0.75476655    -8.475128    534.61999  0.014116498  0.013514224            3 
 3157000   0.75288787   -8.4871714    534.10061  0.014098316  0.013509287            4 
 3158000   0.76822039   -8.4695731    535.00373  0.014117684  0.013504352            8 
 3159000   0.74251719   -8.4623524     535.3121  0.014121349  0.013499424            7 
 3160000   0.73484054   -8.4727198    535.38492  0.014118801  0.013494494            5 
 3161000   0.72214779   -8.4940954    535.84575  0.014126483  0.013489565            4 
 3162000   0.74975642   -8.4743479    535.41596  0.014110689  0.013484638            6 
 3163000   0.74956151   -8.4661345    533.55737   0.01405726   0.01347971            4 
 3164000   0.74836889   -8.4730131    533.86914  0.014061029   0.01347477            4 
 3165000   0.75173887   -8.4985569    533.96316  0.014059062  0.013469837            4 
 3166000   0.74412531   -8.4747186    535.23735  0.014088159  0.013464908            6 
 3167000   0.74074298   -8.4515442    535.44143  0.014089081  0.013460015            4 
 3168000    0.7435291    -8.445176    535.28844  0.014080609  0.013455127           10 
 3169000   0.73941237   -8.4541788     536.5808   0.01411015   0.01345024            6 
 3170000   0.74974538   -8.5083654     535.7155  0.014082952   0.01344535            7 
 3171000   0.74109573   -8.4706097    534.83065  0.014055257  0.013440467            6 
 3172000   0.75276297   -8.4505995    536.68877  0.014099642  0.013435595            6 
 3173000   0.75555728   -8.4645937    535.80757  0.014072055  0.013430721            2 
 3174000   0.74479402   -8.4369938    535.27871  0.014053736  0.013425847            4 
 3175000   0.75501923   -8.4908868    535.30327  0.014049954  0.013420963            4 
 3176000   0.72540321   -8.4191974    536.44887   0.01407559  0.013416104            5 
 3177000   0.75585633   -8.4617348    535.60481  0.014049019  0.013411241            5 
 3178000    0.7371531   -8.4691008    536.17958   0.01405967  0.013406376            4 
 3179000   0.74674516   -8.4493183    536.64326  0.014067402  0.013401508           12 
 3180000   0.75875652    -8.488574    534.94086  0.014018366  0.013396637           12 
 3181000   0.74087101   -8.5095455    535.53751   0.01402959  0.013391756            8 
 3182000   0.73598586   -8.4905352    535.11244  0.014014049  0.013386899            6 
 3183000   0.73853477   -8.4585322    536.14977  0.014036804  0.013382037            4 
 3184000     0.753237   -8.4605116    536.45844  0.014040474  0.013377183            3 
 3185000   0.74683752   -8.4799143    535.20086  0.014003162  0.013372325            5 
 3186000   0.76166658   -8.4707568    535.46185  0.014005593  0.013367457            4 
 3187000   0.74617887   -8.4552518    536.03633   0.01401622  0.013362607            2 
 3188000     0.737776   -8.4660165    533.55087  0.013946854  0.013357757            3 
 3189000   0.75335604   -8.4692179    535.30373  0.013988286  0.013352907            4 
 3190000   0.73689386   -8.4861044    536.85121  0.014024326   0.01334806            6 
 3191000   0.75154854    -8.513204    535.17644  0.013976194   0.01334321            2 
 3192000   0.74081882   -8.5066979    534.60872  0.013956995   0.01333834            4 
 3193000   0.73729055   -8.5045661    536.13732  0.013992518  0.013333454            3 
 3194000   0.75176313   -8.5079333    535.32584  0.013966965   0.01332857            9 
 3195000   0.75410564   -8.5157793    535.21605   0.01395973  0.013323681            6 
 3196000   0.74440309   -8.5077694      535.864  0.013972257  0.013318811           12 
 3197000   0.73920391   -8.4923705    535.74434  0.013964768  0.013313952            3 
 3198000   0.73972444   -8.4951637    534.60898  0.013930816  0.013309083            4 
 3199000    0.7281654   -8.4817068    535.49869  0.013949638  0.013304209            3 
 3200000   0.74878504   -8.4928732    535.05274  0.013933665  0.013299335            7 
 3201000   0.72915698   -8.5084139    534.33124  0.013910529  0.013294467           13 
 3202000   0.74299021   -8.5164531     535.4459  0.013935194  0.013289608            6 
 3203000   0.75015186   -8.5365235    534.51216   0.01390655  0.013284748            6 
 3204000   0.76217823   -8.5371493    534.52359  0.013902507  0.013279891            3 
 3205000   0.74413004   -8.5072259    535.03575  0.013911486   0.01327502            7 
 3206000   0.74544188   -8.5016894    534.83702  0.013901981  0.013270162            7 
 3207000   0.73871489   -8.5191711    534.26813  0.013882864  0.013265321            6 
 3208000   0.73642366   -8.5168554    534.37617  0.013881343  0.013260473            5 
 3209000   0.74202818   -8.5152054    534.56468  0.013881912  0.013255629            2 
 3210000   0.73692416   -8.4874206    535.61225  0.013904783  0.013250778            4 
 3211000   0.76007878   -8.5233409    535.38248   0.01389449  0.013245934            2 
 3212000   0.73224522   -8.4961999     535.4536  0.013892009  0.013241098            3 
 3213000    0.7380799   -8.4899324    535.59018  0.013891228  0.013236274            3 
 3214000   0.74091567   -8.5385272    534.63144  0.013862047  0.013231441            2 
 3215000   0.74214566   -8.4921261    535.53761  0.013881224  0.013226611            6 
 3216000   0.73950421   -8.5002654    535.70632  0.013881279  0.013221789            3 
 3217000   0.71662881   -8.4833248    536.10551  0.013887305  0.013216975           14 
 3218000   0.74902178    -8.496057    536.36553  0.013889723  0.013212171            4 
 3219000   0.74118242   -8.4709191    535.31911  0.013858318  0.013207361            6 
 3220000   0.74758847   -8.5131493    535.18373  0.013850511  0.013202546            2 
 3221000   0.74062745   -8.4897909     535.1842  0.013846223   0.01319772            2 
 3222000   0.74596195   -8.5142474    535.58188  0.013852211  0.013192906            8 
 3223000   0.74764198   -8.4983317    536.01111  0.013859011  0.013188091            5 
 3224000   0.72391731   -8.4729604    536.02141  0.013854979  0.013183268            4 
 3225000   0.75234188   -8.5164037    536.12386   0.01385333  0.013178454            3 
 3226000   0.73696954    -8.506521    536.89672     0.013869  0.013173651            7 
 3227000   0.73880441   -8.5127927    535.65163  0.013832549  0.013168852            4 
 3228000   0.74633097    -8.510291    535.50364  0.013824443  0.013164048            4 
 3229000   0.72701318   -8.4844368    535.89049  0.013830146  0.013159239            3 
 3230000   0.71326333   -8.4653436    534.87061  0.013799551  0.013154431            4 
 3231000   0.75121058   -8.4983478    536.33956  0.013833167  0.013149622            4 
 3232000   0.71736358   -8.4833472    536.50881  0.013833251   0.01314483            5 
 3233000   0.73713148   -8.5389508    534.79481  0.013784793  0.013140027            4 
 3234000    0.7317685   -8.5107567    535.78877  0.013806142   0.01313523            3 
 3235000   0.73833328    -8.504659    535.14388  0.013785262  0.013130432            2 
 3236000   0.72731607   -8.5120508    536.25305  0.013809566  0.013125625            3 
 3237000   0.72073562   -8.5220876    535.64905   0.01378975  0.013120824            6 
 3238000   0.72646376   -8.5164304     535.4836  0.013781233  0.013116014            6 
 3239000   0.74550941   -8.5251988    535.59081  0.013779737  0.013111198           14 
 3240000   0.74197802   -8.5107093     534.4231   0.01374545  0.013106396            7 
 3241000   0.74296651   -8.5168477    537.20186  0.013812657  0.013101613            6 
 3242000    0.7299842   -8.4930936    535.76056  0.013771349  0.013096831           11 
 3243000    0.7338881   -8.4994391    535.29572  0.013755158  0.013092042           10 
 3244000   0.73862903   -8.5093681    536.16085  0.013773141  0.013087247            8 
 3245000   0.72231734   -8.5101204    535.41802  0.013749821  0.013082471            5 
 3246000   0.73701106   -8.5339153    535.81269  0.013755717  0.013077686            6 
 3247000   0.73976785   -8.5214734    535.89491  0.013753591  0.013072888            4 
 3248000   0.74333413   -8.5135123    534.62741  0.013716836  0.013068087            5 
 3249000   0.73105379   -8.5136186    534.66496  0.013713578    0.0130633            6 
 3250000   0.73241327    -8.492567    536.65398  0.013760359   0.01305851            6 
 3251000   0.73835975   -8.5203852    534.55068  0.013702212  0.013053717            7 
 3252000   0.74085872   -8.5444379    535.36042  0.013718748  0.013048912            6 
 3253000   0.72302268   -8.5218839    535.68742  0.013722907  0.013044125            6 
 3254000   0.73028737   -8.5358406    534.84625  0.013697148  0.013039334            2 
 3255000   0.73798115   -8.5478063    535.51465  0.013710052  0.013034546            8 
 3256000   0.73477111   -8.5346481    535.11208  0.013695539  0.013029769            5 
 3257000   0.72780189   -8.5412414    534.45453  0.013674509  0.013024984            6 
 3258000   0.71976369   -8.5111891    535.91504  0.013707669  0.013020197            4 
 3259000   0.71402881   -8.5418519    535.05452   0.01368146  0.013015423           15 
 3260000   0.71042856   -8.5237305    536.90705  0.013724618  0.013010648            4 
 3261000   0.72440299   -8.4989002    536.36816  0.013706638  0.013005884            9 
 3262000   0.71160742   -8.5243862    536.97263  0.013717878  0.013001136            5 
 3263000   0.71251399    -8.526662    534.97144  0.013662566    0.0129964            6 
 3264000   0.72090159   -8.5024058    535.66873  0.013676183  0.012991661            5 
 3265000   0.72621101   -8.4998006    536.29674  0.013688023  0.012986914            2 
 3266000     0.730519   -8.4958875    536.53003  0.013689784   0.01298217            6 
 3267000   0.72387818   -8.5163075    536.07644  0.013674024   0.01297742            3 
 3268000   0.73918771   -8.5204931    536.45261  0.013679432  0.012972667            6 
 3269000    0.7199146   -8.5270149    535.68398  0.013655654  0.012967925            9 
 3270000    0.7280354   -8.5110297    534.68117  0.013625922  0.012963189            6 
 3271000   0.71680647   -8.5036996     536.5392  0.013669092  0.012958455            8 
 3272000   0.73273516   -8.5268999    536.66894  0.013668219   0.01295371           10 
 3273000   0.71072036   -8.5216304    535.09371  0.013623936  0.012948981            7 
 3274000   0.72822971   -8.5327955    536.26154    0.0136495  0.012944236            6 
 3275000   0.73513784   -8.5302229    535.34626  0.013622042  0.012939498            8 
 3276000   0.72302177   -8.5018791    535.51016  0.013622053  0.012934757            6 
 3277000   0.71995537   -8.5359816    535.67681  0.013622134  0.012930011            6 
 3278000   0.72054703   -8.5323829    535.18257  0.013605414  0.012925253            3 
 3279000   0.72882628   -8.5504167    534.92272  0.013594661  0.012920501            6 
 3280000   0.71538361   -8.5215719    535.57474  0.013607082   0.01291576           11 
 3281000   0.73264306   -8.5204987    534.87638  0.013585197  0.012911016            3 
 3282000   0.73763873   -8.5416555    535.85668  0.013605949  0.012906272           13 
 3283000   0.72919951   -8.5491943    535.58556  0.013594922  0.012901546            6 
 3284000   0.73859068   -8.5490527    534.51955  0.013563732  0.012896812           15 
 3285000    0.7091517   -8.5742023    534.93242  0.013570077  0.012892073            8 
 3286000   0.71897477    -8.537273    536.37738  0.013602591  0.012887328            7 
 3287000   0.70605607   -8.5114841    536.17069  0.013593213  0.012882601            5 
 3288000   0.72209371   -8.5394511    534.56907  0.013548486   0.01287787            3 
 3289000   0.72156999   -8.5505349    535.51062  0.013568223   0.01287314           12 
 3290000   0.71701829   -8.5383095    534.88528  0.013548259  0.012868418            3 
 3291000   0.71217457   -8.5399442    535.05365  0.013548406  0.012863689            4 
 3292000   0.73190416   -8.5351257     534.8812  0.013539925  0.012858973           13 
 3293000   0.73642457   -8.5345396    535.40191  0.013548991  0.012854239            7 
 3294000    0.7065043   -8.5560362    535.19858  0.013539733  0.012849501            4 
 3295000   0.73818406   -8.5632816    535.16994    0.0135349  0.012844772            4 
 3296000   0.71869417   -8.5475873    534.46223    0.0135129  0.012840058           10 
 3297000   0.71744142   -8.5458339    535.28424  0.013529578  0.012835343            3 
 3298000   0.73382099   -8.5383686    535.25706  0.013524789   0.01283063            7 
 3299000   0.71570563    -8.525055    535.42156  0.013524845  0.012825922            8 
 3300000   0.73556968   -8.5488979    535.45575   0.01352161  0.012821216            3 
 3301000   0.71739223   -8.4978292    537.53991  0.013570128  0.012816494            9 
 3302000   0.72659187   -8.5527924    534.74742  0.013495544  0.012811774            6 
 3303000   0.73211488   -8.5328836    536.28919  0.013530356  0.012807063            6 
 3304000   0.69338612   -8.5285077    534.40427  0.013478719  0.012802349            9 
 3305000   0.70239614   -8.5168974    535.42908  0.013500481  0.012797638            7 
 3306000   0.71848588   -8.5367218    535.98065  0.013510301  0.012792928           15 
 3307000   0.73659873   -8.5375907    534.45261   0.01346771  0.012788216           11 
 3308000   0.71658424   -8.5262469    535.41794  0.013487957  0.012783502            7 
 3309000   0.72103874   -8.5284451     534.9273  0.013471525  0.012778792            5 
 3310000   0.69955714   -8.5500099    536.00088  0.013494483  0.012774076            7 
 3311000   0.71938095   -8.5492444    535.78045   0.01348486  0.012769365            7 
 3312000   0.71985503   -8.5494096    535.08779   0.01346336  0.012764653            6 
 3313000   0.71437843   -8.5345463     535.5749  0.013471549  0.012759926            8 
 3314000   0.72339559   -8.5273165    536.42793  0.013488934  0.012755212           10 
 3315000   0.72023032   -8.5712608    535.34388  0.013457614  0.012750496            4 
 3316000   0.70403887   -8.5506102    535.42977  0.013455714  0.012745789            6 
 3317000   0.72149395   -8.5450448    534.70945  0.013433561  0.012741095            5 
 3318000   0.72113225   -8.5586825    534.67999  0.013428772  0.012736399            4 
 3319000   0.71873944   -8.5395293    534.80447  0.013427851  0.012731697            2 
 3320000   0.70799203    -8.535172    536.07142  0.013455608  0.012727008            2 
 3321000   0.72564197    -8.540626    534.83925  0.013420638  0.012722316            2 
 3322000    0.7118974   -8.5539091    536.52302  0.013458835  0.012717645            4 
 3323000   0.70918839   -8.5452134    535.52254  0.013429695  0.012712971            6 
 3324000   0.71696582   -8.5571135    536.08877  0.013439851  0.012708289            3 
 3325000   0.71817274   -8.5593012    534.78303  0.013403083  0.012703598            9 
 3326000     0.715726   -8.5306824    535.23941  0.013410488  0.012698914            6 
 3327000   0.71212473    -8.573957    534.38234   0.01338499  0.012694229            3 
 3328000   0.72636513   -8.5525002    533.82912  0.013367115  0.012689538            5 
 3329000   0.72412767   -8.5305565    536.24299  0.013423525  0.012684843            6 
 3330000    0.7226455   -8.5767816     534.3397  0.013371864  0.012680152            4 
 3331000    0.7328292    -8.551394    534.36219  0.013368413  0.012675455            7 
 3332000    0.7177476   -8.5437411    535.50986  0.013393104  0.012670781            5 
 3333000   0.72932701   -8.5530945    534.54775   0.01336503  0.012666111            2 
 3334000   0.71744338   -8.5546061    535.52122  0.013385354  0.012661436           13 
 3335000   0.72306723   -8.5454303     535.6965   0.01338572  0.012656757           10 
 3336000   0.72796369   -8.5665943    535.07226  0.013366114   0.01265207           13 
 3337000   0.71114771   -8.5409983    535.74739  0.013378968  0.012647404            6 
 3338000   0.72609724   -8.5614863    535.50463  0.013368899  0.012642732           13 
 3339000   0.71456736   -8.5650164    535.54609   0.01336593  0.012638076            9 
 3340000   0.70832217   -8.5564707    535.33723  0.013356717  0.012633426           10 
 3341000   0.71758195   -8.5788983    534.58277  0.013333901  0.012628763            9 
 3342000   0.70536023   -8.5667431    535.40303  0.013350365  0.012624094           13 
 3343000   0.72999781   -8.5480273    534.74414  0.013329947  0.012619425           12 
 3344000   0.72221903   -8.5630742    534.57037   0.01332163  0.012614759           12 
 3345000    0.7396224   -8.5494985    535.68481  0.013345411  0.012610109            4 
 3346000   0.71788187   -8.5470117     535.6743  0.013341161   0.01260546            7 
 3347000   0.70912457   -8.5540509    535.25257  0.013326675  0.012600817            5 
 3348000   0.69719425   -8.5749828    535.91202  0.013339108  0.012596168            9 
 3349000   0.70091393   -8.5995774    533.94385  0.013286151  0.012591511            7 
 3350000   0.72262055   -8.5477413    534.75494  0.013302362  0.012586862            3 
 3351000   0.71985175   -8.5642797    535.62159  0.013319944  0.012582215            8 
 3352000   0.71293786   -8.5550475    535.38279  0.013310033  0.012577575            7 
 3353000   0.71789236   -8.6006563    535.26597  0.013303161  0.012572932            6 
 3354000   0.71332104   -8.5746011    534.93211  0.013290899  0.012568297           12 
 3355000   0.71928423   -8.5700283    535.04072  0.013289635  0.012563658            5 
 3356000   0.69897433   -8.5713958    534.89896  0.013282155  0.012559027           10 
 3357000   0.72965351   -8.5909909    534.70547  0.013273396  0.012554401           12 
 3358000    0.7075491   -8.5736795    536.37225  0.013310806  0.012549784            8 
 3359000   0.71590644   -8.5818843    535.65698  0.013289098  0.012545167            5 
 3360000   0.71294782   -8.5816228    534.52852  0.013257156  0.012540537            6 
 3361000   0.70775256   -8.5707672     534.8906  0.013262189  0.012535909            3 
 3362000    0.7122536   -8.5699013     535.2298  0.013266652  0.012531281            5 
 3363000   0.72172346   -8.5695187    535.80739  0.013277019  0.012526662            5 
 3364000   0.71050111   -8.5748576    534.59655  0.013243077  0.012522051            5 
 3365000   0.70241193    -8.569303    535.41796  0.013259484  0.012517446            3 
 3366000   0.71399497   -8.5705521    535.15714  0.013249087   0.01251282            7 
 3367000   0.71908774   -8.5867111    536.44224  0.013276959  0.012508198            5 
 3368000   0.68746637   -8.5702522    535.35467  0.013246107  0.012503573            3 
 3369000   0.72626945   -8.5948414    534.07347  0.013210485  0.012498947            5 
 3370000   0.71344839   -8.5794438    534.45693  0.013216047  0.012494324           10 
 3371000   0.70835405   -8.5741935    535.25284  0.013231802  0.012489707            5 
 3372000   0.69410805   -8.5927025     534.6955  0.013214104  0.012485095           13 
 3373000   0.71593608    -8.559522    536.35004  0.013251063  0.012480487            7 
 3374000   0.70617126   -8.5852116    536.29367  0.013245744  0.012475881            7 
 3375000   0.70527557   -8.5661109    535.92631  0.013232748  0.012471282            3 
 3376000   0.69897495   -8.5760604    535.20241   0.01321096  0.012466683            2 
 3377000   0.70080846   -8.5663908    536.36206  0.013235664  0.012462086           10 
 3378000   0.69813482    -8.568486    535.40816  0.013208214  0.012457503            9 
 3379000   0.70148689   -8.5565997    536.24907  0.013225044  0.012452904            3 
 3380000   0.70142357   -8.5746999    534.34006  0.013174065  0.012448324            7 
 3381000   0.71655724   -8.6005512    535.85013  0.013207388  0.012443724            4 
 3382000   0.71103014    -8.589234    534.80626  0.013177761  0.012439124            8 
 3383000   0.69675276   -8.5802932    536.45606  0.013214505  0.012434533           16 
 3384000   0.71972297   -8.5800375    535.31121  0.013182408  0.012429947           19 
 3385000    0.7130915   -8.5657884    535.93664   0.01319391   0.01242536            7 
 3386000   0.70069314    -8.580434    536.44922  0.013202629  0.012420775            8 
 3387000   0.70701039   -8.5817375    534.55047  0.013152014  0.012416188            7 
 3388000   0.71047677   -8.6044347    535.05637  0.013160576  0.012411605           11 
 3389000    0.7075635   -8.5813447    535.08211  0.013157325   0.01240703            8 
 3390000   0.71004499    -8.569397      535.124  0.013154474  0.012402455           12 
 3391000   0.70739254   -8.6050102    536.95962  0.013195705  0.012397867            6 
 3392000   0.71884195   -8.5980565    535.38603  0.013153155  0.012393282            5 
 3393000   0.70484854    -8.566369    535.15188  0.013143528  0.012388704            9 
 3394000   0.72017161   -8.5934533    535.01515  0.013136298  0.012384141            7 
 3395000   0.72056571   -8.6096965    534.96013  0.013131078  0.012379575            6 
 3396000    0.7193238   -8.5865401    536.07426  0.013154551   0.01237499            5 
 3397000    0.6923507   -8.5806996    536.14466  0.013152406  0.012370424            3 
 3398000    0.7047375    -8.577989    535.97199    0.0131443  0.012365871            7 
 3399000   0.70391015   -8.6001241    535.43236  0.013127203  0.012361312            3 
 3400000   0.70687145   -8.5888382    535.47599  0.013124412  0.012356747            4 
 3401000   0.71272524   -8.5608708    535.28336  0.013115833    0.0123522            4 
 3402000   0.69746531   -8.5626872    536.44632  0.013140464  0.012347649            2 
 3403000   0.71700454   -8.5867522    536.11224  0.013128422  0.012343102            8 
 3404000   0.69732798   -8.5669389     536.2465  0.013127852  0.012338555            6 
 3405000   0.70383047   -8.5606891    535.09152   0.01309573  0.012334017           11 
 3406000   0.70720763   -8.5819342    534.70358  0.013082393  0.012329487           11 
 3407000   0.70000581   -8.5756837    535.17608  0.013090111  0.012324951            7 
 3408000   0.70362339   -8.5815167    534.35774  0.013066259  0.012320405            8 
 3409000   0.70956845   -8.5774877    534.93304   0.01307649  0.012315859            7 
 3410000   0.69755008   -8.5719717    534.96563  0.013073451  0.012311324            4 
 3411000    0.7053297   -8.5639548    535.59236   0.01308493  0.012306775           10 
 3412000   0.71290255   -8.5750747    534.95583  0.013065549  0.012302235           21 
 3413000   0.72501606   -8.5811908    535.15281   0.01306653  0.012297692           10 
 3414000   0.70343923   -8.6017517    534.95893   0.01305797  0.012293146            5 
 3415000   0.71001911   -8.5784324    535.48505  0.013066985  0.012288614            7 
 3416000   0.70204506    -8.595884    535.29015  0.013058405  0.012284075            5 
 3417000   0.71469792   -8.5835352    535.75786   0.01306599  0.012279548           17 
 3418000   0.71314753   -8.5877121    534.94202  0.013042277  0.012275016            4 
 3419000   0.71166137   -8.6121926    535.45438   0.01305095   0.01227048            9 
 3420000    0.6983381   -8.5597767    536.47229  0.013071937   0.01226594            5 
 3421000   0.69978532   -8.6033981    534.31514  0.013015569  0.012261399            5 
 3422000   0.69659246   -8.6024807    535.65061  0.013044287  0.012256864            9 
 3423000   0.69933596   -8.5791473    535.41596  0.013034764   0.01225233           18 
 3424000   0.69532474   -8.5800926    536.16701  0.013049236   0.01224781            7 
 3425000   0.71120731   -8.5831659    534.33899  0.013000949  0.012243276            1 
 3426000   0.72235432   -8.6008056    535.02781  0.013013909  0.012238742           13 
 3427000   0.69678577   -8.5942906    534.27988  0.012991924  0.012234209            5 
 3428000   0.71104592   -8.5960201    534.98243  0.013005213  0.012229677            9 
 3429000   0.70342362   -8.5815607    535.50984  0.013014237  0.012225157           13 
 3430000   0.69936733   -8.5955143    535.62219  0.013013173  0.012220648            3 
 3431000   0.70829892   -8.6003997    535.25651  0.013000498   0.01221614            4 
 3432000   0.69204474     -8.62969    535.29035  0.012997532  0.012211627            9 
 3433000   0.69025633   -8.5715274    536.28388  0.013017863  0.012207113            3 
 3434000   0.70478955   -8.5887991      535.926  0.013005387  0.012202602            5 
 3435000   0.69891179   -8.6297995    535.76206  0.012997624  0.012198088            5 
 3436000   0.70035057   -8.5803548    534.63744  0.012966566  0.012193588            6 
 3437000   0.69859597   -8.5886583     534.5616  0.012960954  0.012189084           10 
 3438000   0.70345357   -8.6172672    535.32402  0.012975665  0.012184592            7 
 3439000   0.68495868   -8.6018896    535.58628  0.012978246   0.01218009            8 
 3440000   0.70618389   -8.5924789    535.89312  0.012981907  0.012175591            5 
 3441000   0.70228886   -8.5835676    534.71129  0.012949513  0.012171095            5 
 3442000   0.69148169   -8.5965481    534.71053  0.012945732  0.012166603            7 
 3443000   0.69187098   -8.6067172     535.2174  0.012954241  0.012162107            5 
 3444000   0.69887798   -8.5895695    536.11237  0.012972134  0.012157616            7 
 3445000    0.6969858   -8.5833418    535.98203  0.012965216  0.012153129            5 
 3446000   0.70389506    -8.582128    535.39039  0.012947146  0.012148645            5 
 3447000   0.69179111   -8.5915432    535.54001  0.012947007  0.012144159            7 
 3448000   0.68111942   -8.5936721    535.72319   0.01294768  0.012139673            3 
 3449000   0.70370147   -8.5985643    534.53869  0.012915306  0.012135185            3 
 3450000   0.69548202   -8.6054743    535.68273  0.012939196  0.012130684            4 
 3451000   0.70139579   -8.6079831    534.51508  0.012907251  0.012126201            5 
 3452000   0.69821302   -8.5944024     534.4867  0.012902827  0.012121723            5 
 3453000   0.69771365   -8.6407503    534.21885  0.012892626  0.012117246            4 
 3454000   0.68800695   -8.5862479     535.8977  0.012929398  0.012112767            5 
 3455000   0.70581422   -8.6191309    535.56493   0.01291763  0.012108297            2 
 3456000    0.6924265   -8.6057838    534.93949  0.012898811  0.012103825            4 
 3457000   0.70652611    -8.608645     535.2756  0.012903182  0.012099348            5 
 3458000   0.70261502   -8.5990023    535.68871  0.012909406  0.012094867           11 
 3459000   0.70296016   -8.6099868     536.1297  0.012916298  0.012090407            5 
 3460000   0.69714615   -8.6120454    534.83102  0.012881287  0.012085947            9 
 3461000   0.68357574   -8.6120202     535.9801  0.012905232  0.012081487            9 
 3462000   0.70094665   -8.6154151    535.25323  0.012884008  0.012077029            6 
 3463000   0.71138703   -8.6133611    534.74881  0.012868149  0.012072574            7 
 3464000    0.7052621   -8.6177702     534.4619  0.012857532  0.012068112            9 
 3465000   0.69609921   -8.6137348    535.48392  0.012878401  0.012063649            3 
 3466000   0.68838972   -8.6093041    535.73549  0.012880734  0.012059193            4 
 3467000   0.69271161   -8.6275095     536.1579  0.012887172  0.012054738            4 
 3468000   0.70513128    -8.599945    534.13609  0.012834873  0.012050281            8 
 3469000   0.70536226   -8.6279079    535.08457  0.012853958  0.012045828            5 
 3470000   0.69689611   -8.6250284    535.24188  0.012854032  0.012041377            3 
 3471000    0.6923486   -8.6053391    535.61016   0.01285917  0.012036919            3 
 3472000   0.70810971   -8.6139144     535.0702  0.012842507  0.012032465            4 
 3473000   0.69816975   -8.6218951    535.52431  0.012849705  0.012028011            4 
 3474000   0.69392662    -8.645979    534.81202   0.01282892  0.012023555            2 
 3475000   0.72632946   -8.6384513    535.00848   0.01282994  0.012019101            6 
 3476000   0.71187112   -8.6238677     535.6699  0.012842105  0.012014647            2 
 3477000   0.71524608   -8.6063977    535.83547   0.01284238  0.012010207            3 
 3478000   0.69089083   -8.6317658    533.91349  0.012792637  0.012005761            6 
 3479000   0.70489167   -8.6391757    534.55743  0.012804384  0.012001309            6 
 3480000   0.68028606   -8.5910002    536.04934  0.012836431  0.011996874            7 
 3481000   0.69293309   -8.6358483     534.7474  0.012801575  0.011992443            7 
 3482000   0.70547768   -8.6058385    536.09431  0.012830134  0.011988017            6 
 3483000   0.69125368   -8.6343042    535.46073  0.012811291  0.011983594            4 
 3484000    0.6808423   -8.6108353     535.9028  0.012818188  0.011979177            4 
 3485000   0.70383581   -8.6328796    534.51838  0.012781406  0.011974758            6 
 3486000   0.71496975   -8.6177303    535.52559  0.012801817  0.011970342            5 
 3487000   0.71484209   -8.6192632    536.03331  0.012810279  0.011965928            4 
 3488000   0.70653995   -8.6388493    536.69746  0.012822474  0.011961511            4 
 3489000   0.69081701   -8.6173373    536.29949  0.012809293  0.011957092            6 
 3490000   0.68227396   -8.6320038     534.1437  0.012754148  0.011952682            7 
 3491000   0.69035124   -8.6019731    535.84029  0.012790993  0.011948269            4 
 3492000   0.71292029   -8.6200823    535.98174  0.012790706  0.011943859            4 
 3493000   0.68283173   -8.6310032    535.92873  0.012785779  0.011939447            4 
 3494000   0.70484951   -8.6221835    535.53237  0.012772667  0.011935042            3 
 3495000   0.68830683   -8.6075515    535.89705  0.012777707  0.011930646            3 
 3496000    0.6982735   -8.6321102     535.8198  0.012772211  0.011926242            4 
 3497000   0.67597586   -8.6269774    536.33518   0.01278084  0.011921844            5 
 3498000    0.7002516   -8.6156834    535.66313  0.012761176  0.011917449            2 
 3499000   0.67378554   -8.6159079     535.8202   0.01276127   0.01191306            7 
 3500000   0.70663781   -8.6373172    535.68217  0.012754337  0.011908663            6 
 3501000   0.68218076   -8.6477109     536.1759  0.012762447  0.011904262            4 
 3502000   0.68834133   -8.6249687     535.5755  0.012744515  0.011899863            3 
 3503000   0.69913941   -8.6157762     535.7381  0.012744745  0.011895476            2 
 3504000   0.68995129   -8.6333459    534.75156  0.012717645  0.011891084            3 
 3505000   0.69642132   -8.6432958     534.7852  0.012714817  0.011886688            3 
 3506000   0.69299134    -8.633628    534.83625  0.012712404  0.011882297            5 
 3507000   0.70994399   -8.6453406    534.56798  0.012702404  0.011877906            5 
 3508000   0.68556799   -8.6358176    534.51327  0.012697484   0.01187352           11 
 3509000    0.6805335   -8.6427394    534.68182  0.012697868   0.01186913            5 
 3510000   0.67538584   -8.6274376    536.21475  0.012730645  0.011864756            9 
 3511000   0.68724499   -8.6218913    535.03646  0.012699052  0.011860378            9 
 3512000   0.67396986   -8.6463615    535.54211  0.012707434     0.011856            8 
 3513000   0.68196054   -8.6310233    534.84727  0.012687335   0.01185162           10 
 3514000   0.69677568   -8.6522016    534.36238  0.012672225  0.011847233            4 
 3515000   0.70076739   -8.6292074    535.29351  0.012690695  0.011842848            2 
 3516000   0.67445855   -8.6386721    534.49646  0.012668195   0.01183846            4 
 3517000   0.68518128   -8.6574904    535.22951  0.012681962   0.01183407            3 
 3518000   0.69356473   -8.6547234    534.55975  0.012662492  0.011829678            3 
 3519000   0.69360139   -8.6501185    534.87295   0.01266631  0.011825282            3 
 3520000   0.68576056    -8.648037     535.8251  0.012685253   0.01182089            4 
 3521000   0.69403201   -8.6670553    534.19477  0.012643065  0.011816506            3 
 3522000   0.69173898   -8.6544107    534.67821  0.012650914  0.011812126            6 
 3523000   0.70019158   -8.6664358    534.62436  0.012646049  0.011807743            4 
 3524000   0.68272861   -8.6288242    533.56686  0.012617453  0.011803363            6 
 3525000   0.68243986   -8.6516137    534.81748  0.012643439  0.011798991            3 
 3526000    0.6806837   -8.6365297    534.35097  0.012628828  0.011794617            4 
 3527000   0.67948343   -8.6491065    535.09479  0.012642822  0.011790243            4 
 3528000   0.69809864   -8.6605002    534.42722   0.01262347  0.011785868            5 
 3529000   0.67828293   -8.6749847    534.26879  0.012616152  0.011781491            4 
 3530000   0.69884306   -8.6714687    533.99069  0.012606012  0.011777126            3 
 3531000   0.68171107   -8.6507504    534.26468  0.012608909  0.011772755            2 
 3532000   0.68367713   -8.6655907    535.28293  0.012629363  0.011768375            3 
 3533000   0.69318118   -8.6669811    533.80688  0.012590973  0.011764002            6 
 3534000   0.69086141   -8.6612076    533.07843  0.012570233  0.011759629            3 
 3535000   0.68248379   -8.6714881    533.60814  0.012579164  0.011755263            8 
 3536000    0.6827783   -8.6493492    534.75071  0.012602534  0.011750896            5 
 3537000   0.68967735   -8.6806843    534.21944  0.012586454  0.011746522            5 
 3538000   0.67237537   -8.6559749    534.46231  0.012588617  0.011742161            7 
 3539000    0.6908986   -8.6571709    535.21054  0.012602678    0.0117378            7 
 3540000   0.67697705   -8.6613706    535.34857  0.012602368  0.011733444            5 
 3541000   0.68198555   -8.6613138    535.48807  0.012602092  0.011729099            4 
 3542000   0.66915308   -8.6660009    534.59287  0.012577472   0.01172475            6 
 3543000   0.70400599   -8.6781615    534.35498  0.012568327  0.011720399            6 
 3544000   0.68330882    -8.670791    534.99922  0.012579929  0.011716049            4 
 3545000   0.67481893   -8.6584523    534.32882  0.012560621  0.011711694            7 
 3546000   0.68652785   -8.6653426    534.70336  0.012565881  0.011707343            4 
 3547000   0.68250449    -8.668872    535.15735  0.012573004  0.011702999            5 
 3548000   0.68279574   -8.6607962    535.13134   0.01256885  0.011698661            8 
 3549000   0.69871021   -8.6429939    534.91044  0.012560121  0.011694319            7 
 3550000   0.67650162   -8.6814889    534.48309  0.012546551  0.011689971            4 
 3551000   0.68491539   -8.6720806     534.8309   0.01255118  0.011685625            2 
 3552000   0.68581598   -8.6598234    535.51928  0.012563797  0.011681283            6 
 3553000   0.67202246   -8.6556029    534.11152  0.012527243  0.011676944            6 
 3554000   0.68397376   -8.6648983    534.90471  0.012542316  0.011672616            7 
 3555000   0.69042884   -8.6676383    534.15639  0.012521247   0.01166827           10 
 3556000   0.68983766   -8.6725879    534.17378  0.012518133  0.011663927            5 
 3557000   0.68457547   -8.6830241    534.61206  0.012524882  0.011659589            7 
 3558000   0.68003184   -8.6754577    534.55485  0.012520022  0.011655254            3 
 3559000   0.68168363   -8.6510785    534.57088  0.012516879   0.01165092            6 
 3560000   0.68191762   -8.6780276    534.83214  0.012519479   0.01164659            4 
 3561000   0.67868568    -8.672795    534.29499  0.012503393  0.011642266            7 
 3562000   0.67332102   -8.6655535    535.00443   0.01251648  0.011637935            5 
 3563000   0.67677807   -8.6915274    533.75875  0.012483833  0.011633599            5 
 3564000   0.68517438    -8.656858    535.83411  0.012528856  0.011629262            6 
 3565000   0.68239293   -8.6706772    534.27321  0.012488855   0.01162494            5 
 3566000   0.68747778   -8.6988205    534.49696  0.012490581  0.011620618            5 
 3567000   0.68439664   -8.6880561    534.65551  0.012490784  0.011616301            2 
 3568000   0.66202372   -8.6560181    535.43352  0.012505454  0.011611997            4 
 3569000   0.67819022   -8.6858739    534.37995   0.01247735  0.011607691            4 
 3570000   0.67963835   -8.6816331    534.22924  0.012470337  0.011603393            6 
 3571000   0.68681172   -8.6684028    535.44397  0.012495192  0.011599097            5 
 3572000   0.67092434   -8.6677087    534.74767   0.01247545   0.01159481            3 
 3573000   0.68662633   -8.6683463    533.91455  0.012452527  0.011590509            6 
 3574000     0.680101   -8.6844511    535.01389  0.012474676  0.011586219            8 
 3575000   0.67274068   -8.6803816    534.45424  0.012458141  0.011581923            4 
 3576000   0.67651165   -8.6627028    533.77796  0.012438897  0.011577629           14 
 3577000   0.67881527   -8.6661723    533.99281  0.012440425  0.011573339           13 
 3578000   0.67288341   -8.6582619    535.79733  0.012478976  0.011569044            5 
 3579000   0.67544407   -8.6654794     534.7142   0.01245027   0.01156475            7 
 3580000   0.67235029    -8.671129    534.76678  0.012448016  0.011560448            9 
 3581000   0.67390814   -8.6736937    534.84978  0.012446472  0.011556159            4 
 3582000   0.67484972    -8.672067     534.4476   0.01243364  0.011551874            7 
 3583000   0.68204681   -8.6490077    534.49887  0.012431363  0.011547585            6 
 3584000   0.67686814   -8.6747647    535.20321  0.012444271  0.011543301           12 
 3585000   0.66587348   -8.6852011    535.03023  0.012436779  0.011539015            4 
 3586000    0.6815429   -8.6648968    534.71497  0.012425985  0.011534731            4 
 3587000   0.68165278   -8.6681709    533.86823  0.012402849  0.011530452            4 
 3588000   0.68270231   -8.6392805    534.31849   0.01240985  0.011526172            5 
 3589000    0.6724251    -8.681849    535.05821  0.012423568  0.011521897            5 
 3590000   0.67740318   -8.6741458    534.60946   0.01240969  0.011517626            4 
 3591000    0.6591245   -8.6563602    534.98308  0.012414905  0.011513362            6 
 3592000   0.67790218   -8.6801496    534.02302  0.012389176  0.011509089            2 
 3593000   0.69091134    -8.698743    534.51428  0.012397121  0.011504818            6 
 3594000    0.6815055   -8.6787211    534.27151  0.012388043  0.011500548            4 
 3595000   0.68090983   -8.6781752      535.141  0.012404752  0.011496287            4 
 3596000   0.67741671   -8.6835556    534.82729  0.012394033  0.011492018            3 
 3597000   0.68644785   -8.6724095    535.73572  0.012411633  0.011487766            5 
 3598000   0.66951035   -8.6694731     534.7106   0.01238444  0.011483513            5 
 3599000   0.68300459   -8.6838635    533.63106  0.012356003  0.011479255            6 
 3600000   0.67185233   -8.6891759    533.72465  0.012354737  0.011474997            3 
 3601000   0.67648956   -8.6841497    534.21176  0.012362579  0.011470743            2 
 3602000   0.68442288   -8.6955096    534.38285  0.012363105  0.011466493            3 
 3603000   0.68111921   -8.6679708    535.61409  0.012388151  0.011462246            4 
 3604000    0.6728797   -8.6642984    535.79414  0.012388877  0.011457994            5 
 3605000    0.6857091   -8.6753102    535.26346  0.012373173  0.011453748            3 
 3606000    0.6654693   -8.6681751    534.57064  0.012353731  0.011449502            2 
 3607000   0.66617656   -8.6835156    533.75619  0.012331489  0.011445248            3 
 3608000   0.67153471   -8.7121556    534.16017  0.012337402  0.011440996            3 
 3609000   0.68577943     -8.67687    534.05719  0.012331606  0.011436745            6 
 3610000   0.66775856   -8.6792145    534.75875  0.012344385  0.011432487            4 
 3611000   0.67200511   -8.6825002    535.23328  0.012351917  0.011428236            6 
 3612000   0.69410973   -8.6725303    534.82947  0.012339181  0.011423982            2 
 3613000   0.67918203   -8.6906885    533.28812  0.012300215  0.011419731            5 
 3614000   0.67361988   -8.6778593    533.39893  0.012299367  0.011415476            5 
 3615000   0.66854986   -8.6824724    532.84886  0.012283284  0.011411229            5 
 3616000   0.67382103   -8.7249472    533.55467  0.012296153  0.011406975            7 
 3617000   0.67423149    -8.698855    534.40012  0.012312232  0.011402724            5 
 3618000   0.67000798   -8.6672981    533.86731  0.012296557  0.011398476            6 
 3619000   0.66709733   -8.6978741    534.16737  0.012300068  0.011394231            7 
 3620000   0.66298299   -8.6931517    533.17474   0.01227382  0.011389989            4 
 3621000   0.67833848   -8.6926224    533.32276  0.012273837  0.011385751            3 
 3622000   0.67715634   -8.7026704    533.94645  0.012284798  0.011381513            3 
 3623000   0.66323372   -8.6962236    534.77927  0.012300563  0.011377274            4 
 3624000   0.66259294   -8.6899857    534.21755  0.012284252  0.011373042            3 
 3625000   0.67164325   -8.6920865    534.55524  0.012288626  0.011368808            7 
 3626000   0.66759956    -8.683291    535.85625  0.012315137  0.011364585            6 
 3627000   0.66828381   -8.7020968     534.0503  0.012270249  0.011360351            4 
 3628000   0.66877002     -8.69362    534.06679  0.012267245  0.011356132            3 
 3629000   0.67221947    -8.695208    533.98893  0.012262077  0.011351897            4 
 3630000   0.66392421   -8.6951714    533.45654  0.012246477  0.011347669            5 
 3631000   0.67273388   -8.7145955    533.56135   0.01224551  0.011343445            2 
 3632000   0.67313662   -8.7157438    534.09491   0.01225438  0.011339219            4 
 3633000   0.65171699   -8.7047966    534.13748  0.012251984  0.011334992            2 
 3634000   0.66836746    -8.712525    533.97745  0.012244942  0.011330768            4 
 3635000   0.67235092    -8.687294    533.56475  0.012232113  0.011326545            4 
 3636000   0.66292709   -8.6950232    532.54761  0.012205437  0.011322323            5 
 3637000   0.67366094   -8.7060215     534.0435  0.012236355  0.011318109            5 
 3638000   0.67349286    -8.678971     534.4267   0.01224177  0.011313897            4 
 3639000   0.67657251   -8.6986699    533.70784  0.012221944  0.011309679            7 
 3640000   0.67439499    -8.690199    534.41405  0.012234754  0.011305472            6 
 3641000   0.67118481   -8.6800409    533.72352  0.012215589  0.011301265            3 
 3642000   0.65982509   -8.6799951     534.2285   0.01222379  0.011297057            4 
 3643000   0.67402901   -8.7049979    533.97588  0.012214656  0.011292843            7 
 3644000   0.67635813   -8.6999928    533.61402  0.012203028  0.011288643            5 
 3645000   0.67080039   -8.6980378    533.58322  0.012198976   0.01128444            6 
 3646000   0.67533789   -8.6921062    534.14558  0.012208484  0.011280242            4 
 3647000   0.65775874   -8.6848504     534.3679  0.012210216  0.011276045            5 
 3648000   0.67130463   -8.6702141     533.3367  0.012183313  0.011271854            3 
 3649000   0.65754367   -8.7119369    534.03638  0.012195953  0.011267659            6 
 3650000   0.67776232   -8.6796447    533.48075  0.012179926  0.011263467            5 
 3651000    0.6661931   -8.6953635    534.09557  0.012190623  0.011259275            4 
 3652000    0.6718075   -8.7007524    533.98132  0.012184678  0.011255087            4 
 3653000   0.67372391   -8.6935052    533.61308  0.012172942  0.011250895            5 
 3654000   0.65749224   -8.6891562    535.07574  0.012202968  0.011246709            9 
 3655000   0.66377223   -8.6993115    534.54054  0.012187427  0.011242533            3 
 3656000   0.66786539   -8.7048295    534.45738  0.012182198  0.011238345            4 
 3657000   0.66635431   -8.7272712    533.16318  0.012149375  0.011234161            5 
 3658000    0.6714365   -8.7051928    533.84563  0.012161601   0.01122998            6 
 3659000   0.66983257   -8.7047686    533.26961  0.012145158  0.011225804            6 
 3660000   0.67019261   -8.7069791    533.46528  0.012146295  0.011221629            8 
 3661000   0.66509838   -8.7056999    533.66778  0.012147587  0.011217447            6 
 3662000   0.65950147    -8.713408    533.52061   0.01214092   0.01121326            2 
 3663000   0.65590318   -8.7106902    534.44958   0.01215874  0.011209071            6 
 3664000   0.67448058   -8.7164975    534.48819    0.0121563  0.011204885            5 
 3665000   0.65658727   -8.7209768    533.62041  0.012133252  0.011200703            4 
 3666000   0.66140113   -8.7107643    533.58971  0.012129244  0.011196528            4 
 3667000   0.68182726   -8.7147434    533.29735  0.012119293  0.011192355            6 
 3668000   0.65842407   -8.7196219    533.74335  0.012126121  0.011188182            6 
 3669000    0.6494047   -8.7181347    533.77231  0.012123474  0.011184016            3 
 3670000   0.64606569   -8.6837791    533.81456   0.01212113  0.011179846            8 
 3671000   0.65781968   -8.7371734    534.25645  0.012127859  0.011175681            5 
 3672000   0.65172388    -8.713107    532.72182  0.012089729  0.011171513            5 
 3673000    0.6445972   -8.6986157    533.57596  0.012105816  0.011167345            4 
 3674000   0.65928581   -8.7039405    532.85756  0.012086227   0.01116319            3 
 3675000   0.66862731    -8.704333    533.45944  0.012096586   0.01115904            6 
 3676000   0.67165356   -8.7251152    533.40553  0.012092073  0.011154879            2 
 3677000   0.65760028   -8.6977087    533.93648  0.012100818   0.01115072            4 
 3678000   0.65391483   -8.7178959    533.10463   0.01207868  0.011146561            3 
 3679000   0.64842159   -8.7001883    532.60939  0.012064179  0.011142406            3 
 3680000   0.67132929   -8.6919042    532.84198  0.012066168  0.011138257            3 
 3681000   0.65676478   -8.7049096     533.6811  0.012081887  0.011134113            2 
 3682000   0.65315418   -8.7077116    532.87196  0.012060292  0.011129962            2 
 3683000   0.67396854   -8.7322617     533.1786  0.012063956   0.01112582            2 
 3684000   0.66292971   -8.7041248      533.299  0.012063405  0.011121676            4 
 3685000   0.66762663   -8.7364748    534.02043  0.012076446  0.011117531            8 
 3686000   0.66747045   -8.7289562      533.649  0.012064772  0.011113376            8 
 3687000   0.66697348   -8.7241544    533.27928  0.012053143  0.011109226            3 
 3688000   0.66057499   -8.7271022    533.44013   0.01205351  0.011105077            6 
 3689000   0.66304695    -8.722484    533.44461  0.012050344  0.011100929            5 
 3690000   0.64810951   -8.6991273    533.21954  0.012041995  0.011096791            5 
 3691000   0.67166852   -8.7267192    533.78856   0.01205158  0.011092651            5 
 3692000   0.66471038   -8.7387482    533.97659  0.012052559  0.011088513            4 
 3693000   0.65479733   -8.7379582    533.64497  0.012041813  0.011084371            6 
 3694000   0.66949935   -8.7287404    532.83577  0.012020298  0.011080235            3 
 3695000   0.66406704   -8.7186919    533.64636  0.012035326  0.011076097            6 
 3696000   0.66591934   -8.7096098    533.40732   0.01202668  0.011071968            5 
 3697000   0.66723551   -8.7236332    532.91279   0.01201228   0.01106783            3 
 3698000   0.65070047   -8.7295718    533.17808   0.01201501  0.011063698            4 
 3699000   0.66525139   -8.7424418    533.41203  0.012017032  0.011059568            6 
 3700000   0.65076982   -8.7459644    532.88838  0.012001991  0.011055433            5 
 3701000   0.67728827   -8.7392653    533.04353  0.012002241  0.011051307            6 
 3702000   0.65977564   -8.7008303    533.20833  0.012002709  0.011047183            4 
 3703000   0.66280216   -8.7291929    533.73348  0.012011285  0.011043059            5 
 3704000   0.64184977   -8.7512707    533.45115  0.012001691  0.011038933            3 
 3705000   0.66496021   -8.7326556    532.48192  0.011976651  0.011034802            3 
 3706000   0.65366479   -8.7643365    532.48646  0.011973522  0.011030675            4 
 3707000   0.63831546   -8.7379028    532.41853  0.011968765  0.011026546            3 
 3708000   0.65200749   -8.7360542      533.153  0.011982043  0.011022421            6 
 3709000   0.66280022   -8.7255928     532.2933  0.011959497  0.011018307            4 
 3710000   0.66378763   -8.7348554    533.38702  0.011980841  0.011014191            3 
 3711000   0.66417762   -8.7501626    533.09732  0.011971107  0.011010078            5 
 3712000   0.66408798   -8.7225813    533.46904  0.011976227  0.011005966            2 
 3713000   0.66483081   -8.7667981     533.4248  0.011972008  0.011001867            4 
 3714000   0.65475312   -8.7413804    533.07001  0.011960824  0.010997764            2 
 3715000   0.66858888   -8.7410425    532.89662  0.011953715  0.010993661           11 
 3716000   0.67338375   -8.7336995    533.49723  0.011963967  0.010989561            4 
 3717000   0.65411116   -8.7444961     532.6929  0.011942716   0.01098546           10 
 3718000   0.66795729   -8.7382392    532.16714   0.01192772  0.010981358            4 
 3719000   0.66385794   -8.7233222    533.53731  0.011955214  0.010977262           10 
 3720000   0.65172639   -8.7294467    532.15476   0.01192103   0.01097317            6 
 3721000   0.65766832   -8.7475914     532.5743  0.011927222  0.010969073            6 
 3722000   0.63883314   -8.7407467    533.33276  0.011940999  0.010964983            6 
 3723000    0.6481128   -8.7359961    533.41277  0.011939582  0.010960887            5 
 3724000   0.64676491   -8.7526815    532.57463  0.011917621  0.010956798            3 
 3725000   0.66533846    -8.729746    532.49014  0.011912531  0.010952706           12 
 3726000   0.66550162   -8.7412904    534.39499  0.011951937   0.01094862           10 
 3727000   0.66307939   -8.7399201     533.3271  0.011924852  0.010944542            9 
 3728000   0.64591028   -8.7298942    533.06879   0.01191588   0.01094046            4 
 3729000   0.66298117   -8.7320387    533.64354  0.011925528  0.010936376            6 
 3730000   0.65219132   -8.7121401    533.08122  0.011909768  0.010932299            2 
 3731000   0.64566866   -8.7475947    532.58746  0.011895548  0.010928221            3 
 3732000    0.6605524   -8.7396898    532.45769  0.011889462  0.010924142            8 
 3733000   0.65390144   -8.7305921    533.06335  0.011899798  0.010920068           12 
 3734000   0.64948771   -8.7447953      531.793   0.01186826  0.010915994            3 
 3735000   0.65398108    -8.767998    532.30173  0.011876433  0.010911916            8 
 3736000   0.66289316   -8.7450899    532.34718  0.011874268  0.010907838            4 
 3737000    0.6719718   -8.7358161    533.50021  0.011896802  0.010903761            3 
 3738000   0.66544452   -8.7480666     532.3476  0.011867924  0.010899688            4 
 3739000   0.65942266    -8.754682    531.43744  0.011844465  0.010895613            5 
 3740000   0.64322106   -8.7460877    533.06316  0.011877521  0.010891547            7 
 3741000   0.64946057   -8.7738994    532.58332  0.011863658  0.010887478            5 
 3742000   0.65571575   -8.7454926    533.19673  0.011874148   0.01088341            8 
 3743000   0.63555568   -8.7563391    532.40185  0.011853278  0.010879346            5 
 3744000   0.65426277    -8.747601     532.2651  0.011847069  0.010875279            6 
 3745000   0.65923423   -8.7512817    532.34118  0.011845598  0.010871206           11 
 3746000   0.65414153   -8.7481924    532.18531  0.011838968   0.01086714            5 
 3747000   0.64843255     -8.75726    531.85365  0.011828433  0.010863076            7 
 3748000   0.65554555   -8.7541852    531.49181  0.011817232  0.010859015            6 
 3749000   0.65613944   -8.7415254    532.82948  0.011843814  0.010854961           10 
 3750000   0.64948744   -8.7477747    531.96145  0.011821365  0.010850905            6 
 3751000   0.66078494   -8.7336406     531.6995  0.011812394   0.01084685           10 
 3752000   0.63567992    -8.737184    532.75972  0.011832794  0.010842799            9 
 3753000   0.64881108   -8.7453214    532.14531  0.011815999  0.010838747            7 
 3754000   0.64458645   -8.7399577    532.58706  0.011822657  0.010834697            7 
 3755000   0.65239108   -8.7401055    532.21687  0.011811293  0.010830648            6 
 3756000   0.64580422   -8.7642133    532.54464  0.011815421  0.010826602            8 
 3757000   0.64352738   -8.7542892    532.90567  0.011820284  0.010822564            7 
 3758000   0.65135895   -8.7360511     533.1242  0.011821984  0.010818529            7 
 3759000   0.65316304   -8.7642795    532.74255  0.011810378  0.010814489            4 
 3760000   0.63465936   -8.7717876    532.24571  0.011796226   0.01081045           11 
 3761000   0.64552155   -8.7680104    532.55582  0.011799961  0.010806413            4 
 3762000   0.64263886    -8.763049    533.27003  0.011812645  0.010802371            6 
 3763000   0.65729501   -8.7648969    532.97906  0.011803062  0.010798332            9 
 3764000     0.649952   -8.7550519    532.17879  0.011782208  0.010794295            8 
 3765000   0.65920963   -8.7477841    532.58179  0.011787999  0.010790259            6 
 3766000    0.6513177   -8.7405857     532.1946  0.011776301  0.010786234            2 
 3767000   0.66999046    -8.746978     532.4465  0.011778747  0.010782209            8 
 3768000   0.65931127   -8.7522766     532.1548   0.01176917  0.010778179           12 
 3769000   0.65792584   -8.7461278    533.16467  0.011788376  0.010774153            8 
 3770000   0.64522375   -8.7772925    533.07491  0.011783265  0.010770129            5 
 3771000   0.63859313   -8.7408202    532.98484   0.01177815  0.010766108            7 
 3772000   0.64804704   -8.7638332     531.5371  0.011743043  0.010762089            7 
 3773000   0.63816101   -8.7623455    532.35216  0.011757933  0.010758071            8 
 3774000   0.65673414   -8.7539778    533.26686  0.011775014  0.010754051            7 
 3775000   0.64094986   -8.7619288    531.55034  0.011734003   0.01075003            8 
 3776000   0.63712508   -8.7730615    531.95046  0.011739726  0.010746007            7 
 3777000   0.64278365    -8.772469    532.38191  0.011746137  0.010741994           15 
 3778000   0.65067086   -8.7722997    531.62675  0.011726371  0.010737977           11 
 3779000    0.6327358   -8.7571554    532.51212  0.011742792  0.010733968            8 
 3780000    0.6480494   -8.7568966    533.10235  0.011752697  0.010729958            9 
 3781000   0.65843786   -8.7543235    532.46495  0.011735541  0.010725957            7 
 3782000   0.65160595   -8.7553583    532.48606  0.011732903  0.010721956           12 
 3783000   0.65651675   -8.7364392    531.80609  0.011714823  0.010717958            8 
 3784000   0.65306243   -8.7541764    533.05521  0.011739236   0.01071396            8 
 3785000   0.64685995   -8.7611784    532.31652  0.011719871  0.010709959           11 
 3786000   0.65215338   -8.7562951    532.11704  0.011712384  0.010705957           11 
 3787000   0.64414216   -8.7506269     532.2718  0.011712697  0.010701957           14 
 3788000   0.64372509   -8.7660544    532.47156  0.011713999  0.010697956           13 
 3789000   0.65930141   -8.7623533    531.37742  0.011686844  0.010693955           11 
 3790000   0.65992296   -8.7535329    532.26679  0.011703316  0.010689962            6 
 3791000    0.6380001   -8.7645816    532.55218  0.011706502  0.010685965            8 
 3792000   0.64030599   -8.7667022    532.66329  0.011705856  0.010681975            8 
 3793000    0.6470793   -8.7775653    530.84531  0.011662829   0.01067798           10 
 3794000     0.645547   -8.7385408     532.3491  0.011692785  0.010673988            8 
 3795000    0.6418798   -8.7885882    531.43551  0.011669642      0.01067            5 
 3796000   0.64862163   -8.7767134    530.94341  0.011655765  0.010666007            6 
 3797000    0.6297306   -8.7723575    530.84661  0.011650571  0.010662015           17 
 3798000   0.64488697   -8.7423826    532.33693  0.011680203   0.01065803            7 
 3799000   0.64842217   -8.7646386     531.9808  0.011669316   0.01065405           10 
 3800000   0.64995236   -8.7475475    532.43209  0.011676142  0.010650072            5 
 3801000   0.63768126   -8.7775479     532.0987  0.011665761  0.010646099            9 
 3802000   0.63443228   -8.7987937    531.71705  0.011654328  0.010642123            5 
 3803000   0.64691348   -8.7808116    531.64724  0.011649733   0.01063815           13 
 3804000   0.64513267   -8.7581484    531.89461   0.01165209  0.010634173           16 
 3805000   0.63606725   -8.7803942    532.31151  0.011658158  0.010630203           10 
 3806000     0.647431   -8.7817167    531.68152  0.011641301  0.010626231           10 
 3807000   0.65394636   -8.7647531    532.79797  0.011662682  0.010622265           19 
 3808000   0.63786663   -8.7702821    531.52283  0.011631715  0.010618307            8 
 3809000   0.62529361   -8.7744119    531.90595  0.011637043  0.010614346           10 
 3810000    0.6421448   -8.7494193    533.46269  0.011668038  0.010610386           13 
 3811000   0.63599407    -8.789034    532.98031  0.011654428  0.010606426           12 
 3812000   0.65303288   -8.7739927     531.6641  0.011622598  0.010602467           21 
 3813000   0.65117005   -8.7870477    531.13572  0.011608002  0.010598506           21 
 3814000   0.65411387   -8.7664659    532.45175  0.011633712  0.010594551           18 
 3815000   0.63306031   -8.7783713    532.17405  0.011624597  0.010590597           13 
 3816000   0.64085342    -8.776967    531.23735  0.011601095  0.010586641           13 
 3817000   0.65612076   -8.7498069    533.03934  0.011637397  0.010582694            9 
 3818000   0.64311165   -8.7726796    532.54539  0.011623568  0.010578753           14 
 3819000    0.6202969   -8.7782949    532.14724  0.011611837  0.010574804           11 
 3820000    0.6408445   -8.7840227    532.63093  0.011619348   0.01057086           18 
 3821000    0.6384344    -8.792475    532.45151  0.011612395   0.01056692            9 
 3822000   0.65056551   -8.7701008     532.5793  0.011612143  0.010562988           11 
 3823000   0.65490858   -8.7752849    531.62055  0.011588206  0.010559051            9 
 3824000   0.64608241   -8.7696206    531.68164  0.011586507  0.010555114            8 
 3825000   0.62781906   -8.7724037    532.51758   0.01160169   0.01055118            9 
 3826000   0.63927493   -8.8008591    532.50587  0.011598403  0.010547241            7 
 3827000   0.63848175   -8.7802329    532.30715  0.011591045  0.010543302            9 
 3828000   0.62966495   -8.7835666    532.59922  0.011594375  0.010539363           18 
 3829000   0.64072949   -8.7708094    531.78396  0.011573604   0.01053543           18 
 3830000   0.63812938   -8.7903686    531.60768  0.011566747  0.010531498           16 
 3831000   0.63195035    -8.787986    532.29663  0.011578714  0.010527571            7 
 3832000    0.6325593   -8.7760889    531.65054  0.011561642   0.01052364           14 
 3833000   0.63113839   -8.8006686    531.60776  0.011557695  0.010519714            9 
 3834000   0.64518524   -8.7971837    531.30228  0.011548041   0.01051579            7 
 3835000   0.65788643   -8.7922595    531.94896  0.011559082  0.010511863            8 
 3836000   0.62692384   -8.7848517    532.51778  0.011568426  0.010507941           23 
 3837000   0.64236633   -8.7734886    532.26094  0.011559833  0.010504019            9 
 3838000   0.63866221    -8.802368    531.77228  0.011546211  0.010500096           18 
 3839000   0.62345904   -8.7868518    531.35274  0.011534096  0.010496177            9 
 3840000   0.63350131   -8.7869203    532.13147  0.011547992  0.010492264           10 
 3841000    0.6393156   -8.7765719     531.6723  0.011535023  0.010488355           10 
 3842000   0.64878405   -8.8028387    532.07412  0.011540737  0.010484451            9 
 3843000   0.64379777   -8.8153811     531.3391  0.011521795  0.010480542           10 
 3844000   0.62789257   -8.7933474    532.39103  0.011541602  0.010476634            7 
 3845000   0.63116842   -8.8008472    531.03919  0.011509302   0.01047273           13 
 3846000   0.64597783   -8.7782671    531.85165  0.011523913  0.010468822           13 
 3847000    0.6436922   -8.7896548    531.78812  0.011519542  0.010464917           10 
 3848000   0.63723544   -8.7908118    531.97883  0.011520678  0.010461015           16 
 3849000   0.62799687   -8.8148457    531.14061  0.011499537  0.010457112           14 
 3850000   0.64126047   -8.8005645    531.05746   0.01149475  0.010453216           11 
 3851000   0.64137602   -8.7770737    532.46574   0.01152224  0.010449321           13 
 3852000   0.62283179   -8.7735337    533.00277  0.011530866  0.010445429           10 
 3853000   0.63145477   -8.7762123    532.23213  0.011511206   0.01044154           14 
 3854000   0.65119563   -8.7683142    531.98248  0.011502821   0.01043765           10 
 3855000    0.6528555   -8.7807201    532.27366  0.011506132  0.010433765           11 
 3856000   0.63340502    -8.803845    532.26387  0.011502936   0.01042988            9 
 3857000   0.62832287   -8.7945485    532.15916  0.011497692  0.010425992            9 
 3858000   0.63344606   -8.7727085    531.60163  0.011482669  0.010422105            8 
 3859000   0.63473355   -8.8115842    531.04405  0.011467653  0.010418215           11 
 3860000   0.62512932   -8.8164092    531.56613  0.011475953  0.010414321            5 
 3861000   0.64297311   -8.8007566    531.07952  0.011462478  0.010410432            9 
 3862000   0.64195672   -8.8084609    531.59985  0.011470737  0.010406541           12 
 3863000   0.62992712   -8.8117157    532.03769  0.011477213  0.010402652            8 
 3864000   0.62552242   -8.8012437    531.78675  0.011468831  0.010398767            9 
 3865000   0.63602817   -8.7965264    531.53462  0.011460427  0.010394878            9 
 3866000   0.63261729    -8.801687    531.41472  0.011454878  0.010390992            9 
 3867000   0.63745425   -8.7791521    531.32136  0.011449904  0.010387118           11 
 3868000   0.64068186   -8.7952085    531.39489  0.011448528  0.010383244           10 
 3869000   0.62401168   -8.7890506    531.85581  0.011455497  0.010379371           12 
 3870000   0.63453209   -8.7795154    532.09464   0.01145768   0.01037551           18 
 3871000    0.6262557    -8.805585    531.13404   0.01143404  0.010371649            9 
 3872000   0.62918994   -8.7935713    531.55468   0.01144014  0.010367787            7 
 3873000   0.62323617   -8.7976086     531.3943  0.011433736  0.010363923           10 
 3874000   0.63146187   -8.8233106    532.20133  0.011448144  0.010360057           13 
 3875000   0.63961579   -8.7805395    531.20318  0.011423724  0.010356197           17 
 3876000   0.63874162   -8.8147508    531.13695  0.011419353  0.010352339           14 
 3877000   0.62688857   -8.7950716    531.47068  0.011423581   0.01034848           20 
 3878000   0.63383699   -8.7870835    531.36274  0.011418316  0.010344619           15 
 3879000   0.63267433   -8.8115616    531.12615  0.011410289  0.010340761           11 
 3880000   0.63472134   -8.7908348    530.80711  0.011400496  0.010336902           18 
 3881000   0.62405997   -8.8028762    532.23707  0.011428263  0.010333055            9 
 3882000   0.62754981   -8.8121928    531.66443  0.011413027  0.010329203           12 
 3883000   0.62579745   -8.8072499    531.73006  0.011411496  0.010325356            7 
 3884000   0.62324197   -8.7907412    531.39681  0.011401408  0.010321512           10 
 3885000   0.62243767   -8.7948141     532.0762  0.011413046  0.010317667            8 
 3886000   0.61609644   -8.8066878    531.37732  0.011395122  0.010313821           13 
 3887000   0.62259858   -8.8221099    531.64411   0.01139791  0.010309976           11 
 3888000   0.63766348   -8.7844191    532.11128  0.011404992  0.010306137           16 
 3889000   0.63732933   -8.8081823    531.42846  0.011387427  0.010302299           15 
 3890000   0.62142817   -8.8129696    530.71188  0.011369149  0.010298457            8 
 3891000   0.62229961   -8.8049345    531.79156  0.011389351   0.01029462           13 
 3892000   0.63563615   -8.7988023    530.46879  0.011358102  0.010290783           17 
 3893000   0.62438578   -8.8194566     531.9791  0.011387514   0.01028695           12 
 3894000   0.62072376    -8.819196    531.58661   0.01137619   0.01028312            9 
 3895000   0.62075952   -8.8101738    531.55764   0.01137265  0.010279289           12 
 3896000   0.62248936   -8.8046566    531.36188  0.011365543  0.010275457           15 
 3897000   0.61362585   -8.8091649    531.67361  0.011369293  0.010271628           14 
 3898000   0.62791679   -8.8202473    530.69898   0.01134554  0.010267799            8 
 3899000   0.61322989     -8.81045    531.72809  0.011364625  0.010263973           12 
 3900000   0.61283089   -8.7997313    531.63398    0.0113597  0.010260152           15 
 3901000   0.61597528    -8.794932    531.14775  0.011346402  0.010256325           12 
 3902000   0.63201432   -8.8291417    531.01251  0.011340606  0.010252507           12 
 3903000   0.62714986   -8.7988395    532.22798  0.011363651  0.010248687            7 
 3904000   0.61801842    -8.806349    531.66942  0.011348818  0.010244868            5 
 3905000   0.62137104   -8.8093492    530.40801  0.011318993  0.010241054           13 
 3906000     0.617719     -8.80083    531.34478  0.011336081   0.01023724           13 
 3907000   0.62736012   -8.8069823    531.21214   0.01133035  0.010233427            9 
 3908000   0.63611588   -8.8026748    531.36954  0.011330807  0.010229616           11 
 3909000   0.62808898   -8.8149749    530.51559  0.011309704  0.010225807           12 
 3910000   0.63263969   -8.8283116    530.54119  0.011307357  0.010221995           17 
 3911000   0.62078876   -8.8052015    530.77458  0.011309439  0.010218188           12 
 3912000   0.62704789    -8.813074    531.58984  0.011323914  0.010214384           10 
 3913000   0.62377158   -8.8277964    530.78016  0.011303777  0.010210581           16 
 3914000   0.63295251   -8.8155542    531.04454  0.011306518  0.010206781           10 
 3915000   0.61818339   -8.8058652    531.16339   0.01130616   0.01020298           10 
 3916000   0.63464023   -8.8251526    530.96035  0.011298952  0.010199177            9 
 3917000   0.62978257   -8.8240505    531.38648  0.011305133   0.01019538            7 
 3918000   0.61802213   -8.8091753    531.44697  0.011303534   0.01019158           10 
 3919000     0.618734   -8.8177862    531.26252  0.011296728  0.010187785            9 
 3920000   0.61872022   -8.8303342    530.73799  0.011282695   0.01018399           11 
 3921000   0.61632471    -8.796513    531.45664  0.011295091  0.010180195           15 
 3922000   0.63401266   -8.8181237    531.37703   0.01129052  0.010176402           12 
 3923000   0.63522929   -8.8424084    531.54443  0.011291198  0.010172613           15 
 3924000   0.59805005   -8.8582679    530.43222  0.011264701  0.010168827           16 
 3925000   0.63666432   -8.7968766    532.23075  0.011300016  0.010165039           10 
 3926000   0.63227898   -8.8392866    529.99733  0.011249731  0.010161256           10 
 3927000   0.63543242   -8.7988146    531.43668   0.01127741  0.010157479           14 
 3928000   0.62698863    -8.811453    531.43374  0.011274477  0.010153704            5 
 3929000   0.62700139    -8.829515    530.72483  0.011256572  0.010149928           20 
 3930000   0.62587303   -8.8225154    531.44411  0.011268959  0.010146154           12 
 3931000   0.62721637   -8.8379398    530.95995  0.011255829  0.010142382           17 
 3932000   0.63066722   -8.8241881    530.67572  0.011246942  0.010138615           10 
 3933000   0.62402854   -8.8300664    531.18265  0.011254823  0.010134849           15 
 3934000   0.61962425   -8.8146515    530.00208  0.011226955  0.010131083           11 
 3935000   0.65399317   -8.8210334    530.41732  0.011232895  0.010127319            9 
 3936000   0.62334164   -8.8256321    531.57317  0.011254513  0.010123554            8 
 3937000   0.60567499   -8.8368841    530.86066  0.011236573  0.010119788           12 
 3938000   0.62852384   -8.8222436    531.18235  0.011240527  0.010116021            7 
 3939000   0.63325844   -8.8356846    529.66269  0.011205524  0.010112257           14 
 3940000   0.62277806   -8.8125428    531.32119  0.011237758    0.0101085            9 
 3941000   0.63677363   -8.8241244    530.56454  0.011218907  0.010104742           14 
 3942000   0.61738282    -8.809576    531.06101  0.011226556  0.010100988           16 
 3943000   0.62875848   -8.8492964    530.95912  0.011221555   0.01009723           18 
 3944000   0.62672425   -8.8238553    531.01546  0.011219901  0.010093477           15 
 3945000   0.62316098   -8.8343497    530.82101  0.011212949  0.010089725           18 
 3946000   0.60603841   -8.8369607    530.69285  0.011207401   0.01008597           15 
 3947000   0.61438611   -8.8251211    531.28168  0.011216994  0.010082216            9 
 3948000   0.61692422   -8.8150311    530.73919  0.011202702  0.010078458           15 
 3949000   0.60571098     -8.82491    530.80926  0.011201343  0.010074706           18 
 3950000   0.61760921   -8.7980323    531.57079  0.011214574  0.010070957           11 
 3951000   0.61548821   -8.8369398    530.70223  0.011193416  0.010067211            8 
 3952000   0.61143319   -8.8303864    531.43218  0.011205976   0.01006347           14 
 3953000   0.61667581   -8.8207439    531.31644  0.011200701  0.010059724           11 
 3954000   0.62151657   -8.8286915    531.22961  0.011196038  0.010055991           15 
 3955000   0.62148724   -8.8493672    530.49221   0.01117767  0.010052255            9 
 3956000   0.62093402   -8.8104058    530.81218  0.011181584  0.010048521           14 
 3957000   0.61719889   -8.8356242    530.54857  0.011173207  0.010044786           13 
 3958000   0.62567926   -8.8333671    530.67572  0.011173061  0.010041053           11 
 3959000   0.62381817   -8.8244352     530.4389  0.011165254  0.010037319            9 
 3960000    0.6273552   -8.8131292    530.33292  0.011160204  0.010033585           18 
 3961000   0.61844386   -8.8212739    531.36152  0.011179027  0.010029861           16 
 3962000   0.62345681    -8.824088    531.02856  0.011169202  0.010026135           15 
 3963000   0.61884762   -8.8205224    530.35163   0.01115215   0.01002241           15 
 3964000   0.61719942   -8.8413132    530.61143  0.011154798  0.010018685           16 
 3965000   0.62612742   -8.8268881    530.97069  0.011159535  0.010014963           14 
 3966000   0.61344172   -8.8394275    529.50648  0.011125956  0.010011239           17 
 3967000   0.61172941   -8.8335964    532.15203  0.011178725  0.010007517           17 
 3968000   0.60640823   -8.8036371     531.7266  0.011166973    0.0100038            6 
 3969000   0.61232031    -8.847135    530.70906  0.011142795  0.010000084           19 
 3970000   0.60735841   -8.8308908    531.21755  0.011150662 0.0099963655           13 
 3971000   0.61831718   -8.8438468    530.42857  0.011131297 0.0099926544           11 
 3972000   0.61999667   -8.8294109     531.3726  0.011148301 0.0099889445           15 
 3973000   0.60210503   -8.8260153    530.90977  0.011135787 0.0099852394           19 
 3974000    0.6184154   -8.8187023    530.91056  0.011133001 0.0099815308           14 
 3975000   0.62624239   -8.8394814    531.19603  0.011136185 0.0099778288           18 
 3976000   0.61127885   -8.8232763    529.71346  0.011102311 0.0099741273           13 
 3977000   0.62169442   -8.8345677    531.07602   0.01112807 0.0099704252           12 
 3978000    0.6303646   -8.8340565    530.74626  0.011118365 0.0099667234           12 
 3979000   0.62396007   -8.8539326    530.76252  0.011115911 0.0099630268           16 
 3980000   0.62433027   -8.8239472    532.01197  0.011139279 0.0099593347            9 
 3981000   0.61239811   -8.8478645    531.85041  0.011133099 0.0099556427           11 
 3982000   0.61649384   -8.8297427    531.99137  0.011133253 0.0099519469           17 
 3983000   0.61139927    -8.847265    530.44984  0.011098206 0.0099482569           15 
 3984000   0.61304366   -8.8302771    530.75317  0.011101765 0.0099445614           13 
 3985000    0.6261613   -8.8314198    530.27736  0.011089029 0.0099408712            7 
 3986000   0.62060368   -8.8312126    530.33969   0.01108755 0.0099371899            6 
 3987000   0.62547823   -8.8523242    530.38644  0.011085746 0.0099335004           10 
 3988000   0.63424374   -8.8176171     530.7699  0.011090979 0.0099298207           13 
 3989000   0.62458361    -8.836517    530.98589  0.011092711 0.0099261461           11 
 3990000   0.61304932   -8.8515813    530.01279  0.011069607 0.0099224669            9 
 3991000   0.61166811   -8.8455713     530.6214  0.011079541 0.0099187882           13 
 3992000   0.62761713   -8.8570175    532.11499  0.011107945 0.0099151138           12 
 3993000   0.60768636   -8.8238942    530.20632  0.011065329 0.0099114383           11 
 3994000   0.63590563   -8.8558485    530.88867  0.011076796  0.009907767           10 
 3995000   0.61575126   -8.8464145    529.34402  0.011041803 0.0099040951            9 
 3996000   0.61981261   -8.8234152    530.89638  0.011071413 0.0099004216           10 
 3997000    0.6083766   -8.8242652    530.59647   0.01106239 0.0098967509           10 
 3998000   0.60630674    -8.806759    531.33054  0.011074924  0.009893084            8 
 3999000   0.60004922    -8.843781    530.56393  0.011056179 0.0098894239           15 
 4000000   0.60483481   -8.8145523    530.38641  0.011049717 0.0098857678           11 
 4001000    0.6262396   -8.8454388    531.19943  0.011063889 0.0098821062           20 
 4002000    0.5973632   -8.8481735    529.93675  0.011034832 0.0098784455           22 
 4003000   0.61200111   -8.8481522    530.68479  0.011047647 0.0098747886            8 
 4004000   0.61858739   -8.8178096    530.12681  0.011033275 0.0098711328           10 
 4005000   0.60454238   -8.8359452    530.63906  0.011041179 0.0098674744           15 
 4006000   0.59980562   -8.8315686    531.73863  0.011061296  0.009863821           17 
 4007000   0.61525693   -8.8597516    530.30773  0.011028777 0.0098601639           11 
 4008000   0.61870855   -8.8356367    530.66426  0.011033439 0.0098565119            9 
 4009000   0.61066621   -8.8310754    530.36773  0.011024523 0.0098528569            8 
 4010000   0.60700936   -8.8271054    530.78333   0.01103041 0.0098492068           19 
 4011000   0.61154431   -8.8487051    530.12679   0.01101402 0.0098455587           19 
 4012000   0.61986557   -8.8545972    530.85569  0.011026414 0.0098419146           14 
 4013000   0.60595081   -8.8523506    529.44889  0.010994453 0.0098382712           19 
 4014000   0.59299258   -8.8504658    530.36186  0.011010668 0.0098346277           19 
 4015000   0.60560745   -8.8257912    530.04061  0.011001258 0.0098309867           11 
 4016000   0.60291636   -8.8207794    531.35774   0.01102585 0.0098273466           17 
 4017000   0.61847345   -8.8488489     530.7811  0.011011142 0.0098237115           15 
 4018000   0.60643858   -8.8205259    529.60139  0.010983935 0.0098200811           13 
 4019000   0.60789448   -8.8333092    530.82704  0.011006615   0.00981645           11 
 4020000   0.60807017   -8.8495211    529.92066  0.010985088   0.00981282           15 
 4021000   0.60446359   -8.8356803    530.26168  0.010989424 0.0098091939           13 
 4022000   0.60328253   -8.8524911    531.04878     0.011003 0.0098055635           11 
 4023000   0.61180823    -8.851023    530.29312  0.010984612 0.0098019362           14 
 4024000   0.61253122   -8.8776436    529.46259  0.010964683 0.0097983103           16 
 4025000   0.60913795   -8.8220656    530.53743  0.010984212 0.0097946834           12 
 4026000   0.61072172   -8.8332897    529.12366   0.01095222 0.0097910624           11 
 4027000   0.59812608   -8.8287334     530.9381  0.010987048 0.0097874432           19 
 4028000   0.60420472   -8.8549329    530.31498  0.010971429 0.0097838221            7 
 4029000   0.62149038   -8.8539539    530.54016  0.010973363 0.0097802028            9 
 4030000   0.61012818   -8.8448124    530.61865  0.010972263 0.0097765856           11 
 4031000   0.61496403   -8.8340787    530.70821  0.010971393 0.0097729686            9 
 4032000   0.60755242   -8.8417832    531.35594  0.010982059 0.0097693555           11 
 4033000   0.61349232   -8.8319332    530.18635  0.010955169 0.0097657476            7 
 4034000   0.60425606   -8.8490117    530.37552  0.010956361 0.0097621386            8 
 4035000   0.60544886   -8.8277353    530.40902  0.010954337 0.0097585359            8 
 4036000   0.60848466   -8.8438791    530.01713  0.010943532 0.0097549265           12 
 4037000   0.60821431   -8.8385299    529.57179  0.010931628 0.0097513163            7 
 4038000    0.6088174   -8.8476445    530.51307  0.010948346 0.0097477136           10 
 4039000    0.5972063   -8.8491582    531.48122  0.010965611 0.0097441097           18 
 4040000   0.60534355   -8.8247053     531.0982  0.010954996 0.0097405103           17 
 4041000   0.61147043   -8.8602772    531.32311  0.010956923 0.0097369072            8 
 4042000   0.60327384   -8.8370937    530.38566  0.010934885 0.0097333069           10 
 4043000    0.6077088   -8.8484972    530.73694  0.010939421  0.009729713           10 
 4044000   0.59803926   -8.8570643    529.17983  0.010904629  0.009726117            8 
 4045000   0.60644576   -8.8532842    530.74499  0.010934178 0.0097225138            8 
 4046000   0.61754848   -8.8492056    530.67218  0.010929976 0.0097189242           13 
 4047000   0.60238013   -8.8397885     529.1794  0.010896536 0.0097153295            4 
 4048000    0.6035058   -8.8368127    529.59718  0.010902445 0.0097117404           12 
 4049000   0.61925313   -8.8773262    530.17533  0.010911652 0.0097081502           10 
 4050000    0.5958568   -8.8720502    529.50783  0.010895223 0.0097045594           10 
 4051000   0.61758072   -8.8557583    530.82758  0.010919682 0.0097009713           15 
 4052000   0.59937352   -8.8687694    530.45751  0.010909376 0.0096973886            9 
 4053000   0.60366546   -8.8619801    531.16755  0.010921284 0.0096938011           10 
 4054000   0.60666094   -8.8421265     529.8596  0.010891704 0.0096902145           10 
 4055000   0.60297366   -8.8624276    529.64166  0.010884539 0.0096866299            7 
 4056000   0.59598516   -8.8539942    530.59546  0.010901452 0.0096830505           10 
 4057000   0.60648781   -8.8703653    530.07129  0.010887998 0.0096794701           10 
 4058000   0.59915949   -8.8630135    530.04269  0.010884727 0.0096758881            9 
 4059000   0.59132319    -8.842108    530.41405   0.01088967 0.0096723142            9 
 4060000     0.600411   -8.8472129    529.74543  0.010873264 0.0096687368            9 
 4061000   0.59254362   -8.8652626    530.48443  0.010885751 0.0096651635           10 
 4062000   0.61568453    -8.845617    530.29994  0.010879286 0.0096615912            6 
 4063000   0.60179093   -8.8558685    530.31031  0.010876822 0.0096580164            7 
 4064000    0.5911462   -8.8604601    529.98163  0.010867405 0.0096544485            8 
 4065000   0.60349277   -8.8449468    529.92928  0.010863659 0.0096508842           15 
 4066000   0.59739531   -8.8428494    529.86211   0.01085961 0.0096473226           19 
 4067000   0.60431953   -8.8610668    530.67755  0.010873649 0.0096437638           14 
 4068000   0.59077459   -8.8612886    529.93605  0.010855786 0.0096402004           15 
 4069000   0.60850562   -8.8586626    529.93859   0.01085317 0.0096366401           13 
 4070000   0.59711274   -8.8723752    530.03772  0.010852533 0.0096330849           11 
 4071000   0.59096897   -8.8499079     529.6728  0.010842397 0.0096295311           12 
 4072000   0.58819806   -8.8736247    530.03317   0.01084711 0.0096259782           17 
 4073000   0.60049257   -8.8503038    530.40942  0.010852145 0.0096224309            9 
 4074000   0.60813385    -8.863953    530.46418  0.010850601 0.0096188806            9 
 4075000   0.60515162   -8.8594518    530.11053  0.010840706 0.0096153313           22 
 4076000    0.5984473   -8.8482078    529.30994  0.010821679 0.0096117886           19 
 4077000   0.59443656   -8.8625831    529.48764  0.010822656 0.0096082438            7 
 4078000   0.60913505   -8.8623209    531.23991   0.01085581 0.0096047001           14 
 4079000   0.59186399   -8.8646883    529.89728  0.010825719 0.0096011594           17 
 4080000   0.58265734   -8.8342552    530.47051  0.010834773 0.0095976205           14 
 4081000   0.57991561   -8.8713793    530.44765  0.010831652 0.0095940805            9 
 4082000   0.59351758   -8.8582848    529.63838  0.010812477 0.0095905457            9 
 4083000   0.58567329    -8.856618    530.57837  0.010829014 0.0095870111           14 
 4084000   0.60510742   -8.8283196    530.17923  0.010818218 0.0095834837           10 
 4085000   0.59274229   -8.8654147    530.47163  0.010821535 0.0095799541           15 
 4086000   0.60684839   -8.8484564    530.42027  0.010817839 0.0095764228           12 
 4087000   0.59332134   -8.8616453    529.92905  0.010805176 0.0095728979           16 
 4088000    0.5917709   -8.8578554    529.77264  0.010799344 0.0095693732            6 
 4089000   0.59706137   -8.8564576    530.05316   0.01080242 0.0095658474           32 
 4090000   0.59744319   -8.8439316    530.16004  0.010801957 0.0095623214           11 
 4091000   0.60880522   -8.8584325    530.53147  0.010806882 0.0095587985           17 
 4092000   0.59879308   -8.8598532    529.47215  0.010782668 0.0095552774           21 
 4093000   0.59768471   -8.8560932     529.6304  0.010783256 0.0095517595           26 
 4094000   0.59421148   -8.8655971    530.12011   0.01079059 0.0095482408           13 
 4095000   0.59352703   -8.8625071    529.84554  0.010782368 0.0095447241           29 
 4096000   0.59622174   -8.8740408    529.32703  0.010769186  0.009541208           21 
 4097000    0.6169059   -8.8525587    529.86334  0.010777466  0.009537696           13 
 4098000   0.59120764   -8.8783633    530.14782  0.010780621 0.0095341883           16 
 4099000   0.60089179    -8.848765    529.86127  0.010772165 0.0095306805           18 
 4100000   0.59397583   -8.8729997    530.96901  0.010792053 0.0095271737           24 
 4101000    0.6036734   -8.8590889    530.40565  0.010777974 0.0095236692           19 
 4102000   0.60055125   -8.8572083    529.89491  0.010764971 0.0095201635           15 
 4103000   0.60782876   -8.8743069    529.60224  0.010756403 0.0095166607           27 
 4104000   0.59826923   -8.8724115    530.57875   0.01077361 0.0095131595            9 
 4105000   0.60294316   -8.8730296    529.45573  0.010748188 0.0095096595           25 
 4106000   0.60388963   -8.8340098    530.22409  0.010761164 0.0095061644           15 
 4107000   0.59715017    -8.870923    529.49311  0.010743712  0.009502669           11 
 4108000   0.58931521   -8.8559501    530.20901  0.010755619 0.0094991705           14 
 4109000   0.59414143   -8.8496041    530.38974  0.010756667 0.0094956792            7 
 4110000   0.60503867   -8.8760972    530.14023  0.010748991 0.0094921851            7 
 4111000   0.58811644   -8.8593575    530.15688  0.010746714 0.0094886984           14 
 4112000   0.58663939   -8.8608627     530.1352  0.010743661 0.0094852127            9 
 4113000   0.60893317   -8.8530131    529.78629  0.010733979 0.0094817296           23 
 4114000   0.57692115   -8.8497211    531.58265  0.010767757 0.0094782481           15 
 4115000   0.59477599   -8.8477389    530.49158  0.010743045 0.0094747629           10 
 4116000    0.5899545    -8.844538    530.30095  0.010736576  0.009471285            8 
 4117000   0.59248272   -8.8546826    530.82983  0.010744673  0.009467805            9 
 4118000    0.5935812   -8.8580928    529.76849  0.010720586 0.0094643275            8 
 4119000   0.58810978   -8.8812087    529.22922  0.010707073 0.0094608473           17 
 4120000    0.5773972   -8.8536867    529.40992  0.010708129 0.0094573661           11 
 4121000   0.59848199   -8.8681084      529.936  0.010716169 0.0094538923           17 
 4122000   0.58258556   -8.8620313    529.91953  0.010713237 0.0094504192           11 
 4123000   0.58524341   -8.8614184    530.01444  0.010712556 0.0094469485            8 
 4124000   0.59096981   -8.8728706    530.01145  0.010709898  0.009443481           10 
 4125000   0.59252802   -8.8641863     529.4603  0.010696168 0.0094400077           24 
 4126000   0.59852996   -8.8477146    529.79249  0.010700285 0.0094365396           15 
 4127000   0.57780697   -8.8503009     530.6843    0.0107157 0.0094330695            9 
 4128000   0.58566178   -8.8595566    530.38084  0.010706978  0.009429608            6 
 4129000      0.59963   -8.8664553    529.60953  0.010688818 0.0094261471            6 
 4130000    0.5883058   -8.8724478    529.51188  0.010684259 0.0094226857           13 
 4131000   0.58539907   -8.8609031    530.45276  0.010700653 0.0094192261           12 
 4132000   0.60119416   -8.8535118    529.79845  0.010684867 0.0094157684            8 
 4133000   0.60856631    -8.870803    529.47388  0.010675738 0.0094123141           20 
 4134000   0.59432423   -8.8616593    530.66736  0.010697213 0.0094088601           11 
 4135000   0.59387978   -8.8753754     529.7917  0.010676979 0.0094054084           15 
 4136000   0.58851932   -8.8644594    529.63897   0.01067132 0.0094019553            8 
 4137000   0.60012461   -8.8707759    529.18665   0.01065963 0.0093985041           11 
 4138000   0.57888101    -8.880962    528.71881  0.010647632 0.0093950466            6 
 4139000    0.5899012   -8.8682444    529.52814  0.010661354 0.0093915952           14 
 4140000   0.57966704   -8.8870198    530.02268  0.010668733 0.0093881483           20 
 4141000   0.59769161    -8.877189    529.52826  0.010656207 0.0093847023           19 
 4142000   0.59238288   -8.8793982    529.89001  0.010660913 0.0093812595           27 
 4143000   0.58348351   -8.8878715    529.68813  0.010654279 0.0093778152           15 
 4144000    0.5768222   -8.8840026    529.25099  0.010642917 0.0093743753           18 
 4145000   0.59488652   -8.8608263    529.94897  0.010654382 0.0093709384            9 
 4146000   0.58380185   -8.8775391    529.46447  0.010642074 0.0093675007           10 
 4147000     0.586026   -8.8728712    530.29721  0.010656242 0.0093640621           18 
 4148000   0.59353711   -8.8686961    529.99012  0.010647503  0.009360623           12 
 4149000   0.58956027   -8.8755211    529.75498  0.010640214  0.009357183            7 
 4150000   0.57603345   -8.8759127    529.59342  0.010634406  0.009353755           14 
 4151000   0.58831474   -8.8686502    529.91767  0.010638354 0.0093503256            5 
 4152000   0.58322334   -8.8595897    530.81823  0.010653866 0.0093468969           10 
 4153000   0.57907192   -8.8838285    530.10556  0.010637001 0.0093434681           12 
 4154000    0.5939259   -8.8808278    529.61856   0.01062467 0.0093400373           13 
 4155000   0.58836562   -8.8930712    529.34609  0.010616648 0.0093366093           10 
 4156000   0.58282175   -8.8718572    530.11718  0.010629555 0.0093331862           11 
 4157000   0.58494152   -8.8810409    530.40048  0.010632677 0.0093297614           10 
 4158000   0.60753394   -8.8725873    530.02875   0.01062267 0.0093263419           10 
 4159000    0.5842484   -8.8572941    528.63423  0.010592174 0.0093229189            7 
 4160000   0.58524606    -8.861959     530.1647  0.010620286 0.0093195003            7 
 4161000    0.5757217   -8.9060963    528.45572  0.010583508 0.0093160843           16 
 4162000   0.58289975   -8.8884762    529.61589  0.010604195  0.009312669           11 
 4163000   0.59221607   -8.8708209    529.62847  0.010601899  0.009309253           11 
 4164000   0.58631738   -8.8581548     530.1283  0.010609356 0.0093058387            8 
 4165000   0.58285886   -8.8682103    530.51643  0.010614575 0.0093024311           13 
 4166000   0.59017107   -8.8662187    530.49972  0.010611692 0.0092990232           16 
 4167000   0.58193148   -8.8875233    528.76343  0.010574423 0.0092956128           19 
 4168000    0.5814089   -8.8847403    528.97394  0.010576094 0.0092922063            8 
 4169000   0.58359945   -8.8899792    528.91826  0.010572445 0.0092888015           13 
 4170000   0.57225365   -8.8852996    528.85521  0.010568649 0.0092853935           15 
 4171000   0.57945484   -8.8675721    529.36451  0.010576291 0.0092819924           13 
 4172000   0.57929534   -8.8776817    529.79322  0.010582319 0.0092785934            7 
 4173000   0.57524105   -8.8840666    530.43213  0.010592542 0.0092751947            9 
 4174000   0.58470758   -8.8946951    528.78718  0.010557163  0.009271798           17 
 4175000   0.59690571   -8.8827035    530.65099  0.010591836 0.0092684032           17 
 4176000   0.59565476   -8.8581147    529.72175  0.010570757 0.0092650091           21 
 4177000   0.59818683   -8.8951926    528.86641  0.010551161 0.0092616157            9 
 4178000   0.58273674   -8.8819874    529.00966  0.010551493 0.0092582247            9 
 4179000   0.57940047   -8.8775861    529.92618  0.010567245 0.0092548369           11 
 4180000   0.59797192   -8.8878209    529.40268   0.01055428 0.0092514453           16 
 4181000   0.60698287   -8.8925706    529.06567  0.010545038 0.0092480593           14 
 4182000   0.58537778   -8.8884354    529.73807  0.010555916 0.0092446724           15 
 4183000   0.56161505    -8.896085     529.5755  0.010550153 0.0092412842           15 
 4184000   0.57896345   -8.8982366    529.66133  0.010549341 0.0092378982           16 
 4185000   0.59195783   -8.8917402    529.88658  0.010551306  0.009234513           15 
 4186000   0.56751546   -8.8891965    528.78678  0.010526891 0.0092311305            8 
 4187000   0.58816312   -8.8784862    528.52372  0.010519141 0.0092277507           12 
 4188000   0.57966399   -8.8867209     530.2923  0.010551821 0.0092243717           14 
 4189000   0.58617851   -8.8752391    529.14564  0.010526491 0.0092209957            8 
 4190000   0.58547321   -8.8823293    529.74091  0.010535818 0.0092176224            6 
 4191000   0.57726964   -8.9009102    529.18025  0.010522156 0.0092142493           15 
 4192000   0.58161345   -8.9180363    529.03821  0.010516822  0.009210872           18 
 4193000   0.57884329   -8.9094193    529.26622  0.010518845 0.0092074984           34 
 4194000   0.58061485   -8.9006559    528.34252  0.010497984 0.0092041262           10 
 4195000   0.57849086    -8.907224    529.52894  0.010519049 0.0092007562           21 
 4196000   0.57519302   -8.8593914    529.56188  0.010517197 0.0091973872           19 
 4197000   0.58318547   -8.9059142    529.20731  0.010507651 0.0091940188           18 
 4198000   0.60040613   -8.8723936    528.93072  0.010499657 0.0091906559           11 
 4199000   0.58097001   -8.8686161     528.8626  0.010495804 0.0091872914           14 
 4200000   0.57005762   -8.8978459    529.38768  0.010503724 0.0091839277           13 
 4201000   0.58333838    -8.892811    529.54771  0.010504398 0.0091805681           22 
 4202000   0.59421984   -8.9035472    529.87666  0.010508422 0.0091772121            8 
 4203000   0.58651604   -8.9030732    529.61577  0.010500749 0.0091738513           13 
 4204000   0.57518015   -8.8960837    529.44952  0.010494956 0.0091705008           11 
 4205000    0.6002873   -8.8863712      529.122  0.010485969 0.0091671486           15 
 4206000   0.58436139   -8.9092359    528.57529  0.010472644  0.009163799           10 
 4207000   0.57092978   -8.8873822    529.40372  0.010486564 0.0091604497           16 
 4208000   0.56924874   -8.8975868    528.93761  0.010474842 0.0091571001           13 
 4209000   0.57250888   -8.8978313    529.33428  0.010480207 0.0091537573           15 
 4210000    0.5736651   -8.8933596    530.13838  0.010493634 0.0091504086           24 
 4211000   0.57841893   -8.8997675    530.38694  0.010496061 0.0091470663           31 
 4212000   0.56839329    -8.894418    529.09104   0.01046793  0.009143721           17 
 4213000   0.57652694   -8.9152801    528.42932  0.010452356 0.0091403803           19 
 4214000   0.57834257   -8.8886653    528.81392  0.010457482 0.0091370381           13 
 4215000   0.58086316   -8.8924155    529.59647  0.010470472 0.0091336993           20 
 4216000   0.58937233   -8.9005503    529.51879  0.010466453 0.0091303592            7 
 4217000   0.57613072   -8.8830187    528.23141  0.010438531 0.0091270227           16 
 4218000   0.58214888   -8.8995498    529.39431  0.010459031 0.0091236882            8 
 4219000   0.57277565   -8.8940777    530.13319  0.010471146 0.0091203562           13 
 4220000   0.57677342    -8.891735    529.44905  0.010455155 0.0091170219           22 
 4221000   0.56789343   -8.8928041    528.76454  0.010439164 0.0091136915           10 
 4222000   0.58552264   -8.9061123    528.68457  0.010435113 0.0091103645            9 
 4223000   0.57295559     -8.89679    528.85697  0.010436044 0.0091070362           16 
 4224000    0.5680381   -8.8957434    528.93563  0.010435125 0.0091037091           17 
 4225000   0.58914093   -8.8997225    529.40763  0.010441965 0.0091003864           13 
 4226000   0.57300366   -8.9027853    528.91418  0.010429764 0.0090970651           20 
 4227000   0.56946488   -8.9076215    528.14246  0.010412082 0.0090937432           24 
 4228000   0.57894192   -8.8777267    529.07531  0.010428006 0.0090904241           20 
 4229000   0.57419397   -8.8956246    529.11274  0.010426278 0.0090871092           15 
 4230000   0.57241708   -8.8986773    528.96486  0.010420899 0.0090837898           15 
 4231000   0.57398242   -8.8883977    529.07428  0.010420592 0.0090804757           11 
 4232000    0.5626566   -8.8896495    529.37238  0.010423999 0.0090771613           15 
 4233000   0.56840528   -8.9145582    528.19195  0.010398298 0.0090738472           13 
 4234000   0.58430188   -8.8722916    529.07188  0.010413161 0.0090705333           10 
 4235000   0.57383263    -8.901579    529.74096  0.010423868 0.0090672261           16 
 4236000   0.57001263   -8.9077259     529.4524   0.01041573 0.0090639145           23 
 4237000   0.56919709   -8.8846261    529.08421   0.01040603 0.0090606053           12 
 4238000   0.57780875   -8.9098528    528.56036  0.010393274 0.0090572967           21 
 4239000   0.58051446   -8.8931772    529.15867  0.010402584 0.0090539863           24 
 4240000   0.57746072   -8.8963615    529.11942   0.01039936 0.0090506843           16 
 4241000   0.57452492   -8.9132251     528.8587  0.010391785 0.0090473827           19 
 4242000    0.5790085   -8.8978534    528.72646  0.010386737 0.0090440808           17 
 4243000   0.57897619    -8.908117    529.23454  0.010394268 0.0090407811           13 
 4244000   0.57935955   -8.8983837     529.4778  0.010396595 0.0090374828           12 
 4245000   0.56717685    -8.904399    529.01595   0.01038508  0.009034188           16 
 4246000   0.57272736   -8.9034985    528.90026  0.010380363 0.0090308923            7 
 4247000   0.56685606   -8.9133321    528.79566  0.010375866 0.0090275961           10 
 4248000   0.57435065   -8.9142266     528.5011  0.010367646  0.009024297           10 
 4249000   0.59193704   -8.9175249    528.81197  0.010371302 0.0090210029           20 
 4250000   0.56473003   -8.9212423    527.63015  0.010345689 0.0090177076           10 
 4251000   0.57877344   -8.9059887    529.02888  0.010370675 0.0090144184           12 
 4252000   0.57554895   -8.9214362    527.91046  0.010346317 0.0090111278           13 
 4253000   0.56801214   -8.8939147    529.34955  0.010372081 0.0090078459           18 
 4254000   0.57320865   -8.9163545    529.52156  0.010373013 0.0090045633           14 
 4255000    0.5690663   -8.9052817    528.69065  0.010354302 0.0090012857           19 
 4256000   0.57566692    -8.916262    527.85085  0.010335426  0.008998005           11 
 4257000   0.56339414   -8.9270381    528.67613  0.010349153 0.0089947288            8 
 4258000   0.57410957   -8.9037414    528.95037  0.010352089 0.0089914506           23 
 4259000   0.57268459   -8.9251707    529.01674  0.010350958 0.0089881738           10 
 4260000   0.58054856   -8.9018917     528.9125  0.010346489 0.0089849023            7 
 4261000   0.57268789   -8.9306523    529.24749  0.010350612 0.0089816312           20 
 4262000   0.56661888    -8.910363    528.79543  0.010339344 0.0089783607           21 
 4263000    0.5665137   -8.8998672    529.03994  0.010341699 0.0089750967            6 
 4264000   0.55761715    -8.916352    529.03987  0.010339272 0.0089718345            6 
 4265000   0.56315204   -8.9092787    529.36139   0.01034313 0.0089685677            9 
 4266000    0.5767674   -8.9042748    529.04855  0.010334594 0.0089653042           16 
 4267000   0.56476632   -8.8963867    529.78458  0.010346547 0.0089620396           10 
 4268000   0.57050119   -8.9149123    528.31278  0.010315385 0.0089587768           14 
 4269000   0.57157188   -8.9080577    529.11716  0.010328671 0.0089555136           11 
 4270000   0.56860058   -8.9011431    528.87863  0.010321597 0.0089522554           19 
 4271000     0.574835    -8.905439    529.08529  0.010323213 0.0089489991            6 
 4272000   0.57734723   -8.9207163    528.46707  0.010308737 0.0089457416            6 
 4273000   0.55572174   -8.8940976    528.56799  0.010308292 0.0089424869           17 
 4274000   0.56628378    -8.899492    528.37237  0.010302066  0.008939233            8 
 4275000   0.56659357   -8.9149521    529.39916  0.010319672  0.008935981           16 
 4276000   0.56670292   -8.9092797    529.41678  0.010317602 0.0089327376           11 
 4277000   0.56564429   -8.9195279    527.79476  0.010283586 0.0089294944           23 
 4278000   0.55130333   -8.9042938    528.65603  0.010297959 0.0089262518           11 
 4279000   0.56898901   -8.9019301    528.35655   0.01028972 0.0089230105           15 
 4280000   0.55553583   -8.9072764    529.46363  0.010308871 0.0089197721            5 
 4281000   0.57411807   -8.9231039    527.92446  0.010276502 0.0089165333           10 
 4282000   0.57282884   -8.9008841    528.89035  0.010292899 0.0089132914           10 
 4283000   0.54705207   -8.9171597    528.93159  0.010291299  0.008910054            9 
 4284000   0.56205529   -8.9112749    528.80688  0.010286471 0.0089068178           17 
 4285000   0.57425065    -8.907358    528.93952  0.010286649 0.0089035841           17 
 4286000   0.55456483   -8.9176477    528.86503  0.010282801  0.008900349            5 
 4287000   0.56380381   -8.9004329    528.95277  0.010282108 0.0088971164           12 
 4288000   0.55746515   -8.9309663    527.90637  0.010259374 0.0088938816           18 
 4289000   0.56701619   -8.9128665    529.67243  0.010291296 0.0088906561           12 
 4290000   0.56006076   -8.9070744    527.54803  0.010247631 0.0088874225           13 
 4291000   0.55686605   -8.9087197     527.9946  0.010253915  0.008884198           16 
 4292000   0.56238845   -8.9117892     528.1484  0.010254512 0.0088809697           20 
 4293000   0.55146107   -8.9215693    528.70182  0.010262866 0.0088777453           11 
 4294000   0.56550698   -8.9211046     528.2782  0.010252255 0.0088745228           12 
 4295000   0.56328376   -8.9089458    528.87985  0.010261541 0.0088712981           27 
 4296000   0.56904614   -8.9287897    528.85487  0.010258668 0.0088680791           13 
 4297000   0.56362692   -8.9149449    528.87153  0.010256604 0.0088648608            6 
 4298000   0.56563658   -8.9198719    528.88808  0.010254539 0.0088616472           23 
 4299000   0.55333822   -8.9117021    528.64848  0.010247509 0.0088584317           22 
 4300000   0.57608293     -8.91338    528.81298  0.010248314  0.008855219           21 
 4301000   0.56863128    -8.925623    528.43548  0.010238617 0.0088520027           10 
 4302000   0.56964792    -8.937141    527.43758  0.010216906 0.0088487891            8 
 4303000   0.55933063   -8.9334083      528.477  0.010234662 0.0088455743           22 
 4304000   0.56910233   -8.9101263    528.51129  0.010232948 0.0088423615           22 
 4305000    0.5608487   -8.9230395    528.93735  0.010238818 0.0088391524            8 
 4306000   0.55381666   -8.9186813    529.23384  0.010242178 0.0088359434           12 
 4307000   0.56419435   -8.9154663    528.02674  0.010216445 0.0088327371           19 
 4308000    0.5602398   -8.9298985    527.45651  0.010203043 0.0088295313            8 
 4309000   0.56232256   -8.9025857    528.45602  0.010220005 0.0088263264           17 
 4310000   0.55144405   -8.9372966    527.81937  0.010205324 0.0088231239           16 
 4311000   0.56028003   -8.9322028    527.84861  0.010203522 0.0088199195           21 
 4312000    0.5643384   -8.9324662    528.87707  0.010221032 0.0088167184           11 
 4313000   0.56035653   -8.9521678    528.54737  0.010212292 0.0088135146           10 
 4314000   0.56861488   -8.9237903    528.80262  0.010214855 0.0088103128            8 
 4315000   0.56299216   -8.9314495    528.86142  0.010213623 0.0088071136           12 
 4316000   0.57735187   -8.9121071    528.48821  0.010204051 0.0088039174           12 
 4317000   0.55542273   -8.9181241    528.04022   0.01019304 0.0088007238           11 
 4318000   0.56400578   -8.9271332    527.57155  0.010181634 0.0087975284           12 
 4319000   0.57288933   -8.9342826    526.64205  0.010161342 0.0087943351            9 
 4320000   0.56717257   -8.9453795    528.38094  0.010192534 0.0087911425           15 
 4321000   0.56510324   -8.9374078    527.84984  0.010179932 0.0087879511           13 
 4322000   0.56132736   -8.9243934    527.69981  0.010174684 0.0087847592           19 
 4323000    0.5610588   -8.9322041    527.70357  0.010172403  0.008781574           11 
 4324000   0.56475161   -8.9445445    528.29284  0.010181407 0.0087783898           11 
 4325000   0.55791518   -8.9502597     527.8308   0.01017015 0.0087752051           15 
 4326000   0.56686564   -8.9304383    527.83566  0.010167893   0.00877202           17 
 4327000   0.56708842   -8.9270567    527.67607  0.010162469 0.0087688351           14 
 4328000   0.55074344   -8.9306652    528.52517   0.01017647 0.0087656499           14 
 4329000   0.55528507   -8.9283238     528.1546  0.010166986  0.008762468           13 
 4330000   0.56677685   -8.9323154    528.38695   0.01016911  0.008759289           13 
 4331000   0.55999728   -8.9381652    528.04193  0.010160123 0.0087561138           14 
 4332000   0.55772787   -8.9304203    527.31981  0.010143887 0.0087529364           23 
 4333000   0.57377818   -8.9451883    527.92124  0.010153113 0.0087497633           12 
 4334000   0.57194881   -8.9316419    528.28563  0.010157776 0.0087465934            7 
 4335000   0.55962011   -8.9384425    528.23392  0.010154439 0.0087434249           12 
 4336000   0.57131186   -8.9292662    527.84954   0.01014471 0.0087402608           15 
 4337000    0.5542308   -8.9286538     528.6067  0.010156919 0.0087371006            9 
 4338000   0.55178175   -8.9305116    528.62493  0.010154928 0.0087339371            9 
 4339000   0.54768811    -8.942902    528.13977   0.01014327 0.0087307712           12 
 4340000   0.56731043   -8.9226162    529.02606   0.01015795 0.0087276109            7 
 4341000   0.56081055   -8.9375174    527.67343  0.010129644 0.0087244509           13 
 4342000   0.56797463   -8.9147359    527.96636  0.010132933 0.0087212851           15 
 4343000   0.55716949   -8.9416517    528.29988     0.010137 0.0087181273           13 
 4344000   0.56332856   -8.9372175    527.65233  0.010122244  0.008714972           17 
 4345000   0.55480393   -8.9352132    527.63037  0.010119493 0.0087118183           24 
 4346000   0.55876083   -8.9215156    528.15383  0.010127202 0.0087086701           15 
 4347000     0.550811   -8.9424937    528.39452  0.010129486 0.0087055203           16 
 4348000   0.56519683   -8.9288898    528.59675  0.010131032 0.0087023682           26 
 4349000   0.56635738   -8.9160589    527.97976   0.01011688 0.0086992193           18 
 4350000   0.56619832   -8.9327133    527.76911  0.010110519 0.0086960715            8 
 4351000   0.55459369   -8.9459873    527.70108  0.010106893 0.0086929243           22 
 4352000    0.5554198   -8.9598277    527.86813  0.010107769 0.0086897814           14 
 4353000   0.55117885   -8.9416253     528.3442  0.010114561 0.0086866407           15 
 4354000   0.55757849   -8.9383346    528.07806  0.010107144 0.0086834987           22 
 4355000   0.54200537   -8.9424528    527.76079  0.010098752  0.008680359           16 
 4356000   0.55976963   -8.9355251    528.64663  0.010113381 0.0086772199           20 
 4357000   0.55765107    -8.943426    528.24878   0.01010345  0.008674083           11 
 4358000   0.56846663   -8.9380722    528.46251  0.010105219 0.0086709459           21 
 4359000    0.5511318   -8.9223556    527.45111  0.010083565 0.0086678091           11 
 4360000    0.5534157   -8.9520396    527.84865   0.01008885 0.0086646745           20 
 4361000   0.55977411   -8.9415591      527.585  0.010081499 0.0086615421           23 
 4362000    0.5461756   -8.9584323    528.40438  0.010094841 0.0086584093           13 
 4363000   0.54581516   -8.9457818    526.95347  0.010064815 0.0086552789           10 
 4364000   0.54427077   -8.9436705    527.48206  0.010072603  0.008652151            7 
 4365000   0.55759862   -8.9284765    527.95292  0.010079284 0.0086490235           15 
 4366000   0.55602209   -8.9565449    527.84464  0.010074909 0.0086458962           12 
 4367000   0.55903423    -8.938798    528.53077  0.010085695 0.0086427746           11 
 4368000   0.55104307    -8.946448    528.81906  0.010088886 0.0086396522           14 
 4369000   0.54723965   -8.9306391     527.7065  0.010065356 0.0086365322           14 
 4370000   0.57016781   -8.9502133    526.63742  0.010042666 0.0086334155           15 
 4371000   0.55048196   -8.9221627    527.92299  0.010064878 0.0086302971            8 
 4372000   0.56206783   -8.9319726    528.80525  0.010079393 0.0086271835           12 
 4373000   0.55414898   -8.9380484    528.83075  0.010077574  0.008624071            8 
 4374000   0.54839546   -8.9446964     527.7176  0.010054062 0.0086209616            8 
 4375000   0.54877904    -8.958486    528.26269  0.010062147 0.0086178545            5 
 4376000    0.5573544     -8.94232    528.50056  0.010064377 0.0086147488            8 
 4377000   0.55389437   -8.9284425      527.928  0.010051177 0.0086116426           14 
 4378000   0.54702704   -8.9463819    528.12689  0.010052666 0.0086085414           10 
 4379000    0.5602143   -8.9413723    527.72908    0.0100428 0.0086054389           11 
 4380000   0.54626032   -8.9369341    527.61783  0.010038391 0.0086023371           17 
 4381000   0.55319395   -8.9330423    528.27005  0.010048506 0.0085992344            6 
 4382000   0.55602744   -8.9377344    528.23001  0.010045451 0.0085961371           14 
 4383000   0.55223096   -8.9315243    528.44596  0.010047265 0.0085930453           14 
 4384000   0.55908722   -8.9185562    528.51544  0.010046294 0.0085899498           12 
 4385000   0.54699048   -8.9380891    528.06356  0.010035415   0.00858686           16 
 4386000   0.53774969   -8.9492219    528.08315  0.010033499 0.0085837703            6 
 4387000    0.5367293   -8.9546147    527.78267  0.010025505  0.008580681           14 
 4388000   0.53626332   -8.9296539    528.07524  0.010028776  0.008577591           13 
 4389000   0.54625136   -8.9429375    527.90345  0.010023229 0.0085745053           14 
 4390000   0.56457283   -8.9220317    527.23351  0.010008229 0.0085714205           13 
 4391000   0.56142945   -8.9378918    528.02221  0.010020918 0.0085683378           16 
 4392000   0.54104393   -8.9453839    528.17476  0.010021531 0.0085652568           14 
 4393000   0.55852548   -8.9665878    528.58454  0.010027023 0.0085621766           19 
 4394000    0.5593957   -8.9358839    528.07789  0.010015132 0.0085590936            9 
 4395000   0.53514557   -8.9375473    527.50076  0.010001911 0.0085560138           17 
 4396000   0.55923497   -8.9466077    528.56885  0.010019883 0.0085529351           12 
 4397000   0.53857338   -8.9337653    528.16793  0.010010005 0.0085498565           25 
 4398000   0.53615996   -8.9441857    527.58851 0.0099967506 0.0085467775           13 
 4399000   0.54788284   -8.9437927     527.5694  0.009994116 0.0085437034           14 
 4400000   0.54053809   -8.9627141    528.15039  0.010002848 0.0085406312           13 
 4401000    0.5513903   -8.9324906    528.19863  0.010001489 0.0085375587           10 
 4402000   0.55470847   -8.9458514    527.02627  0.009977023 0.0085344877            7 
 4403000   0.54980678   -8.9402325    528.08091 0.0099947177  0.008531421           23 
 4404000   0.54392338   -8.9513933    527.79752  0.009987086 0.0085283523           18 
 4405000   0.54927967   -8.9437495    528.51002 0.0099982978 0.0085252858           12 
 4406000   0.55536941   -8.9422476    528.61702 0.0099980524 0.0085222178            7 
 4407000   0.54929477   -8.9431182    528.21731 0.0099882253 0.0085191567           12 
 4408000   0.54857318   -8.9438978    527.71377 0.0099764401 0.0085160945            8 
 4409000   0.53305559   -8.9335198    527.39647 0.0099681801  0.008513032           12 
 4410000   0.53901475   -8.9557527    527.27038  0.009963537  0.008509971           12 
 4411000   0.54486388   -8.9530561    528.08631 0.0099766929 0.0085069137           12 
 4412000   0.54408371   -8.9517709    527.86582 0.0099702671  0.008503854           16 
 4413000   0.53839587   -8.9423791    527.39317 0.0099590824  0.008500797           16 
 4414000    0.5539686   -8.9391092    527.99769 0.0099682391 0.0084977413           12 
 4415000   0.53512054   -8.9631384    527.64555 0.0099593347 0.0084946846           12 
 4416000   0.53690106   -8.9607824     527.6948 0.0099580087 0.0084916293           14 
 4417000   0.54174097   -8.9506125    527.96124 0.0099607811 0.0084885754            7 
 4418000    0.5534823   -8.9452525    527.64478 0.0099525573 0.0084855236           16 
 4419000   0.53774061   -8.9556535    527.82906 0.0099537803  0.008482474           20 
 4420000   0.54844067   -8.9653837    528.13139 0.0099572283 0.0084794226           14 
 4421000   0.55031368   -8.9602374    527.64139 0.0099457398 0.0084763748           11 
 4422000   0.54774933   -8.9573508    526.99437 0.0099312976 0.0084733295           17 
 4423000   0.53319313   -8.9587436    527.84918 0.0099451575  0.008470286           16 
 4424000   0.53143839   -8.9375121    527.90557 0.0099439718  0.008467244           16 
 4425000   0.54160571    -8.964637    527.84248 0.0099405364  0.008464199           16 
 4426000   0.54508143   -8.9639574    527.35136 0.0099290436 0.0084611548            7 
 4427000   0.54175581    -8.954543    527.35142 0.0099268018 0.0084581162            9 
 4428000   0.56266161   -8.9572268    527.52354 0.0099277993 0.0084550771            7 
 4429000   0.54263484   -8.9725493    527.43314 0.0099238568 0.0084520429           10 
 4430000   0.52953613   -8.9641762    528.28537 0.0099376481 0.0084490073            7 
 4431000    0.5454171   -8.9626361    527.75286 0.0099253904 0.0084459733           12 
 4432000   0.53893657   -8.9800412     527.9377 0.0099266265 0.0084429381            6 
 4433000   0.55315147   -8.9647712    528.22946 0.0099298717 0.0084399056           17 
 4434000   0.54793334   -8.9388711     527.4179 0.0099123797 0.0084368742           10 
 4435000   0.54044944   -8.9843124    526.53108 0.0098934814 0.0084338384            6 
 4436000   0.55888028   -8.9596488    527.74529 0.0099140608 0.0084308087           10 
 4437000   0.53324809   -8.9585502    527.85938 0.0099139693 0.0084277796           25 
 4438000   0.55791207   -8.9657238    527.66578 0.0099081001 0.0084247498           11 
 4439000   0.53638548   -8.9480507    527.48964 0.0099025613 0.0084217264           12 
 4440000   0.54578039   -8.9599404    527.43694  0.009899342 0.0084187005            8 
 4441000   0.53813856   -8.9697814    527.69503 0.0099019557 0.0084156786           12 
 4442000   0.53553868   -8.9754551    528.17969  0.009908819 0.0084126602           10 
 4443000   0.54475705   -8.9572888    527.44714  0.009892849 0.0084096422           19 
 4444000   0.54470508   -8.9591813    527.01759  0.009882568  0.008406624           12 
 4445000   0.54912199    -8.959091    527.49352 0.0098892674 0.0084036073            9 
 4446000   0.53978326   -8.9538161    527.55283 0.0098881547 0.0084005904           11 
 4447000   0.53836723   -8.9617221    527.11829 0.0098777883 0.0083975739            9 
 4448000   0.53765046    -8.961425    526.83829 0.0098703218 0.0083945595           13 
 4449000   0.52455661   -8.9650569    526.98902 0.0098709265 0.0083915467           11 
 4450000   0.54057822   -8.9618507    527.75926 0.0098831321 0.0083885383            6 
 4451000   0.53910665   -8.9761033    527.32298 0.0098727437 0.0083855257           12 
 4452000   0.52645947    -8.958809    527.02541  0.009864956   0.00838252           12 
 4453000   0.52754152   -8.9506978    527.93573 0.0098797764 0.0083795133           13 
 4454000   0.53233843   -8.9830816    527.08749 0.0098616878 0.0083765112           10 
 4455000   0.53157826   -8.9761183     528.1511 0.0098793696 0.0083735059           11 
 4456000   0.53203562   -8.9757817    528.52638 0.0098841707 0.0083705009            7 
 4457000   0.54599292   -8.9641294    526.63814 0.0098466483 0.0083675015           12 
 4458000   0.54722945   -8.9458911    527.19302 0.0098548119 0.0083645023            9 
 4459000   0.54928207   -8.9562906    527.06693 0.0098502453 0.0083615062           18 
 4460000   0.54839204   -8.9727575    525.89986 0.0098262307 0.0083585091            6 
 4461000   0.53845741     -8.96372    527.39659 0.0098519875 0.0083555142           16 
 4462000   0.53860617   -8.9693218    527.03123 0.0098429559 0.0083525181            8 
 4463000   0.53398085   -8.9537258    527.12849 0.0098425665 0.0083495239           24 
 4464000   0.55536497   -8.9708308    527.56811 0.0098485683 0.0083465291            9 
 4465000   0.53196389   -8.9883905    527.40637 0.0098433439 0.0083435369           18 
 4466000   0.54352858   -8.9629785    526.21823 0.0098189697 0.0083405438           21 
 4467000   0.52701484   -8.9665489    526.62648 0.0098243877 0.0083375559           17 
 4468000   0.54233836   -8.9695072    527.32053 0.0098351337 0.0083345661           11 
 4469000   0.53634786   -8.9617163    527.98724 0.0098453651 0.0083315795            7 
 4470000   0.52905003   -8.9702585    527.79731 0.0098396218 0.0083285971            7 
 4471000   0.52626806   -8.9594942    527.34421 0.0098289759 0.0083256145           13 
 4472000    0.5227217   -8.9799814    527.39831 0.0098277861 0.0083226352           11 
 4473000   0.54063876   -8.9765488    528.51896 0.0098464669 0.0083196543           11 
 4474000   0.53184707   -8.9608139    527.12053 0.0098182188 0.0083166776           16 
 4475000   0.53661817   -8.9886629    527.37639 0.0098207893  0.008313699           15 
 4476000   0.53283501   -8.9798849    526.82542 0.0098083375 0.0083107242           12 
 4477000   0.53380851       -8.966     527.1856 0.0098128509 0.0083077492           26 
 4478000   0.53271779   -8.9799174    527.22889  0.009811465  0.008304775           10 
 4479000   0.53042693   -8.9711544    527.59724 0.0098161278 0.0083018049           13 
 4480000   0.53219547   -8.9767456    527.06829 0.0098040976 0.0082988359           15 
 4481000   0.53508524   -8.9925265    526.84714 0.0097977969 0.0082958678           12 
 4482000   0.53120528   -8.9741071    526.49003 0.0097889713 0.0082928983           13 
 4483000    0.5295211   -8.9644907     527.8342 0.0098117741 0.0082899305            8 
 4484000   0.54386973   -8.9705628    527.86132 0.0098100899 0.0082869637           23 
 4485000   0.53946275   -8.9676596    527.27514 0.0097970112 0.0082839965           23 
 4486000   0.54475116   -8.9739269    527.40009 0.0097971484 0.0082810325           10 
 4487000   0.52263812   -8.9604213    527.49867 0.0097967957 0.0082780698           10 
 4488000   0.52731624   -8.9683411    527.59901  0.009796476 0.0082751126           10 
 4489000   0.54744529   -8.9685272    526.58659 0.0097754992 0.0082721514           11 
 4490000   0.54115281   -8.9558121    527.57121 0.0097915964 0.0082691946           10 
 4491000   0.54061411   -8.9860694    526.77262 0.0097745977 0.0082662367           18 
 4492000   0.52668826   -8.9719493    527.02159 0.0097770404   0.00826328            8 
 4493000   0.53489507   -8.9819935    526.63961 0.0097677798 0.0082603236           13 
 4494000   0.53878465   -8.9724287    527.04114 0.0097730518 0.0082573725            5 
 4495000   0.53928573   -8.9871831    526.59178 0.0097625468 0.0082544253           12 
 4496000   0.52889539   -8.9792133    526.49533 0.0097585877 0.0082514757           16 
 4497000   0.53025138   -8.9848125    526.72322 0.0097606408 0.0082485273           13 
 4498000   0.53294758   -8.9879184    526.62023 0.0097565627  0.008245576            9 
 4499000   0.54492395   -8.9697062    526.91421 0.0097598394   0.00824263           13 
 4500000   0.52050411    -8.996663    526.65914 0.0097529471 0.0082396822           19 
 4501000   0.53305799    -8.976765    526.99099 0.0097569242 0.0082367371           19 
 4502000   0.52845605   -8.9761514    527.34299 0.0097612726 0.0082337908           20 
 4503000    0.5261168   -8.9730796     527.7388 0.0097664299 0.0082308459            8 
 4504000   0.53225339    -8.976092    526.23151 0.0097363734  0.008227902           11 
 4505000   0.53003506   -8.9711659    526.43672 0.0097380081 0.0082249637           17 
 4506000   0.53412975   -8.9902987    526.66495 0.0097400679 0.0082220244           24 
 4507000   0.53936006   -8.9843083    527.35515 0.0097506685 0.0082190841           18 
 4508000   0.52921928   -8.9835833    526.76352 0.0097375687 0.0082161443            6 
 4509000   0.52941656   -9.0009228    527.39177 0.0097470201 0.0082132059           12 
 4510000   0.52943966   -8.9818031    526.91598 0.0097360677 0.0082102721           15 
 4511000   0.53378498   -8.9722803    526.10095  0.009718853  0.008207338           16 
 4512000   0.53328534   -8.9627431    526.32514 0.0097208396  0.008204408            9 
 4513000   0.52409489   -8.9861263    527.07713 0.0097325712 0.0082014771           18 
 4514000   0.52565795   -9.0014768    526.63612 0.0097222736 0.0081985505           10 
 4515000   0.53281406   -8.9809719    526.64507 0.0097202856 0.0081956228           22 
 4516000   0.52651062   -8.9798495    526.78043 0.0097206309 0.0081926982           15 
 4517000   0.52601965   -8.9783475    526.65243 0.0097161174 0.0081897753           16 
 4518000   0.52645275   -8.9776307    527.15539 0.0097232439 0.0081868547            6 
 4519000   0.53882606   -8.9659372    526.94049 0.0097171293 0.0081839361           10 
 4520000   0.53357474   -8.9745942    527.20501 0.0097198564 0.0081810166            9 
 4521000   0.53599925   -8.9858866    527.23796 0.0097183138 0.0081780971           18 
 4522000   0.53026454   -8.9750442    527.67131 0.0097241506 0.0081751805           13 
 4523000   0.52504701   -8.9757167      527.617     0.009721 0.0081722693           12 
 4524000   0.52953289   -8.9933167     526.4945 0.0096981745 0.0081693586           15 
 4525000   0.52175023   -8.9817331    527.58305 0.0097160782 0.0081664426            5 
 4526000    0.5234267    -8.984748    527.38198 0.0097102294 0.0081635307            9 
 4527000   0.51611105   -8.9753475    526.79868 0.0096973471 0.0081606214            6 
 4528000   0.51400721   -8.9807036    527.25384 0.0097035822 0.0081577157           21 
 4529000   0.52890988   -8.9935253    526.57486 0.0096889465 0.0081548125           14 
 4530000   0.51791648   -8.9826866    526.93208  0.009693379 0.0081519065            9 
 4531000   0.52888184   -8.9922382     526.8461 0.0096896583 0.0081490015            6 
 4532000   0.52750945   -8.9894156    527.30153 0.0096958945 0.0081460992            9 
 4533000   0.51667865   -8.9705755      526.856  0.009685565 0.0081431999            6 
 4534000   0.52883167   -8.9959103    526.93028 0.0096847942 0.0081403016            7 
 4535000   0.53280227   -8.9842418     526.3351 0.0096717218 0.0081374056           27 
 4536000   0.51267525   -8.9782509    526.05492 0.0096644423 0.0081345049           12 
 4537000   0.53937727   -9.0005313    526.82272 0.0096764146 0.0081316084            9 
 4538000   0.52874459   -8.9841931     526.6212 0.0096705817  0.008128713            5 
 4539000   0.51618125   -8.9861577    526.23299 0.0096613238 0.0081258189           27 
 4540000   0.52228191   -8.9831144    527.14742 0.0096759806 0.0081229231           12 
 4541000   0.52106918   -8.9828604    526.75522 0.0096666523 0.0081200304           16 
 4542000   0.52513812   -8.9953311    526.74505 0.0096643375  0.008117143           14 
 4543000   0.51187485   -8.9920869    526.10249 0.0096504235 0.0081142535           17 
 4544000   0.51821662   -8.9969238     526.5166 0.0096558942  0.008111367           15 
 4545000   0.52264365   -8.9894874    526.86104  0.009660085 0.0081084839           15 
 4546000   0.51985042   -8.9846326        526.8 0.0096568413  0.008105597           12 
 4547000   0.52730221   -8.9881112    526.35826 0.0096466216 0.0081027127            8 
 4548000   0.51602216   -8.9805855    527.07461 0.0096576262   0.00809983           25 
 4549000    0.5294248   -8.9859986    527.02651  0.009654622 0.0080969502           21 
 4550000   0.53249087   -8.9774048    527.11881 0.0096541907 0.0080940727           14 
 4551000   0.52311719   -8.9926616    526.24415 0.0096360533 0.0080911958           15 
 4552000   0.52647411   -8.9901988    526.54214 0.0096393918 0.0080883195           18 
 4553000   0.50703798   -8.9895676    526.59263 0.0096381989  0.008085446           17 
 4554000   0.52857367   -8.9979902    526.23307 0.0096295029 0.0080825706           15 
 4555000   0.52677368   -8.9834185    527.19734   0.00964503 0.0080797004           15 
 4556000   0.51627397   -8.9925244    527.07495 0.0096406745 0.0080768286            7 
 4557000   0.52243715   -8.9795536     527.2919 0.0096425262 0.0080739627           22 
 4558000   0.52267809   -9.0056783    525.98435 0.0096165049 0.0080710953           15 
 4559000   0.54401776   -8.9877401    526.68636 0.0096272274 0.0080682252            8 
 4560000   0.51339926   -9.0094245    526.60339    0.0096236 0.0080653582           14 
 4561000   0.52714563    -8.998103    527.11559 0.0096308483 0.0080624937           21 
 4562000   0.52154612   -8.9863302    526.86178 0.0096241009 0.0080596295           14 
 4563000    0.5296297   -8.9985106    525.95606 0.0096054508 0.0080567658           12 
 4564000   0.52334318   -9.0142528    526.93362 0.0096211953  0.008053903           15 
 4565000   0.51800791   -8.9977732    526.95615 0.0096194988 0.0080510449           12 
 4566000    0.5209382   -8.9958232    527.63672 0.0096298131 0.0080481876           16 
 4567000   0.53020006   -8.9931238    527.12163 0.0096183058  0.008045334           15 
 4568000   0.52594749   -9.0016694    525.77393 0.0095916143 0.0080424803           16 
 4569000   0.51877509   -8.9860292    527.19122 0.0096153649 0.0080396223           14 
 4570000   0.52224898   -9.0043244    526.99198 0.0096096276 0.0080367677           22 
 4571000   0.52626253   -9.0095943    526.04499 0.0095902609 0.0080339126           12 
 4572000   0.51916442   -8.9851183    526.90551 0.0096038479   0.00803106           12 
 4573000   0.51688647   -8.9953099    525.45577 0.0095753293 0.0080282084           12 
 4574000   0.51839986   -9.0189121    527.01675 0.0096016752 0.0080253584           24 
 4575000   0.52284011   -8.9925085     526.4474 0.0095892059 0.0080225071           12 
 4576000   0.52052851   -8.9967998    527.24064  0.009601556 0.0080196578            7 
 4577000   0.51515328   -8.9979122    526.39012 0.0095839728 0.0080168115            8 
 4578000   0.51204989   -8.9807148     527.4199 0.0096006243  0.008013968            9 
 4579000   0.50950289   -8.9854926    526.54433 0.0095825931 0.0080111229           15 
 4580000   0.52247275   -9.0149071    525.80224 0.0095669986 0.0080082799           24 
 4581000   0.51893902   -9.0088195    526.97258 0.0095861998 0.0080054382           19 
 4582000   0.51843267   -9.0077471    526.11245 0.0095684644 0.0080025984           25 
 4583000   0.51127326   -9.0176907    526.88792 0.0095804771 0.0079997578           17 
 4584000   0.52589503   -8.9938138    527.12322 0.0095826647 0.0079969223            5 
 4585000   0.52361072   -9.0142484    525.38507 0.0095489835 0.0079940867           14 
 4586000   0.52374016   -8.9948654    525.98117 0.0095577331 0.0079912513           20 
 4587000   0.52641499   -8.9948085    525.93837  0.009554872 0.0079884187            9 
 4588000   0.51294197   -8.9938031    526.93134 0.0095708249 0.0079855861            8 
 4589000   0.52002198    -9.004191    526.35408 0.0095582568 0.0079827572           15 
 4590000   0.50544908   -9.0078959    526.11342  0.009551805 0.0079799289            9 
 4591000    0.5228023    -9.026067    525.92011 0.0095462156 0.0079770989           12 
 4592000   0.52581531   -8.9964066    526.40615 0.0095529571 0.0079742706           11 
 4593000   0.50188095   -9.0026201    526.33039 0.0095495026 0.0079714448           10 
 4594000   0.51700332   -8.9864339    526.95477 0.0095587499 0.0079686198           15 
 4595000   0.52087666   -8.9947012    526.56181 0.0095495431 0.0079657981           22 
 4596000   0.51389185   -8.9885427    526.58888 0.0095479562 0.0079629756           11 
 4597000   0.51393098   -9.0137488    526.77587 0.0095492689 0.0079601574           10 
 4598000   0.53450253   -9.0191324    525.83382 0.0095301186 0.0079573391           20 
 4599000   0.51139347   -9.0122111    526.36041 0.0095375881  0.007954521           13 
 4600000   0.51185755   -9.0143624    526.17719 0.0095321955  0.007951703           13 
 4601000   0.51557882   -9.0151442    526.47174 0.0095354585 0.0079488868           28 
 4602000   0.50817233   -9.0153024    527.26631 0.0095477747 0.0079460724           23 
 4603000   0.50690344   -8.9911359    526.31808 0.0095285335 0.0079432601           19 
 4604000   0.51995967   -9.0048533    526.03193 0.0095212846 0.0079404484           23 
 4605000   0.51365895   -9.0151599    526.46996 0.0095271437 0.0079376366           15 
 4606000   0.51966272   -9.0110397    526.85413 0.0095320258 0.0079348252           10 
 4607000    0.5177817     -9.01071    525.60839 0.0095074233  0.007932016           21 
 4608000   0.51078286   -9.0058681    526.26803 0.0095172894   0.00792921           11 
 4609000   0.51461275   -9.0102882    525.93024  0.009509117 0.0079264029           16 
 4610000   0.51746832   -9.0008115    526.31391 0.0095139897 0.0079235985           15 
 4611000   0.51333056   -9.0069194    526.72752 0.0095194014 0.0079207946           25 
 4612000   0.51621968   -9.0151169    527.31082 0.0095278769 0.0079179927           11 
 4613000    0.5060587   -8.9938061    526.58513 0.0095127019 0.0079151954           22 
 4614000   0.50393171   -9.0096148    526.52731 0.0095095959 0.0079123955           26 
 4615000    0.5261689   -9.0279305    525.99353 0.0094978969 0.0079096007           19 
 4616000   0.51059201   -9.0128426    526.17165  0.009499055 0.0079068064           15 
 4617000   0.50915006    -9.015686     525.9274  0.009492589 0.0079040087           11 
 4618000   0.50692595   -9.0075414    527.02058 0.0095102602 0.0079012161            9 
 4619000   0.50979024   -8.9972097    526.01275 0.0094900185 0.0078984216           11 
 4620000   0.51926578   -9.0132194    525.50869 0.0094788724 0.0078956273           11 
 4621000   0.52629511   -8.9975869    526.53836 0.0094953898  0.007892839           15 
 4622000   0.52876237   -9.0014972    526.10629 0.0094855454 0.0078900506           14 
 4623000   0.51972511   -9.0069855    525.58158 0.0094740352 0.0078872637           12 
 4624000   0.53196205    -9.019156    525.86985 0.0094771816 0.0078844725           19 
 4625000   0.50913373   -9.0207594    526.44739 0.0094855385 0.0078816854           23 
 4626000   0.52040111   -9.0185232      525.564 0.0094675745 0.0078788995           17 
 4627000    0.5115708   -9.0206368    526.35773 0.0094798237 0.0078761132           14 
 4628000   0.50907031    -9.010203    525.48425 0.0094620472 0.0078733271           10 
 4629000   0.52161336   -9.0085247    526.72895 0.0094824106 0.0078705467           19 
 4630000   0.51541022   -9.0187724    526.17743  0.009470436 0.0078677638           11 
 4631000   0.49721381   -9.0003622    527.09973 0.0094849876 0.0078649834           11 
 4632000   0.50274073   -9.0073237    525.91992 0.0094617141 0.0078622021           21 
 4633000   0.51392209   -9.0115163    526.84782  0.009476362 0.0078594253            6 
 4634000   0.50932595    -9.008598    525.59175 0.0094517291 0.0078566494           15 
 4635000   0.51256959   -9.0287167    526.36226 0.0094635429 0.0078538754           24 
 4636000   0.51065807   -9.0183118    525.96099 0.0094542887 0.0078510992           17 
 4637000    0.4974001   -9.0161214    525.92309 0.0094515686 0.0078483283           20 
 4638000    0.5152206   -9.0097309    525.39252 0.0094399979 0.0078455545            8 
 4639000   0.51549396   -9.0165924    525.10883 0.0094328668 0.0078427869            7 
 4640000   0.50415086   -9.0176369    526.17843 0.0094500437 0.0078400152           12 
 4641000   0.51272942   -9.0183842    524.79799 0.0094232203 0.0078372501           35 
 4642000    0.5082907   -9.0188854    525.81498 0.0094394474 0.0078344867           15 
 4643000   0.51990783     -9.03994    526.25059 0.0094452329 0.0078317205           10 
 4644000   0.50868486   -9.0152714    526.14059 0.0094412251  0.007828959            8 
 4645000   0.50793009   -9.0114415     526.4095 0.0094440169 0.0078261982           17 
 4646000   0.51399353   -9.0175154    525.42207 0.0094242731 0.0078234365           23 
 4647000   0.51538354   -9.0146589    525.63799  0.009426117 0.0078206761           12 
 4648000   0.49736593   -9.0328361    526.08454 0.0094320951 0.0078179195            9 
 4649000   0.52063598   -9.0216127    527.40454 0.0094537274 0.0078151608           13 
 4650000   0.50762842   -9.0184283    526.17688 0.0094296931 0.0078124055           12 
 4651000   0.50826363   -9.0019196    525.14826 0.0094092356  0.007809651            9 
 4652000   0.51433501   -9.0139682     525.7352 0.0094177272  0.007806898           12 
 4653000   0.50684839   -9.0258968    526.16391 0.0094233811  0.007804147           16 
 4654000   0.51618332    -9.037329    526.83389 0.0094333528 0.0078013962           14 
 4655000   0.51302837    -9.011953    525.57546 0.0094087981 0.0077986472           26 
 4656000   0.50459434   -9.0391371    526.68737 0.0094266783 0.0077958983           16 
 4657000   0.50427406   -9.0350151    526.27596 0.0094172923 0.0077931507           24 
 4658000    0.4965994    -9.023662    526.73265 0.0094234409 0.0077904065           12 
 4659000   0.51425077    -9.014605    526.37676 0.0094150526 0.0077876616           20 
 4660000   0.50310925   -9.0241764    526.02636 0.0094067661 0.0077849149           23 
 4661000    0.4988566   -9.0217072    525.25934 0.0093910345 0.0077821709           16 
 4662000   0.50315371   -9.0033191    525.74355 0.0093976754 0.0077794289           16 
 4663000   0.50823223   -9.0355615    526.09619  0.009401962   0.00777669           10 
 4664000   0.49773712   -9.0220081    526.06399 0.0093993709 0.0077739517           28 
 4665000   0.51795287   -9.0201561    526.07245 0.0093975071 0.0077712147           18 
 4666000   0.50478262   -9.0262991    525.02565 0.0093767976 0.0077684769           20 
 4667000   0.49724109   -9.0032437    526.94427 0.0094090471 0.0077657438           21 
 4668000   0.49767918   -9.0166696    525.70955 0.0093849891 0.0077630116           19 
 4669000   0.49628101   -9.0274507    526.44356 0.0093960799 0.0077602792           29 
 4670000   0.50565646    -9.030269     525.8795 0.0093840024 0.0077575498           12 
 4671000    0.5090918    -9.025643    525.24598 0.0093706911 0.0077548208           24 
 4672000   0.50455271    -9.023746    526.05658 0.0093831438  0.007752095           18 
 4673000   0.50500637   -9.0247243    525.63529  0.009373623 0.0077493708           28 
 4674000   0.49440054   -9.0298479     526.2423   0.00938244 0.0077466459           12 
 4675000    0.4970338   -8.9948777    526.56837 0.0093862455 0.0077439239           15 
 4676000    0.4934125   -9.0310338    526.39667 0.0093811781 0.0077412045           21 
 4677000   0.50337923   -9.0180507    526.09049  0.009373717 0.0077384809           24 
 4678000   0.49443965   -9.0214221    525.91868 0.0093686526 0.0077357618           16 
 4679000   0.49728405   -9.0181849    525.22804 0.0093543499 0.0077330431           14 
 4680000    0.5115885   -9.0254287    526.09174 0.0093677304 0.0077303276           11 
 4681000   0.49744119   -9.0477427    525.81091 0.0093607297 0.0077276144           24 
 4682000   0.50244407   -9.0309686     525.4732 0.0093527197 0.0077248988           14 
 4683000   0.49930191   -9.0216765    526.02397 0.0093605234 0.0077221856           14 
 4684000   0.49671185   -9.0215634    526.42004 0.0093655714 0.0077194703           14 
 4685000    0.5003807   -9.0312187    525.82967 0.0093530713 0.0077167588            9 
 4686000   0.50465221   -9.0150571    525.91333 0.0093525631 0.0077140477            9 
 4687000   0.50701606   -9.0124678    526.34087 0.0093581693 0.0077113373           19 
 4688000   0.50190663   -9.0358102    525.58631 0.0093427601 0.0077086293           22 
 4689000     0.497355   -9.0367544    525.14659 0.0093329528 0.0077059227           26 
 4690000   0.49824859   -9.0246609    526.19212 0.0093495401 0.0077032165           10 
 4691000   0.50533889   -9.0192522    524.88842 0.0093243874 0.0077005112           17 
 4692000   0.50687503   -9.0235025    526.40401 0.0093493182 0.0076978086           19 
 4693000   0.51069117   -9.0424394    525.46945 0.0093307311 0.0076951073           11 
 4694000   0.49840414   -9.0287439     525.8185 0.0093349401 0.0076924063           19 
 4695000    0.4974533   -9.0323818    525.91506 0.0093346656 0.0076897076           13 
 4696000   0.49385576   -9.0468719    524.96816 0.0093158744  0.007687009           12 
 4697000   0.50017771   -9.0266898    525.42592 0.0093220126 0.0076843105           12 
 4698000   0.50296559   -9.0211334    525.71003 0.0093250679 0.0076816155           13 
 4699000   0.50360361   -9.0483747    525.41072 0.0093177755 0.0076789239           10 
 4700000    0.5066587   -9.0267727    525.33284  0.009314412 0.0076762321           11 
 4701000   0.50324069   -9.0263892    526.56358 0.0093342477 0.0076735424            9 
 4702000    0.5074858   -9.0363614    526.00892 0.0093224323 0.0076708528           19 
 4703000    0.4853503   -9.0472032    525.63246 0.0093137795 0.0076681666           16 
 4704000   0.49086629   -9.0305631    525.02633 0.0093010616 0.0076654818            7 
 4705000   0.50258143   -9.0407308    525.68171 0.0093106928 0.0076627983            5 
 4706000   0.50091633   -9.0393772     525.1506 0.0092993094 0.0076601121            8 
 4707000   0.49544525   -9.0400698    525.96677 0.0093117833 0.0076574298           10 
 4708000   0.50032886   -9.0357347    526.47824 0.0093188586 0.0076547497           16 
 4709000   0.50091825   -9.0310482    525.57965 0.0093009778 0.0076520679           12 
 4710000   0.48977425   -9.0376994    525.03919 0.0092894407 0.0076493862           16 
 4711000   0.49219723   -9.0312084    525.66885  0.009298607 0.0076467065           12 
 4712000   0.49662978   -9.0438907    525.84463 0.0092997423 0.0076440287           10 
 4713000   0.49579191   -9.0322124    526.61463  0.009311384  0.007641352            8 
 4714000   0.50331149   -9.0314193    525.93179 0.0092973376 0.0076386784            7 
 4715000   0.49660804   -9.0478412    525.29758 0.0092841567  0.007636006           10 
 4716000   0.50321778   -9.0324021    526.76691 0.0093081515 0.0076333356           14 
 4717000   0.50037132   -9.0423655    525.13779 0.0092773971  0.007630667           17 
 4718000   0.49898833   -9.0597684    525.50522 0.0092819207 0.0076279971            9 
 4719000   0.50348841   -9.0475552    525.27805 0.0092759421 0.0076253263           22 
 4720000   0.49457969   -9.0159834    525.00048 0.0092690763  0.007622659           13 
 4721000     0.494784   -9.0352208     525.2393 0.0092713284 0.0076199919           12 
 4722000   0.49849168    -9.039706     525.6546 0.0092766942 0.0076173245            7 
 4723000   0.49643288   -9.0391809    526.31212 0.0092863315  0.007614659            8 
 4724000   0.49374019   -9.0386715    525.45753 0.0092692903 0.0076119941           21 
 4725000   0.50156754   -9.0307086    525.91022 0.0092753125 0.0076093319           14 
 4726000   0.50476771   -9.0391141    525.26373 0.0092619504 0.0076066706           10 
 4727000   0.49033786     -9.04073    525.38621 0.0092621502 0.0076040112           14 
 4728000   0.49491067   -9.0287345     524.9128 0.0092518472 0.0076013549           11 
 4729000   0.49296054   -9.0325729    525.34565 0.0092575184 0.0075986995            7 
 4730000   0.50103579   -9.0522859     525.6767 0.0092613935 0.0075960421           10 
 4731000   0.48778917   -9.0401633     525.7509  0.009260743 0.0075933856           11 
 4732000   0.49222334     -9.03919    525.31231  0.009251062 0.0075907314           13 
 4733000   0.50856371   -9.0318374    525.88698 0.0092592257  0.007588077           14 
 4734000   0.49817948   -9.0326373    525.80433 0.0092558149 0.0075854266           15 
 4735000   0.50873749   -9.0466345    525.09603 0.0092413945 0.0075827743            7 
 4736000   0.50330171   -9.0456801    525.99998 0.0092553487 0.0075801245           13 
 4737000   0.48900761   -9.0396028    524.96386 0.0092351674 0.0075774763           18 
 4738000   0.49555014   -9.0411278    524.89695 0.0092320415 0.0075748277           12 
 4739000   0.50106478   -9.0393084    525.18824 0.0092352156 0.0075721783            6 
 4740000   0.49244558   -9.0555312    526.34115 0.0092535365 0.0075695295            7 
 4741000   0.48511931   -9.0378938    524.69402 0.0092226327 0.0075668793            5 
 4742000   0.48509745   -9.0422309    525.09457 0.0092277269 0.0075642317           18 
 4743000   0.49549111   -9.0440544    525.17902  0.009227265 0.0075615876           13 
 4744000   0.48893374   -9.0358079    524.99359 0.0092220628 0.0075589414           14 
 4745000   0.50646389   -9.0367236    525.64234 0.0092315128 0.0075563002           17 
 4746000   0.49334665   -9.0605551    525.53123 0.0092276167 0.0075536594           19 
 4747000   0.49047353   -9.0390544    526.26102 0.0092384844 0.0075510204            9 
 4748000   0.48985723    -9.035347    524.99695 0.0092143525 0.0075483819           14 
 4749000   0.49222683   -9.0508926     525.4649 0.0092206237 0.0075457435           22 
 4750000   0.48428597   -9.0471979    525.35538  0.009216761 0.0075431072           17 
 4751000   0.48695142   -9.0470191    525.98323 0.0092258337 0.0075404705            8 
 4752000   0.50259233   -9.0428757    524.73589 0.0092020183 0.0075378364           11 
 4753000   0.49398795   -9.0648989    525.42293  0.009212128 0.0075352028           10 
 4754000   0.48484391   -9.0586018    525.28866 0.0092078365 0.0075325711           14 
 4755000   0.48657276   -9.0313868    525.44382 0.0092086194 0.0075299382           13 
 4756000   0.48865435   -9.0524891    525.83035 0.0092134558 0.0075273074            8 
 4757000   0.48442179   -9.0518897    525.42715 0.0092044557 0.0075246798           11 
 4758000   0.49207912   -9.0552377    524.79665 0.0091914783 0.0075220569           19 
 4759000   0.49524217   -9.0487589    524.98115 0.0091927777 0.0075194319           10 
 4760000   0.49304252   -9.0524357    525.97497 0.0092082453 0.0075168082           20 
 4761000   0.48807516   -9.0309784    525.60755 0.0091998801 0.0075141843           10 
 4762000   0.49250336   -9.0636963    525.16982 0.0091902881  0.007511561           21 
 4763000   0.47948448    -9.046142    525.95332 0.0092020666 0.0075089425           10 
 4764000   0.49963604   -9.0328555     525.2081 0.0091870995  0.007506322            6 
 4765000   0.49596555   -9.0557442    524.61441 0.0091747885 0.0075037032           11 
 4766000   0.50005124   -9.0565623    525.33822 0.0091855193 0.0075010866            9 
 4767000    0.4824001   -9.0731493    525.67618 0.0091895004 0.0074984714            9 
 4768000   0.48551093   -9.0449786    524.74995 0.0091713848  0.007495856           10 
 4769000   0.48577498   -9.0424448    525.13917 0.0091762629 0.0074932383           10 
 4770000   0.49402191   -9.0522319    524.64126 0.0091656404 0.0074906254            8 
 4771000   0.48228052   -9.0365225    525.29577 0.0091751514 0.0074880151           10 
 4772000   0.48574548   -9.0561596    525.88803 0.0091835713 0.0074854052           22 
 4773000   0.48364809    -9.045247    524.71657 0.0091611944 0.0074827955            8 
 4774000   0.48520514   -9.0554991    524.95073 0.0091633628 0.0074801851            6 
 4775000    0.4889007   -9.0569756    524.50258 0.0091536226 0.0074775764           19 
 4776000    0.4848013   -9.0515007    524.80278 0.0091569442 0.0074749706           12 
 4777000   0.48708552   -9.0424287    526.07451 0.0091772122  0.007472367           19 
 4778000   0.49650583   -9.0311903    525.69418 0.0091686581 0.0074697643           13 
 4779000   0.50036215   -9.0589589    525.55776 0.0091643607 0.0074671637           28 
 4780000   0.49407106   -9.0504799    524.69682 0.0091474341 0.0074645625           11 
 4781000   0.49082705   -9.0571244    525.16413 0.0091536661 0.0074619621           11 
 4782000   0.48738967   -9.0682584    525.30225 0.0091541588 0.0074593617           11 
 4783000   0.48469575   -9.0555346    525.03789 0.0091476391 0.0074567643           18 
 4784000   0.48098939   -9.0625015    525.44157 0.0091527588 0.0074541696           14 
 4785000   0.49056595   -9.0443635    524.69372 0.0091378216 0.0074515743            8 
 4786000   0.48727093   -9.0517945    525.58673 0.0091514614 0.0074489808           28 
 4787000   0.48784856   -9.0715461    525.26842 0.0091440085 0.0074463891           18 
 4788000   0.48317138    -9.062002    525.31879 0.0091429752  0.007443798           17 
 4789000   0.49087648   -9.0413469    525.50908 0.0091443774 0.0074412063           13 
 4790000   0.48340533   -9.0451185    525.14667 0.0091361633  0.007438616            6 
 4791000   0.49516969   -9.0621674    524.54179 0.0091237353 0.0074360295            8 
 4792000   0.48448395   -9.0490624     524.6998 0.0091245792 0.0074334398           11 
 4793000   0.48327828   -9.0450141    524.80978 0.0091245876 0.0074308553           12 
 4794000   0.48285981   -9.0629828    526.18771 0.0091466366 0.0074282696           15 
 4795000   0.48834207     -9.05582    524.68365 0.0091185897 0.0074256869           16 
 4796000    0.4836583    -9.044702    525.93006 0.0091383455 0.0074231067           14 
 4797000    0.4847631   -9.0378373    524.96575 0.0091196885 0.0074205281           22 
 4798000   0.49154092     -9.05623    525.65854 0.0091298205 0.0074179465           13 
 4799000   0.48312768   -9.0646989    524.52706 0.0091082701 0.0074153667           12 
 4800000   0.49399308   -9.0666328    525.53125 0.0091238064  0.007412788           11 
 4801000   0.48378972   -9.0488537    524.30595 0.0091006379 0.0074102115           21 
 4802000   0.47335093    -9.050989    525.03009 0.0091113093 0.0074076362           10 
 4803000   0.48313186   -9.0670431    525.54045 0.0091182673 0.0074050627           18 
 4804000   0.49560555   -9.0539139    524.60593 0.0091001584   0.00740249           19 
 4805000   0.48514986   -9.0622877    525.40878 0.0091121883 0.0073999165           10 
 4806000   0.49015836   -9.0745591    524.79275 0.0090996107 0.0073973454            8 
 4807000    0.4744258   -9.0572448    525.38236 0.0091079391 0.0073947739           18 
 4808000   0.47586951    -9.060547     524.8731 0.0090972181 0.0073922031           15 
 4809000   0.47627502   -9.0699502    524.43152 0.0090876745 0.0073896332           10 
 4810000   0.48323536   -9.0376364    525.62174 0.0091064058 0.0073870658           11 
 4811000   0.48431329   -9.0740923    523.90518 0.0090747796 0.0073844992           22 
 4812000   0.47737209   -9.0693392    525.17276 0.0090948456 0.0073819336           18 
 4813000   0.47535744   -9.0678811    525.15214 0.0090925989 0.0073793705           10 
 4814000   0.48552091   -9.0764921    525.16739 0.0090909741 0.0073768085           16 
 4815000   0.48053766     -9.06924    524.64002 0.0090799587 0.0073742485           13 
 4816000    0.4813678   -9.0678519    525.35688 0.0090904776 0.0073716907            9 
 4817000   0.48516155   -9.0667489    525.53079  0.009091599 0.0073691315           14 
 4818000   0.48721614   -9.0619184    525.05526 0.0090814871 0.0073665758           10 
 4819000    0.4840948   -9.0567759    524.52702 0.0090704679 0.0073640207           14 
 4820000   0.47462028   -9.0756794    525.35113 0.0090828342 0.0073614674           11 
 4821000   0.48011227   -9.0661382     525.4199  0.009082139 0.0073589145           16 
 4822000   0.47790942   -9.0712686    525.47526 0.0090812122 0.0073563636           10 
 4823000    0.4884465   -9.0689915    524.43582 0.0090613694 0.0073538138           22 
 4824000   0.48208979   -9.0678411    525.28855 0.0090742217 0.0073512626            9 
 4825000   0.48174569   -9.0554718    524.04167 0.0090508061 0.0073487149           11 
 4826000   0.47127828   -9.0784877    524.51123 0.0090570387 0.0073461669           13 
 4827000   0.48050283   -9.0654699    524.96947 0.0090630736 0.0073436209           10 
 4828000   0.46704675    -9.074464    524.57954  0.009054466 0.0073410736           14 
 4829000   0.47634037   -9.0514243    526.09512 0.0090787451 0.0073385303            7 
 4830000   0.47389068   -9.0614784    524.54743 0.0090501626 0.0073359865           10 
 4831000   0.48542307   -9.0793544    524.61477  0.009049451 0.0073334425           14 
 4832000   0.47219927   -9.0559559    525.19502 0.0090575851 0.0073309012           14 
 4833000   0.48159601   -9.0366609    525.22019 0.0090561451 0.0073283621           11 
 4834000    0.4742027   -9.0706261    524.85532 0.0090479817 0.0073258246           14 
 4835000   0.47912842    -9.071484    524.97728 0.0090482124 0.0073232858           13 
 4836000    0.4755518   -9.0597962    524.86382 0.0090443862 0.0073207492           22 
 4837000   0.47600643   -9.0686312     524.4255 0.0090349649 0.0073182134           10 
 4838000   0.48879559   -9.0613309    524.91253 0.0090414863 0.0073156802           19 
 4839000   0.47783274   -9.0683059    524.51165 0.0090327142 0.0073131481            7 
 4840000   0.47881193    -9.065427    524.78828 0.0090356109 0.0073106158           15 
 4841000   0.48020237   -9.0598451    525.37977 0.0090439264 0.0073080838           16 
 4842000   0.48248171   -9.0792386    524.75954  0.009031384 0.0073055532           16 
 4843000   0.46867222     -9.05677     525.4016 0.0090405671 0.0073030249           15 
 4844000   0.48009813   -9.0624351    524.86983 0.0090295525 0.0073004953           12 
 4845000   0.48694754   -9.0728749    524.68453 0.0090245017 0.0072979686            5 
 4846000   0.47220398   -9.0665187     523.8039 0.0090074958 0.0072954437           15 
 4847000    0.4716539   -9.0652713     525.1725 0.0090291676 0.0072929189           17 
 4848000   0.47454027   -9.0621451      525.574 0.0090342066 0.0072903956            6 
 4849000   0.47738791   -9.0746106    525.67428 0.0090340668 0.0072878743           22 
 4850000    0.4809246   -9.0535428    523.19864 0.0089896674 0.0072853535           10 
 4851000   0.48640055   -9.0751986    524.90869 0.0090171904 0.0072828338           13 
 4852000   0.47424899   -9.0743988    524.13924 0.0090021166 0.0072803167           13 
 4853000   0.48268672   -9.0530694    524.49589  0.009006386 0.0072778009           14 
 4854000    0.4786354   -9.0377652     525.6475 0.0090243012 0.0072752863           12 
 4855000   0.48242336   -9.0741684    525.11593 0.0090133184 0.0072727727           13 
 4856000   0.47924233    -9.078632    524.67663 0.0090039235 0.0072702604           12 
 4857000   0.47320159   -9.0681482    523.61557 0.0089838647 0.0072677469           10 
 4858000     0.483383   -9.0738246    524.81856 0.0090026513 0.0072652359           11 
 4859000   0.46806166   -9.0640557    524.97654  0.009003508 0.0072627256           10 
 4860000   0.47002478   -9.0766419    524.22474 0.0089887644 0.0072602163           15 
 4861000    0.4744839   -9.0770292    524.21241 0.0089867038 0.0072577069           13 
 4862000   0.47514305   -9.0718994    525.24563 0.0090025647 0.0072551989           15 
 4863000   0.46744097   -9.0717966    524.03558 0.0089799778 0.0072526928           11 
 4864000   0.46964929   -9.0741559    524.26245 0.0089820184 0.0072501886           22 
 4865000   0.48424986   -9.0809318    525.11992 0.0089948599 0.0072476841           22 
 4866000   0.46717349   -9.0786619    524.39995 0.0089806814 0.0072451833           11 
 4867000   0.48008064   -9.0780242    525.13165 0.0089913645 0.0072426828           19 
 4868000   0.46391929   -9.0768595    525.13319 0.0089895438 0.0072401823            9 
 4869000   0.46974239   -9.0768057    524.38219  0.008974844 0.0072376835           11 
 4870000   0.47177887   -9.0686887    524.63023 0.0089772456 0.0072351855           14 
 4871000   0.47243626   -9.0873661     525.4923 0.0089901509 0.0072326895            9 
 4872000   0.48033462   -9.0715745    524.74594 0.0089755395 0.0072301939            8 
 4873000   0.46477052   -9.0788245    525.79252 0.0089915952 0.0072276995           12 
 4874000   0.46599523   -9.0847212    524.76522 0.0089721861 0.0072252052           18 
 4875000    0.4902898   -9.0725802    525.20929 0.0089779365 0.0072227138            8 
 4876000   0.46681916    -9.065453    525.11269 0.0089744443 0.0072202239           21 
 4877000   0.47341864   -9.0766643    524.34052 0.0089594101 0.0072177343            9 
 4878000   0.47707845   -9.0646827    524.75009 0.0089645704 0.0072152453           11 
 4879000   0.47682809   -9.0875482    523.65755 0.0089440725 0.0072127569            7 
 4880000   0.46599888   -9.0805126    523.82142 0.0089450379 0.0072102689           15 
 4881000   0.48170757   -9.0792531     524.3368 0.0089520044 0.0072077823           11 
 4882000   0.46531884   -9.0748842    525.00392 0.0089615581 0.0072052978           19 
 4883000   0.46997819   -9.0741147    524.71767 0.0089548376 0.0072028145           10 
 4884000   0.47915724   -9.0699977    524.04923 0.0089415988 0.0072003309           12 
 4885000   0.47658981   -9.0739999    524.49598 0.0089473896 0.0071978491           13 
 4886000   0.47638409   -9.0898293    523.79043 0.0089335249 0.0071953666           18 
 4887000   0.46165958   -9.0854103    523.92488 0.0089339894 0.0071928862           23 
 4888000   0.47761159   -9.0905598    524.59405 0.0089435702 0.0071904069           21 
 4889000   0.47765078   -9.0997331    523.74556 0.0089272782 0.0071879292           11 
 4890000   0.46701248   -9.0821752    524.52047 0.0089386584 0.0071854506           15 
 4891000   0.46342508   -9.0707655    524.45604 0.0089357329 0.0071829743            8 
 4892000   0.46294025   -9.0840829    524.58433 0.0089360918 0.0071805008           16 
 4893000   0.45651594   -9.0777941    524.55088 0.0089336958 0.0071780255           20 
 4894000   0.46743256   -9.0925151    524.26931 0.0089270758 0.0071755561           16 
 4895000   0.47223123   -9.0828386    524.52126 0.0089295414 0.0071730868           20 
 4896000   0.46758502   -9.0935468    524.54742 0.0089281628 0.0071706185           14 
 4897000   0.46657711   -9.0915772     524.3562 0.0089230856 0.0071681514           27 
 4898000   0.47025087   -9.0675461    525.42167 0.0089393915 0.0071656857           10 
 4899000   0.46676173   -9.0923937    524.67322 0.0089248353 0.0071632195            9 
 4900000   0.46211726   -9.0729435    524.45428 0.0089192904  0.007160754           17 
 4901000   0.46605493   -9.0936511    525.42886 0.0089340417 0.0071582893           17 
 4902000   0.47278558   -9.0726769    524.13993 0.0089103076 0.0071558269            8 
 4903000   0.46609657   -9.0821187    524.12556 0.0089082459 0.0071533626           12 
 4904000   0.47239312   -9.0944842    525.46653 0.0089292165 0.0071509028            8 
 4905000   0.46832328    -9.093338    524.04917 0.0089033159 0.0071484394           11 
 4906000   0.45905821   -9.0856432    523.59548 0.0088937948 0.0071459789           15 
 4907000   0.46466812    -9.080269    524.44863 0.0089064708 0.0071435179           11 
 4908000   0.47524089   -9.0887823    524.42572 0.0089042672 0.0071410626           15 
 4909000   0.46849599   -9.0875862     524.1191 0.0088972483 0.0071386067           20 
 4910000     0.470388   -9.0896449    524.66994 0.0089047851 0.0071361507           10 
 4911000   0.45479007    -9.100006    523.70813 0.0088866512 0.0071336948           15 
 4912000    0.4717399   -9.0913739    523.78948 0.0088862222 0.0071312415           19 
 4913000   0.45659581   -9.1115103    523.86292 0.0088856592 0.0071287889           19 
 4914000   0.47452295   -9.0943522    524.18439 0.0088893025 0.0071263368            9 
 4915000   0.46964831   -9.0931797    523.78066 0.0088806486 0.0071238865           23 
 4916000   0.47259763   -9.0880421    523.79269 0.0088790461  0.007121436           26 
 4917000   0.46677453   -9.0849675    524.35724 0.0088868083 0.0071189889           15 
 4918000   0.45691882   -9.0911785    524.99463 0.0088958017 0.0071165419           11 
 4919000   0.46475639   -9.0986112    524.63798 0.0088879511 0.0071140964            7 
 4920000   0.46474775   -9.0793524    523.93093 0.0088741688 0.0071116539           10 
 4921000   0.47149151   -9.0929972    524.27844 0.0088782503 0.0071092119            8 
 4922000   0.46184588   -9.0897578    524.35192 0.0088776906 0.0071067709           22 
 4923000    0.4719744   -9.0806267    523.56515 0.0088625694 0.0071043305           15 
 4924000   0.45515848   -9.0902915    524.35032 0.0088740577 0.0071018919           10 
 4925000   0.45483181   -9.0982819    524.20986 0.0088698791 0.0070994523           23 
 4926000    0.4665372   -9.1025997    525.21472 0.0088850779 0.0070970146           16 
 4927000   0.45846006   -9.0970582    523.60758  0.008856092 0.0070945769           13 
 4928000   0.45733675   -9.0809411    524.40307 0.0088677467 0.0070921412           10 
 4929000   0.46637722   -9.0897811    524.70069 0.0088709794 0.0070897064           17 
 4930000   0.46349165   -9.1078637    524.08559 0.0088587828  0.007087274           14 
 4931000   0.46153406   -9.0856102    524.39423 0.0088622023 0.0070848418           21 
 4932000   0.47484022   -9.0989087    524.42458 0.0088609182 0.0070824118           16 
 4933000    0.4672221   -9.0887417    523.83434 0.0088491509 0.0070799822           11 
 4934000   0.46084346   -9.0832327    524.17321 0.0088530809 0.0070775555           12 
 4935000   0.45913596    -9.098699    524.35806 0.0088544083 0.0070751278           26 
 4936000   0.45198256   -9.0897406     523.7668 0.0088426324 0.0070727002           21 
 4937000   0.46070797   -9.1009178    524.23077 0.0088486728 0.0070702736           16 
 4938000   0.45663252   -9.0947358    523.63887  0.008836892 0.0070678495           21 
 4939000   0.47648294   -9.0982571     524.0469 0.0088419873 0.0070654246           14 
 4940000   0.46796025   -9.0752889     524.3368 0.0088450877 0.0070630025           21 
 4941000    0.4659224   -9.0962371    523.47557 0.0088287723 0.0070605817           23 
 4942000   0.45620638   -9.0762676    524.03512 0.0088364211 0.0070581618           17 
 4943000   0.46605867   -9.0936506    524.23118 0.0088379388 0.0070557428           16 
 4944000   0.45814419   -9.0959631    523.82455 0.0088292973 0.0070533258           15 
 4945000   0.45072621    -9.091448    524.82771 0.0088444172 0.0070509113           14 
 4946000   0.45724572   -9.1015615    523.99965 0.0088286772  0.007048497            9 
 4947000    0.4615001   -9.0897752    524.73031 0.0088392007 0.0070460835           11 
 4948000   0.45767549   -9.0876233    523.75679 0.0088210184 0.0070436708           22 
 4949000   0.46059451   -9.0971461    524.26181 0.0088277398 0.0070412583           13 
 4950000   0.44684966   -9.1041393    524.60655 0.0088317601  0.007038849           12 
 4951000   0.46791411   -9.0946353    524.18435 0.0088228699 0.0070364404           11 
 4952000   0.47180006   -9.0929245    523.80968 0.0088147832 0.0070340312           15 
 4953000   0.46620606   -9.0957304    523.82658 0.0088132879 0.0070316239            9 
 4954000   0.45915257   -9.0916537    524.18941 0.0088176121 0.0070292159           11 
 4955000   0.45735739   -9.0791911    523.60538 0.0088060104 0.0070268106           11 
 4956000   0.45970192   -9.0918327    524.25291 0.0088151216 0.0070244046           11 
 4957000   0.44247957   -9.0986729    524.14666 0.0088115571 0.0070220011           14 
 4958000   0.46339497    -9.082101    523.72574 0.0088027051 0.0070195993           17 
 4959000   0.45919496   -9.1058455    524.02354 0.0088059343 0.0070171991           16 
 4960000   0.46233486   -9.0966734    523.85564 0.0088013381  0.007014798           18 
 4961000   0.45617557   -9.0953835    524.14085 0.0088043548 0.0070123994           13 
 4962000   0.45469362   -9.1114588    524.37087 0.0088064435 0.0070100007           23 
 4963000   0.45003622   -9.0899468    524.60529 0.0088086052 0.0070076016            7 
 4964000   0.46949542   -9.1121621    524.72777 0.0088088868 0.0070052039            9 
 4965000   0.46042138    -9.099053    523.94973  0.008794054 0.0070028077            8 
 4966000   0.46655359   -9.0897199    523.60765 0.0087865427 0.0070004141           10 
 4967000   0.45751807      -9.1056    523.38655 0.0087810642 0.0069980198           12 
 4968000   0.45388313   -9.0958835    523.41149  0.008779715 0.0069956282           15 
 4969000   0.46502411   -9.1045856    525.00713  0.008804708 0.0069932387           11 
 4970000   0.44702428   -9.0920311    524.57446 0.0087956817 0.0069908504           13 
 4971000    0.4500939   -9.0908956    523.63689  0.008778195 0.0069884618            7 
 4972000   0.45515123   -9.0883154    524.06499 0.0087836048 0.0069860739            9 
 4973000   0.45900479   -9.0999433    524.30006 0.0087857775 0.0069836879           11 
 4974000   0.44793185   -9.0939565    523.64078 0.0087729657 0.0069813011           10 
 4975000   0.45419907   -9.1084201    524.34725  0.008783036 0.0069789177           13 
 4976000   0.45910631   -9.1107748    523.37367 0.0087649664 0.0069765361           10 
 4977000   0.43746252   -9.1031187    524.18497 0.0087767894 0.0069741536            5 
 4978000   0.45947387    -9.107603    523.68049 0.0087665812 0.0069717718            8 
 4979000    0.4491464   -9.1014372    523.75369 0.0087660455 0.0069693887            6 
 4980000   0.46003118   -9.0978822    524.21688 0.0087720362 0.0069670098           10 
 4981000   0.45675371   -9.0999852    523.83588 0.0087639009 0.0069646318            9 
 4982000   0.45424023   -9.1037594    523.48909 0.0087563409  0.006962257           11 
 4983000   0.45437613   -9.1138371     523.7783 0.0087594204 0.0069598807            8 
 4984000   0.45482255   -9.1052175    524.05787 0.0087623374 0.0069575067            8 
 4985000   0.45111475   -9.0884671    523.67166 0.0087541234 0.0069551321            8 
 4986000   0.45072522    -9.093496     523.9263 0.0087566236 0.0069527589           14 
 4987000   0.45288984   -9.1105356    523.58443  0.008749155 0.0069503874           14 
 4988000   0.45318745   -9.1153698    523.38306 0.0087440367 0.0069480162            6 
 4989000    0.4497298   -9.0909136    523.61423 0.0087461454 0.0069456444           12 
 4990000   0.44835658   -9.1062316    523.74106 0.0087465107 0.0069432757            7 
 4991000   0.44825272   -9.1022191    523.58716 0.0087421886 0.0069409068           12 
 4992000   0.45218009   -9.1076574    524.13194 0.0087495317 0.0069385396           12 
 4993000   0.45592874   -9.1054327    524.30166 0.0087506118 0.0069361749            7 
 4994000   0.44794413   -9.1242399    523.27129 0.0087316661 0.0069338109           10 
 4995000   0.44690701   -9.1099572     523.2269 0.0087291776 0.0069314447           11 
 4996000   0.45943677    -9.113094    523.87504 0.0087382413 0.0069290822            6 
 4997000      0.45041   -9.1091093    523.78584 0.0087350049 0.0069267189           18 
 4998000   0.44204508   -9.1069922    523.35386 0.0087260548 0.0069243568           17 
 4999000   0.45708515   -9.1094179    523.87156 0.0087329393 0.0069219961           10 
 5000000   0.46275667   -9.0891153    523.63124 0.0087271873 0.0069196373           16 
 5001000    0.4501118   -9.1127961    523.81315 0.0087284735 0.0069172803           12 
 5002000   0.45608611   -9.1096057    523.35015 0.0087190148 0.0069149214           14 
 5003000   0.45049008   -9.1103757    524.74927 0.0087405768 0.0069125643           15 
 5004000    0.4538119   -9.1202062    523.47227 0.0087175637 0.0069102094           21 
 5005000   0.44705127   -9.1080577    524.10233 0.0087263125 0.0069078569           13 
 5006000   0.44358712   -9.0999803    523.05866 0.0087071956  0.006905504           11 
 5007000   0.45125802   -9.1143712    523.83356 0.0087183536 0.0069031552            8 
 5008000    0.4521147    -9.100388     523.1558 0.0087053348 0.0069008053           24 
 5009000   0.46321515   -9.1138855     524.0153 0.0087178961 0.0068984553           10 
 5010000   0.45281268   -9.1163634    523.42049 0.0087062623 0.0068961082           11 
 5011000   0.44807284   -9.1031902    523.72976 0.0087096681 0.0068937616           19 
 5012000   0.45298543   -9.1066518    524.10287  0.008714134 0.0068914153           14 
Loop time of 12541.8 on 48 procs for 5000000 steps with 4000 atoms

Performance: 68889.601 tau/day, 398.667 timesteps/s
99.4% CPU use with 48 MPI tasks x no OpenMP threads

MPI task timing breakdown:
Section |  min time  |  avg time  |  max time  |%varavg| %total
---------------------------------------------------------------
Pair    | 881.91     | 942.76     | 1019.9     | 113.9 |  7.52
Neigh   | 83.458     | 86.555     | 89.578     |  18.4 |  0.69
Comm    | 778.32     | 857.65     | 924.3      | 133.1 |  6.84
Output  | 15.894     | 15.9       | 15.993     |   0.3 |  0.13
Modify  | 10495      | 10528      | 10552      |  13.4 | 83.94
Other   |            | 110.7      |            |       |  0.88

Nlocal:        83.3333 ave          89 max          77 min
Histogram: 1 5 0 2 12 12 3 9 2 2
Nghost:        2237.65 ave        2259 max        2222 min
Histogram: 4 6 5 7 9 6 5 3 2 1
Neighs:        15062.7 ave       16474 max       13364 min
Histogram: 1 2 2 6 10 7 7 6 5 2
FullNghs:      30124.6 ave       32333 max       27725 min
Histogram: 1 4 1 5 14 8 3 9 1 2

Total # of neighbors = 1445979
Ave neighs/atom = 361.49475
Neighbor list builds = 266639
Dangerous builds = 1

#clear
#
#next RN
#
#jump SELF
Total wall time: 3:29:05
