
units lj                  # Use reduced LJ style units
atom_style atomic         # Uncharged point particles
atom_modify map hash      # Needed for indexing of clusters etc
                          # Used to be able to find where atoms are in relation to each other.

lattice fcc 1.0 spacing 1 1 1
Lattice spacing in x,y,z = 1.5874011 1.5874011 1.5874011
region box block 0 10 0 10 0 10 units lattice
create_box 2 box
Created orthogonal box = (0.0000000 0.0000000 0.0000000) to (15.874011 15.874011 15.874011)
  3 by 4 by 4 MPI processor grid
create_atoms 1 box
Created 4000 atoms
  using lattice units in orthogonal box = (0.0000000 0.0000000 0.0000000) to (15.874011 15.874011 15.874011)
  create_atoms CPU = 0.004 seconds
set type 1 type/fraction 2 0.08 78393
Setting atom values ...
  344 settings made for type/fraction
mass 1 1.0
mass 2 1.0
pair_style lj/cut  3.5
pair_modify tail  yes
pair_coeff 1  1  1.0  1.0   # Intearaction between 1 and 1 set with epsilon = 1 and sigma = 1
pair_coeff 1  2  1.5  0.8
pair_coeff 2  2  0.5  0.88

write_data data.0
System init for write_data ...
Neighbor list info ...
  update every 1 steps, delay 10 steps, check yes
  max neighbors/atom: 2000, page size: 100000
  master list distance cutoff = 3.8
  ghost atom cutoff = 3.8
  binsize = 1.9, bins = 9 9 9
  1 neighbor lists, perpetual/occasional/extra = 1 0 0
  (1) pair lj/cut, perpetual
      attributes: half, newton on
      pair build: half/bin/atomonly/newton
      stencil: half/bin/3d
      bin: standard
WARNING: Not all mixed pair coeffs generated from mixing. Use write_data with 'pair ij' option to store all pair coeffs. (../write_data.cpp:312)


#############################
#   M E L T   S Y S T E M   #
#############################

velocity all create 2.4 9580093 mom yes dist gaussian # Assign velocities
                                                    # Temperature 2.4, random number seed, zero linear momentum
                                                                                # Gaussian distribution

timestep 0.002   # simulation timestep
thermo 1000       # output thermodynamic data every 1000 steps bf 100

# Define a fix  in this case with index 1 applied to all
# particles in the simulation. This fix is for simulations
# in the anisotropic NPT ensemble. Note that we use the MTK
# correction.
fix 1 all npt temp 2.4 2.4 0.1 iso 5.68 5.68 0.5 mtk yes tchain 5 pchain 5 # Use NPT ensemble
                                                                         # Set temperature and pressure and damping
                                                                         # Numbers of thermostats in chain and in barostat
run 10000          # run for 10000 steps
Per MPI rank memory allocation (min/avg/max) = 3.642 | 3.644 | 3.648 Mbytes
Step Temp E_pair E_mol TotEng Press Volume 
       0          2.4   -7.8205278            0   -4.2214278   -2.8943486         4000 
    1000    2.3985212   -4.5279789            0  -0.93109657     5.892288    4899.6937 
    2000    2.4050278   -4.6531439            0   -1.0465041    5.2184932    4923.7545 
    3000    2.4123304   -4.5432688            0  -0.92567775    5.4774314    4949.1275 
    4000    2.4090931   -4.5826512            0  -0.96991496    5.4465645    4927.8883 
    5000    2.3677322   -4.5600688            0   -1.0093584    5.5443502    4918.1011 
    6000    2.4052653   -4.5165774            0  -0.90958137    5.8809047    4906.4528 
    7000    2.4210662   -4.5577329            0  -0.92704148    5.5313487     4939.765 
    8000      2.41728   -4.5472321            0  -0.92221852    5.5392109    4946.3341 
    9000     2.388292   -4.5992623            0   -1.0177199    5.4833358    4915.4652 
   10000    2.4191497   -4.5812034            0  -0.95338604    5.7231585    4900.4854 
Loop time of 2.12306 on 48 procs for 10000 steps with 4000 atoms

Performance: 813920.850 tau/day, 4710.190 timesteps/s
99.6% CPU use with 48 MPI tasks x no OpenMP threads

MPI task timing breakdown:
Section |  min time  |  avg time  |  max time  |%varavg| %total
---------------------------------------------------------------
Pair    | 0.88175    | 0.93973    | 1.0126     |   2.7 | 44.26
Neigh   | 0.18822    | 0.19653    | 0.21267    |   1.0 |  9.26
Comm    | 0.66497    | 0.73111    | 0.80046    |   3.6 | 34.44
Output  | 0.00024715 | 0.00025325 | 0.00031842 |   0.0 |  0.01
Modify  | 0.21529    | 0.24076    | 0.26803    |   2.6 | 11.34
Other   |            | 0.01467    |            |       |  0.69

Nlocal:        83.3333 ave          91 max          77 min
Histogram: 6 2 8 2 7 8 4 8 1 2
Nghost:        1429.25 ave        1466 max        1407 min
Histogram: 3 4 10 15 4 5 4 1 0 2
Neighs:        7761.98 ave        8655 max        6895 min
Histogram: 3 2 5 6 10 7 5 5 3 2

Total # of neighbors = 372575
Ave neighs/atom = 93.143750
Neighbor list builds = 908
Dangerous builds = 242

# Equilibrate just above the melting temperature to avoid step fn in T

fix 1 all npt temp 1.25 1.25 0.1 iso 5.68 5.68 0.5 mtk yes tchain 5 pchain 5
run 2000
Per MPI rank memory allocation (min/avg/max) = 3.642 | 3.644 | 3.648 Mbytes
Step Temp E_pair E_mol TotEng Press Volume 
   10000    2.4191497   -4.5812034            0  -0.95338604    5.7231585    4900.4854 
   11000    1.2464123   -6.0901406            0   -4.2209895    5.6536423    4068.9411 
   12000    1.2698747   -6.1378324            0   -4.2334966     5.742653    4046.0245 
Loop time of 0.462966 on 48 procs for 2000 steps with 4000 atoms

Performance: 746491.701 tau/day, 4319.975 timesteps/s
99.6% CPU use with 48 MPI tasks x no OpenMP threads

MPI task timing breakdown:
Section |  min time  |  avg time  |  max time  |%varavg| %total
---------------------------------------------------------------
Pair    | 0.20066    | 0.21917    | 0.238      |   1.7 | 47.34
Neigh   | 0.031445   | 0.032813   | 0.034526   |   0.4 |  7.09
Comm    | 0.14179    | 0.15778    | 0.17347    |   1.9 | 34.08
Output  | 4.8573e-05 | 5.0201e-05 | 6.3832e-05 |   0.0 |  0.01
Modify  | 0.044564   | 0.048675   | 0.054885   |   1.3 | 10.51
Other   |            | 0.004482   |            |       |  0.97

Nlocal:        83.3333 ave          92 max          76 min
Histogram: 2 7 6 4 6 7 9 3 2 2
Nghost:        1629.23 ave        1652 max        1604 min
Histogram: 1 2 2 10 5 10 6 9 1 2
Neighs:        9435.81 ave       10549 max        8280 min
Histogram: 1 3 4 9 6 5 13 3 1 3

Total # of neighbors = 452919
Ave neighs/atom = 113.22975
Neighbor list builds = 143
Dangerous builds = 8

#############################
# L I N E A R  Q U E N C H  #
#############################

# Define solid atoms. This closely follows ten Wolde  Ruiz-Montero and Frenkel  Faraday Discuss  1996  104  93-110
# Compute components of the per-atom q6 vector
compute q6 all orientorder/atom degrees 1 6 components 6 nnn NULL cutoff 1.3 # compute the Q6 parameter.
                                                                             # Use all neighbours within 1.3 unit cell.

# get number of connections
compute coord_number all coord/atom orientorder q6 0.5

# An atom is solid if it has 8 or more connections (of a possible 14)
variable is_solid atom c_coord_number>=8
group solid dynamic all var is_solid    # Must be dynamic to update
dynamic group solid defined

# do clustering
compute cluster solid cluster/atom 1.3 # Create a cluster where all atoms within are solid and max 1.3 units from another member

# define chunks one chunk per cluster
compute clus_chunks solid chunk/atom c_cluster nchunk every compress yes  # Says which atoms are in which chunk

# count the size of each chunk
compute size_chunks solid property/chunk clus_chunks count


# Find the maximum entry in the vector of chunk sizes
variable max_n equal max(c_size_chunks)


# Thermo style which includes this variable
# thermo_style custom step temp pe vol v_max_n

thermo ${N}  # Print the thermo information every 100 steps
thermo 1000  

# Reset the npt fix at a lower temperature (below freezing)
fix 1  all npt temp  ${temp} ${temp}  0.1  iso  5.68  5.68  0.5  mtk yes tchain  5  pchain  5
fix 1  all npt temp  0.45 ${temp}  0.1  iso  5.68  5.68  0.5  mtk yes tchain  5  pchain  5
fix 1  all npt temp  0.45 0.45  0.1  iso  5.68  5.68  0.5  mtk yes tchain  5  pchain  5

dump dmp2 all dcd ${N} traj.dcd
dump dmp2 all dcd 1000 traj.dcd


compute msd all msd com yes
variable twopoint equal c_msd[4]/6/(step*dt+1.0e-6)
fix 9 all vector 10 c_msd[4]
variable fit equal slope(f_9)/6/(10*dt)
thermo_style custom step temp pe c_msd[4] v_twopoint v_fit v_max_n

fix 1 all npt temp 1.25 ${temp} 0.1 iso 5.68 5.68 0.5 mtk yes tchain 5 pchain 5
fix 1 all npt temp 1.25 0.45 0.1 iso 5.68 5.68 0.5 mtk yes tchain 5 pchain 5
run 500000 # 5000000  # Run for this many steps
Neighbor list info ...
  update every 1 steps, delay 10 steps, check yes
  max neighbors/atom: 2000, page size: 100000
  master list distance cutoff = 3.8
  ghost atom cutoff = 3.8
  binsize = 1.9, bins = 9 9 9
  4 neighbor lists, perpetual/occasional/extra = 1 3 0
  (1) pair lj/cut, perpetual
      attributes: half, newton on
      pair build: half/bin/atomonly/newton
      stencil: half/bin/3d
      bin: standard
  (2) compute orientorder/atom, occasional
      attributes: full, newton on
      pair build: full/bin/atomonly
      stencil: full/bin/3d
      bin: standard
  (3) compute coord/atom, occasional
      attributes: full, newton on
      pair build: full/bin/atomonly
      stencil: full/bin/3d
      bin: standard
  (4) compute cluster/atom, occasional
      attributes: full, newton on
      pair build: full/bin/atomonly
      stencil: full/bin/3d
      bin: standard
Per MPI rank memory allocation (min/avg/max) = 9.744 | 9.750 | 9.755 Mbytes
Step Temp PotEng c_msd[4] v_twopoint v_fit v_max_n 
   12000    1.2698747   -6.1378324 4.059281e-30 2.818945e-32 8.3333333e+20            2 
   13000    1.2530764   -6.1466737   0.57000727 0.0036538926  0.046148578            3 
   14000    1.2508087   -6.1068708    1.1701946 0.0069654437  0.048555724            2 
   15000    1.2648031   -6.1790709    1.7642478 0.0098013763  0.049452592            5 
   16000    1.2226239   -6.1185532    2.2590434   0.01176585  0.048234628            8 
   17000    1.2401855   -6.1262003    2.7778736  0.013617027  0.046878559            2 
   18000    1.2502824    -6.157871    3.3229209  0.015383893  0.045988728            4 
   19000    1.2349854   -6.1425982    3.8600959  0.016930245  0.045691351            3 
   20000    1.2401429   -6.1824123    4.3598851  0.018166187  0.045330623            2 
   21000    1.2619227   -6.1421961    4.8778334  0.019356481  0.044881502            1 
   22000    1.2540822   -6.1322688    5.5059711  0.020855951   0.04476841            2 
   23000    1.2767923   -6.1947097    6.0776554   0.02202049  0.045031081            1 
   24000    1.2286015   -6.1923634    6.5072824   0.02259473  0.044970814            4 
   25000    1.2373873   -6.2030415    6.9417396  0.023139132  0.044656623            1 
   26000    1.2114012     -6.20201     7.513805  0.024082708  0.044452921            1 
   27000     1.235887   -6.2236416    8.2077275  0.025332492  0.044522825            2 
   28000    1.2484394   -6.1583045    8.6529131  0.025752717  0.044612523            4 
   29000    1.2023465   -6.1806396    9.0626262  0.026042029  0.044533914            4 
   30000    1.1967807   -6.1680519    9.5414477  0.026504021  0.044276985            2 
   31000    1.2464314   -6.1908825    9.9979207   0.02687613  0.044014191            3 
   32000    1.2264192   -6.1790396     10.52089   0.02739815  0.043816251            4 
   33000     1.219291   -6.1848074    11.029824  0.027853091  0.043638914            1 
   34000    1.2107148   -6.1960411    11.655104  0.028566431  0.043555893            3 
   35000    1.2067393   -6.2112518    12.156232   0.02894341   0.04349909            4 
   36000    1.2168084   -6.2458009    12.583554  0.029128596  0.043425077            2 
   37000    1.2099091   -6.2394104    13.060753  0.029416111  0.043342248            2 
   38000    1.2238115   -6.1575605    13.473655  0.029547489  0.043210752            2 
   39000    1.1997604   -6.1883412    13.855263  0.029605263  0.043011598            2 
   40000    1.2405559   -6.1895818    14.336114  0.029866903  0.042815456            2 
   41000    1.2375268   -6.1965746    14.762086  0.030004239  0.042601449            1 
   42000    1.2048458   -6.2044125    15.150712  0.030060936  0.042364542            2 
   43000    1.2046729   -6.2348525    15.566379  0.030167402  0.042131831            3 
   44000    1.2086291   -6.2029951    16.027085  0.030354328  0.041913819            2 
   45000    1.1969233   -6.2271328    16.402786  0.030375529  0.041687916            3 
   46000    1.1692139    -6.235324    16.855802  0.030535873  0.041470812            1 
   47000    1.1982657   -6.2668491    17.383367  0.030821572  0.041292099            4 
   48000     1.187694   -6.2636712      17.8422  0.030976041  0.041148283            3 
   49000    1.2101343   -6.2572377    18.332355  0.031177474  0.041011048            5 
   50000    1.1799655   -6.2387439     18.83406  0.031390099  0.040905837            4 
   51000    1.1953247   -6.2570007    19.489634  0.031845807  0.040843599            3 
   52000    1.1428175   -6.2545385    20.001054   0.03205297  0.040800594            2 
   53000    1.1686511   -6.2371256     20.35617  0.032006556   0.04074849            4 
   54000    1.2056007   -6.2338159    20.794336  0.032090024  0.040683612            3 
   55000    1.1560431   -6.2928186    21.284587  0.032249374  0.040627888            5 
   56000    1.1749596   -6.2678757    21.866159  0.032538927  0.040582801            6 
   57000    1.1834804   -6.2660323    22.350124   0.03267562   0.04055006            5 
   58000    1.1906789   -6.2677464    22.845456  0.032823931  0.040531447            3 
   59000    1.1632488    -6.306477    23.345134  0.032973353  0.040510582            2 
   60000     1.187929   -6.3100493    23.726315  0.032953215  0.040493782            2 
   61000    1.1383146   -6.2899505    24.269146   0.03315457   0.04047176            4 
   62000    1.1587788   -6.2456367    24.754323   0.03327194   0.04045219            2 
   63000    1.1704886   -6.2457342     25.40312  0.033602011  0.040439666            1 
   64000    1.1798243    -6.282814    25.639731  0.033385067  0.040421081            8 
   65000    1.1717649   -6.2584581      25.9308  0.033244615  0.040380506            7 
   66000    1.1600174      -6.2994    26.466449  0.033417234  0.040332611            3 
   67000     1.165306    -6.290668     26.65942  0.033158482  0.040251955            2 
   68000    1.1686747    -6.284182    27.092607  0.033201724  0.040162469            5 
   69000    1.1563404   -6.3262825    27.489334  0.033199679  0.040080053            2 
   70000    1.1644273   -6.2852524    27.864347  0.033171841  0.039993787            2 
   71000      1.15501   -6.2724166    28.379637  0.033309433  0.039911499            5 
   72000    1.1527771   -6.3043939    28.861065   0.03340401  0.039828442            4 
   73000    1.1552412   -6.3617942    29.311777  0.033460932  0.039752168            2 
   74000    1.1645723   -6.3201428    29.718305  0.033466559  0.039677656            4 
   75000    1.1359206   -6.2911783    30.240485  0.033600539  0.039611307            2 
   76000    1.1486539   -6.3347336    30.751496  0.033718745  0.039560439            5 
   77000    1.1399983   -6.3888921    31.067671   0.03362302  0.039502579            4 
   78000    1.1285069   -6.3081522    31.403657  0.033550915  0.039435197            3 
   79000    1.1315593   -6.3405317    31.931212  0.033682713  0.039368595            5 
   80000    1.1496891   -6.3662524    32.368593  0.033717284  0.039308463            4 
   81000    1.1399307   -6.3354618    32.752301  0.033695782  0.039250383            4 
   82000    1.1308796   -6.3435815      33.1484  0.033687398  0.039198482            2 
   83000    1.1329471   -6.3739178    33.545215  0.033679934  0.039135021            2 
   84000    1.1360525   -6.3653537    33.918744  0.033649547  0.039065403            4 
   85000    1.1478619    -6.336465    34.362373  0.033688601   0.03899985            3 
   86000    1.1272721   -6.3487839     34.84676   0.03376624  0.038935717            2 
   87000    1.1253247   -6.3721077    35.186251  0.033703306  0.038869844            5 
   88000    1.1465761   -6.3511399    35.708515  0.033814882  0.038808435            5 
   89000    1.1253919   -6.3348145    36.011207  0.033718359  0.038745148            4 
   90000    1.1095606   -6.3661344    36.289296    0.0336012  0.038677256            5 
   91000    1.1368331   -6.3726503    36.710499  0.033617673  0.038601362            4 
   92000    1.1560409    -6.399689    37.126243  0.033628843  0.038529963            3 
   93000    1.1293268   -6.3830806    37.488633  0.033591965  0.038455793            5 
   94000    1.1117705   -6.4076075     38.15067  0.033821516  0.038384891            4 
   95000    1.1241338   -6.3771378    38.289167  0.033586989  0.038320005            2 
   96000    1.1165224   -6.3466859    38.818774  0.033696853  0.038253245            2 
   97000    1.1140271   -6.3691044    39.460316  0.033900615  0.038193571            6 
   98000    1.1041359   -6.3568194    39.688659  0.033748859  0.038140203            2 
   99000    1.1059687   -6.3866934    39.937508  0.033617431  0.038078624            4 
  100000    1.1105847   -6.4256376    40.394077  0.033661731  0.038016982            8 
  101000    1.1009602   -6.3606555     40.75846  0.033629092  0.037951165            3 
  102000    1.1062941    -6.437135    41.146278   0.03361624  0.037889358            5 
  103000    1.1001444   -6.4121816    41.483988  0.033563097  0.037818005            4 
  104000    1.1093482   -6.4223618    41.820391  0.033509928   0.03774998            5 
  105000    1.0938935   -6.3796799    42.305243  0.033575589   0.03768438            3 
  106000    1.1060992   -6.3730859    42.785395  0.033636317  0.037624884            3 
  107000    1.0908751   -6.3723333    43.083852  0.033554402  0.037562146            7 
  108000    1.1238198   -6.4351675    43.626114  0.033662125  0.037500039            2 
  109000    1.0831848   -6.3780678    44.020949   0.03365516  0.037444125            3 
  110000    1.0825287   -6.4123929    44.332716  0.033585391  0.037389678            3 
  111000    1.0817213   -6.4210252    44.878023  0.033692209   0.03733887            6 
  112000    1.0887384   -6.4284651    45.127389  0.033576926  0.037287258            3 
  113000    1.1024723   -6.4063729    45.538549     0.033583  0.037234112            3 
  114000    1.0771633   -6.4204246    45.973395  0.033606283  0.037177823            1 
  115000    1.0727287   -6.4575461    46.192156  0.033472577  0.037121233            5 
  116000     1.090108   -6.4278853       46.462  0.033377873  0.037060089            6 
  117000    1.0819467   -6.4240253     46.84883  0.033368112  0.036997501            2 
  118000    1.0828448    -6.423285    47.059275  0.033233951  0.036929246            3 
  119000    1.0992665   -6.4691088    47.259567  0.033094934  0.036857551            6 
  120000    1.0792617   -6.4446824    47.741849  0.033154062  0.036785876            7 
  121000     1.067429   -6.4749959    47.923296  0.033005025   0.03671423            3 
  122000    1.0886585   -6.4585976    48.339876  0.033019041   0.03663959            4 
  123000    1.0832841   -6.4433127    48.685838  0.032984985  0.036561463            3 
  124000     1.074327   -6.4358223    49.125015  0.033014123  0.036483829            7 
  125000    1.0546174    -6.481677     49.36814  0.032912093  0.036411291            6 
  126000    1.0657693   -6.4488953    49.600318  0.032804443  0.036337258            2 
  127000    1.0375478   -6.4844373    49.737498  0.032636153  0.036258069            3 
  128000    1.0626668   -6.4632596     50.05703  0.032589212  0.036175131            4 
  129000    1.0728692   -6.4641382    50.137311  0.032388444  0.036085076            1 
  130000    1.0464956   -6.4895286    50.445213  0.032336675  0.035990733            2 
  131000    1.0556772   -6.4639785    50.498422  0.032123678  0.035898562            5 
  132000    1.0573403   -6.5014995    50.813877  0.032079468  0.035804863            6 
  133000    1.0325464   -6.5044239    51.295071  0.032139769  0.035709127            3 
  134000    1.0598642   -6.4944123    51.513432  0.032035716  0.035612042            3 
  135000    1.0648147   -6.4751256    51.776318   0.03196069  0.035516496            3 
  136000    1.0666769   -6.4871129    52.031646  0.031882136  0.035419585            2 
  137000    1.0464405   -6.4985236    52.093001   0.03168674  0.035318195            4 
  138000    1.0480658   -6.4881918    52.518578  0.031714117  0.035219385            4 
  139000    1.0485529   -6.4809097    52.550193  0.031504912    0.0351175            2 
  140000    1.0488078   -6.5408169    52.956484  0.031521717  0.035013209            3 
  141000    1.0627828   -6.5235342    53.276765   0.03148745  0.034911515            4 
  142000    1.0393243   -6.5150721    53.762888   0.03155099  0.034814112            2 
  143000    1.0412499   -6.5178633    54.173904  0.031569874  0.034718388            7 
  144000    1.0431041   -6.5177949    54.328115  0.031439881  0.034622572            2 
  145000    1.0303179   -6.5209308    54.591321  0.031374323  0.034527932            3 
  146000    1.0328016   -6.5120035    54.839665  0.031301178  0.034432311            8 
  147000    1.0395263   -6.4956765    55.213116  0.031299952  0.034340831            3 
  148000    1.0557122   -6.4912489    55.715104  0.031371117  0.034250867            3 
  149000    1.0223804   -6.5066116    55.746511  0.031178138  0.034161215            3 
  150000    1.0159537   -6.5322206    56.136671   0.03118704   0.03407016            2 
  151000    1.0291317   -6.5568105    56.391938  0.031121379  0.033979185            6 
  152000     1.033069   -6.5390774    56.762354  0.031119712  0.033893756            5 
  153000    1.0198924   -6.5276796     57.28284  0.031199804  0.033809215            2 
  154000     1.025267   -6.5584988    57.342822  0.031029665  0.033725311            7 
  155000     1.029726   -6.5381578    57.441484  0.030882518  0.033639762            4 
  156000    1.0334647   -6.5916306    57.822856  0.030888278  0.033554385            3 
  157000   0.99065918    -6.554065    58.376139  0.030985212  0.033469206            5 
  158000   0.99865729   -6.5764891    58.417873  0.030811115   0.03338708            5 
  159000    1.0184696   -6.6007348     58.53203  0.030677164  0.033301989            4 
  160000    1.0191458   -6.5947063     59.01866  0.030738885   0.03321773            5 
  161000    1.0143663   -6.5745585    59.206949  0.030645419  0.033134633            6 
  162000    1.0146075   -6.5903894    59.450134  0.030581345  0.033051358            5 
  163000   0.98883893   -6.5541636    59.627535  0.030484425  0.032969973            4 
  164000    1.0025711   -6.5614439    59.909357  0.030441746  0.032886615            6 
  165000   0.99596703   -6.5893075    60.212635  0.030410422  0.032803989            4 
  166000    1.0041063   -6.6130841    60.374155  0.030308311  0.032723886            2 
  167000    1.0286477   -6.6303291    60.812636  0.030345626  0.032644668            8 
  168000   0.99548694   -6.6125068     60.83235  0.030174777  0.032563182           10 
  169000    1.0198397   -6.6333808    61.025032  0.030091239  0.032482782            6 
  170000   0.99101901   -6.6079716    61.456942  0.030125952  0.032402071            5 
  171000    1.0073478   -6.6103965     61.50411  0.029972763  0.032319338            3 
  172000    0.9981406   -6.5506788    61.785951  0.029935054  0.032236925            3 
  173000   0.99066817   -6.5841259    62.204545  0.029963654  0.032153873            4 
  174000   0.99735237   -6.6015669    62.467365  0.029917321  0.032073191            5 
  175000   0.99976897    -6.628865    62.607234  0.029812969  0.031992129            8 
  176000   0.99419148   -6.6206414    62.637851  0.029658073  0.031912644            6 
  177000   0.99205084   -6.6128815    63.049368   0.02968426  0.031830884            4 
  178000   0.98329652   -6.6151754    63.324867  0.029646473   0.03175012            4 
  179000   0.99235501   -6.6436221    63.597426   0.02960774  0.031670372            7 
  180000    1.0036925    -6.593932    63.979249  0.029620023  0.031592089            6 
  181000   0.96414934   -6.6266271    64.052284  0.029490002  0.031513689            4 
  182000   0.97604961   -6.6288173     64.36648  0.029471832  0.031435395            4 
  183000   0.97292469   -6.6181988     64.74248  0.029482003  0.031359524            4 
  184000    0.9650079   -6.6263466    65.024903  0.029449684  0.031284802            8 
  185000   0.94863933   -6.6214939    65.189483  0.029364632  0.031210372            4 
  186000   0.98675884   -6.6500046    65.292499  0.029252911  0.031136093            3 
  187000   0.97754679   -6.6587904    65.375309  0.029133382  0.031060349            4 
  188000   0.96103464    -6.642033     65.84415  0.029186237  0.030984787            6 
  189000   0.96470785   -6.6805798    66.100113   0.02914467  0.030911347            8 
  190000   0.94355385   -6.6764784    66.347448  0.029099758  0.030839683            6 
  191000    0.9502865   -6.6617595     66.70737  0.029104437  0.030767894            4 
  192000   0.96953716    -6.677447    66.954723   0.02906021  0.030697342            3 
  193000   0.96502802   -6.6732389    66.899645  0.028885857  0.030625539            4 
  194000   0.95084747    -6.668212    67.163861  0.028850456  0.030550512            5 
  195000   0.96330145   -6.6501915    67.333601  0.028775043  0.030475659            4 
  196000   0.96080654   -6.6404125    67.665732  0.028769444  0.030401349            3 
  197000   0.96377812   -6.6629036    67.565771  0.028581121  0.030327002            6 
  198000   0.94825948   -6.6580295    68.098439  0.028660959  0.030253766            5 
  199000   0.93063039   -6.6871425    68.020663  0.028484365  0.030180092            5 
  200000     0.972952   -6.6960262    68.292946  0.028455394  0.030105575            5 
  201000   0.94915834   -6.6963878    68.452691  0.028380054  0.030031255            5 
  202000   0.95273038    -6.655157    68.551205    0.0282802  0.029955865            5 
  203000   0.95130029   -6.6656827    68.966108   0.02831121  0.029881069            6 
  204000   0.96113892   -6.6779186    68.926496  0.028156248  0.029805394            4 
  205000   0.93774243   -6.7192791    68.958257  0.028031812  0.029729241            4 
  206000   0.94001505   -6.7230475    69.016509    0.0279193  0.029652016            4 
  207000   0.92843786    -6.724603    69.467992   0.02796618  0.029575698            8 
  208000   0.95488308   -6.7306696    69.783497  0.027958132  0.029499614            4 
  209000   0.93675467   -6.7087684    69.846232  0.027849375  0.029424415            4 
  210000   0.94631503   -6.7215727    70.384709   0.02793044  0.029348563           14 
  211000   0.92120881   -6.7248422    70.284128  0.027758344   0.02927415            4 
  212000    0.9455584    -6.708122    70.640023  0.027767305  0.029200181            3 
  213000   0.92750259   -6.7566714    70.774191  0.027689433  0.029126944            7 
  214000   0.90312624   -6.7488684    71.057258  0.027670272  0.029054976            7 
  215000   0.93532349   -6.7723399    70.913918  0.027486015  0.028981994            6 
  216000   0.91347513   -6.7469681     71.31921  0.027515127  0.028909093            4 
  217000   0.93284554   -6.7240237    71.332837  0.027393563   0.02883638            7 
  218000   0.90888609    -6.749534    71.484736  0.027325969  0.028761772            6 
  219000   0.90072918   -6.7194999    71.514583   0.02721255  0.028686852            5 
  220000   0.91659578   -6.7518185     71.95315  0.027254981  0.028613465            8 
  221000    0.9135271   -6.7295718    71.970946  0.027138366  0.028540309            4 
  222000   0.92804878   -6.7539266    72.353008  0.027159538   0.02846747            2 
  223000   0.92031982   -6.7964986    72.316236  0.027024004  0.028394572            3 
  224000    0.8995749   -6.7652883    72.585329  0.027003471  0.028322162            9 
  225000   0.94435681   -6.7340897    72.782535  0.026956494  0.028250526            6 
  226000   0.91148392   -6.7904018    73.018353  0.026924171  0.028179267            5 
  227000   0.90362142   -6.8040852    73.076502   0.02682691  0.028108543            8 
  228000   0.91101191   -6.7746616    73.311269  0.026795054  0.028037732            9 
  229000   0.88550191   -6.7728258     73.68323  0.026813403  0.027966902           14 
  230000   0.91368557   -6.8136708     73.70584  0.026705015  0.027896894            6 
  231000   0.88837857   -6.8170825    73.963889    0.0266825  0.027827574           13 
  232000   0.89168647   -6.7673744    73.919392  0.026551506  0.027759075            4 
  233000   0.89205392   -6.7809816    74.124142   0.02651078  0.027689027            8 
  234000   0.89826614   -6.8013703    74.557994  0.026551992  0.027618674           11 
  235000   0.89306497   -6.7913558    74.305242  0.026349376  0.027548334            8 
  236000   0.90397096   -6.8141775    74.183529  0.026194749  0.027476637            8 
  237000   0.89842373   -6.7873143    74.622096   0.02623843  0.027404693            5 
  238000    0.8931869    -6.830137    74.621615  0.026128016  0.027332567            5 
  239000   0.89768167   -6.8284374    74.850123  0.026098369  0.027259648            3 
  240000   0.87807344   -6.8184687    74.882734  0.026000949  0.027187033           10 
  241000   0.87308399   -6.8241331    75.223632  0.026010938  0.027115855           12 
  242000   0.85232719   -6.8462822     75.40005  0.025964205  0.027045154            7 
  243000   0.87199145   -6.8222364    75.321958  0.025830575  0.026973618            7 
  244000   0.88932773   -6.8062586    75.426857  0.025760539  0.026902235            6 
  245000   0.88008509   -6.8020181    75.647439  0.025730421  0.026830872            4 
  246000   0.86503072   -6.8160011    75.480987   0.02556944  0.026758548            9 
  247000   0.86952262   -6.8573878    75.499842  0.025472281  0.026684309            7 
  248000   0.88630417   -6.8623681    75.597181  0.025402279  0.026609899            7 
  249000   0.86395925   -6.8510616    75.611285  0.025304981  0.026534963            5 
  250000   0.85245784   -6.8371549     75.81802  0.025272673  0.026460296            6 
  251000    0.8805745   -6.8369033    76.191459  0.025295969   0.02638687            6 
  252000   0.85870223   -6.8597426    76.237823   0.02521092   0.02631309           12 
  253000   0.86092503   -6.8462236    76.677422  0.025256068  0.026240923            6 
  254000    0.8596353   -6.8846665    76.589658  0.025127841  0.026169153            8 
  255000    0.8628546   -6.8335742    76.649617  0.025048894  0.026096279            5 
  256000   0.85964903   -6.8759487    76.715423  0.024972468  0.026023893            7 
  257000   0.86253585   -6.8271378    76.663059   0.02485832  0.025951669            9 
  258000   0.88491362   -6.8702906    76.943042  0.024852404  0.025879109            8 
  259000   0.84111256   -6.8715274    76.988117  0.024770951  0.025806544           14 
  260000   0.85371728   -6.8730008    77.094979  0.024709929  0.025733809            6 
  261000   0.86561283   -6.8891959    77.211111  0.024652334  0.025661206           13 
  262000   0.85510223   -6.8881455     77.28869  0.024582917  0.025588797            8 
  263000   0.84217614   -6.8943089    77.293034  0.024490822  0.025516633           18 
  264000   0.85071606   -6.8750936    77.396229  0.024430628   0.02544398           18 
  265000   0.83581774   -6.8884861    77.521875  0.024377948   0.02537151           14 
  266000   0.83222989   -6.8712029    77.429711  0.024257428  0.025300067            4 
  267000   0.82792627   -6.9093668    77.536569  0.024199928   0.02522763            5 
  268000    0.8614999   -6.9080998      77.6298  0.024138619   0.02515469            5 
  269000   0.82292547     -6.89076    78.010645  0.024166866  0.025081904            4 
  270000   0.83700595   -6.8911637    78.236869  0.024147182  0.025010005            5 
  271000   0.81329163   -6.9243944    78.229319  0.024055756  0.024938668            5 
  272000    0.8251142    -6.950248    78.055432  0.023914042  0.024866338            7 
  273000   0.81693391   -6.9168274     78.23369  0.023880858  0.024793708            5 
  274000   0.82773856   -6.9226537     78.45969  0.023862436  0.024722221            8 
  275000    0.8017682   -6.9390814    78.460502   0.02377591  0.024650872            3 
  276000   0.81842234   -6.9221193    78.508566  0.023704277  0.024579436            8 
  277000   0.82910199    -6.936792    78.707567   0.02367857  0.024508164            8 
  278000   0.81451815   -6.9349332    79.014181  0.023685306  0.024437963            9 
  279000   0.83676107   -6.9441618    79.136733  0.023637017  0.024367757            6 
  280000   0.81971885   -6.9602922    79.207798  0.023573749  0.024298735            3 
  281000   0.80463947   -6.9424387    79.344302  0.023530339  0.024230458            6 
  282000   0.80079912    -6.944898    79.488918  0.023489633  0.024161891            9 
  283000   0.81990018   -6.9214091    79.593704  0.023437486  0.024093655            6 
  284000   0.81308916   -6.9739691    79.476133  0.023320462  0.024025625            9 
  285000   0.82104391   -6.9824887    79.546171  0.023259114  0.023957119            8 
  286000    0.8045618    -6.952046    79.932202  0.023290269  0.023889304           10 
  287000   0.80508173   -6.9675322    80.150186  0.023272412   0.02382248           11 
  288000   0.81884886   -6.9720395    80.013395  0.023152024  0.023756264            7 
  289000   0.81786956   -6.9770376    80.168067  0.023116513  0.023689713            9 
  290000    0.7876859    -6.975415    80.397727  0.023102795  0.023623955            7 
  291000   0.80602583   -6.9932823     80.56919  0.023072506  0.023558948            6 
  292000   0.80935559   -6.9871997    80.442113  0.022957224  0.023494521            5 
  293000   0.78488669   -7.0043316    80.665553  0.022942421   0.02342986            9 
  294000   0.79329021   -7.0117651     80.67503  0.022867072  0.023365273           10 
  295000   0.80307549   -7.0122013    80.860102  0.022841837  0.023300515            6 
  296000   0.79192635   -7.0010157    81.192715  0.022858309  0.023237171            6 
  297000   0.81116226   -7.0169673    81.019007  0.022732606  0.023173819            4 
  298000   0.79688939   -7.0376973    81.387017  0.022759233   0.02311061            8 
  299000   0.79608402   -6.9879428    81.464119  0.022704604  0.023048222            7 
  300000   0.79140122   -7.0083531    81.376424  0.022604562  0.022985885            9 
  301000   0.78471665   -7.0070692    81.762642   0.02263639  0.022924066           10 
  302000   0.79560098   -6.9856142    81.675379  0.022537356  0.022862428           11 
  303000   0.76803301    -7.004241    81.764627  0.022487521  0.022801116            8 
  304000   0.76701735   -6.9966991    81.806612  0.022425058  0.022739187           11 
  305000   0.77240078   -6.9774464    81.735263  0.022332039  0.022676715           16 
  306000   0.79208264   -7.0026493    81.912655  0.022307368  0.022614621           12 
  307000   0.77438134    -7.048289    81.916401  0.022235722  0.022552509            9 
  308000   0.77538575   -7.0369433    81.910448  0.022161918  0.022490316           14 
  309000   0.77698143   -7.0489486    81.974311  0.022107419  0.022427717           10 
  310000    0.7734691   -7.0410132    82.031928  0.022051593  0.022365487            5 
  311000   0.77693343   -7.0282234    82.375422  0.022072728  0.022303774           10 
  312000   0.76302595   -7.0479177    82.315668  0.021986023  0.022242546           10 
  313000   0.75552703   -7.0424435    82.245035  0.021896974  0.022181522           11 
  314000   0.74074883   -7.0491062    82.446317  0.021880657  0.022120613            8 
  315000   0.76025643   -7.0494186    82.658355   0.02186729  0.022060103            8 
  316000   0.77320961   -7.0590779    82.892188  0.021859754  0.021999404           14 
  317000   0.77114104   -7.0745226    82.760586    0.0217562   0.02193927           14 
  318000   0.75862451     -7.07339    82.948512  0.021737031  0.021879475            7 
  319000   0.75997742   -7.0721402    82.856668  0.021644897  0.021819977           12 
  320000   0.75032473   -7.0768858     82.84792  0.021574979  0.021760435            7 
  321000   0.74138433   -7.0817018    83.020301  0.021552518  0.021701037           17 
  322000   0.75813639   -7.0614998    83.159172  0.021521525  0.021642128           15 
  323000   0.73208107   -7.0792013    83.107828  0.021441648  0.021582886            7 
  324000   0.74269147   -7.0802275    83.051184  0.021360901  0.021523476            7 
  325000   0.75565907   -7.0705251    83.319235  0.021363906  0.021464215           17 
  326000   0.74811937   -7.1012856    83.259444  0.021283089  0.021404522           15 
  327000   0.75560183   -7.1323115    83.248431  0.021215196  0.021345413           12 
  328000   0.73011932   -7.0910208    83.400667  0.021189194  0.021285991            9 
  329000   0.74427325   -7.1165223    83.223501  0.021079914  0.021226611           10 
  330000   0.73699772   -7.1163964    83.237879  0.021019666  0.021167328           12 
  331000   0.72767636   -7.1260115     83.40291  0.020997712  0.021107876           13 
  332000    0.7471619    -7.143071    83.169229  0.020875811  0.021048605           17 
  333000   0.74545909   -7.1459389    83.352244   0.02085892  0.020989116           24 
  334000   0.73723567   -7.1017423    83.672093  0.020876271  0.020930053           12 
  335000   0.72482708   -7.1584621    83.528352  0.020778197  0.020871183            9 
  336000   0.73341499   -7.1255276    83.596406  0.020733236  0.020812157            6 
  337000   0.73775661   -7.1326612    83.851226  0.020734725  0.020753795            7 
  338000   0.73966908   -7.1409163    83.482244  0.020582407  0.020695259           15 
  339000   0.73088043   -7.1545481     83.81978  0.020604666  0.020636798            4 
  340000   0.71075639   -7.1470501    83.845751  0.020550429  0.020578786           19 
  341000    0.7358677   -7.1597771    83.955061  0.020516877  0.020521032            8 
  342000   0.71774853   -7.1499501    84.059579  0.020482353  0.020463693           16 
  343000    0.7215799   -7.1601845    83.917831    0.0203882  0.020405949           15 
  344000   0.71494363   -7.1639639    84.050768  0.020361136  0.020348175            8 
  345000   0.70929876    -7.160741    83.978508  0.020284664  0.020290691           29 
  346000   0.71801537   -7.1520625    83.998103  0.020230757  0.020232863           19 
  347000   0.71611119   -7.1505747    83.937644  0.020157936  0.020175272           19 
  348000   0.70893559   -7.1759356    84.154659  0.020151978  0.020117578           12 
  349000   0.72624115   -7.1604593    83.904983  0.020034619  0.020059791           19 
  350000   0.71764426    -7.177412    84.029185  0.020006949  0.020002041           19 
  351000   0.69738928   -7.1987014     84.10299  0.019967472  0.019944059           77 
  352000   0.73417136   -7.1725442    84.053123   0.01989894  0.019886425           42 
  353000   0.69791968    -7.181512    84.121019  0.019858597  0.019828977           44 
  354000   0.70792886   -7.1709779    84.055923  0.019787176    0.0197711           20 
  355000   0.68508578   -7.1862301    83.914137  0.019698154   0.01971317           43 
  356000   0.70382082   -7.2000312    84.120755  0.019691188  0.019655212           18 
  357000   0.69261603   -7.2055651    84.086218  0.019627969  0.019597464           36 
  358000   0.69187994   -7.2098352    84.207671  0.019601413  0.019539944           43 
  359000   0.68554835   -7.1872903    84.271308  0.019561585  0.019482718           17 
  360000   0.69325262   -7.2226973    84.083185    0.0194637   0.01942559           28 
  361000   0.69378377   -7.2237663    84.064739  0.019405526  0.019368451           75 
  362000   0.68089668   -7.2197792    84.210235  0.019385413  0.019311557           81 
  363000   0.70086297   -7.2081485    84.103241  0.019307447  0.019254743           89 
  364000   0.69823547   -7.2657607    83.932356  0.019215283  0.019197575          137 
  365000    0.6869417   -7.2443766    84.021534  0.019182999  0.019140389           92 
  366000   0.68298551   -7.2606393    84.087784   0.01914567  0.019083083          104 
  367000   0.68933883   -7.2449756     84.10412  0.019097211  0.019025921           81 
  368000   0.68187579   -7.2234515    84.187405  0.019064177  0.018969154           79 
  369000   0.67677202   -7.2507975    84.126712  0.018998806  0.018912682          117 
  370000   0.68518578   -7.2520749    84.369124  0.019002055  0.018856295           85 
  371000   0.66859589   -7.2522091    84.342431  0.018944841  0.018800129           87 
  372000   0.68153239   -7.2627921     84.50588  0.018930529  0.018744035           78 
  373000   0.66187035   -7.2519035    84.425834  0.018861893  0.018688195          118 
  374000   0.67702402   -7.2755611    84.291845  0.018781605  0.018632346           90 
  375000   0.66992603   -7.2455232    84.450341  0.018766742  0.018576623           70 
  376000   0.68362491   -7.2801405    84.355878  0.018695895  0.018521066           57 
  377000   0.66187084   -7.2800132    84.349835  0.018644968   0.01846562           47 
  378000   0.65516258   -7.2721101    84.496547  0.018627986  0.018410382           43 
  379000   0.65583543   -7.2824654    84.417385   0.01856143  0.018354941           49 
  380000   0.66188529   -7.2808159    84.551263  0.018541944  0.018299583           26 
  381000   0.66144542   -7.3006131    84.458369  0.018472959   0.01824436           32 
  382000   0.65306078   -7.3143863    84.380365  0.018407584  0.018189321           18 
  383000   0.65407887   -7.3005734    84.361715  0.018355464  0.018134331           20 
  384000   0.65079881   -7.3133535    84.589436  0.018357082    0.0180793           21 
  385000   0.64624406   -7.2948487    84.357215  0.018259137  0.018024742           17 
  386000   0.66154068    -7.286636    84.569679  0.018257703  0.017970401           35 
  387000   0.64567378   -7.2985691    84.390158  0.018171869   0.01791599           23 
  388000   0.65474457   -7.3136018    84.487816  0.018146009  0.017861787           28 
  389000   0.63963225   -7.3109602    84.401632  0.018080898  0.017807806           54 
  390000    0.6384748   -7.3376161    84.515801  0.018058932    0.0177539           26 
  391000   0.65827916   -7.2995373    84.735213  0.018059508  0.017700355           14 
  392000   0.63979048   -7.3100443    84.560524  0.017976302  0.017646896           24 
  393000   0.62908173   -7.3038009    84.399497  0.017896416  0.017593452           18 
  394000   0.64876057   -7.2908064    84.402939  0.017851721  0.017540186           21 
  395000   0.62929974    -7.326986    84.548718  0.017837282  0.017486878           22 
  396000    0.6415484   -7.3303274    84.565057  0.017795677  0.017434099           24 
  397000   0.63448743   -7.3500306     84.80957  0.017802177  0.017381503           19 
  398000    0.6231755   -7.3656175    84.587811  0.017711016  0.017329098           61 
  399000   0.61480941   -7.3375084    84.610913  0.017671452  0.017276834           61 
  400000   0.62904984   -7.3549687    84.600912   0.01762519  0.017224642           21 
  401000   0.63657821    -7.356404    84.713261  0.017604584  0.017172701           48 
  402000    0.6240947   -7.3697314    84.565936  0.017530252  0.017120713           36 
  403000   0.63018717   -7.3656631    84.543967   0.01748221   0.01706869           50 
  404000   0.61598148   -7.3597053    84.563439  0.017442954  0.017016653           35 
  405000   0.62869173   -7.3652659       84.722   0.01743251  0.016964733           33 
  406000   0.60901977   -7.3702289    84.521175  0.017348353  0.016912958           24 
  407000   0.61940458   -7.3765111    84.512072  0.017303864  0.016861223           41 
  408000   0.61616461   -7.3725234    84.524274  0.017263945  0.016809577           26 
  409000   0.62447713   -7.3863589    84.509138  0.017218651  0.016758067           30 
  410000   0.61125143   -7.3817378    84.470742   0.01716885   0.01670666           34 
  411000   0.61667633   -7.4097242    84.629428  0.017159251  0.016655397           32 
  412000   0.61145182   -7.4026895    84.598242  0.017111295  0.016604337           21 
  413000   0.60222611   -7.3874618    84.520528  0.017054182  0.016553364           19 
  414000   0.60452642   -7.4013713    84.664494  0.017041967  0.016502659           30 
  415000   0.59580223   -7.3931377    84.590483  0.016986041  0.016452029           34 
  416000   0.59734712   -7.3944629    84.514917  0.016930071  0.016401584           16 
  417000    0.5980547   -7.4171614    84.573044  0.016901088  0.016351119           34 
  418000   0.61924518   -7.4156406    84.418091  0.016829763  0.016300828           50 
  419000   0.61906666   -7.4127316    84.449203  0.016795784  0.016250718           24 
  420000   0.60164404   -7.4216801    84.389534  0.016743955  0.016200697           62 
  421000   0.59740243   -7.4043563    84.373689  0.016701047  0.016150831           47 
  422000   0.58170939   -7.4177098    84.418844  0.016670388  0.016100913           27 
  423000   0.60082508   -7.4002453    84.525265  0.016651943   0.01605137           33 
  424000   0.59130155     -7.40191    84.363314   0.01658084  0.016001952           45 
  425000   0.58718406   -7.4429613     84.38864  0.016546792  0.015952539           73 
  426000   0.58222351   -7.4346839    84.554158  0.016540328  0.015903299           38 
  427000   0.58159179   -7.4380268    84.379057  0.016467419  0.015854212           40 
  428000   0.58583308   -7.4335556    84.414113   0.01643577   0.01580532           67 
  429000   0.59006683   -7.4367458    84.353501  0.016385684  0.015756654           83 
  430000   0.58238683    -7.445828    84.357312  0.016348316  0.015708064           60 
  431000   0.57718315   -7.4658508    84.355713  0.016310076  0.015659644           45 
  432000   0.58540458   -7.4717847    84.493338  0.016298869  0.015611234           63 
  433000   0.56950511   -7.4698236    84.357461  0.016235077   0.01556298           80 
  434000   0.57993165   -7.4591884    84.502519  0.016225522  0.015514805           54 
  435000    0.5738014    -7.472674    84.327102  0.016154617  0.015466749           33 
  436000   0.56084758   -7.4605541    84.457021  0.016142397  0.015418939           59 
  437000    0.5679372   -7.4709048    84.271116  0.016070007  0.015371213           37 
  438000   0.57105386   -7.4895817    84.207946  0.016021299  0.015323603           71 
  439000   0.56568073   -7.4687212    84.427956  0.016026567  0.015276101           48 
  440000   0.57577134   -7.4732873    84.416199  0.015987917  0.015228882           43 
  441000   0.55358572   -7.4722986    84.311577  0.015931893  0.015181795           45 
  442000   0.56075603   -7.4657696    84.356844  0.015904382  0.015134889           56 
  443000   0.55374164   -7.4724399    84.311135  0.015859882  0.015088118           53 
  444000    0.5645257   -7.4723055    84.296093  0.015821339  0.015041468           39 
  445000   0.56286292    -7.498825    84.275578  0.015781943  0.014994926           28 
  446000   0.55111354   -7.4981922     84.37139   0.01576446  0.014948476           69 
  447000   0.56052548    -7.493161    84.230222  0.015702875  0.014902304           48 
  448000   0.55197723   -7.5083577    84.263524  0.015674019  0.014856275           47 
  449000   0.54336126   -7.4874641     84.20521  0.015628287  0.014810362           74 
  450000   0.55027214     -7.49954    84.247088  0.015601313   0.01476463           51 
  451000   0.54793202   -7.5037633     84.31246  0.015578799  0.014719117           50 
  452000   0.54028955   -7.4984712    84.325657  0.015546766   0.01467375          111 
  453000   0.54773567    -7.510376    84.383426  0.015523073  0.014628558          119 
  454000   0.54393834   -7.5134848    84.307709  0.015474983  0.014583545          112 
  455000   0.54948267    -7.511444    84.294409  0.015438536  0.014538572          132 
  456000   0.53519421   -7.5133339    84.178096  0.015383424   0.01449384           66 
  457000   0.53360764    -7.519756    84.274088  0.015367266  0.014449166           66 
  458000   0.54250008   -7.5332879    84.349918   0.01534751  0.014404704           73 
  459000   0.54365541   -7.5285866    84.326933  0.015309901  0.014360296          247 
  460000   0.52727886   -7.5193621    84.226169  0.015258364   0.01431611          108 
  461000   0.51594854   -7.5409292    84.286872  0.015236239   0.01427192          132 
  462000    0.5362733   -7.5395711    84.242475  0.015195252  0.014227892          208 
  463000   0.53282386   -7.5496813    84.211767  0.015156905  0.014184093          119 
  464000     0.522906   -7.5373645      84.1488  0.015112931  0.014140408          288 
  465000   0.52708833   -7.5496853    84.128683  0.015076825  0.014096933           94 
  466000   0.53313411    -7.538831    84.143707  0.015047158  0.014053534          142 
  467000   0.52053039   -7.5667154    84.097106  0.015006621  0.014010251           58 
  468000   0.52717339   -7.5432519     84.10044   0.01497515  0.013967094           92 
  469000   0.51985594   -7.5607816    84.117479  0.014946247  0.013924008           49 
  470000   0.52069401   -7.5431168    84.030598  0.014899042  0.013881093           58 
  471000   0.51333092   -7.5626859    84.039502  0.014868985  0.013838261           80 
  472000   0.52150542   -7.5542034    84.090091  0.014846414  0.013795607           78 
  473000   0.51036622   -7.5662449    83.951474  0.014790605  0.013753095           83 
  474000   0.50576508   -7.5738402    84.032375  0.014773624  0.013710804           75 
  475000    0.5049609   -7.5737966    84.055864  0.014746643  0.013668565          112 
  476000   0.50754407   -7.5753271    84.071285  0.014718362  0.013626561           79 
  477000   0.50799541   -7.5926678    84.241498  0.014717243  0.013584655           86 
  478000   0.51053717   -7.5801326    84.127576  0.014666593  0.013543012          118 
  479000   0.49989348   -7.5604208     84.07533  0.014626884  0.013501481           71 
  480000    0.5075079    -7.572643    84.099577  0.014600621  0.013459974           85 
  481000   0.48261498   -7.5843073    83.985702  0.014550537  0.013418665           91 
  482000   0.49378728   -7.5731149    84.131083  0.014545485  0.013377534          108 
  483000   0.49616342   -7.6002661    83.970747  0.014487707  0.013336442          128 
  484000   0.49655905   -7.5800108    83.962146  0.014456292  0.013295495           91 
  485000   0.49940297   -7.5872085    83.880383  0.014412437  0.013254688           68 
  486000   0.48430334   -7.6146081    83.961654  0.014396717  0.013213951          127 
  487000   0.48253844   -7.6020852    83.947369  0.014364711  0.013173381          105 
  488000   0.47757187   -7.5868541     83.88255  0.014324206  0.013132938          165 
  489000   0.47816392   -7.6005809    83.959747  0.014308069  0.013092655           83 
  490000   0.48339814   -7.6120087    83.818978  0.014254928  0.013052481           87 
  491000   0.49275906   -7.6212639    83.799351  0.014222565  0.013012474          107 
  492000   0.48099829   -7.6011812    83.752969  0.014185801  0.012972627           86 
  493000    0.4782914   -7.6053386    83.909973  0.014183565  0.012932923           65 
  494000   0.47670624   -7.6178418    83.800659  0.014136413  0.012893356           78 
  495000   0.47621204   -7.6176076    83.806643  0.014108862  0.012853827           51 
  496000    0.4822096   -7.6154121    83.767114  0.014073776  0.012814477           56 
  497000   0.47232667   -7.6178997     83.96535  0.014078697  0.012775295           78 
  498000   0.47447279   -7.6053862    83.834193  0.014028479  0.012736226           59 
  499000   0.47200818   -7.6439523    83.846037  0.014002344  0.012697339          133 
  500000   0.46199238   -7.6299486    83.722162  0.013953694  0.012658567          108 
  501000   0.47348445   -7.6341704    83.826931  0.013943269    0.0126199           79 
  502000   0.46807213   -7.6458612    83.676104  0.013890455  0.012581386           83 
  503000   0.46443228   -7.6346285    83.824393  0.013887408  0.012543014           49 
  504000    0.4638538   -7.6386747    83.687674  0.013837248  0.012504789          103 
  505000   0.46695146   -7.6418719    83.796005  0.013827724  0.012466676           77 
  506000   0.45813006    -7.647867    83.658549  0.013777758  0.012428699          166 
  507000   0.46180716   -7.6607151    83.696735   0.01375686  0.012390827           99 
  508000   0.44861785   -7.6521099    83.808899  0.013748179  0.012353114          125 
  509000   0.46059331   -7.6611739    83.704529  0.013704081  0.012315549           75 
  510000   0.45447673   -7.6615966    83.738099  0.013682696  0.012278166           75 
  511000   0.44242146   -7.6574853    83.634492  0.013639024   0.01224089           57 
  512000   0.44693932   -7.6521489    83.648994  0.013614745  0.012203804           63 
Loop time of 1083.61 on 48 procs for 500000 steps with 4000 atoms

Performance: 79733.754 tau/day, 461.422 timesteps/s
99.4% CPU use with 48 MPI tasks x no OpenMP threads

MPI task timing breakdown:
Section |  min time  |  avg time  |  max time  |%varavg| %total
---------------------------------------------------------------
Pair    | 67.33      | 71.474     | 78.719     |  31.9 |  6.60
Neigh   | 6.6078     | 6.8298     | 7.1625     |   4.3 |  0.63
Comm    | 56.811     | 65.221     | 69.439     |  36.7 |  6.02
Output  | 0.78519    | 0.78569    | 0.79491    |   0.2 |  0.07
Modify  | 921.68     | 926.65     | 931.91     |   8.7 | 85.52
Other   |            | 12.64      |            |       |  1.17

Nlocal:        83.3333 ave          91 max          74 min
Histogram: 3 1 2 3 9 10 6 8 4 2
Nghost:        1792.60 ave        1814 max        1772 min
Histogram: 3 2 4 10 5 7 7 6 2 2
Neighs:        10974.8 ave       12009 max        9752 min
Histogram: 3 1 4 4 9 3 10 7 4 3
FullNghs:      21950.2 ave       24069 max       19305 min
Histogram: 3 1 1 5 9 7 8 8 4 2

Total # of neighbors = 1053611
Ave neighs/atom = 263.40275
Neighbor list builds = 26991
Dangerous builds = 0

#clear
#
#next RN
#
#jump SELF
Total wall time: 0:18:06
