
units lj                  # Use reduced LJ style units
atom_style atomic         # Uncharged point particles
atom_modify map hash      # Needed for indexing of clusters etc
                          # Used to be able to find where atoms are in relation to each other.

lattice fcc 1.0 spacing 1 1 1
Lattice spacing in x,y,z = 1.5874011 1.5874011 1.5874011
region box block 0 10 0 10 0 10 units lattice
create_box 2 box
Created orthogonal box = (0.0000000 0.0000000 0.0000000) to (15.874011 15.874011 15.874011)
  3 by 4 by 4 MPI processor grid
create_atoms 1 box
Created 4000 atoms
  using lattice units in orthogonal box = (0.0000000 0.0000000 0.0000000) to (15.874011 15.874011 15.874011)
  create_atoms CPU = 0.027 seconds
set type 1 type/fraction 2 0.95 78393
Setting atom values ...
  3802 settings made for type/fraction
mass 1 1.0
mass 2 1.0
pair_style lj/cut  3.5
pair_modify tail  yes
pair_coeff 1  1  1.0  1.0   # Intearaction between 1 and 1 set with epsilon = 1 and sigma = 1
pair_coeff 1  2  1.5  0.8
pair_coeff 2  2  0.5  0.88

write_data data.0
System init for write_data ...
Neighbor list info ...
  update every 1 steps, delay 10 steps, check yes
  max neighbors/atom: 2000, page size: 100000
  master list distance cutoff = 3.8
  ghost atom cutoff = 3.8
  binsize = 1.9, bins = 9 9 9
  1 neighbor lists, perpetual/occasional/extra = 1 0 0
  (1) pair lj/cut, perpetual
      attributes: half, newton on
      pair build: half/bin/atomonly/newton
      stencil: half/bin/3d
      bin: standard
WARNING: Not all mixed pair coeffs generated from mixing. Use write_data with 'pair ij' option to store all pair coeffs. (../write_data.cpp:312)


#############################
#   M E L T   S Y S T E M   #
#############################

velocity all create 2.4 6229865 mom yes dist gaussian # Assign velocities
                                                    # Temperature 2.4, random number seed, zero linear momentum
                                                                                # Gaussian distribution

timestep 0.002   # simulation timestep
thermo 1000       # output thermodynamic data every 1000 steps bf 100

# Define a fix  in this case with index 1 applied to all
# particles in the simulation. This fix is for simulations
# in the anisotropic NPT ensemble. Note that we use the MTK
# correction.
fix 1 all npt temp 2.4 2.4 0.1 iso 5.68 5.68 0.5 mtk yes tchain 5 pchain 5 # Use NPT ensemble
                                                                         # Set temperature and pressure and damping
                                                                         # Numbers of thermostats in chain and in barostat
run 10000          # run for 10000 steps
Per MPI rank memory allocation (min/avg/max) = 3.642 | 3.644 | 3.648 Mbytes
Step Temp E_pair E_mol TotEng Press Volume 
       0          2.4   -2.9371918            0   0.66190816   -2.1469233         4000 
    1000    2.3742328   -1.8768108            0    1.6836481    5.5011938    4092.5768 
    2000    2.4045007   -1.7967079            0    1.8091414    5.7378508    4150.5641 
    3000    2.3507666   -1.8396694            0    1.6855989    5.4294577    4153.1272 
    4000    2.4274304   -1.8170342            0     1.823201    5.6424781    4147.5804 
    5000    2.4036471   -1.7752988            0    1.8292704    5.7699215    4147.8275 
    6000    2.4091207   -1.8072452            0    1.8055325     5.538712    4167.9293 
    7000    2.4361489   -1.7858037            0    1.8675061    5.8069474    4144.5717 
    8000    2.4287367   -1.8153137            0    1.8268806    5.8322815    4110.5462 
    9000    2.3586939    -1.838156            0    1.6990004    5.5141468    4139.7771 
   10000    2.4326269   -1.8031885            0    1.8448396    5.6269654    4150.4879 
Loop time of 2.40205 on 48 procs for 10000 steps with 4000 atoms

Performance: 719386.580 tau/day, 4163.117 timesteps/s
99.6% CPU use with 48 MPI tasks x no OpenMP threads

MPI task timing breakdown:
Section |  min time  |  avg time  |  max time  |%varavg| %total
---------------------------------------------------------------
Pair    | 1.0599     | 1.1139     | 1.1848     |   2.4 | 46.37
Neigh   | 0.20517    | 0.21201    | 0.22154    |   0.8 |  8.83
Comm    | 0.74295    | 0.82271    | 0.89088    |   3.4 | 34.25
Output  | 0.00023998 | 0.00024364 | 0.00030387 |   0.0 |  0.01
Modify  | 0.2193     | 0.23833    | 0.26697    |   2.1 |  9.92
Other   |            | 0.0148     |            |       |  0.62

Nlocal:        83.3333 ave          92 max          76 min
Histogram: 3 4 6 9 3 6 10 2 4 1
Nghost:        1600.29 ave        1631 max        1567 min
Histogram: 3 1 3 7 7 13 2 7 1 4
Neighs:        9187.98 ave       10428 max        7853 min
Histogram: 1 1 7 8 7 6 6 6 4 2

Total # of neighbors = 441023
Ave neighs/atom = 110.25575
Neighbor list builds = 910
Dangerous builds = 242

# Equilibrate just above the melting temperature to avoid step fn in T

fix 1 all npt temp 1.25 1.25 0.1 iso 5.68 5.68 0.5 mtk yes tchain 5 pchain 5
run 2000
Per MPI rank memory allocation (min/avg/max) = 3.643 | 3.645 | 3.649 Mbytes
Step Temp E_pair E_mol TotEng Press Volume 
   10000    2.4326269   -1.8031885            0    1.8448396    5.6269654    4150.4879 
   11000    1.2282289   -2.7675729            0  -0.92569004    5.6177732    3214.0898 
   12000    1.2623273   -2.7616421            0  -0.86862445    5.4964599    3230.3917 
Loop time of 0.583611 on 48 procs for 2000 steps with 4000 atoms

Performance: 592175.514 tau/day, 3426.942 timesteps/s
99.6% CPU use with 48 MPI tasks x no OpenMP threads

MPI task timing breakdown:
Section |  min time  |  avg time  |  max time  |%varavg| %total
---------------------------------------------------------------
Pair    | 0.2604     | 0.2805     | 0.30138    |   1.6 | 48.06
Neigh   | 0.03884    | 0.040319   | 0.042942   |   0.4 |  6.91
Comm    | 0.18884    | 0.21296    | 0.23648    |   2.1 | 36.49
Output  | 5.2522e-05 | 5.4153e-05 | 6.9289e-05 |   0.0 |  0.01
Modify  | 0.041903   | 0.045023   | 0.047748   |   0.8 |  7.71
Other   |            | 0.004758   |            |       |  0.82

Nlocal:        83.3333 ave          93 max          74 min
Histogram: 1 1 3 10 11 9 8 2 2 1
Nghost:        1896.92 ave        1919 max        1875 min
Histogram: 2 6 7 3 5 6 9 5 1 4
Neighs:        11821.6 ave       13553 max        9937 min
Histogram: 1 1 7 5 10 4 9 7 3 1

Total # of neighbors = 567436
Ave neighs/atom = 141.85900
Neighbor list builds = 143
Dangerous builds = 14

#############################
# L I N E A R  Q U E N C H  #
#############################

# Define solid atoms. This closely follows ten Wolde  Ruiz-Montero and Frenkel  Faraday Discuss  1996  104  93-110
# Compute components of the per-atom q6 vector
compute q6 all orientorder/atom degrees 1 6 components 6 nnn NULL cutoff 1.3 # compute the Q6 parameter.
                                                                             # Use all neighbours within 1.3 unit cell.

# get number of connections
compute coord_number all coord/atom orientorder q6 0.5

# An atom is solid if it has 8 or more connections (of a possible 14)
variable is_solid atom c_coord_number>=8
group solid dynamic all var is_solid    # Must be dynamic to update
dynamic group solid defined

# do clustering
compute cluster solid cluster/atom 1.3 # Create a cluster where all atoms within are solid and max 1.3 units from another member

# define chunks one chunk per cluster
compute clus_chunks solid chunk/atom c_cluster nchunk every compress yes  # Says which atoms are in which chunk

# count the size of each chunk
compute size_chunks solid property/chunk clus_chunks count


# Find the maximum entry in the vector of chunk sizes
variable max_n equal max(c_size_chunks)


# Thermo style which includes this variable
# thermo_style custom step temp pe vol v_max_n

thermo ${N}  # Print the thermo information every 100 steps
thermo 1000  

# Reset the npt fix at a lower temperature (below freezing)
fix 1  all npt temp  ${temp} ${temp}  0.1  iso  5.68  5.68  0.5  mtk yes tchain  5  pchain  5
fix 1  all npt temp  0.45 ${temp}  0.1  iso  5.68  5.68  0.5  mtk yes tchain  5  pchain  5
fix 1  all npt temp  0.45 0.45  0.1  iso  5.68  5.68  0.5  mtk yes tchain  5  pchain  5

dump dmp2 all dcd ${N} traj.dcd
dump dmp2 all dcd 1000 traj.dcd


compute msd all msd com yes
variable twopoint equal c_msd[4]/6/(step*dt+1.0e-6)
fix 9 all vector 10 c_msd[4]
variable fit equal slope(f_9)/6/(10*dt)
thermo_style custom step temp pe c_msd[4] v_twopoint v_fit v_max_n

fix 1 all npt temp 1.25 ${temp} 0.1 iso 5.68 5.68 0.5 mtk yes tchain 5 pchain 5
fix 1 all npt temp 1.25 0.45 0.1 iso 5.68 5.68 0.5 mtk yes tchain 5 pchain 5
run 2000000 # 5000000  # Run for this many steps
Neighbor list info ...
  update every 1 steps, delay 10 steps, check yes
  max neighbors/atom: 2000, page size: 100000
  master list distance cutoff = 3.8
  ghost atom cutoff = 3.8
  binsize = 1.9, bins = 8 8 8
  4 neighbor lists, perpetual/occasional/extra = 1 3 0
  (1) pair lj/cut, perpetual
      attributes: half, newton on
      pair build: half/bin/atomonly/newton
      stencil: half/bin/3d
      bin: standard
  (2) compute orientorder/atom, occasional
      attributes: full, newton on
      pair build: full/bin/atomonly
      stencil: full/bin/3d
      bin: standard
  (3) compute coord/atom, occasional
      attributes: full, newton on
      pair build: full/bin/atomonly
      stencil: full/bin/3d
      bin: standard
  (4) compute cluster/atom, occasional
      attributes: full, newton on
      pair build: full/bin/atomonly
      stencil: full/bin/3d
      bin: standard
Per MPI rank memory allocation (min/avg/max) = 9.815 | 9.821 | 9.825 Mbytes
Step Temp PotEng c_msd[4] v_twopoint v_fit v_max_n 
   12000    1.2623273   -2.7616421 1.0493822e-30 7.2873762e-33 8.3333333e+20            1 
   13000    1.2304093   -2.7591103    1.0824134 0.0069385469  0.091644681            1 
   14000    1.2540714   -2.7728846     2.280093  0.013571981   0.09660141            1 
   15000    1.2372586   -2.7365832    3.5100342  0.019500189  0.099459515            3 
   16000    1.2449916   -2.7780967    4.8411506  0.025214325   0.10216513            3 
   17000    1.2330457   -2.7745063    6.1821776  0.030304791   0.10392852            3 
   18000    1.2764591   -2.7485129    7.4289447  0.034393261    0.1052428            1 
   19000    1.2460677   -2.7481325    8.7279458  0.038280463   0.10545635            1 
   20000    1.2305309   -2.7801327    9.8487786  0.041036576   0.10531684            1 
   21000    1.2413051   -2.7498538    11.140736  0.044209268   0.10504887            2 
   22000    1.2050333   -2.7847911    12.284847  0.046533511   0.10455078            2 
   23000      1.26977   -2.7844061    13.514371  0.048965113   0.10421243            1 
   24000    1.2466196   -2.7811225    14.839327   0.05152544   0.10417118            1 
   25000    1.2593435   -2.7827076    15.893062  0.052976871   0.10393553            1 
   26000    1.2444375   -2.7355184    17.166862  0.055021993   0.10349487            1 
   27000    1.2699053   -2.7509086     18.18755  0.056134411   0.10297845            3 
   28000    1.2301066   -2.7349576    19.501476  0.058040107   0.10241322            2 
   29000    1.2535112   -2.7382794    20.911228  0.060089734     0.102274            3 
   30000    1.2434809   -2.7676497    22.078305  0.061328623   0.10238965            1 
   31000    1.2563788    -2.767068    23.405182  0.062917155    0.1025358            3 
   32000    1.2603366   -2.7506753    24.714541  0.064360782   0.10274488            1 
   33000    1.2156483   -2.7697552    25.814638   0.06518848    0.1026914            3 
   34000    1.2266294   -2.7475151    27.030727  0.066251781   0.10259336            3 
   35000    1.2482481   -2.7505032    28.279096   0.06733118   0.10256276            1 
   36000    1.2168694     -2.77703    29.232601  0.067668057   0.10248091            1 
   37000    1.2433584   -2.7501692    30.607749  0.068936371   0.10232633            2 
   38000    1.2203233   -2.7604841     31.79025   0.06971546   0.10217017            1 
   39000    1.2520987    -2.768214    33.126586  0.070783303   0.10214819            2 
   40000    1.2530778   -2.7323523     34.44495  0.071760312   0.10217813            2 
   41000    1.2126057    -2.770499    35.440052  0.072032625   0.10222285            1 
   42000    1.2489831   -2.7558103     36.73611  0.072889105   0.10216758            1 
   43000    1.2079422   -2.7817681    37.731911  0.073123858   0.10204134            1 
   44000    1.2453703   -2.7923668    38.855532  0.073590022   0.10183681            2 
   45000    1.2516024   -2.7825799    40.196446  0.074437862   0.10170744            1 
   46000     1.233904   -2.7585297    41.071076  0.074404123   0.10162393            1 
   47000    1.2385499    -2.760233    42.511396  0.075374815   0.10152706            2 
   48000    1.2550535   -2.7489779    43.327697  0.075221695   0.10135356            1 
   49000    1.2448645   -2.7646659    44.392351  0.075497194   0.10110666            2 
   50000    1.2543194   -2.7746791    45.445562  0.075742602   0.10086819            1 
   51000    1.2574133   -2.7750053    46.599148  0.076142398   0.10062401            1 
   52000    1.2118462   -2.7663141    47.306075  0.075811018   0.10034657            3 
   53000    1.2254047   -2.7826841     48.89033  0.076871588   0.10008138            2 
   54000    1.2485358   -2.7747637    50.255901  0.077555402  0.099882105            1 
   55000    1.2135994   -2.7577666    51.164837  0.077522479  0.099723833            3 
   56000    1.2328019   -2.7856244    52.483955  0.078101123  0.099595291            2 
   57000    1.2303239    -2.784863    53.585051  0.078340717  0.099493082            1 
   58000    1.2108366   -2.7889406    54.652741  0.078524053  0.099377644            1 
   59000    1.2228328   -2.7846279    55.756464  0.078752068  0.099221159            1 
   60000    1.2352776   -2.7555787    56.891086  0.079015396   0.09911082            2 
   61000    1.2455945   -2.7858598    58.181353  0.079482722   0.09901663            3 
   62000    1.2252223   -2.7722615    59.578006  0.080077965  0.098915497            1 
   63000    1.2445292   -2.7601128     60.66389  0.080243241  0.098833943            1 
   64000    1.2386335   -2.7726938    61.919692  0.080624598  0.098803503            1 
   65000    1.2249274   -2.7691618    63.073428  0.080863368  0.098785188            5 
   66000    1.2122463   -2.7971211     64.12417   0.08096486  0.098742112            1 
   67000    1.2386456   -2.7960491    65.588239  0.081577411  0.098709216            1 
   68000    1.2310729   -2.7399958    66.893311  0.081977096  0.098686463            2 
   69000    1.2401811   -2.7764489    68.233669  0.082407812  0.098661727            1 
   70000    1.2104673   -2.7878164      68.8836  0.082004285  0.098637839            2 
   71000    1.2349695   -2.7866687    70.352157  0.082572953  0.098621222            3 
   72000    1.2148356   -2.7375604     71.50485  0.082760243  0.098598229            3 
   73000    1.2452765   -2.7924131    72.928574  0.083251796  0.098613841            1 
   74000    1.2209232   -2.7571685    74.248172  0.083612806  0.098612757            1 
   75000    1.2128189   -2.7863733    74.988669  0.083320743   0.09858961            4 
   76000    1.2308693   -2.7841609    75.875052  0.083196328  0.098579913            1 
   77000     1.213532   -2.7511952    77.102217  0.083443957  0.098540207            1 
   78000    1.2323133   -2.7837105    78.438401   0.08380171  0.098525184            1 
   79000     1.210479   -2.7745486    79.905762  0.084288778  0.098517704            1 
   80000    1.2139542   -2.7741488    80.605014  0.083963556  0.098506403            2 
   81000    1.2203043   -2.7729919    82.335511  0.084707315  0.098508929            2 
   82000    1.2213621   -2.7753903    83.091231  0.084442307  0.098498439            1 
   83000    1.2125364   -2.7977716    84.527652   0.08486712  0.098485164            1 
   84000    1.2338477   -2.7754462     85.08776  0.084412459  0.098434191       -1e+20 
   85000    1.2606087   -2.7990313    86.301281  0.084609099  0.098394705            1 
   86000    1.2184299    -2.788603    87.315929  0.084608458  0.098349072            1 
   87000    1.2639973    -2.780722    88.124651  0.084410585  0.098291256            1 
   88000    1.2148353   -2.8014224    89.358548  0.084619837  0.098232933            2 
   89000    1.2084272   -2.8037222    91.292742  0.085480095  0.098195104            1 
   90000    1.2314732   -2.7983009    92.352316  0.085511404  0.098189627            1 
   91000    1.2064017   -2.7759746    93.592541  0.085707455  0.098170111            1 
   92000    1.2178645   -2.7918051    94.605951  0.085693796  0.098139793            1 
   93000     1.205755   -2.8325959    95.883228  0.085916871  0.098094781            1 
   94000     1.239566   -2.7851009    96.020998  0.085124998  0.098047127            6 
   95000    1.2282207   -2.7811635    97.744935  0.085741171  0.097975597            2 
   96000    1.2366481   -2.7822896    98.521962  0.085522536  0.097921152            1 
   97000    1.2228305    -2.796883    99.776235  0.085718414  0.097854791            1 
   98000    1.2227956   -2.7967252    100.77985  0.085697153   0.09779384            1 
   99000     1.211311   -2.7987605    102.43856   0.08622774  0.097736775            1 
  100000    1.1930898   -2.7929903    102.83568  0.085696397   0.09767648            4 
  101000    1.2347826   -2.7786896    104.40153  0.086139875  0.097622742            1 
  102000    1.1995634   -2.7762784    105.91267  0.086529957  0.097577302            1 
  103000    1.1923767   -2.8078747    106.33173  0.086028911   0.09751431            2 
  104000    1.2116689   -2.7988173    107.14062  0.085849851  0.097444893            2 
  105000    1.2263507   -2.7885765    108.33742  0.085982079  0.097384648            2 
  106000    1.2240712   -2.7847222     110.5221  0.086888441  0.097357558            2 
  107000    1.2441369   -2.7903546     111.5699  0.086892444  0.097341319            1 
  108000    1.2002386   -2.8022908    112.50523  0.086809594  0.097314271            2 
  109000    1.1839524   -2.8106211    114.01034  0.087163866  0.097281172            1 
  110000    1.2108588   -2.7867256    114.90314  0.087047834  0.097244049            3 
  111000    1.2261577   -2.7887894    115.88163  0.086998217  0.097193619            3 
  112000    1.1867844   -2.7538784    117.02403  0.087071454  0.097155636            1 
  113000    1.2042122   -2.8041126    118.13999  0.087123888  0.097123039            2 
  114000     1.217844   -2.7757088     119.1859  0.087124195  0.097086188            4 
  115000    1.2242119   -2.7811522    120.64164  0.087421476  0.097053767            2 
  116000    1.2306939   -2.8078003    121.27602  0.087123579  0.097012258            1 
  117000     1.198548   -2.8122679    122.37477  0.087161515  0.096984332            1 
  118000    1.2080802   -2.7852768    123.62977  0.087309156  0.096958537            3 
  119000    1.2008828   -2.7762803    125.04018  0.087563148  0.096936346            1 
  120000    1.2087545   -2.8233715    126.35876  0.087749142   0.09691998            1 
  121000    1.2261521   -2.8069376    127.77239  0.087997517  0.096907001            1 
  122000     1.186413   -2.8084711    129.39161  0.088382246  0.096908773            1 
  123000    1.2118674   -2.8036036    130.07098  0.088123973   0.09692147            2 
  124000    1.1872473   -2.7930686     131.4474  0.088338305  0.096932986       -1e+20 
  125000    1.2158271   -2.8610928    132.03985  0.088026567  0.096943246            2 
  126000    1.2126655   -2.8398577     132.5038  0.087634788  0.096924713            2 
  127000    1.1914533   -2.8270693    133.69797  0.087728325  0.096890769            2 
  128000    1.2128306   -2.8153276    135.17818  0.088006628  0.096851854            2 
  129000    1.2077812    -2.810689     136.3245  0.088064922  0.096808191            1 
  130000     1.182035    -2.815638    137.95723   0.08843412  0.096780147            1 
  131000    1.1809548   -2.7998524    139.11005  0.088492399  0.096762688            1 
  132000    1.1564867   -2.8362795     140.4695  0.088680242  0.096757595            1 
  133000    1.1920971    -2.784721    141.50234  0.088660611  0.096748603            1 
  134000    1.1894557   -2.8097279    142.36831  0.088537507  0.096735222            1 
  135000    1.2000219   -2.8220213    143.69127  0.088698315  0.096725226            1 
  136000    1.2142041   -2.7875085    145.54768  0.089183626  0.096718301            2 
  137000    1.1731405   -2.8522887    146.36257   0.08902833  0.096719329            2 
  138000    1.1953941   -2.8334826    146.92727  0.088724195  0.096713335            2 
  139000     1.191288   -2.8491529    148.04771  0.088757617  0.096704374            3 
  140000    1.1963962   -2.7944147    150.28233  0.089453765   0.09669627            5 
  141000    1.2182355   -2.8026639    151.65153  0.089628564  0.096709443            2 
  142000     1.180362   -2.8258724    152.36278  0.089414779  0.096722968            2 
  143000    1.2125499   -2.8312072    153.26831  0.089317199  0.096730603            2 
  144000    1.2302362   -2.8178459    154.13221   0.08919688  0.096731068            2 
  145000    1.2009989   -2.8089568    155.57673  0.089411913   0.09673794            1 
  146000    1.1928057   -2.8033701    157.30468  0.089785776  0.096744046            4 
  147000    1.1945641     -2.81688    157.99386  0.089565678  0.096741448            1 
  148000    1.1850187   -2.8269646    159.33919  0.089718009   0.09674066            1 
  149000    1.2077738    -2.783556    161.23392   0.09017557  0.096743677            5 
  150000     1.200943   -2.8283266    161.39338   0.08966299   0.09675133            3 
  151000    1.1982451   -2.8057627    162.75024  0.089818012  0.096753418            1 
  152000    1.2029842   -2.8056105     163.4636  0.089618202  0.096747639            1 
  153000    1.1833878   -2.8013728    164.37497  0.089528849  0.096740811            3 
  154000    1.1841687   -2.8477163    165.58583  0.089602721  0.096722881            1 
  155000    1.1934693   -2.8140405    166.66238  0.089603429  0.096703925            2 
  156000    1.1742101   -2.8171583    167.22392  0.089329015  0.096676264            1 
  157000    1.1639912    -2.805495     168.9098  0.089654885  0.096652435            2 
  158000    1.2050533   -2.8394533    169.85426  0.089585581  0.096628685            1 
  159000    1.1892717    -2.831065    171.16374  0.089708461  0.096594236            1 
  160000    1.2022464   -2.8290826    171.47257   0.08930863   0.09657046            1 
  161000    1.1867828   -2.8176752    172.91841   0.08950228  0.096537682            2 
  162000     1.194291   -2.8104841    173.58087   0.08929057  0.096506576            2 
  163000    1.1790224   -2.8332375    174.97187  0.089453921  0.096479463            1 
  164000    1.1908551   -2.8003133    176.54866  0.089709687  0.096456571            1 
  165000     1.163939   -2.8243669    177.73309  0.089764188  0.096441299            1 
  166000     1.181003   -2.8349079    178.77816  0.089748072  0.096425152            1 
  167000    1.1925481   -2.8372046    179.62036  0.089630918  0.096404652            2 
  168000    1.1987511   -2.8392106    181.04853  0.089805817  0.096385847            1 
  169000    1.2110909   -2.8324326    182.43403  0.089957608  0.096374084            1 
  170000    1.1942808   -2.8167209    184.34004  0.090362762  0.096361456            2 
  171000     1.188732   -2.8408025    184.98321  0.090147761  0.096349283            2 
  172000    1.1668723   -2.8205271    185.99443   0.09011358  0.096340865            2 
  173000    1.1793924   -2.8462546     186.7983  0.089979914   0.09633255            3 
  174000    1.1669564   -2.8243239    188.97145   0.09050357  0.096325044            1 
  175000    1.1695724   -2.8222346    189.00789  0.090003756  0.096310881            1 
  176000    1.1979481   -2.7875467    189.92861  0.089928319   0.09629093            3 
  177000    1.1832282   -2.8032408    192.13802  0.090460462   0.09628096            1 
  178000    1.1787708   -2.8494506    191.79093  0.089789761  0.096257267            1 
  179000     1.184605   -2.8252621    193.56164  0.090112494  0.096238214            1 
  180000    1.2019309    -2.810824    194.56563   0.09007668  0.096213684            1 
  181000    1.1548064   -2.8171878     195.7928  0.090144013  0.096200855            3 
  182000    1.1860247   -2.8321049    196.14396  0.089809505  0.096179586            1 
  183000    1.1908042   -2.8157447    198.83193  0.090542775  0.096165695            1 
  184000    1.1660878   -2.8656796    199.20398  0.090219194   0.09614728            1 
  185000    1.1567153   -2.8100118    200.46141  0.090297934  0.096127478            3 
  186000    1.1882863   -2.8522358    200.43898  0.089802411  0.096112352            1 
  187000    1.1961751   -2.8279152    202.52174  0.090250328  0.096096304            1 
  188000     1.159855    -2.839457    204.29971  0.090558381   0.09607208            1 
  189000    1.1619357   -2.8299754    204.05138  0.089969743  0.096052473            4 
  190000    1.2216627   -2.8243715    205.33533  0.090059357  0.096028166            5 
  191000    1.1973223   -2.8332678    206.50855  0.090099716  0.096007099            2 
  192000    1.1895028   -2.8117327    207.78394  0.090184003  0.095981876            2 
  193000    1.1976999    -2.858691     207.4545  0.089574482  0.095962742            2 
  194000    1.1671286     -2.84437     209.2721  0.089893514  0.095930779            1 
  195000    1.1767409   -2.8486591    209.74906   0.08963635  0.095903723            2 
  196000    1.1834388   -2.8430802    211.09176  0.089749899  0.095873157            1 
  197000    1.1801537   -2.8270635     211.1503  0.089319079  0.095833613            2 
  198000    1.1929713   -2.8393972     213.1802  0.089722307   0.09579833            2 
  199000     1.176715   -2.7975684    215.03479  0.090048071  0.095763526            2 
  200000    1.2073069   -2.8329451    216.02684  0.090011184  0.095734942            2 
  201000    1.1758971   -2.8377332    216.69784  0.089841559  0.095706835            1 
  202000    1.1907566   -2.8681037     218.0306  0.089946615  0.095678812            3 
  203000    1.1727322   -2.8372336    218.70016  0.089778389   0.09565257            1 
  204000    1.1619038    -2.859588    221.13941  0.090334724  0.095628094            2 
  205000    1.1767696   -2.8460652    221.52526  0.090050918  0.095607237            4 
  206000    1.1646417   -2.8398623    222.65346  0.090070169  0.095581783            1 
  207000    1.1934771   -2.8372863    223.89937  0.090136623  0.095563959            3 
  208000    1.1857506   -2.8614944    224.17999  0.089815702  0.095545431            2 
  209000    1.1890424   -2.8439911     227.6885  0.090784887  0.095531472            1 
  210000    1.1667067   -2.8077687    228.61955  0.090722042  0.095514193            1 
  211000    1.1537203   -2.8450246    228.44898  0.090224714  0.095503618            1 
  212000    1.1773034   -2.8044593    230.79718  0.090722162  0.095495374            2 
  213000    1.1674975   -2.8492359    230.91568  0.090342599  0.095482631            2 
  214000    1.1766179   -2.8514439    232.50242  0.090538326  0.095468929            1 
  215000    1.1492352   -2.8409927    234.25837  0.090797816   0.09546332            1 
  216000    1.1932627   -2.8055586    235.89259  0.091007942  0.095452688            2 
  217000     1.188053   -2.8335647    236.32542  0.090754769  0.095444884            2 
  218000    1.1725155   -2.8760138    236.70191  0.090482381  0.095433884            4 
  219000    1.1320433   -2.8658345    237.85271  0.090507119  0.095425721            2 
  220000     1.167041   -2.8683486    238.91098  0.090496582   0.09541198            1 
  221000    1.1626702   -2.8256038    240.47203  0.090675727  0.095403158            2 
  222000    1.1499874   -2.8408504    241.95468  0.090823829  0.095399259            1 
  223000    1.1686561   -2.8085205    242.85498  0.090752981  0.095395085            1 
  224000     1.180211   -2.8611856    243.79904  0.090699047  0.095390828            1 
  225000    1.1424155   -2.8672273    245.34007  0.090866692  0.095386379            2 
  226000    1.1532717   -2.8312442    246.46189  0.090878278  0.095389683            1 
  227000    1.1998731   -2.8710954    247.47183   0.09084869  0.095389823            1 
  228000    1.1748874   -2.8294127    249.15947  0.091067056  0.095386644            1 
  229000    1.1474926   -2.8456975    250.31552  0.091090072  0.095384887            1 
  230000    1.1526346   -2.8999546    250.50327  0.090762055  0.095383827            1 
  231000    1.1593455   -2.8584701    252.63342  0.091137597    0.0953807            2 
  232000    1.1587729   -2.8468084    253.13165  0.090923726  0.095380672            3 
  233000    1.1697051   -2.8528855    253.83263  0.090784203  0.095371461            1 
  234000    1.1554089   -2.8265302     256.1563  0.091223753  0.095364021            1 
  235000    1.1716745   -2.8609521    256.11601  0.090821279  0.095354747            3 
  236000    1.1661552   -2.8496593    258.29856   0.09120712  0.095344861            1 
  237000     1.184038   -2.8318527    259.78608  0.091345318  0.095344527            2 
  238000    1.1603389   -2.8216677    261.07127   0.09141151  0.095344226            2 
  239000     1.155862   -2.8532802    262.23929  0.091436294  0.095345749            3 
  240000     1.159252   -2.8844602    261.92541  0.090946324  0.095341653            1 
  241000     1.131323   -2.8588041     263.5796   0.09114094  0.095336938            3 
  242000    1.1647915   -2.8891274    264.63075  0.091126292  0.095330299            6 
  243000    1.1509735    -2.899578    265.51109  0.091053187  0.095325137            4 
  244000    1.1728571     -2.83936    267.66729  0.091416425  0.095320826            4 
  245000    1.1529847   -2.8583829    268.54359  0.091341357    0.0953204            1 
  246000    1.1472959   -2.8663507    269.17355  0.091183451  0.095317293            5 
  247000    1.1592991   -2.8634579    269.82794  0.091035067  0.095316019            2 
  248000    1.1666313   -2.8693433    272.25916  0.091484934  0.095312459            1 
  249000    1.1544905   -2.8635155     272.3228  0.091138823  0.095310853            2 
  250000    1.1445297   -2.8540454    273.56883  0.091189609  0.095308365            2 
  251000    1.1641365   -2.8355293    276.19468  0.091698102  0.095302845            1 
  252000    1.1514448   -2.8660831    275.27935  0.091031532  0.095295958            1 
  253000    1.1714949   -2.8530096    278.46105  0.091719714  0.095289953            2 
  254000    1.1577511    -2.854123     278.3132  0.091310104  0.095285547            2 
  255000    1.1643174   -2.8407997    279.58872  0.091368864   0.09528353            2 
  256000    1.1724134   -2.8889623     280.0394  0.091158657  0.095277562            6 
  257000    1.1403196    -2.854175    281.89973  0.091407177  0.095269258            1 
  258000    1.1547728   -2.8799376    281.82474  0.091028664  0.095261054            4 
  259000    1.1308321    -2.883265    283.35754   0.09117038  0.095253259            1 
  260000    1.1627735   -2.8832987    283.81107  0.090965087  0.095246343            1 
  261000    1.1307267   -2.8922836    285.23136  0.091070037  0.095235828            5 
  262000    1.1617127   -2.8417423    285.95174  0.090951572  0.095226583            1 
  263000    1.1397031   -2.8743462    287.42201  0.091071614  0.095212929            1 
  264000      1.17374   -2.8534212    289.49028  0.091379506  0.095198606            1 
  265000    1.1452707   -2.8683563    289.20539   0.09094509  0.095185937            1 
  266000    1.1779964   -2.8863429     289.1326  0.090580388  0.095172804            1 
  267000    1.1456064    -2.889823    291.91793  0.091110463   0.09515772            2 
  268000    1.1533818   -2.8570814    293.41844  0.091237076  0.095146261            3 
  269000    1.1856194   -2.8675924    293.07744  0.090792268  0.095134341            1 
  270000    1.1354658   -2.8644747     294.6973  0.090955957  0.095120472            2 
  271000    1.1634933   -2.8679496    296.10192  0.091052251  0.095106521            3 
  272000    1.1534692   -2.8577904    297.87423  0.091260488  0.095094121            2 
  273000    1.1471031    -2.888958    296.86433  0.090617928  0.095076346            2 
  274000    1.1541038   -2.8711751    299.40745  0.091060661  0.095061447            1 
  275000    1.1389261   -2.8824284    298.82977  0.090554476  0.095045612            1 
  276000     1.154503   -2.8750828    301.11618   0.09091672  0.095032307            2 
  277000     1.135924   -2.8616309    302.55682  0.091021908  0.095018142            1 
  278000    1.1210342   -2.8427156    304.31516  0.091221572  0.095002323            1 
  279000     1.132504   -2.8545557    304.06142  0.090818824  0.094984265            2 
  280000    1.1622796   -2.8753167    304.33683  0.090576437  0.094964072            2 
  281000    1.1501782   -2.8843359    306.56835  0.090915881  0.094941807            1 
  282000    1.1353437    -2.864592    305.83102  0.090375597   0.09491753            1 
  283000    1.1322761   -2.8967921    306.69725  0.090311323  0.094890727            2 
  284000    1.1647455   -2.8759701    308.60817  0.090554042  0.094865057            1 
  285000    1.1556186    -2.876629    310.61771  0.090823892  0.094839427            2 
  286000    1.1312155   -2.8799567    309.00097  0.090035249  0.094810435            1 
  287000    1.1501966   -2.8796107    310.49239  0.090154584  0.094780499            2 
  288000    1.1428456   -2.9072376    313.38983  0.090679929  0.094751196            1 
  289000    1.1413115    -2.876612     313.2931  0.090338265  0.094719946            3 
  290000    1.1415998   -2.8578896    313.17807  0.089993699  0.094690472            2 
  291000    1.1481337    -2.906882    314.83583  0.090159171  0.094661498            5 
  292000    1.1533649   -2.8852346    315.63833  0.090079433  0.094628103            2 
  293000    1.1396694   -2.8807665     316.3177  0.089965215  0.094595087            2 
  294000     1.141133   -2.8901303    318.65032  0.090320386  0.094561296            1 
  295000    1.1232146   -2.8833847    319.54014  0.090265575   0.09453467            3 
  296000    1.1263884   -2.8934254    318.98599  0.089804615   0.09450345            2 
  297000    1.1153625   -2.8888059    321.12785  0.090103212  0.094469067            2 
  298000    1.1535092   -2.8980244    322.42335  0.090163128   0.09443852            2 
  299000     1.149293   -2.9034753    323.07132  0.090042174  0.094404113            2 
  300000    1.1459487    -2.909574    323.91983  0.089977732  0.094367346            3 
  301000    1.1562737   -2.8563963    324.01633  0.089705517  0.094331114            1 
  302000    1.1251921   -2.8792816    325.40304  0.089791126  0.094297219            3 
  303000     1.109373    -2.856953    327.32143  0.090022395  0.094266393            2 
  304000    1.1297302   -2.8844686    327.15224  0.089679891  0.094233823            2 
  305000    1.1235529   -2.8901181    329.44226  0.090011546  0.094202086            2 
  306000    1.1116679   -2.8929646    332.26886  0.090487161  0.094168116            2 
  307000    1.1186074   -2.9091499    330.15711  0.089619194  0.094134977            2 
  308000    1.1425689   -2.9196015    331.88723  0.089796329  0.094099254            1 
  309000    1.1193639   -2.8702671    333.34865  0.089899852  0.094061646            2 
  310000    1.1408961   -2.8785819    333.30007  0.089596793  0.094021086            1 
  311000    1.1464942    -2.876017    332.60231  0.089121734  0.093981175            2 
  312000    1.1161412   -2.9083068    334.13055  0.089244271  0.093938141            2 
  313000    1.1284452   -2.8911067    334.63674  0.089093913  0.093894265            2 
  314000     1.126191   -2.8863198    335.50186  0.089039772  0.093848227            2 
  315000    1.1289594   -2.8663385    336.83743  0.089110432  0.093800386            3 
  316000    1.1185276    -2.938838    335.94161  0.088592197   0.09375131            1 
  317000    1.1239859   -2.8797283    339.71626  0.089305011  0.093701699            2 
  318000     1.137263   -2.8792915    341.86633  0.089587612  0.093657347            1 
  319000    1.1299159   -2.9112245    340.07515  0.088838858  0.093611111            1 
  320000    1.0765352   -2.8907013    341.47972  0.088927009  0.093564886            2 
  321000     1.108748   -2.8928618      342.215  0.088840861  0.093521928            2 
  322000    1.0964415   -2.8816535    344.82083  0.089239345  0.093475986            2 
  323000    1.1115396     -2.89182    345.95586  0.089255898  0.093432474            1 
  324000    1.1176697   -2.8923357    346.50379  0.089121344  0.093393542            2 
  325000    1.1191769   -2.8927985    347.33867  0.089061197  0.093353045            1 
  326000    1.1537448    -2.897649    348.71744  0.089140451  0.093316332            2 
  327000    1.1255319   -2.9141431    351.46784  0.089568767  0.093281872            3 
  328000    1.1189221   -2.8528045    352.48461  0.089554017  0.093249323            1 
  329000    1.1108761    -2.900223    354.14308  0.089701893  0.093218541            5 
  330000    1.1196681   -2.8919556    355.07364   0.08966506  0.093188864            2 
  331000    1.1267046   -2.9070242    354.05355  0.089137349  0.093156339            2 
  332000    1.1420795   -2.8798732    356.92703  0.089590118  0.093124227            2 
  333000    1.1565742   -2.9288652    356.66683  0.089255963  0.093094228            2 
  334000    1.1220956   -2.9283706    357.98097  0.089316609  0.093064384            4 
  335000     1.144824   -2.9035358    360.07654  0.089571279  0.093034397            1 
  336000    1.1201067   -2.8908967    360.25122   0.08934802  0.093006232            1 
  337000    1.1078427   -2.9256524    360.80679  0.089220275  0.092976961            1 
  338000      1.11848   -2.9100849    363.20824  0.089548383  0.092947911            1 
  339000    1.1477939   -2.9406668    362.42281  0.089091152  0.092918448            1 
  340000    1.0962076   -2.9326948    363.83111  0.089174292  0.092889357            2 
  341000    1.1058407   -2.8803794    366.04476  0.089453754   0.09285975            3 
  342000    1.1108865    -2.905514    367.87507  0.089638174  0.092831038            2 
  343000    1.1101865   -2.8850016    366.91425  0.089143404  0.092803424            1 
  344000     1.138037   -2.9160067    369.06288  0.089404768   0.09277581            2 
  345000    1.1064067   -2.8544527    368.68211   0.08905365  0.092747692            2 
  346000    1.0896056   -2.9247386    370.85374    0.0893193  0.092717607            2 
  347000    1.1257686   -2.9003269     370.4717   0.08897015  0.092688013            2 
  348000    1.1169748   -2.9181328    371.53251  0.088968513  0.092657677            1 
  349000      1.13389   -2.9091547    372.80321  0.089017004  0.092627265            3 
  350000    1.0838082   -2.9131383    373.45971  0.088918979   0.09259821            4 
  351000    1.1116267   -2.9428025    375.40112  0.089126571  0.092569113            2 
  352000    1.1310283   -2.9057057    377.94219   0.08947495  0.092539372            1 
  353000    1.0672836   -2.9128384    377.68403  0.089160535  0.092508141            2 
  354000     1.116236   -2.9238959    377.06159  0.088762144  0.092475025            2 
  355000    1.1028228   -2.9255763    378.22658  0.088785581  0.092441909            1 
  356000    1.1081915    -2.913499    378.80799  0.088672282  0.092408137            4 
  357000    1.1126575   -2.9090294    381.05143  0.088947579  0.092373914            1 
  358000    1.1104711   -2.9138812    379.87473  0.088425216  0.092337451            1 
  359000    1.1056493   -2.8918561    380.26011  0.088268364   0.09229853            2 
  360000    1.1097825   -2.9342618    379.97286   0.08795668  0.092257657            2 
  361000     1.112753    -2.905516    382.15365  0.088216447  0.092216286            1 
  362000     1.103018   -2.9200257    381.51874  0.087826598  0.092174773            3 
  363000    1.1058126    -2.904988    384.12436  0.088182818  0.092132493            2 
  364000    1.1176761   -2.9158685    383.73502  0.087851425  0.092090109            2 
  365000    1.1069051   -2.9258218    384.72333  0.087836377  0.092046733            1 
  366000    1.1339332   -2.9129908    384.91524  0.087640081  0.092001202            2 
  367000    1.0859962   -2.9312018    387.17803  0.087915084   0.09195931            2 
  368000     1.076551   -2.9111328    386.91992  0.087617734  0.091917782            2 
  369000    1.1113094    -2.936612    389.61723  0.087989437  0.091877573            3 
  370000     1.114956   -2.9354883    389.92098  0.087820041  0.091837496            2 
  371000      1.11334   -2.9360178    391.76775  0.087998147  0.091798482            1 
  372000    1.0858458    -2.929491    392.68767  0.087967667  0.091757439            2 
  373000    1.1102139    -2.900246    393.36421  0.087882977  0.091714404            1 
  374000    1.1002994   -2.8986853    394.90664  0.087991675  0.091671069            1 
  375000    1.0916159    -2.910606    394.52057  0.087671237     0.091631            1 
  376000    1.1052273   -2.9368381    394.80442  0.087500979  0.091586843            2 
  377000    1.1014337   -2.9141263    398.89959  0.088174091  0.091547303            1 
  378000    1.1171308   -2.9183122     398.7722  0.087912742  0.091506188            2 
  379000     1.117165   -2.9261844    397.99246  0.087509337  0.091465207            1 
  380000    1.1157757   -2.9204282    401.15116  0.087971745  0.091423566            2 
  381000    1.0827965   -2.8996428     401.8521  0.087894159   0.09138233            4 
  382000    1.1303489   -2.9151117     402.4537  0.087795311  0.091343615            2 
  383000    1.1004514   -2.9251121    403.42121  0.087776591  0.091304774            2 
  384000     1.136937   -2.9320811    402.83271  0.087420293  0.091265566            2 
  385000      1.11166   -2.9182217    403.72268  0.087385862  0.091223294            1 
  386000    1.0973703   -2.9105474    405.71916  0.087590492  0.091184916            3 
  387000    1.0659562   -2.9332799    405.74873  0.087370528  0.091145692            2 
  388000    1.0977281    -2.894019    409.69981  0.087993944   0.09110906            2 
  389000    1.0723217   -2.9244631    408.53397  0.087517989  0.091070533            2 
  390000    1.0995896    -2.927284    409.12723  0.087420349  0.091032208            6 
  391000    1.1078397   -2.9163449    410.65591  0.087522572  0.090994674            2 
  392000    1.0942772    -2.960973    410.03324  0.087166931  0.090956458            1 
  393000    1.1033015   -2.9438271    413.95029  0.087775718  0.090917487            3 
  394000    1.1121667   -2.9455416    413.39615  0.087435733  0.090878707            3 
  395000     1.093726    -2.923564    413.49251  0.087234707  0.090840027            3 
  396000    1.0990708   -2.9518332    415.83974  0.087508363   0.09080063            2 
  397000    1.1042629   -2.9062621    415.54382  0.087225823  0.090764221            3 
  398000    1.1156333   -2.9665869    417.13765   0.08734038  0.090726767            1 
  399000    1.0963103   -2.9474936    416.88036  0.087067744  0.090690989            2 
  400000     1.089766   -2.9075356    420.97305  0.087702718  0.090654265            2 
  401000    1.0848107   -2.9316417    419.52935  0.087183987  0.090617042            2 
  402000    1.1146234   -2.9591758    420.51249  0.087170915  0.090578834            1 
  403000    1.0892255   -2.9207945    420.99638  0.087054669  0.090540622            2 
  404000    1.1049473    -2.954771    422.47294  0.087143758  0.090501191            2 
  405000    1.0883963    -2.935029    423.61685  0.087163961  0.090459767            2 
  406000    1.0897414   -2.9255165     421.9666  0.086610551  0.090419707            2 
  407000    1.0873901   -2.9208762    426.77592  0.087382456  0.090379946            1 
  408000    1.0979097   -2.9323629    425.44995  0.086897458  0.090340648            5 
  409000    1.0831755   -2.9640615    425.37136  0.086668982  0.090299639            3 
  410000    1.0806815   -2.9243484    427.62401  0.086915449  0.090257352            2 
  411000    1.0861549   -2.9375568    427.52358  0.086683614  0.090213564            2 
  412000      1.07278   -2.9655173    425.19738  0.086002706  0.090171068            2 
  413000    1.0959458   -2.9233178    430.62245  0.086889114  0.090128249            1 
  414000    1.0669663   -2.9059459    431.34338  0.086824351  0.090087054            1 
  415000    1.0833169   -2.9557555    429.96452  0.086338257  0.090044998            3 
  416000    1.0759361   -2.9683366    432.95395  0.086729558  0.090003997            2 
  417000    1.0867587   -2.9375321     433.2575  0.086582234  0.089963062            2 
  418000    1.0799631   -2.9577375    436.11115  0.086944009  0.089924268            2 
  419000    1.0965849   -2.9316107    435.27072  0.086569355  0.089886315            2 
  420000    1.0784805    -2.948618    436.88755  0.086684037  0.089847198            6 
  421000     1.071251   -2.9524389    436.45205  0.086391933  0.089808277            5 
  422000    1.0973437   -2.9227828     439.5906  0.086806989  0.089768917            2 
  423000    1.1122689   -2.9692962    437.95644  0.086279835  0.089727586            1 
  424000     1.080922   -2.9294077     439.9817  0.086474391  0.089686605            1 
  425000    1.0799885   -2.9523734    440.03074  0.086280538  0.089645178            1 
  426000    1.0847023   -2.9450141    442.78022  0.086615849   0.08960242            2 
  427000    1.0700435   -2.9529673    441.61008  0.086184636  0.089561974            2 
  428000     1.078051   -2.9440568    443.31792  0.086315794  0.089520502            3 
  429000     1.097545   -2.9654894    444.59363  0.086362399   0.08947858            2 
  430000    1.0820758   -2.9470568    444.26309  0.086097498  0.089438241            1 
  431000    1.0861585   -2.9381112    445.62537  0.086161132  0.089397509            2 
  432000    1.1025006   -2.9498004    446.41418  0.086113846  0.089354779            1 
  433000    1.0523585   -2.9535808    446.96682  0.086021329  0.089314928            3 
  434000    1.0920416   -2.9486001    449.16339   0.08624489  0.089275264            1 
  435000    1.0905135    -2.967628    448.35614  0.085891981  0.089234352            2 
  436000    1.0895689   -2.9285427    451.48293  0.086292609  0.089195051            1 
  437000    1.0824848   -2.9446289    449.37042  0.085692299   0.08915338            5 
  438000     1.091915   -2.9497268     452.4592  0.086084322  0.089111654            2 
  439000    1.0868559   -2.9439297    451.67765  0.085739872  0.089069094            2 
  440000     1.063601   -2.9425356    452.40098  0.085682003  0.089028423            2 
  441000    1.0781592   -2.9707963    453.75161  0.085742934  0.088987025            4 
  442000    1.1062371   -2.9354383    453.96527   0.08558923  0.088943977            2 
  443000    1.0875092   -2.9129356    456.20877  0.085818053  0.088902281            1 
  444000    1.0796298   -2.9730021    455.65116  0.085520113  0.088862399            1 
  445000     1.080658   -2.9573439    456.72871  0.085529721  0.088820219            1 
  446000    1.0641318   -2.9407804    456.84147  0.085359019  0.088779365            2 
  447000    1.0594047   -2.9323022    458.27816  0.085435899  0.088737738            2 
  448000    1.0527022   -2.9674203     459.3155  0.085438151   0.08869491            1 
  449000    1.1066735   -2.9557894    460.27735  0.085426383  0.088653044            3 
  450000    1.0864967   -2.9726227    458.05435  0.084824879  0.088610335            1 
  451000    1.0856682   -2.9507574     462.0435  0.085373891  0.088566284            1 
  452000    1.0493258   -2.9353781    460.21031  0.084847034  0.088522589            2 
  453000    1.0932855   -2.9425399    464.60681  0.085468508  0.088476868            1 
  454000    1.0349346   -2.9588415    462.26988    0.0848513  0.088431087            2 
  455000    1.0726529   -2.9638343    464.13308  0.085006059  0.088386109            2 
  456000    1.0827562   -2.9794134    462.67396  0.084552989  0.088341426            2 
  457000    1.0460827   -2.9479897    464.77361  0.084750841  0.088294493            2 
  458000    1.0709297   -2.9532178    466.28538  0.084840863  0.088247096            2 
  459000    1.0784094   -2.9343866    467.30768  0.084841627   0.08820045            1 
  460000    1.0634402   -2.9903344    467.55595  0.084702165  0.088155777            5 
  461000    1.0564677   -2.9503434     468.2589  0.084645499  0.088109239            3 
  462000    1.0746197   -2.9465917    469.92206  0.084762276  0.088065013            2 
  463000    1.0561197   -2.9773726    470.82494  0.084741711  0.088020137            2 
  464000    1.0833432   -2.9825576    471.31019  0.084646226  0.087975035            1 
  465000    1.0711323   -2.9706614     472.8632  0.084742509  0.087930689            3 
  466000    1.0784273   -2.9846739    472.68979  0.084529648   0.08788617            3 
  467000      1.05939   -2.9409191    474.46143  0.084664781   0.08784026            3 
  468000    1.0720476    -2.980965    475.53724  0.084675435  0.087795583            5 
  469000    1.0682335    -2.944401    478.48845   0.08501927  0.087750757            1 
  470000    1.0469347   -2.9714144    476.63788  0.084510263  0.087707117            5 
  471000    1.0901116   -2.9844477    477.69991  0.084518738  0.087663858            5 
  472000    1.0622894   -2.9767221    479.28164  0.084618934  0.087619786            3 
  473000    1.0529354   -2.9708666    481.57658  0.084844359  0.087576373            1 
  474000    1.0444888   -2.9771646    480.65073   0.08450259  0.087532784            1 
  475000    1.0699931   -2.9877861    480.38398  0.084277891  0.087488254            1 
  476000    1.0745207    -2.990144    481.39178  0.084277273  0.087445804            2 
  477000    1.0693577   -2.9855434    483.58372   0.08448353  0.087402785            2 
  478000    1.0625899   -2.9912395    483.89723  0.084361441   0.08736118            4 
  479000    1.0697406    -2.978542    485.93804  0.084540368  0.087318133            2 
  480000    1.0704929   -2.9544439    486.13409   0.08439828  0.087275269            2 
  481000     1.058405   -2.9931326    485.79683  0.084164385  0.087231231            5 
  482000    1.0644568   -2.9635018    485.47416  0.083933983  0.087188025            2 
  483000    1.0402805   -2.9586081    485.92486  0.083837968  0.087143049            1 
  484000    1.0600042   -2.9923218    488.84803  0.084168049  0.087098128            2 
  485000    1.0635661   -2.9309384     487.2579  0.083721289   0.08705266            2 
  486000    1.0764176   -2.9908815    487.47719  0.083586623   0.08700658            2 
  487000    1.0597727   -2.9733016    488.70859    0.0836257  0.086956994            2 
  488000    1.0704065   -2.9773165    488.48974  0.083416964  0.086906615            4 
  489000    1.0595128    -2.974038    488.71139   0.08328415  0.086857425            3 
  490000    1.0611654    -2.994432    490.64654   0.08344329  0.086809277            5 
  491000    1.0398809   -2.9872957    490.94679  0.083324303  0.086760073            2 
  492000    1.0815602   -2.9585884    491.88262  0.083313452   0.08671081            1 
  493000    1.0528895   -2.9987182    493.38006  0.083397576  0.086661971            2 
  494000    1.0687595   -2.9805116    491.65119  0.082937111  0.086610449            3 
  495000    1.0190871   -2.9851143    493.99205  0.083163645  0.086561266            1 
  496000    1.0638652   -2.9960369    492.32809  0.082716414     0.086512            2 
  497000    1.0693366    -2.984519    495.25506  0.083040755  0.086463499            4 
  498000     1.057595    -2.990112    495.86367  0.082975849  0.086416315            2 
  499000    1.0366916   -2.9726278    497.98001  0.083162995  0.086368912            4 
  500000    1.0682844   -2.9736694    499.63345  0.083272241  0.086324134            2 
  501000    1.0507073   -2.9815413    500.42401  0.083237527  0.086277845            1 
  502000    1.0558586   -2.9737061    499.62544  0.082939151  0.086232139            2 
  503000    1.0549614   -2.9657521    502.64045  0.083273765  0.086186225            2 
  504000    1.0428815   -2.9658705    504.88941  0.083480391  0.086141843            5 
  505000    1.0712622   -2.9530476    504.98039  0.083330097  0.086097065            3 
  506000     1.048203     -2.96887    504.65691  0.083112138  0.086052274            1 
  507000    1.0301452   -2.9645757    505.36022   0.08306381  0.086007123            2 
  508000    1.0240435   -2.9966866    506.76382  0.083130548  0.085962085            2 
  509000    1.0682068   -2.9903556    507.19268  0.083037439  0.085917602            4 
  510000    1.0595195   -3.0133934     506.7075  0.082795343  0.085871842            1 
  511000    1.0521801   -2.9869992    509.17608   0.08303589  0.085826477            2 
  512000    1.0541634   -2.9675924    510.16727  0.083035038  0.085780622            2 
  513000    1.0431168   -2.9963563    509.81204  0.082815472  0.085735899            3 
  514000    1.0536438   -3.0021992     511.0469  0.082854555  0.085691127            3 
  515000    1.0450696   -2.9790074    512.39423  0.082911688  0.085648189            2 
  516000    1.0596188   -2.9743346    514.09855  0.083026252  0.085605477            2 
  517000    1.0541049   -3.0154873    513.24401  0.082727918  0.085562765            2 
  518000    1.0562809   -3.0035162    515.34085  0.082905542  0.085520934            2 
  519000    1.0486971   -2.9749628    514.91066  0.082676728  0.085477572            1 
  520000    1.0440799   -3.0292034    515.81794  0.082663131  0.085433632            3 
  521000    1.0379298   -3.0086189    512.60929   0.08199125  0.085389955            1 
  522000    1.0325362   -2.9527678    517.69428  0.082645958  0.085344391            6 
  523000    1.0511732   -3.0327889    516.06129  0.082227739  0.085300131            3 
  524000    1.0471608   -3.0003059     518.8528  0.082514759   0.08525532            4 
  525000    1.0518561   -2.9887147    519.28134  0.082425609  0.085210705            1 
  526000    1.0550562   -2.9754739    522.10317  0.082715965  0.085167777            2 
  527000    1.0599457   -2.9967418     522.8166  0.082671822  0.085125477            3 
  528000    1.0327976   -3.0028714    524.52639    0.0827851  0.085085582            8 
  529000    1.0490012   -3.0003919    521.67942  0.082180123  0.085042277            3 
  530000    1.0176619   -2.9826358    524.03616  0.082395622  0.084998925            5 
  531000    1.0273843   -2.9886492    522.80883  0.082047838  0.084953868            3 
  532000     1.045088   -2.9756411    525.55355  0.082323551  0.084909068            1 
  533000    1.0417636   -2.9903557     523.0347  0.081775282  0.084862997            3 
  534000    1.0343571   -3.0081532    524.37934  0.081831981  0.084818234            4 
  535000    1.0281337   -2.9872978    527.00866  0.082088576  0.084773759            2 
  536000    1.0639074   -2.9956553     526.0416  0.081785074  0.084730045            2 
  537000    1.0338307   -2.9932771    531.42243  0.082467789  0.084683923            1 
  538000    1.0409737   -3.0039923    528.87122  0.081919334  0.084639843            1 
  539000    1.0179826   -3.0112385    530.55005  0.082026909  0.084596907            4 
  540000     1.024414   -3.0213499     529.0691  0.081646466  0.084554048            2 
  541000    1.0550746   -3.0301356    533.11393  0.082118596  0.084509473            3 
  542000    1.0480102   -3.0291684    532.48823  0.081870884  0.084466623            1 
  543000    1.0767157   -2.9804834    532.20365  0.081676435  0.084424696            2 
  544000    1.0336592   -3.0188982     532.4491  0.081563894  0.084382011            2 
  545000    1.0340964   -2.9876405    537.68573  0.082214944  0.084339783            1 
  546000    1.0553933    -2.997298     535.7073  0.081762409    0.0842962            3 
  547000    1.0379151   -3.0012873    536.46571  0.081728475    0.0842523            1 
  548000    1.0261315   -2.9819822    539.31337  0.082012373  0.084210109            5 
  549000    1.0463862   -2.9910647     540.3821  0.082025213  0.084168919            1 
  550000    1.0351746   -3.0197906    539.76187  0.081782102   0.08412989            2 
  551000    1.0564993   -2.9932877    542.25906  0.082011353  0.084090305            2 
  552000    1.0157686   -3.0299008    541.76229  0.081787785  0.084050919            3 
  553000    1.0168028   -3.0084907      543.739  0.081937764  0.084012004            4 
  554000    1.0354494   -3.0179906    542.35334  0.081581428  0.083973384            2 
  555000    1.0091426   -2.9957467     545.7536  0.081944985  0.083932353            3 
  556000    1.0010251   -3.0011522    543.62573  0.081478676   0.08389227            4 
  557000    1.0146691   -2.9954415    547.86206  0.081966197   0.08385136            3 
  558000    1.0175804   -3.0285521    545.68722  0.081494507  0.083811007            4 
  559000    1.0342495   -3.0301725    546.15667  0.081418705  0.083771412            4 
  560000    1.0340683   -3.0089663    546.70598  0.081355057  0.083731667            2 
  561000    1.0439042   -3.0389924    548.74119  0.081512357  0.083691128            2 
  562000    1.0365809   -3.0240334    548.68212  0.081358559  0.083651783            2 
  563000    1.0164106   -3.0288325    548.49905  0.081186952  0.083612876            2 
  564000    1.0227949   -2.9757973    551.68295  0.081513438  0.083572734            3 
  565000    1.0165744   -3.0019423    551.31243  0.081314518  0.083532235            2 
  566000    1.0125814   -3.0280259    552.61495  0.081362625  0.083493846            4 
  567000    1.0432002   -3.0150018    554.79138  0.081539003  0.083454551            3 
  568000    1.0360779   -3.0134398    553.36713  0.081186492  0.083415454            3 
  569000    1.0447709   -3.0092763    557.00182   0.08157613  0.083376854            1 
  570000    1.0314993   -3.0236306    553.68628  0.080948287    0.0833374            3 
  571000    1.0292489   -3.0168258    556.00678   0.08114518  0.083297938            4 
  572000    1.0418855   -3.0450446     554.6418  0.080804458  0.083258515            2 
  573000    1.0057947   -3.0379043    556.47615  0.080930214  0.083217901            3 
  574000    1.0069851   -3.0042336    557.76154  0.080975833  0.083176572            4 
  575000    1.0079776    -3.028462    558.21661  0.080900958  0.083134685            2 
  576000    1.0236074   -3.0350747    559.10881  0.080889585  0.083092341            2 
  577000    1.0368189   -3.0289967    560.99819  0.081022268  0.083050674            1 
  578000    1.0369539   -3.0180454    558.33885  0.080498681  0.083009963            3 
  579000    1.0337902   -3.0366292    560.18921  0.080625966  0.082967025            3 
  580000    1.0376882   -3.0219865    561.79028  0.080716994  0.082925666            2 
  581000    1.0204554    -3.027148    562.38508  0.080663379  0.082884968            5 
  582000    1.0348593   -3.0258245    561.13491  0.080345777  0.082843867            2 
  583000    1.0228449    -3.047629    562.36459  0.080383732  0.082802707            1 
  584000    1.0022059   -3.0225732    564.80936  0.080594943  0.082762433            3 
  585000    1.0324667   -3.0224356    566.09348  0.080640097    0.0827227            4 
  586000    1.0210502   -3.0120478    567.43413  0.080693135  0.082682008            4 
  587000    1.0223552   -3.0328834    565.17528  0.080234991  0.082641646            3 
  588000    1.0254026   -3.0288889    566.10107  0.080229744  0.082600682            1 
  589000    1.0064791   -3.0576131    566.16384  0.080102411  0.082559359            2 
  590000    1.0124315   -3.0272961    568.58768  0.080308994  0.082518162            1 
  591000    1.0315864   -3.0236617    574.02083  0.080939203  0.082477022            3 
  592000    1.0262926   -3.0566994    571.09843  0.080391108    0.0824347            2 
  593000    1.0174628   -3.0356862    573.84812  0.080641951  0.082395077            2 
  594000    1.0112876   -3.0570134    572.44687  0.080309606  0.082354177            3 
  595000    1.0321438   -3.0461635    573.20835  0.080281282  0.082314116            1 
  596000    1.0121857   -3.0597435     573.8614  0.080237891  0.082273554            3 
  597000    1.0338155   -3.0189877    573.23035  0.080015403  0.082233271            4 
  598000   0.98464932    -3.039243    577.76499  0.080513516  0.082193049            3 
  599000    1.0195057   -3.0322869    574.69874  0.079952524  0.082152659            5 
  600000      1.01488   -3.0376186    576.97294   0.08013513  0.082112672            3 
  601000    1.0430844   -3.0131025    577.29089  0.080045881  0.082073723            1 
  602000    1.0090841   -3.0351609    577.75851  0.079977645  0.082034461            1 
  603000    1.0069948   -3.0217827    577.54317  0.079815253  0.081993143            1 
  604000    1.0081951   -3.0506049    578.17379  0.079770115  0.081952268            6 
  605000    1.0342501   -3.0110382    580.14553  0.079909853  0.081911052            3 
  606000    1.0097871   -3.0315569    584.17123  0.080331577  0.081870682            1 
  607000    1.0034416   -3.0270061    584.38421  0.080228474  0.081830796            3 
  608000    1.0118085   -3.0595799    580.98901  0.079631169  0.081790628            5 
  609000    1.0120336   -3.0455891    582.10511  0.079653135  0.081750833           11 
  610000    1.0124663   -3.0424576    585.49051  0.079985042  0.081710875            3 
  611000    1.0073955   -3.0102972    587.02791  0.080063817  0.081671822            1 
  612000   0.98803429   -3.0490693    585.05672  0.079664586  0.081632884            2 
  613000     1.015224   -3.0476868    586.52862  0.079734723  0.081594022            5 
  614000   0.98357303   -3.0513731    586.27274  0.079570133  0.081555842            2 
  615000    1.0060543   -3.0231204     591.6969  0.080175732  0.081518252            2 
  616000    1.0234251   -3.0397174    591.17949  0.079975581  0.081480533            2 
  617000    1.0054401    -3.037846    590.37109  0.079736776  0.081441861            6 
  618000    1.0176106   -3.0640127    590.33515  0.079602906  0.081401745            2 
  619000    1.0160405   -3.0287765    589.83757   0.07940732  0.081362423            2 
  620000   0.99307244   -3.0542447    589.91106  0.079289121  0.081322192            2 
  621000    1.0143006   -3.0322296    591.71612  0.079403666  0.081282313            4 
  622000     1.007521   -3.0298942    593.91165  0.079570157  0.081243314            3 
  623000    1.0246522   -3.0415472    593.55062  0.079394143  0.081204908            2 
  624000    1.0025057   -3.0304519    594.71012  0.079421758   0.08116515            2 
  625000    1.0019174   -3.0356486    596.44658  0.079526211  0.081126793            2 
  626000     1.001388   -3.0449052     595.5726  0.079282827  0.081088405            2 
  627000   0.99827988   -3.0732005    595.21419  0.079108744  0.081049957            3 
  628000    1.0152228   -3.0453157    596.36703  0.079135752  0.081010251            1 
  629000   0.98446804    -3.045346    598.01825  0.079228703  0.080971382            2 
  630000    1.0113043    -3.056015    598.51148  0.079168185  0.080932366            1 
  631000   0.99184328   -3.0587243    594.96755   0.07857469  0.080893276            2 
  632000   0.98299184   -3.0252642    601.42929  0.079302386  0.080854324            3 
  633000    1.0199939   -3.0618126    600.27791  0.079025528  0.080816681            1 
  634000    1.0135059   -3.0523132    602.18918  0.079152101  0.080778161            3 
  635000    1.0074022   -3.0448877    603.68972  0.079224372   0.08074038            4 
  636000   0.99700214    -3.025075    605.31779  0.079313128  0.080702413            4 
  637000   0.99259333   -3.0332914    602.83597  0.078863942  0.080664737            1 
  638000    1.0004999   -3.0494046     604.5318  0.078961834   0.08062634            2 
  639000   0.99983267   -3.0368593     604.6558  0.078854434  0.080587882            3 
  640000   0.99230585   -3.0677651    603.77231  0.078616186  0.080550852            2 
  641000   0.97860619   -3.0499858    608.16824  0.079065033  0.080513777            3 
  642000   0.98933019   -3.0627536    609.02609   0.07905323  0.080476895            2 
  643000    1.0011476    -3.083493    608.12782   0.07881387  0.080440212            1 
  644000    1.0232136   -3.0648002    609.46201  0.078864131  0.080402704            2 
  645000    0.9749574   -3.0492363    610.83257  0.078918936  0.080365315            2 
  646000    1.0056169   -3.0490612    610.69347  0.078778828  0.080328108            2 
  647000   0.97863913   -3.0714874    609.14918  0.078458163  0.080290718            2 
  648000    1.0093593   -3.0375626    612.47377  0.078764631  0.080254417            3 
  649000    1.0058271   -3.0479167    615.44001  0.079024141  0.080217358            3 
  650000    0.9936795    -3.039599    615.84108  0.078953984  0.080180333            3 
  651000    1.0000182   -3.0458545     615.3155  0.078765425  0.080144431            3 
  652000    0.9803357   -3.0515295    616.40851  0.078784319  0.080107853            4 
  653000   0.99564338   -3.0465826    616.54119  0.078680601  0.080072157            2 
  654000   0.99504776   -3.0504019    615.90247  0.078478908  0.080034789            2 
  655000   0.98220639   -3.0807305    616.64865  0.078454026  0.079998063            2 
  656000   0.97918777   -3.0489914    617.63603  0.078459862  0.079960385            4 
  657000    1.0056508   -3.0221002    621.21394  0.078794259  0.079923211            3 
  658000   0.99393896   -3.0642054    619.45357  0.078451566  0.079885781            1 
  659000   0.99626109   -3.0610026    618.81999  0.078252402  0.079849164            4 
  660000   0.97630939   -3.0503163    619.38666  0.078205386  0.079811919            1 
  661000   0.99465922   -3.0647065    619.30587  0.078076887  0.079775843            3 
  662000    1.0017498   -3.0537058     622.2248  0.078326384  0.079739253            3 
  663000   0.97234567   -3.0777194    623.29675   0.07834298  0.079703414            5 
  664000   0.97791747   -3.0611497     626.6542  0.078646361  0.079668064            5 
  665000    0.9916217   -3.0548585    623.48764  0.078131283    0.0796335            2 
  666000   0.97670924    -3.047691    624.92619  0.078193967  0.079598295            3 
  667000   0.98001575   -3.0802782    625.18602  0.078109198   0.07956292            3 
  668000   0.98155832   -3.0638844    626.56238  0.078163969  0.079528426            1 
  669000    0.9809508   -3.0697438     627.3544   0.07814579  0.079493748            3 
  670000   0.98329345   -3.0846147    626.47521  0.077919803  0.079459043            3 
  671000    1.0007028   -3.0394131    632.47132  0.078548351  0.079423871            2 
  672000   0.99304228   -3.0543168    630.69291  0.078210927  0.079390017            2 
  673000    0.9920272    -3.066129     629.8919   0.07799553  0.079354369            2 
  674000   0.98308212   -3.0686743    631.54142  0.078083757  0.079319581            9 
  675000   0.98233258   -3.0927206    630.73385  0.077868376  0.079284001            3 
  676000   0.98093452   -3.0539792    634.28125  0.078190489  0.079249128            3 
  677000    0.9674954   -3.0769367    632.77751  0.077889895  0.079215062            1 
  678000   0.97795474   -3.0736481    632.74383  0.077770874  0.079179923            2 
  679000   0.97480423   -3.0996505    636.28183  0.078090554  0.079145772            4 
  680000    0.9865381   -3.0601209    638.39442   0.07823461  0.079112109            2 
  681000   0.97234794   -3.0814757    636.12486  0.077842004  0.079077866            3 
  682000    0.9831714   -3.0696855    637.10139  0.077847189   0.07904467            3 
  683000   0.98132128   -3.0642051    639.35605  0.078008303   0.07901046            5 
  684000   0.97688907   -3.0955117    638.82264  0.077829269  0.078976932            3 
  685000    0.9895611   -3.0768476    639.21033  0.077762813  0.078944171            3 
  686000   0.95580748   -3.0781921    641.91481   0.07797799  0.078910319            3 
  687000   0.97692679    -3.098313    639.33597   0.07755167  0.078878214            4 
  688000   0.97821426   -3.0783168    641.61299  0.077714751  0.078845279            2 
  689000    0.9805858   -3.0734982    643.28054  0.077803645  0.078812373            7 
  690000   0.97033301   -3.0596044    645.71085  0.077984402  0.078780159            2 
  691000   0.96378042   -3.0962282    647.31717  0.078065264  0.078748869            5 
  692000    1.0003904   -3.1096372    643.90117  0.077541085  0.078716962            2 
  693000   0.96865698   -3.0746938    650.60401   0.07823521  0.078685844            2 
  694000   0.98586492   -3.0716917     647.8156  0.077787657  0.078654584            2 
  695000   0.98184814   -3.0659443    650.83225   0.07803744  0.078623801            2 
  696000   0.96826497   -3.0807767    649.48723  0.077764276  0.078591629            2 
  697000   0.99011995   -3.0896739    648.39449  0.077522058  0.078560335            3 
  698000   0.97506893   -3.0946081    650.65287   0.07768062  0.078528106            3 
  699000   0.95993337   -3.0624801    650.97322   0.07760768  0.078495464            1 
  700000   0.95308017    -3.096907    650.51845  0.077442672  0.078463118            2 
  701000   0.98322363   -3.0965314    651.12529  0.077404338  0.078431165            2 
  702000   0.98290771    -3.086322    652.94142  0.077509665   0.07839919            2 
  703000   0.98944683   -3.0735225     654.7358  0.077612115  0.078367316            3 
  704000   0.97483589   -3.0921493     656.4886  0.077709351  0.078334403            4 
  705000   0.98284005   -3.0678584    656.28926  0.077575563   0.07830261            7 
  706000   0.97507293   -3.0961497    657.36344  0.077592474  0.078271368            2 
  707000   0.97726595   -3.1176235    653.25438  0.076998394  0.078239957            4 
  708000   0.96968908   -3.0896239    659.92564  0.077674864  0.078208412            3 
  709000   0.95581837   -3.0907538    659.59003  0.077525861  0.078177398            3 
  710000   0.97839987   -3.1049015    657.27633  0.077145109  0.078145153            2 
  711000   0.97948197   -3.0966526    658.93334  0.077230818   0.07811299            3 
  712000   0.98035939   -3.0868376    658.11179  0.077026193  0.078080547            4 
  713000   0.96542601   -3.0854095    660.48762  0.077195842  0.078048162            1 
  714000   0.97500379   -3.0889645    662.59489   0.07733367  0.078016047            4 
  715000   0.98295886   -3.1201736     661.3512  0.077080559  0.077982254            2 
  716000   0.94902451   -3.0744281    661.91271  0.077038258  0.077949093            2 
  717000   0.97546013     -3.09938    663.48905  0.077114022  0.077915629            5 
  718000   0.93679364   -3.0899429    661.34631  0.076757928   0.07788148            2 
  719000   0.98421371   -3.1082548    660.48944  0.076551859  0.077847445            7 
  720000   0.97071831   -3.0865183    661.29657  0.076538954  0.077813103            7 
  721000   0.95830996   -3.1025413    663.77183  0.076718889  0.077779661            3 
  722000   0.94953725   -3.0789272    664.60229  0.076708483  0.077745963            2 
  723000   0.97012941   -3.0863572    665.51096  0.076707118  0.077711797            4 
  724000   0.96095868   -3.1206053    662.07367  0.076205532  0.077677013            3 
  725000   0.94909889   -3.0811587    666.60326  0.076621065  0.077641625            1 
  726000   0.96824774   -3.1127507    667.79089  0.076651847  0.077606605            1 
  727000   0.95506108   -3.1172809    663.71022  0.076078659  0.077570354            2 
  728000    0.9747215   -3.0904739    663.68897  0.075971723  0.077534509            6 
  729000   0.97566321   -3.0903586    666.85143  0.076229015  0.077498152            2 
  730000   0.98127589   -3.1144571    668.80484  0.076347584  0.077462073            3 
  731000   0.94408765   -3.0826526    668.26691  0.076181818  0.077426328            2 
  732000   0.98293733   -3.1167458     669.1093  0.076173645   0.07739078            2 
  733000   0.95086883   -3.1331398    669.85644  0.076154666  0.077355949            3 
  734000   0.94786888   -3.1088794    669.55844   0.07601708  0.077321254            2 
  735000   0.95161049   -3.1015127     672.0367  0.076194637  0.077286097            3 
  736000   0.92970854   -3.0928591     674.4425  0.076363508  0.077251207            4 
  737000   0.98207073   -3.1149354    670.84219  0.075852803  0.077215619            2 
  738000   0.95547569   -3.1248743    672.85702  0.075977531  0.077180322            2 
  739000   0.96607257   -3.0956335    674.62814   0.07607444  0.077144817            3 
  740000   0.96430369   -3.1278815    673.99396  0.075900221  0.077110597            3 
  741000   0.97614524   -3.0968985    674.86686  0.075895958  0.077076372            2 
  742000   0.96541356   -3.1196555    676.52568  0.075979972  0.077041849            5 
  743000   0.94749009   -3.1102654    676.08683  0.075828491  0.077007015            2 
  744000   0.95818765   -3.0823026    681.25271  0.076305187   0.07697248            2 
  745000   0.94946412   -3.1158288    679.99775  0.076062389  0.076939191            4 
  746000   0.96203679   -3.1396733    680.63774  0.076031919  0.076905368            3 
  747000   0.96421283   -3.1000365    680.27296  0.075889443  0.076872603            2 
  748000   0.95502934      -3.1232    682.44557  0.076030032   0.07683944            4 
  749000   0.95016352   -3.0819174    684.14439  0.076117533  0.076806229            4 
  750000   0.96222273   -3.1131915    683.81355  0.075979283  0.076773013            2 
  751000   0.94248849   -3.1220318    683.97421  0.075895939  0.076739342            2 
  752000   0.95983295   -3.1104103     682.6345  0.075646554  0.076705541            2 
  753000   0.93729399   -3.1169079    682.38934  0.075518962  0.076670354            2 
  754000   0.95887608   -3.1181531    684.56388  0.075659138  0.076635251            2 
  755000   0.95400602   -3.0917472    683.92277  0.075488165  0.076601376            2 
  756000   0.95484623   -3.1131817    684.69247  0.075473156   0.07656815            4 
  757000   0.95616518   -3.1395124    685.37923  0.075449057  0.076534586            4 
  758000    0.9660328   -3.1089603     686.9242  0.075519371  0.076501203            2 
  759000   0.94999162   -3.0980249    689.19093  0.075668745  0.076468114            2 
  760000   0.95143488   -3.1147251    689.50462  0.075603576  0.076434618            4 
  761000    0.9497447   -3.1212001    689.32708  0.075484788  0.076401426            3 
  762000   0.97066268   -3.1177791    691.22762  0.075593572  0.076368092            4 
  763000   0.96065592   -3.1335587    692.38842  0.075621278  0.076335176            2 
  764000   0.96496116   -3.1277559    693.36159  0.075628446  0.076301552            2 
  765000   0.95593213   -3.1254482    691.14319  0.075287929  0.076269403            3 
  766000   0.96118658   -3.1179589    692.69981  0.075358987  0.076236881            8 
  767000   0.95845176   -3.1166305    692.37059  0.075224966  0.076204447            4 
  768000   0.94463729   -3.1174081    694.45704  0.075353412  0.076171712            3 
  769000   0.93889249   -3.1123309    696.63714  0.075491671  0.076139013            3 
  770000   0.94621071   -3.1301254    695.79924  0.075302948  0.076105716            3 
  771000   0.94207586   -3.1154512    694.06094  0.075017395  0.076072424            5 
  772000   0.96166085   -3.1377486    698.01823  0.075347391  0.076039258            3 
  773000   0.95710273   -3.1412807    695.93891  0.075025756   0.07600621            2 
  774000   0.95142926   -3.1214125    699.00164  0.075258574  0.075972663            2 
  775000   0.94651236    -3.106088    697.40175  0.074989436   0.07593973            2 
  776000   0.94669259   -3.1420737    699.62048  0.075131066  0.075906362            4 
  777000   0.93213505   -3.1470989    700.99286  0.075181559  0.075872602            5 
  778000   0.95804273   -3.1369898    700.21336   0.07500143  0.075840148            2 
  779000   0.94186342   -3.1257155    702.13959   0.07511121  0.075807581            4 
  780000   0.95087951   -3.1450608    702.69609  0.075074368  0.075775431            3 
  781000   0.92561505   -3.1130347    702.41553  0.074948307  0.075742958            6 
  782000   0.92489387   -3.1292331    703.11262   0.07492675  0.075710086            5 
  783000   0.94718096   -3.1230844    705.77054  0.075113936  0.075678643            2 
  784000   0.94218831   -3.1638201    706.63159   0.07510965  0.075647278            1 
  785000   0.93933769   -3.1117882    709.51166  0.075319709   0.07561586            2 
  786000   0.94500224   -3.1403297    704.19312      0.07466  0.075584037            4 
  787000   0.94226789    -3.117794    709.62221  0.075140005  0.075553196            2 
  788000   0.94139288   -3.1359547     707.4333  0.074813166  0.075521688            3 
  789000   0.94021025   -3.1317798    709.31228  0.074916802  0.075490567            4 
  790000   0.95627071   -3.1337078    711.96599  0.075101898  0.075459232            2 
  791000   0.93089872   -3.1219424    711.90756  0.075000796  0.075428729            4 
  792000   0.93345545   -3.1532795    710.70989  0.074780081  0.075398258            2 
  793000   0.92864449   -3.1400738    712.51335    0.0748753  0.075367635            6 
  794000   0.91923093   -3.1274899    712.05222  0.074732601  0.075336418            5 
  795000   0.93399748   -3.1505977     714.0097  0.074843784  0.075305825            3 
  796000   0.94080719   -3.1343313    711.92746  0.074531769  0.075274158            4 
  797000   0.93991152   -3.1289769     713.6892  0.074622459  0.075242325            2 
  798000   0.93232703   -3.1198823    715.09232  0.074675472  0.075210532            1 
  799000   0.92508878   -3.1638369     712.2756  0.074288236  0.075178145            2 
  800000   0.93686798    -3.129459    712.23835  0.074191495  0.075145827            3 
  801000   0.94320497   -3.1390192    714.08062  0.074290535  0.075113526            3 
  802000   0.93823875   -3.1266332    717.52793  0.074556103  0.075081359            3 
  803000   0.93610171   -3.1487785     716.4993  0.074356507   0.07505005            2 
  804000   0.92611201   -3.1657493    716.05304   0.07421777  0.075018581            5 
  805000    0.9401074    -3.144361    719.16613  0.074447839   0.07498669            3 
  806000   0.92617378   -3.1370538     719.8937  0.074430697  0.074954837            6 
  807000   0.92305589   -3.1437758    719.66202  0.074314541  0.074923412            3 
  808000   0.92638208   -3.1565648     717.8391   0.07403456  0.074892232            4 
  809000   0.92992186   -3.1564884    721.31728  0.074301327   0.07486061            6 
  810000   0.92074535   -3.1226234    719.12723  0.073984283   0.07482968            6 
  811000   0.93738388   -3.1507715    720.21304  0.074004628  0.074798357            4 
  812000   0.91356331   -3.1565959    722.58294  0.074156705  0.074766057            3 
  813000   0.92221022   -3.1344588    723.41402  0.074150679  0.074734352            5 
  814000   0.91984952   -3.1439198    723.05433  0.074022761  0.074702781            3 
  815000   0.90793959   -3.1400104    726.01719  0.074234887  0.074670288            7 
  816000   0.94025444   -3.1659558    722.52804  0.073787586   0.07463643            2 
  817000   0.93509469   -3.1105975    724.64595  0.073913296  0.074603793            7 
  818000   0.93599139   -3.1191327    726.82678  0.074045108  0.074571497            5 
  819000    0.9381839    -3.121142    723.91996   0.07365893  0.074538727            4 
  820000   0.91042266   -3.1463833    728.54264  0.074038886  0.074504814            2 
  821000   0.93331199   -3.1339454    724.20776  0.073508705  0.074471318            6 
  822000   0.93499791   -3.1080336    729.34571  0.073940157  0.074438645            1 
  823000    0.9316253   -3.1800353    724.79471  0.073389501    0.0744053            3 
  824000   0.90727395   -3.1447793    726.46994  0.073469857   0.07437234            3 
  825000   0.92766042   -3.1622781     728.8876   0.07362501  0.074339349            1 
  826000   0.93156549   -3.1851163    730.20132  0.073668414  0.074306008            3 
  827000   0.92143591    -3.168957    731.25644  0.073685655  0.074272607            3 
  828000   0.91173964   -3.1670958    730.21953  0.073492303  0.074239705            4 
  829000   0.93961778   -3.1740764    730.72558  0.073454521  0.074207311            3 
  830000   0.93139335   -3.1430254    730.89531  0.073383063  0.074175132            4 
  831000   0.92846217    -3.155972    728.60644  0.073065227   0.07414184            3 
  832000   0.92747782   -3.1490933    729.74728  0.073091675  0.074108672            2 
  833000   0.91603273   -3.1338237    731.65771  0.073195049  0.074075254            5 
  834000   0.92096127   -3.1737744    731.95542  0.073137032  0.074041525            3 
  835000   0.91948726   -3.1613976    732.47739  0.073101536  0.074007996            5 
  836000   0.93062144   -3.1356246    731.50589  0.072917253  0.073974749            6 
  837000   0.90642984   -3.1697591    732.68887  0.072947916  0.073941604            2 
  838000   0.90523942   -3.1297444    735.64198  0.073154533  0.073909116            2 
  839000   0.94303892   -3.1422008    733.78192   0.07288259  0.073876091            1 
  840000   0.92807074   -3.1697205    737.82738   0.07319716  0.073843777            5 
  841000    0.9278744    -3.179678    735.03576  0.072833508  0.073810905            1 
  842000   0.89600739   -3.1618698    739.77122  0.073215679  0.073777668            3 
  843000   0.92246609   -3.1489228     738.2881  0.072982216   0.07374426            3 
  844000     0.902791   -3.1763686    737.28935  0.072797131  0.073710855            3 
  845000    0.9101687   -3.1708622    738.28839  0.072809506  0.073677064            2 
  846000   0.92656131   -3.1307462    743.52474  0.073239238  0.073643891            2 
  847000   0.91714489   -3.1610422     740.5064  0.072855805  0.073610341            3 
  848000   0.90398573   -3.1595723    740.00892  0.072721003   0.07357686            3 
  849000   0.91115043   -3.1727127    737.23527  0.072363101  0.073543279            3 
  850000   0.92062292   -3.1693833     737.6799  0.072321559  0.073509518            8 
  851000   0.91265087   -3.1597167    741.93444  0.072653196   0.07347642            1 
  852000   0.91149735   -3.1735149     739.8296   0.07236205  0.073443318            2 
  853000   0.91570794   -3.1890168    743.28493  0.072614784  0.073410058            9 
  854000   0.91890859   -3.1526952      742.846  0.072486924  0.073376139            5 
  855000   0.90905754   -3.1486978    744.43599  0.072557114  0.073342824            4 
  856000   0.90161006   -3.1745764    747.97766   0.07281714  0.073309919            2 
  857000   0.92879069   -3.1610645    747.87946  0.072722623  0.073277351            2 
  858000   0.91248766   -3.1871275    748.03146  0.072652628  0.073244751            3 
  859000   0.93387206   -3.1964775    747.28248   0.07249539  0.073212592            5 
  860000   0.90954277   -3.1590538    748.87645  0.072565548  0.073180303            3 
  861000   0.91901645   -3.1583821    750.49279  0.072637707  0.073148507            3 
  862000   0.90070027   -3.1799782    750.10028  0.072515495    0.0731166            3 
  863000   0.91046354   -3.1859718    752.23586  0.072637684  0.073084484            5 
  864000   0.89320058   -3.1642297    751.17954  0.072451731   0.07305243            3 
  865000   0.92476602    -3.151657    753.97641  0.072637419  0.073021656            3 
  866000    0.8934144      -3.1776    752.19204  0.072381836  0.072990125            5 
  867000   0.91018711   -3.1771837    751.37503  0.072219822  0.072958529            3 
  868000   0.91040707    -3.151668    755.03691  0.072488183  0.072927102            6 
  869000   0.89882191   -3.1776639    755.41765  0.072441279  0.072895204            6 
  870000   0.88412108   -3.1625587    757.79142  0.072585385  0.072863921            3 
  871000   0.91359924   -3.1807235    753.65713  0.072106499  0.072832509            1 
  872000   0.91589493   -3.1597661    757.05364  0.072348399  0.072801484            4 
  873000   0.89723078   -3.1965276    755.41118  0.072108742  0.072770976            2 
  874000   0.91957486   -3.1727007    755.00746  0.071987744  0.072739284            1 
  875000   0.91218482   -3.2032094    758.81212  0.072267821  0.072707829            1 
  876000   0.90246566   -3.1611957    758.09978  0.072117559  0.072676375            2 
  877000   0.91151413   -3.1568374    761.90795  0.072397182  0.072644832            3 
  878000   0.92159975   -3.2048969    757.64717  0.071910324  0.072613321            3 
  879000   0.90545373   -3.1672339     760.2947  0.072079513  0.072581851            3 
  880000   0.90044809   -3.1827058    757.68947  0.071750896   0.07255017            2 
  881000   0.90079841   -3.1693637    761.05102  0.071987422  0.072518243            6 
  882000   0.90472195   -3.1864796    761.57466  0.071955278  0.072486402            2 
  883000   0.91558275   -3.2097505    762.73418  0.071983218  0.072455066            2 
  884000   0.90424993   -3.2072602    762.92806  0.071920066  0.072422963            2 
  885000   0.88423604    -3.158959     765.7789  0.072107241  0.072390971            6 
  886000   0.89559024    -3.196218    764.60694  0.071915627  0.072359424            2 
  887000   0.92916187   -3.1738361    761.46207   0.07153909    0.0723281            2 
  888000   0.87835493   -3.1776282     766.3076  0.071913251   0.07229622            3 
  889000   0.89397608   -3.2160024    765.43814  0.071750857  0.072264795            3 
  890000   0.87852666   -3.2099232    764.99417  0.071628667  0.072233322            2 
  891000   0.90583412   -3.1863509    766.92799  0.071729143  0.072202479            2 
  892000   0.90909773   -3.1888249     770.4434  0.071977149  0.072172328            1 
  893000   0.91284154   -3.2034916     768.3403  0.071700289  0.072141736            5 
  894000   0.88978074   -3.1854735    768.21202   0.07160813  0.072111925            2 
  895000    0.8679711   -3.2092698    768.92563  0.071594565  0.072080943            3 
  896000   0.90301787   -3.1946475    770.08786  0.071622755  0.072049831            6 
  897000   0.90115418   -3.1715005    770.73446  0.071602979  0.072018607            4 
  898000   0.88353259   -3.1617779    768.90927  0.071353867  0.071986519            3 
  899000    0.8989968   -3.1871153     769.2069  0.071302086  0.071953939            2 
  900000   0.89497608   -3.1965215    770.26993  0.071321289  0.071921932            2 
  901000   0.88425041   -3.2075986    772.53899  0.071451997  0.071889962            4 
  902000   0.90346188   -3.1731156    772.41623   0.07136144  0.071858395            4 
  903000   0.87545283   -3.2306045    771.90256   0.07123501   0.07182636            4 
  904000    0.8959928   -3.1992258    773.98945  0.071348585  0.071794555            3 
  905000   0.90038749   -3.2125983    773.97944  0.071268825  0.071762411            3 
  906000   0.89122089   -3.1996589    775.23982  0.071306091  0.071730944            1 
  907000   0.90002244   -3.1938358    772.38499  0.070965178   0.07169924            2 
  908000   0.88462433   -3.1754167     774.7691  0.071105828  0.071667515            3 
  909000   0.90372742   -3.2036045    776.82574  0.071216148    0.0716357            3 
  910000   0.87922653   -3.2183583    774.38374  0.070914262  0.071603649            2 
  911000   0.86193444   -3.2122878    775.93055  0.070977914   0.07157213            4 
  912000   0.89846812    -3.181743    776.63109  0.070964098  0.071540552            3 
  913000   0.87105473   -3.2168249    779.50407  0.071148601  0.071509827            2 
  914000   0.89661028   -3.2003728    780.89624  0.071197688  0.071478969            4 
  915000   0.89515194   -3.2185166    781.60862  0.071184756  0.071448868            3 
  916000   0.89379129    -3.215408    779.86505  0.070948422  0.071417651            1 
  917000   0.89708117   -3.1981784    782.74891  0.071133125   0.07138652            3 
  918000   0.88943573   -3.1818574    781.86833  0.070975702   0.07135584            2 
  919000   0.86593651   -3.2025346    785.32077  0.071211532  0.071325123            2 
  920000   0.89208491   -3.2040947    785.02889  0.071107689  0.071294056            3 
  921000   0.87473709   -3.1967714    784.28679  0.070963336  0.071263492            7 
  922000   0.89000404   -3.1989002     781.9394  0.070674205   0.07123283            2 
  923000   0.90365517   -3.2088667    782.83768  0.070678736  0.071202572            7 
  924000   0.87767801   -3.2110548    784.00088   0.07070715  0.071171702            7 
  925000   0.86876188   -3.2116148    786.94807  0.070896223  0.071140667            3 
  926000   0.87999441   -3.2295156    787.20589  0.070842863  0.071109495            3 
  927000   0.89180889   -3.2296207    783.16686   0.07040335  0.071077823            4 
  928000   0.87487027   -3.2231199    786.95578  0.070667724  0.071046678            3 
  929000   0.86602475   -3.2293013    787.69854  0.070658283  0.071015073            3 
  930000   0.88393135   -3.2414763    785.97105  0.070427513  0.070983001            5 
  931000   0.87863775   -3.2442251    783.68512  0.070147254  0.070950635            3 
  932000   0.87887802   -3.2262611    785.35771   0.07022154  0.070918429            3 
  933000   0.87421508   -3.1959067    788.47672  0.070424858  0.070886468            5 
  934000   0.89073682    -3.204927    787.87199  0.070295502  0.070854724            4 
  935000   0.87555142   -3.1901754    790.10161  0.070419038  0.070822783            1 
  936000   0.88749661   -3.2175151    791.30744  0.070451161  0.070790729            3 
  937000   0.88513976   -3.2255506    791.44259  0.070387993  0.070758825            3 
  938000   0.88172705   -3.2258316    786.89913  0.069909304  0.070727108            4 
  939000   0.86864044   -3.2221514    790.36026  0.070142018  0.070695333            2 
  940000   0.87757854   -3.2204068    793.84822  0.070376615  0.070663817            2 
  941000   0.89384735   -3.1814221    792.34823  0.070168989  0.070632534            3 
  942000   0.86673748   -3.2067712     791.7214  0.070039048  0.070601107            3 
  943000   0.87110701   -3.2200569    791.44902  0.069940705  0.070569199            2 
  944000   0.89536362   -3.2373957    794.58862   0.07014377  0.070538063            2 
  945000   0.87275561   -3.2370813    796.07569  0.070200678  0.070506806            3 
  946000   0.87876753   -3.2450164    794.94893  0.070027213  0.070475477            3 
  947000   0.86305851   -3.2350757    796.03499  0.070048838  0.070444001            2 
  948000   0.88751487   -3.1944737    794.72536  0.069859824  0.070412087            2 
  949000   0.88482066   -3.2256214    793.47658  0.069676552  0.070380285            3 
  950000     0.870225   -3.2471533       792.87      0.06955  0.070348097            3 
  951000   0.91612142   -3.2077838    794.82598  0.069648263  0.070315659            2 
  952000    0.8752749   -3.2230044    798.00065  0.069852998   0.07028397            2 
  953000   0.88627539   -3.2269495    795.44166  0.069555934  0.070251778            4 
  954000    0.8637004   -3.2215287    797.37698  0.069652077   0.07021994            3 
  955000   0.86725634   -3.2141921    799.51941  0.069766091   0.07018772            2 
  956000   0.87477453   -3.2376328    798.85701  0.069635374   0.07015537            4 
  957000   0.85614637   -3.2360141    796.99252  0.069400254  0.070122969            2 
  958000   0.86254611   -3.2506297    798.49753  0.069458727  0.070090604            2 
  959000   0.87953303   -3.2278846    796.66572  0.069227122  0.070057898            3 
  960000   0.85571725   -3.2171946    799.79415  0.069426576  0.070025036            3 
  961000   0.86552224   -3.2221887    799.54414  0.069332652  0.069992976            5 
  962000   0.86349602   -3.2442849     802.6044  0.069525676   0.06996058            4 
  963000   0.87606972    -3.246892    801.07167  0.069320844   0.06992844            4 
  964000    0.8448416   -3.2360857    801.89343  0.069319972  0.069896426            2 
  965000   0.87697362   -3.2576619    799.37642  0.069030779  0.069863948            3 
  966000    0.8586635   -3.2274165    803.33899  0.069301155  0.069831611            2 
  967000   0.86454178   -3.2417834    802.10169  0.069122862  0.069798924            3 
  968000   0.87668228   -3.2375852    805.32265  0.069328741  0.069765735            2 
  969000   0.84878634   -3.1993718    803.37975  0.069090106  0.069732525            2 
  970000   0.86500238   -3.2240203    802.13429   0.06891188  0.069699671            2 
  971000   0.86676706   -3.2151479    804.86699  0.069075437  0.069667152            2 
  972000   0.87502091   -3.2326982    804.74715  0.068994097  0.069634411            4 
  973000   0.87431061   -3.2320706    804.93518  0.068939292  0.069601591            4 
  974000   0.86303045   -3.2234906    807.10477  0.069054138  0.069569058            4 
  975000   0.86409545   -3.2461394    807.06439  0.068979862    0.0695356            2 
  976000   0.86667073   -3.2073208    808.12064  0.068999371  0.069502547            3 
  977000    0.8809935   -3.2717015    805.14001  0.068674515  0.069468992            2 
  978000   0.85793765   -3.2462189    805.28922  0.068617009  0.069435358            2 
  979000   0.86018339   -3.2430134    805.62861   0.06857581  0.069402039            3 
  980000   0.85618739   -3.2176358    811.31143  0.068989067  0.069369066            5 
  981000   0.86315926   -3.2431978    805.83598  0.068453617  0.069336274            4 
  982000   0.84862979   -3.2386777    811.00357  0.068822435  0.069303127            2 
  983000   0.86748981   -3.2461387    807.36692  0.068444127  0.069269627            3 
  984000   0.86590477   -3.2183242    809.56021  0.068560316  0.069236194            3 
  985000   0.85822779   -3.2200429    810.93369  0.068606911  0.069202856            1 
  986000   0.86353773   -3.2472445    813.24698  0.068732842  0.069169862            1 
  987000   0.85413821   -3.2166736    811.56611  0.068521286  0.069136583            3 
  988000     0.836361   -3.2463733    808.35043  0.068180704  0.069102629            4 
  989000   0.85311772   -3.2467765    810.03628  0.068253815  0.069068925            2 
  990000   0.84712114   -3.2594342    809.13725  0.068109196  0.069034266            4 
  991000   0.85423478   -3.2217149    809.37643  0.068060581  0.068999813            4 
  992000   0.85921414   -3.2523623    812.98264  0.068294913  0.068965465            6 
  993000   0.84612511   -3.2521994    812.19287  0.068159858  0.068931051            3 
  994000   0.86530825   -3.2459209    810.26001  0.067929243  0.068895848            8 
  995000     0.863987   -3.2507126      809.965  0.067836265  0.068861265            3 
  996000   0.86505758   -3.2366206     809.0232  0.067689358  0.068826048            3 
  997000   0.86551144   -3.2049148    812.02125  0.067872054  0.068790996            3 
  998000   0.84888494   -3.2600713    810.64018  0.067688726  0.068755176            4 
  999000   0.85282335   -3.2468832    813.76744  0.067881835  0.068719402            2 
 1000000   0.87325658   -3.2495023    811.86775  0.067655646  0.068683352            4 
 1001000   0.84521333   -3.2565821    812.79891  0.067665577  0.068647626            3 
 1002000   0.86028917   -3.2491916    812.60798  0.067582167  0.068611915            2 
 1003000   0.85868105   -3.2366872    810.17063  0.067312282  0.068576403            4 
 1004000   0.84782331   -3.2650013    810.67315  0.067286948  0.068540204            3 
 1005000   0.85286942   -3.2422881    811.87362  0.067319537  0.068503548            2 
 1006000    0.8684794   -3.2684882    811.70848   0.06723894    0.0684671            2 
 1007000   0.86705093   -3.2403714    810.43736  0.067066978  0.068430979            4 
 1008000   0.84852041   -3.2554548    813.44413  0.067249018  0.068394877            6 
 1009000   0.84684879    -3.247114    815.64919  0.067364486  0.068359236            2 
 1010000   0.84845808    -3.254511    814.61696   0.06721262  0.068323111            6 
 1011000   0.82753192   -3.2561439    818.88699  0.067498104  0.068287141            3 
 1012000   0.86668528   -3.2604106    813.80481  0.067012913  0.068251005            3 
 1013000   0.86033031   -3.2551458     818.6386  0.067344406  0.068215369            3 
 1014000    0.8404506   -3.2390574    817.90859  0.067217997  0.068179669            2 
 1015000   0.85212748   -3.2604442    817.95977  0.067155974  0.068143862            3 
 1016000   0.85877245   -3.2460635    815.61237   0.06689734  0.068107927            3 
 1017000   0.85471601   -3.2512681    820.68174  0.067246947  0.068072206            4 
 1018000   0.85180165   -3.2659966    819.05097  0.067047394  0.068036914            4 
 1019000   0.85995159   -3.2481332    821.00103  0.067141072  0.068001351            4 
 1020000   0.85301861   -3.2639239    817.75088  0.066809712   0.06796529            5 
 1021000    0.8407185   -3.2590025    816.91765  0.066676269   0.06792933            1 
 1022000   0.85137106   -3.2581376    820.37817  0.066893197  0.067893049            3 
 1023000   0.84243176   -3.2523094     821.0036  0.066878755  0.067857388            3 
 1024000   0.84280772    -3.271194     821.6472   0.06686582   0.06782138            6 
 1025000   0.86780414   -3.2580518    820.10084  0.066674865   0.06778557            7 
 1026000   0.84642658    -3.264381    822.22557  0.066782453  0.067749947            3 
 1027000   0.85246684   -3.2930552    820.89198  0.066609216   0.06771411            4 
 1028000   0.82314842   -3.2687086    824.27782  0.066818889  0.067678123            3 
 1029000   0.84364263   -3.2661883    821.51735  0.066530398  0.067642455            5 
 1030000   0.84383209   -3.2596565    823.14657  0.066597619  0.067606998            4 
 1031000   0.84244503   -3.2681934    820.03739  0.066281716  0.067571095            9 
 1032000   0.84361761   -3.2703717    824.32151  0.066563429  0.067534928            3 
 1033000   0.83789705    -3.304622    824.09813  0.066480972  0.067499498            4 
 1034000   0.84743209   -3.2861688    825.53618  0.066532574  0.067463822            3 
 1035000   0.85135768   -3.2645188    825.67169  0.066479202  0.067427414            2 
 1036000   0.83747427   -3.2509009    827.63121  0.066572652   0.06739164            2 
 1037000   0.85690327   -3.2642819    826.29192   0.06640083  0.067356044            3 
 1038000   0.82551918   -3.2633363    825.88499   0.06630419  0.067320804            2 
 1039000    0.8412368   -3.2645262    828.03939  0.066413169  0.067285269            8 
 1040000   0.86474555   -3.2716268    830.71173   0.06656344  0.067249629            6 
 1041000   0.84354454   -3.2775521     824.5744  0.066008198  0.067214332            3 
 1042000    0.8435941   -3.2871179    827.44009  0.066174031  0.067178931            3 
 1043000   0.85811068   -3.2547513    830.02252  0.066316916  0.067144001            6 
 1044000   0.84354649   -3.2636035    831.98274  0.066409861  0.067109494            3 
 1045000   0.83691689   -3.2635094    831.49424  0.066307356  0.067074411            3 
 1046000   0.82504361    -3.292755    828.69761   0.06602116   0.06703928            8 
 1047000   0.85399487   -3.2756207    831.43306  0.066175825  0.067004262            1 
 1048000   0.85495606   -3.2998642    830.05752  0.066003302  0.066969538            4 
 1049000   0.81381235   -3.2827142    833.75532  0.066234137  0.066934354            3 
 1050000   0.82848711   -3.2781514    834.20667  0.066206879  0.066899691            3 
 1051000   0.84953605   -3.2695879    835.11904  0.066216225  0.066864813            5 
 1052000   0.83386924   -3.2815266    835.81249  0.066208214  0.066830091            2 
 1053000   0.84744761   -3.2760347    834.11217  0.066010777  0.066795397            6 
 1054000   0.82054015   -3.2660463    834.67681   0.06599279  0.066760793            5 
 1055000   0.84155563   -3.2935723    839.25737  0.066292051  0.066726332            3 
 1056000   0.83849155   -3.2848369    835.90976  0.065965101  0.066692044            4 
 1057000   0.82538699    -3.293011    836.08369  0.065916406  0.066657671            2 
 1058000   0.81536752   -3.3124831    837.02875  0.065928541  0.066623556            2 
 1059000    0.8354249   -3.2915116    840.46874   0.06613698   0.06658937            2 
 1060000    0.8583253   -3.2783987    837.63843  0.065852078  0.066556066            4 
 1061000   0.83321096   -3.2687507    837.99933  0.065818357  0.066522406            4 
 1062000    0.8194342   -3.2716222    836.58758  0.065645604  0.066488424            3 
 1063000   0.86541485   -3.3127435    838.25876  0.065714861  0.066454164            7 
 1064000   0.81362703   -3.3006444    836.94693  0.065550355  0.066419297            3 
 1065000   0.84029781    -3.318705    838.34531  0.065598224  0.066384624           10 
 1066000   0.81787797   -3.2899633    838.49591   0.06554846  0.066349973            9 
 1067000   0.83585387   -3.2640929    840.02524  0.065606469  0.066315813            2 
 1068000   0.83889917   -3.3178401    839.34783  0.065492184  0.066281231            4 
 1069000   0.83623024   -3.2763481    838.74232  0.065383717  0.066246793            2 
 1070000   0.82825842   -3.2962853    840.01821  0.065421979  0.066212147            3 
 1071000   0.82033963   -3.2945568    842.12093  0.065524505  0.066177759            8 
 1072000   0.80724893   -3.2971375    841.86291  0.065443323  0.066143395            3 
 1073000   0.82138012   -3.3044111     837.7289  0.065061269  0.066108776            2 
 1074000    0.8119639   -3.2884017    842.83767  0.065397088   0.06607454            2 
 1075000   0.81705991   -3.3128963    841.55276  0.065236648  0.066040316            3 
 1076000   0.83437111   -3.2712488    843.18733  0.065302613  0.066005523            3 
 1077000   0.81222388   -3.2990299    843.67746  0.065279902  0.065971166            4 
 1078000   0.81029543   -3.2894462    844.33465  0.065270149   0.06593666            4 
 1079000   0.83158755   -3.2977381    843.17563  0.065120144  0.065902139            5 
 1080000   0.84254894    -3.297236    846.99751  0.065354746  0.065867848            4 
 1081000   0.82485636   -3.2999149     846.6471  0.065267276  0.065833974            3 
 1082000   0.82773711   -3.2941717      846.179  0.065170902  0.065800164            4 
 1083000   0.82264468   -3.3089511    845.62068  0.065067765  0.065766192            5 
 1084000   0.83516636    -3.313144    848.01366  0.065191702  0.065732304            4 
 1085000   0.82663233    -3.305276    844.39037  0.064853331  0.065698806            6 
 1086000   0.82316828   -3.2902162    850.42165  0.065256419  0.065664967           10 
 1087000   0.81571726   -3.2844868    848.99365   0.06508691   0.06563121            5 
 1088000   0.82049921   -3.3036963    845.69049  0.064774088  0.065597595            3 
 1089000   0.81743467   -3.3186894    847.85766  0.064880445  0.065563898            3 
 1090000   0.81184026   -3.3178398    847.36454  0.064783222  0.065530565            9 
 1091000   0.80248598   -3.2712697    847.48524  0.064733061   0.06549671            4 
 1092000   0.82149794   -3.3073276    847.59286  0.064681995  0.065462502            4 
 1093000    0.8247411   -3.2928719    849.52283  0.064769963   0.06542808            4 
 1094000   0.82033077   -3.3088789    848.05212  0.064598729  0.065393913            3 
 1095000   0.79871968   -3.2906309    850.25192  0.064707148  0.065359502            5 
 1096000    0.8204553   -3.3069281     851.1968  0.064719952  0.065324946            4 
 1097000   0.82848643   -3.3219855    847.59528  0.064387365  0.065290605            4 
 1098000   0.79676086   -3.3069576       849.34  0.064461141  0.065255911            3 
 1099000   0.81931968   -3.3216241    848.92267  0.064370842  0.065221396            3 
 1100000   0.80945685   -3.2991427    854.16093  0.064709161  0.065187321            3 
 1101000   0.82440373   -3.3243285    853.48206  0.064599005  0.065153625            4 
 1102000   0.82632665   -3.3179317    854.93788  0.064650475  0.065119545            5 
 1103000   0.79873041   -3.3154434    855.58533  0.064640777  0.065085526            2 
 1104000   0.81747004   -3.3112764    852.18544  0.064325592  0.065051517            4 
 1105000   0.80474432   -3.3049348    854.22804  0.064421421  0.065017585           10 
 1106000   0.80947702   -3.3190396    853.80804  0.064331528  0.064983127            4 
 1107000   0.81435279   -3.3290902    855.17026   0.06437596  0.064949222            6 
 1108000   0.82145126     -3.30086    853.33236   0.06417963  0.064915141            6 
 1109000   0.80411582   -3.3083727    858.61645  0.064518819   0.06488129            3 
 1110000   0.81660212   -3.3175437    853.73525  0.064094238  0.064847604            5 
 1111000   0.81037418   -3.3039926    855.92033  0.064200445  0.064813526            5 
 1112000   0.79868539   -3.3176975    857.41855  0.064254987  0.064779395            2 
 1113000   0.81601518   -3.2881349    860.32862  0.064415141  0.064745958            4 
 1114000   0.80434316   -3.3116151    856.77378  0.064091396  0.064712493            4 
 1115000   0.81734448   -3.3132246    857.82263  0.064112304  0.064678364            6 
 1116000   0.82155239   -3.3465588    856.63512  0.063966183  0.064644211            8 
 1117000   0.80939473   -3.3144214    859.94438  0.064155803   0.06461048            3 
 1118000   0.80708482   -3.2936484    859.93701  0.064097869  0.064576645           12 
 1119000   0.80695627   -3.2974618    860.44743  0.064078599  0.064543337            3 
 1120000   0.81866232   -3.3081013    859.40921  0.063944138  0.064509961            2 
 1121000   0.80786223    -3.332764     859.8131   0.06391712  0.064476598            2 
 1122000   0.81945102   -3.3262671      861.019  0.063949718   0.06444336            4 
 1123000   0.80002781   -3.3453982    860.81293  0.063877481  0.064410019            3 
 1124000   0.80901924   -3.3358758    862.98336  0.063981566  0.064376857            7 
 1125000   0.79143955    -3.327033    862.38697  0.063880516  0.064343743            3 
 1126000   0.80089838   -3.3317022    860.28915  0.063668528  0.064310207            4 
 1127000   0.79375551   -3.3106357    864.05352  0.063890382  0.064276416            3 
 1128000   0.79670342   -3.3188709    863.54223  0.063795968  0.064242711            4 
 1129000   0.81153327   -3.3314429    861.77377  0.063608929   0.06420893            3 
 1130000   0.79991577    -3.314447    864.75528  0.063772513  0.064175458            4 
 1131000   0.81860591   -3.3319298    862.70535  0.063565086  0.064141977            6 
 1132000   0.78450987   -3.3326747    864.72799  0.063657832  0.064108551            3 
 1133000   0.79915885   -3.3437416    862.96206  0.063471761  0.064075576            8 
 1134000   0.80492807   -3.3461983    865.66552  0.063614456  0.064041979            3 
 1135000   0.79694892   -3.3074012    863.97456  0.063434255  0.064008635            5 
 1136000   0.78933443   -3.3384993    865.05921  0.063457982  0.063975009            8 
 1137000   0.79852235   -3.3472171    865.30865  0.063420452  0.063941795            4 
 1138000   0.79543178    -3.326599    867.35236  0.063514379  0.063908325            3 
 1139000   0.80515105    -3.318303    866.87635  0.063423789  0.063875357            3 
 1140000   0.80922537   -3.3464915    866.67575   0.06335349  0.063841897            7 
 1141000   0.79213479   -3.3387059    865.03555  0.063178173  0.063808571            6 
 1142000   0.80155395   -3.3361419    866.06357  0.063197867  0.063774582            4 
 1143000   0.80295549   -3.3199933    865.92175  0.063132236  0.063740679            3 
 1144000   0.79903918   -3.3518615    865.06615  0.063014725  0.063706506            4 
 1145000    0.8068358   -3.3713532    864.44459  0.062914453  0.063672639            2 
 1146000   0.79363587   -3.3287042    865.93335  0.062967812  0.063638634            7 
 1147000   0.78978441    -3.329959    867.34784  0.063015682  0.063604641            4 
 1148000   0.79766331   -3.3463929    864.53885  0.062756885  0.063570438            4 
 1149000   0.77810729   -3.3139047     869.8937  0.063090637  0.063536329            4 
 1150000   0.81296803   -3.3242675    869.08425   0.06297712  0.063502242            5 
 1151000   0.78888338   -3.3264125    869.87256  0.062979479  0.063468045            6 
 1152000    0.7896752   -3.3504726    868.64331  0.062835888  0.063433599            6 
 1153000    0.7838249   -3.3506157    868.18151  0.062748013  0.063398998            3 
 1154000   0.80147884   -3.3135942    869.83712  0.062813195  0.063364524            4 
 1155000   0.78858681   -3.3201407    871.43654  0.062874209  0.063330128            5 
 1156000   0.78745725   -3.3416033    869.71214  0.062695512  0.063295815            4 
 1157000   0.78421792   -3.3666267    871.20081  0.062748545  0.063261101            4 
 1158000   0.80480731   -3.3336236    870.82544  0.062667346  0.063226134            4 
 1159000   0.79614056   -3.3283277    870.72478  0.062606038  0.063191358            3 
 1160000   0.79090249    -3.341984    870.89827  0.062564531  0.063157148            4 
 1161000     0.775467   -3.3177038    872.56438  0.062630231   0.06312283           11 
 1162000   0.78759559   -3.3472009    873.67665  0.062656099  0.063088511            7 
 1163000   0.78888016   -3.3503894     871.1137   0.06241858  0.063053963            4 
 1164000   0.79073193    -3.354962    873.59833  0.062542836  0.063019953            3 
 1165000   0.79575449   -3.3474814    871.16075  0.062314789  0.062985429            5 
 1166000   0.79154485   -3.3654594    870.84373  0.062238688  0.062951091            4 
 1167000   0.78501437   -3.3427309    870.11179   0.06213309  0.062917112            2 
 1168000   0.78574979   -3.3280359    873.32886  0.062309422  0.062883133            7 
 1169000   0.80600369   -3.3513177    874.62852  0.062348768  0.062849133            8 
 1170000   0.79921598   -3.3524236    875.34187  0.062346287  0.062815026            4 
 1171000   0.77659004   -3.3500648    871.98655  0.062054267   0.06278086            3 
 1172000   0.76686394   -3.3509434    875.85566  0.062276427   0.06274712            3 
 1173000   0.77696389   -3.3543861    873.40535  0.062049258  0.062713067            5 
 1174000   0.76715158   -3.3749283    876.99907  0.062251496   0.06267912            5 
 1175000   0.78699002   -3.3575118    877.01009  0.062199297  0.062645509            4 
 1176000   0.78311411   -3.3529051    877.49383  0.062180685  0.062611718            9 
 1177000   0.78620387   -3.3492206    879.52794  0.062271873  0.062577838            5 
 1178000    0.8012265   -3.3551695    876.27358  0.061988793  0.062544333            4 
 1179000   0.77986106   -3.3539779    875.73891  0.061898424  0.062510802            4 
 1180000   0.77418526   -3.3462177     877.4239  0.061964964  0.062476999            5 
 1181000   0.79663451   -3.3412933    877.32381  0.061905434  0.062443551            4 
 1182000   0.78717371   -3.3575392    876.96204  0.061827555  0.062410077            3 
 1183000   0.79713323   -3.3623068    879.36453  0.061944529  0.062376434            8 
 1184000   0.76734081   -3.3544817    879.53831  0.061904442  0.062343042            3 
 1185000   0.77936252    -3.337451    879.98682  0.061883742   0.06230975            5 
 1186000   0.78519622   -3.3681872    878.46606  0.061724709  0.062276488            6 
 1187000    0.7737321   -3.3676231     878.3862  0.061667102  0.062243111            4 
 1188000   0.76428483   -3.3584394    883.29031  0.061959197  0.062209585            4 
 1189000   0.77865255   -3.3554039    881.39668  0.061774368  0.062176301            2 
 1190000   0.79441783   -3.3400917    881.64287  0.061739697  0.062142774            6 
 1191000   0.77508533   -3.3588874    882.73077  0.061763978  0.062109566            4 
 1192000   0.76972637   -3.3835617    881.74475  0.061643229   0.06207633            2 
 1193000    0.7795516   -3.3460957    883.13387  0.061688591  0.062043342            4 
 1194000   0.78314592   -3.3664576    879.82794  0.061406193  0.062010446            7 
 1195000   0.78211411   -3.3686847    883.87692  0.061637163  0.061977345            9 
 1196000    0.7645163   -3.3503932    881.82956  0.061442974  0.061944384            2 
 1197000   0.76579535   -3.3788148    883.18381  0.061485924  0.061911453            3 
 1198000   0.76477292   -3.3566525    884.19034  0.061504615   0.06187823            5 
 1199000   0.78069098   -3.3875267    884.32724  0.061462833  0.061845073            3 
 1200000   0.76897428   -3.3735972    885.85695  0.061517844  0.061812359            2 
 1201000   0.76984283   -3.3778101    884.84773  0.061396595  0.061779785            2 
 1202000   0.75828202   -3.3611822    887.35286  0.061519194  0.061746776           11 
 1203000   0.77125841   -3.3463783    887.22551  0.061459234  0.061714001            5 
 1204000   0.76898315   -3.3676466    886.05621  0.061327257   0.06168147            4 
 1205000   0.76477279   -3.3858419    883.32251   0.06108731  0.061648252            6 
 1206000   0.77633511   -3.3712551    886.74514  0.061273158  0.061615074            6 
 1207000    0.7761653   -3.3717255    888.59424  0.061350058  0.061582067            5 
 1208000   0.77088323   -3.3894532    884.70968  0.061031297  0.061549404            3 
 1209000   0.78828389   -3.3777869    887.59624   0.06117978  0.061516487            3 
 1210000   0.76286734   -3.3634657    888.97547  0.061224206  0.061483896            2 
 1211000   0.76630558   -3.4039756    886.32199  0.060991053  0.061451222            4 
 1212000   0.75691529   -3.4034844    885.66382  0.060895477  0.061418165            3 
 1213000   0.76553371   -3.3628922    890.15805  0.061154029  0.061385548            3 
 1214000   0.76135322   -3.3704803     889.8523  0.061082667  0.061353171            3 
 1215000   0.77981584   -3.3799383    890.06565  0.061047027  0.061320725            4 
 1216000    0.7702575   -3.3914348    890.48826  0.061025785  0.061288224            8 
 1217000   0.79311716   -3.3765997    887.19722  0.060750289  0.061255672            4 
 1218000   0.78240178   -3.3835336    890.71211  0.060940894  0.061223227            6 
 1219000   0.75867127   -3.3825635    892.66447  0.061024369  0.061190713            3 
 1220000   0.77952116    -3.372036    891.94631  0.060925295  0.061158368            4 
 1221000   0.75477819   -3.4147499    892.80168  0.060933776  0.061125577            7 
 1222000   0.75467092   -3.3954534     892.8839  0.060889519  0.061092771            7 
 1223000   0.78530718   -3.4055082    892.97063  0.060845641  0.061060024           15 
 1224000   0.77481113   -3.3974397    892.68596   0.06077655  0.061026855            7 
 1225000   0.76578726   -3.4050414    888.68328  0.060454645  0.060993769            4 
 1226000   0.74487524   -3.3669778    893.33589   0.06072158  0.060960803            3 
 1227000   0.76661581   -3.3919808    891.54021  0.060550137  0.060927662            6 
 1228000    0.7554906   -3.3898982    891.68993  0.060510989  0.060894961            3 
 1229000   0.76111083    -3.402052    892.19817  0.060496214  0.060861889            4 
 1230000   0.75564657   -3.3763051    894.17808  0.060581171  0.060828932            6 
 1231000   0.75086151     -3.40136    893.28836  0.060471727  0.060795978            2 
 1232000   0.75308259    -3.399234    894.08586  0.060476587  0.060763043            5 
 1233000   0.75858463   -3.4034255     895.5302  0.060525155  0.060729999            8 
 1234000   0.74968907   -3.3674511    894.70861  0.060420625  0.060697131            8 
 1235000   0.77433975   -3.3899575    892.94465  0.060252675  0.060664484            4 
 1236000   0.76837884   -3.3974128    894.18446  0.060287518  0.060631672            7 
 1237000   0.75357934   -3.3853895    895.10421  0.060300741  0.060599001            3 
 1238000   0.76986287   -3.3817892    894.22064  0.060192558  0.060566477            3 
 1239000   0.73273398   -3.4197547     895.3092  0.060217191  0.060533871            5 
 1240000   0.75902749   -3.3928472    899.23435  0.060432416  0.060501564            4 
 1241000   0.77111423   -3.3993232    898.73537  0.060350213  0.060469158            2 
 1242000   0.74880766    -3.413985    895.50511  0.060084884  0.060436633            3 
 1243000    0.7423189   -3.4020337    899.83564  0.060326873  0.060404404            7 
 1244000   0.75065902   -3.3857171    900.59207   0.06032905  0.060372216            3 
 1245000   0.74318843   -3.4018501    896.58284  0.060012239  0.060339882            4 
 1246000   0.74292911   -3.3887801     902.4226  0.060354641    0.0603076            3 
 1247000    0.7562223   -3.3913908    899.91028  0.060138351  0.060275628            4 
 1248000   0.74137711   -3.3750487    901.93528  0.060225379  0.060243773            3 
 1249000   0.75177939   -3.4006109    905.32692  0.060403451  0.060211875            3 
 1250000   0.74427433   -3.4131157    900.41633  0.060027755  0.060180037            9 
 1251000   0.76249807   -3.4023007    901.72074  0.060066662  0.060148103            3 
 1252000    0.7472208   -3.4060446    904.61076  0.060211046  0.060116343            4 
 1253000   0.76481948   -3.4032848    900.98441  0.059921815  0.060084606            5 
 1254000   0.75933365    -3.417601    905.20394  0.060154435  0.060052875            3 
 1255000   0.74515136   -3.4183199    903.12364  0.059968369  0.060021033           10 
 1256000   0.77073876   -3.4091791    902.14058    0.0598554  0.059989323            6 
 1257000   0.73210389   -3.3733037    906.84943  0.060119957  0.059957736            2 
 1258000   0.76223228   -3.4174928    904.26463  0.059900943  0.059926295            2 
 1259000   0.73672196   -3.4113879    905.61777  0.059942929  0.059894282            3 
 1260000   0.76014438   -3.4072677     901.1091  0.059597163  0.059862395            3 
 1261000   0.74108034    -3.419959    904.13722  0.059750014  0.059830535            6 
 1262000   0.74461675   -3.3955014    904.98176  0.059758436  0.059799046            4 
 1263000   0.75204299   -3.3906472    906.27975  0.059796763  0.059767628            3 
 1264000   0.74981563   -3.4094612    905.34513  0.059687838  0.059736004            6 
 1265000   0.74322861   -3.3945586    905.29643  0.059637446  0.059704495            5 
 1266000   0.74763656   -3.4390027    906.72649  0.059684471  0.059672591            3 
 1267000   0.75794438   -3.3963021    907.22416  0.059670098  0.059641022           16 
 1268000   0.75545503   -3.4105855     906.7915  0.059594604  0.059609474            3 
 1269000   0.74476689   -3.4225696    906.52417  0.059530087  0.059577849            5 
 1270000   0.73315433    -3.408667    906.25264  0.059465396   0.05954628            4 
 1271000   0.74310287   -3.3874209    906.57133  0.059439505  0.059514937            5 
 1272000    0.7611489   -3.4159978     908.2304  0.059501467  0.059483549            4 
 1273000   0.74647606    -3.423011    905.83585  0.059297974  0.059451974            5 
 1274000   0.74842202   -3.4209915    906.89391  0.059320638  0.059420378            5 
 1275000   0.74769447   -3.4439581    908.09857  0.059352847  0.059388688            5 
 1276000     0.749425   -3.4202601    907.88275  0.059292238  0.059357363            2 
 1277000   0.74167651   -3.4053425    911.91656  0.059509042  0.059326633            8 
 1278000   0.73552264   -3.4344944     912.1187  0.059475658  0.059295576            6 
 1279000   0.74063096   -3.4043492    909.14717  0.059235547  0.059264344            3 
 1280000   0.73411405   -3.4232115    910.89817  0.059303266  0.059233438            8 
 1281000   0.74448023   -3.4172537    910.26562  0.059215822  0.059202482           14 
 1282000   0.74070858   -3.4271767    913.68251  0.059391739   0.05917144            6 
 1283000   0.76120285   -3.4149632    912.90626  0.059295029  0.059140574            7 
 1284000   0.73246939   -3.4168234    912.76291  0.059239545  0.059109636            7 
 1285000   0.75760658    -3.401791    909.46023  0.058979262  0.059078698            3 
 1286000   0.73076611   -3.4416424    913.00602  0.059163169  0.059047643            7 
 1287000      0.72987   -3.4252587    910.95624  0.058984476  0.059016493            3 
 1288000   0.75258751   -3.4322398    914.16831    0.0591465  0.058985575            3 
 1289000    0.7490177    -3.424989    915.80336   0.05920632  0.058954836            6 
 1290000   0.73418876   -3.4002553    914.50655  0.059076651  0.058923962            5 
 1291000   0.74487895   -3.4222127    912.27947  0.058887133  0.058893293            4 
 1292000   0.73450679   -3.4250985    914.37353  0.058976621  0.058862153            6 
 1293000   0.75870266   -3.4194765    913.59485  0.058880823  0.058830934            2 
 1294000   0.75064766   -3.4434131    911.79547   0.05871944  0.058799761           11 
 1295000   0.74528959   -3.4340007    914.80383  0.058867685   0.05876841            3 
 1296000   0.73470659   -3.4531472    913.57741  0.058743403   0.05873712            6 
 1297000   0.72841587   -3.4013648    917.21377  0.058931751   0.05870581            5 
 1298000   0.74798732   -3.4242203    915.06808  0.058748593  0.058674676            5 
 1299000   0.72750476   -3.4362588    916.08639  0.058768693  0.058643276            3 
 1300000   0.73628499   -3.4385331    916.26568  0.058734979  0.058611927            2 
 1301000   0.71908767   -3.4521566    915.52734   0.05864254  0.058580862            2 
 1302000   0.74081968   -3.4353242    916.97389  0.058690085  0.058549524           13 
 1303000   0.71178606   -3.4252226    917.10958  0.058653721  0.058518314            4 
 1304000     0.746584   -3.4429994    915.34065  0.058495696  0.058487097            7 
 1305000   0.72887841    -3.428706    914.70217    0.0584101  0.058455948            6 
 1306000   0.73418924   -3.4479983    914.43519   0.05834834  0.058424721            5 
 1307000    0.7350307   -3.4404917    917.40766   0.05849322  0.058393387            5 
 1308000   0.70409136   -3.4426893    916.37858  0.058382937  0.058362091            2 
 1309000   0.73504951   -3.4388849    914.27245  0.058204256  0.058330897            6 
 1310000   0.74106082   -3.4582625    916.49451  0.058301177  0.058299507            2 
 1311000   0.73630109   -3.4387201    916.74033  0.058272332  0.058268209            2 
 1312000   0.72441492   -3.4214476    917.82908  0.058297071  0.058236671            3 
 1313000   0.72713808   -3.4375747    917.19342  0.058212327   0.05820549            2 
 1314000   0.75003233   -3.4149604    918.36839  0.058242541  0.058173941            6 
 1315000   0.73771999   -3.4395393    916.39393  0.058073126  0.058142553            7 
 1316000   0.72589072    -3.457591    914.90981  0.057935018  0.058110834            4 
 1317000   0.74872064   -3.4343862    915.40939  0.057922639  0.058079274            3 
 1318000   0.73200841   -3.4399701    916.80007  0.057966621  0.058047664            4 
 1319000   0.70451683   -3.4691357    919.10428  0.058068251  0.058016159            4 
 1320000   0.74173324   -3.4513917    917.86563  0.057946062  0.057984608           12 
 1321000   0.72720717   -3.4557295    919.69855  0.058017824  0.057953219            8 
 1322000   0.72712349   -3.4547367    916.23968  0.057755905  0.057921666            3 
 1323000   0.73210582    -3.447694    920.03264  0.057951161  0.057889849            3 
 1324000   0.71870771   -3.4722684    920.50858  0.057937348  0.057858435            5 
 1325000   0.72150236   -3.4617081    921.54718  0.057958942  0.057827013            4 
 1326000     0.727744   -3.4568895     919.4737  0.057784923  0.057795481            4 
 1327000   0.71288256   -3.4511453    917.73005   0.05763188  0.057763779            6 
 1328000   0.72889828   -3.4536037      920.273  0.057748055  0.057732443            4 
 1329000   0.71887426    -3.456842    922.47414  0.057842622  0.057700965            4 
 1330000   0.72124742    -3.452071    919.99828  0.057644002   0.05766928           10 
 1331000   0.71246754   -3.4695678    921.83543  0.057715717  0.057637676            6 
 1332000   0.73001438   -3.4516613    921.12339   0.05762784  0.057606044            5 
 1333000    0.7171376   -3.4314658    924.24939  0.057780032  0.057574815            3 
 1334000    0.7084381   -3.4652178    920.59671   0.05750854  0.057543433            2 
 1335000   0.71139742   -3.4591149     920.2676  0.057444919   0.05751197            3 
 1336000   0.70745207   -3.4680026    921.67331  0.057489603  0.057480651           11 
 1337000   0.73274457   -3.4490068    925.22138   0.05766775  0.057449589            3 
 1338000   0.73106514   -3.4532022     923.2975  0.057504827  0.057418409           11 
 1339000   0.71189214   -3.4697544    923.80335  0.057493363  0.057387222            6 
 1340000   0.71218689   -3.4617848    923.10897  0.057407274   0.05735581            4 
 1341000   0.71699088   -3.4516477    924.65805  0.057460729  0.057324684           10 
 1342000   0.72010047   -3.4685234    922.02568  0.057254451  0.057293621            7 
 1343000   0.71169672   -3.4892037     923.3516  0.057294093  0.057262214            6 
 1344000   0.70917834   -3.4681016    923.19369  0.057241672  0.057230695            7 
 1345000   0.72887504   -3.4550431    921.19343  0.057075181  0.057199447            4 
 1346000   0.71268155   -3.4760104    924.68585     0.057249   0.05716798            7 
 1347000     0.714834   -3.4613624    922.25783  0.057056287  0.057136755            5 
 1348000   0.72578265   -3.4827489    924.07954  0.057126579  0.057105841            7 
 1349000   0.73410629    -3.458031    924.24519  0.057094465  0.057074606            9 
 1350000   0.70069916   -3.4798028    925.23948  0.057113548  0.057043455            4 
 1351000   0.71502545   -3.4471078    926.35655  0.057140177  0.057012661            5 
 1352000   0.69064038   -3.4298312    928.23725  0.057213834  0.056982113            3 
 1353000   0.71867095   -3.4879407    926.83907  0.057085432  0.056951164            2 
 1354000   0.70820716   -3.4785279    929.05763  0.057179815  0.056920332           20 
 1355000   0.70919638   -3.4812956    927.54274  0.057044449  0.056889647            4 
 1356000   0.70213879   -3.4684891    928.72701  0.057075161  0.056858843            4 
 1357000   0.71014962   -3.4579356    931.01038  0.057173322  0.056828028            5 
 1358000    0.7021839   -3.4576148    928.98248   0.05700678  0.056797688            7 
 1359000   0.69430467   -3.4403072    930.66809  0.057068193  0.056767053            3 
 1360000   0.71364201   -3.4746559    927.17211  0.056812017  0.056736408            6 
 1361000   0.71325882   -3.4787031    926.99328  0.056759324  0.056705875            4 
 1362000   0.70157579   -3.4544963    931.68151  0.057004498   0.05667525            4 
 1363000   0.71837326   -3.4570687    933.11891  0.057050557   0.05664474            5 
 1364000   0.71800656    -3.469647    931.72078  0.056923313  0.056614404            5 
 1365000   0.69564208   -3.4763187    930.36594  0.056798898  0.056583707            4 
 1366000   0.70057256   -3.4729768    928.71976  0.056656891  0.056553003            7 
 1367000   0.72275659   -3.4809576    931.17074  0.056764859  0.056522345            4 
 1368000    0.7093506   -3.5072688    930.10688  0.056658558   0.05649184           13 
 1369000    0.7019145   -3.4647194    930.29188  0.056628432  0.056461042           11 
 1370000    0.7012679   -3.4640365    930.89667  0.056623885  0.056430651            5 
 1371000   0.70260668   -3.4744977    930.42471  0.056553897  0.056400086            5 
 1372000   0.69922638   -3.4655774    932.03147  0.056610269    0.0563699            4 
 1373000   0.69883462   -3.4766415    932.69966  0.056609593  0.056339569            4 
 1374000   0.73410262     -3.46938    931.35982  0.056487131  0.056309163            3 
 1375000   0.70421813   -3.4700689    933.97011  0.056604249  0.056278687            4 
 1376000   0.71584585   -3.4879915    936.48323  0.056715312  0.056248309            6 
 1377000   0.71234692   -3.4950571    937.06195  0.056709148  0.056218143            5 
 1378000     0.706385   -3.4843471    934.90656  0.056537649  0.056188043            2 
 1379000   0.68424171   -3.4890752    932.97776  0.056380092  0.056158005            8 
 1380000   0.71109549    -3.488164     933.3424  0.056361256  0.056127769            3 
 1381000   0.70114077   -3.5033354    933.84322  0.056350665  0.056097576           11 
 1382000   0.71618942   -3.5163048    935.08463  0.056384746  0.056067477           11 
 1383000    0.6953054   -3.4692502    933.39888  0.056242401   0.05603734            8 
 1384000   0.70855205   -3.4767024    934.91708  0.056293177  0.056006927            6 
 1385000   0.70054132   -3.5054414    932.28336  0.056094065  0.055976686            2 
 1386000   0.69912424   -3.4865364     934.8075  0.056205357  0.055946139           14 
 1387000   0.68685696   -3.4807254    935.71761  0.056219515  0.055915875            8 
 1388000   0.69861748   -3.4877071    935.60833   0.05617245  0.055885749            6 
 1389000   0.69351836   -3.4886012     938.1174  0.056282541  0.055855306            4 
 1390000   0.69688315   -3.4958143    936.62101  0.056152339   0.05582506            7 
 1391000   0.70873766   -3.5122449    934.93703  0.056011085  0.055794857            5 
 1392000   0.69081742   -3.4877652    936.84237  0.056084912  0.055764684            4 
 1393000   0.70195182   -3.5031008     936.5032   0.05602436   0.05573434            3 
 1394000   0.69420219   -3.4741222     938.8197  0.056122651  0.055704406           10 
 1395000   0.71247771   -3.4944352    939.18459  0.056104217  0.055674314           10 
 1396000   0.69200254   -3.4926135    938.09171  0.055998789   0.05564409           10 
 1397000   0.71198676   -3.4940608    935.03478  0.055776353  0.055613889            5 
 1398000   0.69260974   -3.4909531    940.21686  0.056045354  0.055583668            7 
 1399000   0.68594083   -3.4909901     938.2589  0.055888664   0.05555356            4 
 1400000   0.67723518   -3.4921387    939.62958  0.055930332   0.05552339            7 
 1401000    0.7105285   -3.4902746    940.93445  0.055968026  0.055493112            3 
 1402000   0.69571407   -3.5020635    938.93978  0.055809544  0.055462959            3 
 1403000   0.68226211    -3.503769    937.39109  0.055677779  0.055432657            3 
 1404000   0.69499269   -3.4961524    937.10939  0.055621402  0.055402259            8 
 1405000   0.68537248    -3.506172    937.52221    0.0556063  0.055372021            7 
 1406000   0.69431176    -3.509717    939.82955  0.055703506  0.055341906            4 
 1407000   0.67763784   -3.5097892    940.81646  0.055722368  0.055311547            6 
 1408000   0.69008039   -3.4882574    940.45383   0.05566133  0.055281358           10 
 1409000   0.68963432   -3.5009189    939.32133  0.055554846  0.055251222            3 
 1410000   0.69236087   -3.4918089    934.24055  0.055215163  0.055221108            8 
 1411000   0.68602324   -3.5209053    935.66766  0.055260315  0.055190798            4 
 1412000   0.67933231   -3.4953026    936.45898  0.055267881  0.055160386            4 
 1413000   0.68900326   -3.5244992    937.53473  0.055292211  0.055129932            5 
 1414000   0.69392725    -3.514004    940.01798  0.055399456   0.05509962            8 
 1415000    0.6801289   -3.4892605    941.74682  0.055462122  0.055069333            4 
 1416000   0.68537022   -3.5186784    938.53526  0.055233949  0.055039005            4 
 1417000    0.6863817   -3.4752762    943.08217  0.055462372  0.055008771            5 
 1418000   0.67990478   -3.5154524    939.25075  0.055198093  0.054978767            7 
 1419000    0.6899062   -3.4957076     940.1072   0.05520949  0.054948556            7 
 1420000    0.6823922   -3.5053837    941.02075  0.055224223  0.054918435            5 
 1421000   0.68572297   -3.4961704    939.18532  0.055077722  0.054888418            9 
 1422000    0.6726851   -3.5091002     940.8535   0.05513675  0.054858243            4 
 1423000   0.68132281   -3.5208424    941.65353  0.055144854   0.05482834            6 
 1424000   0.67487837   -3.4925996    943.24403  0.055199206  0.054798403            5 
 1425000   0.68762518   -3.4953376    944.91513  0.055258195  0.054768524            5 
 1426000   0.66658667   -3.5276178    942.90072  0.055101725  0.054738634           10 
 1427000   0.67327552   -3.5190436    943.37712  0.055090932  0.054708625           14 
 1428000   0.68381675   -3.5167074    944.35631  0.055109495   0.05467845            7 
 1429000   0.68182494   -3.5241948    943.26187  0.055007107  0.054648522            6 
 1430000   0.68928748   -3.5368401    940.46645  0.054805737  0.054618421            8 
 1431000   0.69299673   -3.5283338    941.30828  0.054816461  0.054588241            6 
 1432000   0.67791532    -3.515618    943.41397   0.05490072  0.054558479            5 
 1433000   0.66537287   -3.5112013    944.72334  0.054938552  0.054528878            5 
 1434000   0.68170871    -3.498284     946.4554  0.055000895  0.054499114            5 
 1435000   0.67322962   -3.5270152     944.6445  0.054857404  0.054469334            7 
 1436000   0.67145608   -3.5313586    944.69667   0.05482223  0.054439756            4 
 1437000   0.68326649   -3.5362166    946.47983  0.054887487   0.05441031            4 
 1438000    0.6874686   -3.5100918    945.05016  0.054766467  0.054380944            8 
 1439000   0.69238103   -3.5311684    945.23302  0.054738998  0.054351153           13 
 1440000    0.6751761   -3.5302192    945.31474  0.054705714  0.054321456            7 
 1441000   0.67315856   -3.5518937     944.3127  0.054609802  0.054291709            4 
 1442000   0.68394638   -3.5011132    947.41301  0.054751098  0.054262025            5 
 1443000   0.67273782   -3.5230215    945.32633   0.05459265  0.054232432            4 
 1444000   0.66079478   -3.5233361    945.01117  0.054536656   0.05420268            6 
 1445000   0.68390627   -3.5411239    945.91973  0.054551311  0.054172732            3 
 1446000   0.66365527   -3.5239316    943.92934  0.054398878  0.054143176           12 
 1447000   0.67537396   -3.5598616    947.47683  0.054565586  0.054113441            4 
 1448000   0.67759638   -3.5217238    950.83114  0.054720945  0.054084201            8 
 1449000   0.67026613   -3.5196571    945.72674  0.054389621  0.054054943            8 
 1450000   0.67434508    -3.527362    949.02483  0.054541657  0.054025592            6 
 1451000   0.67236523   -3.5414405    948.70067  0.054485451  0.053996251           11 
 1452000   0.66338458   -3.5168296    946.56736  0.054325491  0.053966886           11 
 1453000   0.66034033   -3.5280364    947.10336  0.054318844  0.053937448            5 
 1454000   0.68861635   -3.5187215    948.53207  0.054363369  0.053907988            4 
 1455000   0.67073976   -3.5325422    950.22422  0.054422922  0.053878553            6 
 1456000   0.67085753   -3.5383855    946.05335  0.054146826  0.053848875            7 
 1457000   0.66682066     -3.54658    944.49754  0.054020678  0.053819241            5 
 1458000   0.67432835    -3.543536     949.5934  0.054274886  0.053789656            5 
 1459000   0.65906084   -3.5242929    946.27051  0.054047893  0.053759967            7 
 1460000    0.6652714   -3.5145151    949.13705  0.054174489  0.053730543            9 
 1461000   0.67312732   -3.5428868    949.80676  0.054175608  0.053700793            7 
 1462000   0.67859629   -3.5569834    950.27555  0.054165273  0.053671397            9 
 1463000   0.67490241   -3.5182899    949.07335  0.054059772   0.05364164            8 
 1464000   0.67725558    -3.553038    951.20348  0.054144096  0.053612266            9 
 1465000   0.67624961   -3.5258487    948.75361  0.053967782  0.053582783            6 
 1466000   0.67720917   -3.5569933    951.18104  0.054068954  0.053553351            6 
 1467000   0.65911875   -3.5133212     950.8343  0.054012401  0.053523631            4 
 1468000   0.67850939   -3.5479755    950.42136  0.053952166  0.053494098            5 
 1469000   0.66795907   -3.5380187    949.01995   0.05383594  0.053464333            8 
 1470000   0.65810713   -3.5653986     948.3653  0.053762205   0.05343477            6 
 1471000   0.68837293   -3.5580831    950.39778  0.053840799  0.053405004            5 
 1472000   0.66066183   -3.5395707    947.33122  0.053630617  0.053375325            8 
 1473000   0.66264378   -3.5493219    952.72816  0.053899534  0.053345657            5 
 1474000   0.66332202   -3.5342853    951.61001  0.053799752  0.053315929            3 
 1475000   0.68060012   -3.5484861    950.12097  0.053679151   0.05328623            4 
 1476000     0.665287   -3.5417593    948.68692  0.053561818  0.053256524            9 
 1477000   0.66373726   -3.5493055    948.37096  0.053507727  0.053226778            6 
 1478000   0.66599223   -3.5373384    951.44492  0.053644842  0.053197219           13 
 1479000   0.66350857   -3.5572473    951.94483  0.053636738  0.053167702           10 
 1480000   0.65388726   -3.5535478    951.85364  0.053595362  0.053138283            6 
 1481000   0.64321131   -3.5439416    953.39471  0.053645887  0.053108981            9 
 1482000   0.66510451   -3.5513532    951.06182   0.05347851  0.053079679            6 
 1483000   0.67069831   -3.5371866    952.96894  0.053549614  0.053050383            5 
 1484000   0.64287458   -3.5720394    952.65995  0.053496179  0.053021123            5 
 1485000   0.66010055   -3.5566034    954.31109  0.053552811  0.052991688           10 
 1486000   0.66172177   -3.5479229     954.3638  0.053519728   0.05296251           10 
 1487000   0.65994323    -3.563982    956.38284  0.053596886  0.052933276           10 
 1488000   0.66431721   -3.5546828    952.36437  0.053335818  0.052903834           10 
 1489000   0.66236294   -3.5382691    957.06593  0.053563126  0.052874483            4 
 1490000    0.6546976   -3.5631815    953.12685  0.053306871  0.052845145           10 
 1491000   0.65590831   -3.5681273     953.6842  0.053302269   0.05281569            8 
 1492000   0.65438094   -3.5697235    952.56494  0.053204029  0.052786244           11 
 1493000   0.65546508    -3.558138    955.43988  0.053328861  0.052757089            6 
 1494000   0.67032828   -3.5479473    953.61943  0.053191624   0.05272782            6 
 1495000   0.65677645   -3.5617745    951.04318   0.05301244  0.052698617            9 
 1496000   0.64252053   -3.5491636    950.46785  0.052944956  0.052669241            9 
 1497000    0.6456313   -3.5629965    955.21497  0.053173846   0.05264016           11 
 1498000   0.63671061   -3.5541931    955.28086  0.053142015  0.052610899           10 
 1499000   0.65765043   -3.5575201    956.24007  0.053159888  0.052581728            5 
 1500000   0.65491563    -3.568157    956.39685  0.053133158  0.052552589            5 
 1501000   0.66044217   -3.5744295    953.55217  0.052939827  0.052523519           11 
 1502000   0.64696484   -3.5632599    955.46821  0.053010886  0.052494379           14 
 1503000   0.63502792   -3.5690392    954.90882  0.052944601  0.052465258            7 
 1504000   0.64286973   -3.5589214    956.99192  0.053024818  0.052436257            6 
 1505000    0.6361045   -3.5920354    956.89438  0.052984185  0.052407147           11 
 1506000   0.63986518   -3.5620828    956.15471  0.052908074  0.052377993            4 
 1507000   0.66118066   -3.5631089    955.20916  0.052820679  0.052348854            5 
 1508000   0.64283476    -3.563596    955.03092  0.052775802  0.052319488            5 
 1509000   0.65371774   -3.5752179    954.54963   0.05271425  0.052289854           19 
 1510000   0.64990044   -3.5758345    958.99498  0.052924668  0.052260505            7 
 1511000   0.63627209   -3.5721749    955.34707  0.052688455  0.052231091            7 
 1512000   0.65398039   -3.5737622    952.36555  0.052489283  0.052201573            6 
 1513000   0.63899441   -3.5493581    959.39885  0.052841973  0.052172407            9 
 1514000   0.65038879   -3.5757511    958.61064  0.052763686   0.05214331           11 
 1515000   0.65145943   -3.5870257    957.07189  0.052644219   0.05211385            5 
 1516000   0.64340645    -3.574916    958.64557  0.052695996  0.052084359            7 
 1517000    0.6513117   -3.5780107    954.23168  0.052418792  0.052054883            3 
 1518000   0.66895346   -3.5818512    954.20118  0.052382585  0.052025389            2 
 1519000   0.66433508   -3.5701873    957.83803  0.052547621  0.051995929            7 
 1520000    0.6418796   -3.5965986    956.88141  0.052460603  0.051966573            6 
 1521000   0.65392627   -3.5568146    954.29853  0.052284601  0.051937094            8 
 1522000   0.64405567   -3.5838433    955.43924  0.052312705  0.051907605            7 
 1523000   0.64772557   -3.5796951     958.2811  0.052433853  0.051878224            9 
 1524000   0.64826592    -3.586108    956.81145  0.052319086  0.051848896            9 
 1525000   0.65041071   -3.5553817    957.62108  0.052329021  0.051819529            4 
 1526000   0.64879627   -3.5704592     958.2502  0.052329085  0.051790298            3 
 1527000   0.63998676   -3.5903305    958.13991  0.052288797  0.051760856           12 
 1528000   0.63490597   -3.5890444    958.09756  0.052252266  0.051731594            4 
 1529000   0.63335009   -3.5820712    957.76619  0.052200032  0.051702314            4 
 1530000   0.66480544   -3.5859234    958.38545  0.052199643  0.051673108           12 
 1531000   0.64615155   -3.5837456     959.3318  0.052217058  0.051643982            7 
 1532000   0.64582882   -3.6128155    959.16211  0.052173744  0.051614794            9 
 1533000   0.65657642   -3.5928956    959.26835  0.052145485  0.051585439            5 
 1534000   0.62551309   -3.5875296    959.89017  0.052145272  0.051556096            5 
 1535000   0.64770661   -3.6001624    957.07353  0.051958389  0.051526765           21 
 1536000   0.64272489   -3.5911958    959.02615  0.052030499  0.051497522            7 
 1537000   0.64718636    -3.587874    959.92647   0.05204546  0.051468393            4 
 1538000   0.65271967   -3.5866039    959.26749  0.051975915   0.05143926           11 
 1539000   0.64251968   -3.5744317    956.79598  0.051808316    0.0514102           10 
 1540000   0.64579348   -3.5673954    961.92629  0.052052288  0.051380966            9 
 1541000   0.63010222   -3.6128324    962.07259  0.052026421  0.051352043           15 
 1542000   0.63008106   -3.6014147    962.60266  0.052021328  0.051323145           10 
 1543000   0.62857578   -3.5850553    959.63709  0.051827452  0.051294334           13 
 1544000   0.63748817   -3.5890717    962.15954  0.051930027  0.051265419           17 
 1545000    0.6376344   -3.5819738    960.45431   0.05180444  0.051236721            5 
 1546000   0.62635193   -3.5838712    960.60465  0.051779034  0.051208097            5 
 1547000   0.65519029   -3.5820043    963.80254  0.051917827   0.05117941            6 
 1548000    0.6234796   -3.6081168    962.78739   0.05182964  0.051150627           12 
 1549000   0.62426069   -3.5940566    962.99966  0.051807599   0.05112198           12 
 1550000   0.63335267   -3.6037569    961.93132  0.051716738  0.051093327            9 
 1551000   0.61895358   -3.6014884    961.23662  0.051646068  0.051064684            5 
 1552000   0.63631532   -3.6030899    962.90261  0.051702245  0.051036006            6 
 1553000   0.62039543   -3.6035038    964.04353  0.051730174  0.051007144           10 
 1554000   0.63625136   -3.6006871    963.96051  0.051692434  0.050978409            4 
 1555000   0.64127285    -3.599995    962.23894  0.051566931   0.05094983            7 
 1556000   0.62799691   -3.6025508    962.21758  0.051532647  0.050921197            8 
 1557000   0.63938409   -3.5828958    962.94007  0.051538218  0.050892672            7 
 1558000   0.64617902   -3.5957455    960.80668  0.051391029  0.050864054            5 
 1559000   0.63874291   -3.5873656    963.21813  0.051486964  0.050835444            5 
 1560000   0.62278624   -3.5945669    963.77294  0.051483597   0.05080688            5 
 1561000   0.62708789   -3.6012748    961.82965  0.051346874  0.050778243            7 
 1562000   0.63603689   -3.5897397    962.25041   0.05133645  0.050749747           10 
 1563000   0.64369138   -3.6047178    963.26435  0.051357664  0.050721201            7 
 1564000   0.62239469   -3.5932944    965.15231  0.051425422  0.050692759           16 
 1565000   0.65738288   -3.6096368    963.86346  0.051323933  0.050664269           10 
 1566000   0.62090874    -3.609929     962.8685  0.051238213  0.050635708            9 
 1567000    0.6224742    -3.620928    965.51635  0.051346328  0.050607191            9 
 1568000   0.63413618   -3.6306927    963.81249  0.051223028  0.050578492            5 
 1569000    0.6259316   -3.6131426    963.42094  0.051169585  0.050549961            5 
 1570000   0.62852612   -3.5837887    966.07362  0.051277793  0.050521527            7 
 1571000   0.62247681   -3.6429424    964.68626   0.05117156   0.05049312            3 
 1572000   0.62863191   -3.6100292    965.88059  0.051202321  0.050464596            9 
 1573000   0.63451972   -3.5918223    964.23257  0.051082463  0.050436329            5 
 1574000   0.62141957   -3.6148709    970.14088  0.051362817  0.050408097            9 
 1575000   0.63030951   -3.5952985    966.34434   0.05112933  0.050379917            8 
 1576000   0.63550562   -3.6072915    964.82135  0.051016357  0.050351476            6 
 1577000   0.62093788   -3.6009228    968.33596  0.051169729  0.050323395            6 
 1578000   0.61478646   -3.6348177    968.89221  0.051166678  0.050295166           23 
 1579000   0.61295436   -3.6297413    963.65233  0.050857733  0.050266846            9 
 1580000   0.62335446   -3.6385938    967.72268  0.051040226  0.050238707            6 
 1581000   0.60221349   -3.6408883    967.09006  0.050974597  0.050210507           11 
 1582000   0.62981273   -3.6179746    967.67974  0.050973438  0.050182191            7 
 1583000   0.63094689    -3.616253    966.89324  0.050899834   0.05015413            7 
 1584000   0.61116369   -3.6181556    967.83141  0.050917056  0.050126074            7 
 1585000   0.60810922   -3.6245563    969.24291  0.050959143  0.050097964            6 
 1586000   0.63026345   -3.6071567    968.30647  0.050877809  0.050069859           12 
 1587000   0.62087523   -3.6287595    967.70372    0.0508141  0.050041961            7 
 1588000   0.60823491   -3.6236771    968.72237  0.050835557  0.050013965           10 
 1589000   0.62074855    -3.634054    968.62262  0.050798333  0.049985933            8 
 1590000   0.62914713   -3.6426311     968.9253  0.050782249  0.049958049            7 
 1591000   0.62274926   -3.6341958    970.00994  0.050807141      0.04993            5 
 1592000   0.62005132    -3.620386     971.6873  0.050863029  0.049902021           16 
 1593000   0.61474728   -3.6012189    972.16194  0.050855929  0.049874223            7 
 1594000   0.60871212   -3.6172623    970.35325  0.050729467  0.049846385           10 
 1595000   0.61714597   -3.6143573    970.53538  0.050707178  0.049818374           13 
 1596000   0.61337124   -3.6353615    969.19277  0.050605304  0.049790435            5 
 1597000   0.60083053   -3.6080539    969.49074  0.050589164    0.0497624            4 
 1598000   0.61620165   -3.6155222    970.27571  0.050598441  0.049734315            8 
 1599000   0.61108241   -3.5996765    971.07154  0.050608273  0.049706381            5 
 1600000   0.60992157   -3.6203077    970.79356  0.050562165  0.049678616            6 
 1601000   0.60139278   -3.6213164    971.14348  0.050548797  0.049650652           11 
 1602000   0.60862585    -3.638022    970.94794  0.050507071  0.049622816           13 
 1603000    0.6177078   -3.6131771    971.93122   0.05052668  0.049594873            9 
 1604000   0.61698415   -3.6198404    969.71014  0.050379787  0.049566922           18 
 1605000   0.61344359   -3.6612222    968.48719  0.050284901  0.049538934           12 
 1606000      0.61231   -3.6627352    969.83847  0.050323707  0.049510744           14 
 1607000   0.60803167   -3.6411036    969.14856  0.050256615  0.049482603           16 
 1608000   0.60955466   -3.6266512    966.61808  0.050094221  0.049454443            4 
 1609000   0.61659091   -3.6214783    967.76887  0.050122689  0.049426186            3 
 1610000   0.60502795   -3.6605064    967.29888   0.05006723  0.049397958            5 
 1611000   0.60173526   -3.6286045    968.60247  0.050103583  0.049369588            7 
 1612000   0.61279004   -3.6221878    969.24691  0.050105816  0.049341349            7 
 1613000   0.60973268   -3.6469377    971.06968  0.050168923  0.049312982            4 
 1614000    0.6347297   -3.6319592    968.66097  0.050013474  0.049284776            6 
 1615000   0.60331063   -3.6207292    971.65865  0.050137185   0.04925679            7 
 1616000   0.59814679   -3.6201306    970.31755  0.050037002  0.049228491            8 
 1617000   0.60537376   -3.6366178    969.99142  0.049989251  0.049200092           17 
 1618000   0.60996544   -3.6439036    969.07764  0.049911292  0.049171683           11 
 1619000   0.62690034   -3.6445272    968.82928   0.04986768  0.049143207            7 
 1620000   0.59104674    -3.625787    968.05085  0.049796854  0.049114856            6 
 1621000   0.62240172   -3.6605093    970.04891  0.049868852  0.049086498            7 
 1622000    0.6090812   -3.6323268     971.0995  0.049892083  0.049058099            9 
 1623000   0.60791952   -3.6567209    968.44571  0.049725083  0.049029585           12 
 1624000   0.62321997   -3.6354235    970.98122   0.04982457  0.049001218            5 
 1625000   0.59696268   -3.6353949    968.73438  0.049678686  0.048972868            8 
 1626000    0.6133326   -3.6281244    968.32004  0.049626898  0.048944592            8 
 1627000   0.59592849   -3.6468626    969.18552  0.049640725  0.048916332            7 
 1628000   0.60856575    -3.646142    965.00277  0.049396128  0.048887897            9 
 1629000   0.59639877   -3.6521225    966.74343  0.049454851  0.048859639            6 
 1630000   0.60943128   -3.6566488    968.00542  0.049489029  0.048831257           14 
 1631000   0.60581729   -3.6648221    966.63322  0.049388576  0.048802908           11 
 1632000   0.60838686   -3.6642746    971.52591  0.049608145  0.048774568            5 
 1633000   0.59959679   -3.6487625    969.71771  0.049485493  0.048746351           15 
 1634000   0.60571151   -3.6689793    966.33407  0.049282643  0.048718024            8 
 1635000   0.59518429   -3.6576712    967.80193  0.049327316  0.048689675           17 
 1636000   0.59712521   -3.6768913    969.68045  0.049392851  0.048661315            6 
 1637000    0.6101644   -3.6588458    969.52077  0.049354549   0.04863293           11 
 1638000   0.59885943   -3.6513945    968.18901  0.049256665  0.048604846            8 
 1639000   0.60799839   -3.6607064    971.13426  0.049376361  0.048576479            7 
 1640000   0.60478987   -3.6675789    969.37467  0.049256843  0.048548118           15 
 1641000   0.59536089   -3.6639332    970.43808  0.049280829  0.048519655            4 
 1642000   0.60151325   -3.6665545    968.92477  0.049174014  0.048491233            5 
 1643000   0.59878868   -3.6413221    968.51242   0.04912317  0.048462998            5 
 1644000   0.59563998   -3.6843362    969.11569  0.049123869  0.048434782            6 
 1645000   0.60405827   -3.6724627    971.04273  0.049191628   0.04840636            9 
 1646000   0.59252321   -3.6686004    973.83354  0.049303035  0.048378153           15 
 1647000   0.59488778   -3.6502498    972.55417  0.049208367  0.048350101            7 
 1648000   0.59387648   -3.6581592    975.73619  0.049339411  0.048322265            6 
 1649000   0.60270832   -3.6617601    971.90819  0.049116039  0.048294312            6 
 1650000   0.58415438   -3.6507656    973.35634  0.049159411  0.048266244            8 
 1651000   0.59066907   -3.6638094    972.56724  0.049089806  0.048238341            9 
 1652000   0.59527923   -3.6596037    974.13378  0.049139113  0.048210663            5 
 1653000   0.59961238   -3.6595962    972.67617  0.049035903  0.048182873            9 
 1654000   0.58564114   -3.6752995    971.07435  0.048925552  0.048155096           10 
 1655000   0.57406057   -3.6494357    975.16401  0.049101914   0.04812727           18 
 1656000   0.58690014   -3.6907109    970.61323  0.048843258  0.048099323           33 
 1657000   0.59841742    -3.659199    969.34089  0.048749793  0.048071342            7 
 1658000    0.5935328    -3.682199    972.57971  0.048883178  0.048043354            5 
 1659000   0.58669233   -3.6614254    969.76672  0.048712413  0.048015575            9 
 1660000   0.59644364   -3.6925533    972.56597  0.048823593  0.047987784            7 
 1661000   0.59897115   -3.6716989    973.01265  0.048816609  0.047959951           13 
 1662000   0.59360371   -3.6915112    972.87936  0.048780553  0.047932158            7 
 1663000   0.58624921   -3.6767997    974.49657  0.048832259  0.047904439           12 
 1664000   0.59255728   -3.6684646    972.52461  0.048704157  0.047876632           17 
 1665000   0.57020079   -3.6861711     974.7816  0.048787868  0.047848848            4 
 1666000   0.58849946   -3.6683139    973.97718  0.048718346  0.047821025           10 
 1667000   0.58601253   -3.6934039    972.77044  0.048628796  0.047793213           13 
 1668000   0.60039368   -3.6799281    975.45099  0.048733563  0.047765451           16 
 1669000    0.5820556   -3.6692924    971.21913  0.048493066   0.04773778           18 
 1670000   0.59803614   -3.6913439    973.37961  0.048571837  0.047710215            5 
 1671000   0.58495518   -3.6744091    973.63898  0.048555704   0.04768259            7 
 1672000   0.58804251   -3.6788605    975.24565  0.048606741  0.047654921           21 
 1673000   0.59762145   -3.6777698    973.63946  0.048497682  0.047627285           12 
 1674000   0.57511614   -3.6848436    975.39498  0.048556102  0.047599758            7 
 1675000   0.58608807   -3.6732082     975.3109   0.04852293  0.047572327            9 
 1676000   0.58588455    -3.675218    974.36525   0.04844696  0.047544761            7 
 1677000   0.58408981    -3.690321    974.31246  0.048415447  0.047517352            6 
 1678000   0.58331011   -3.6861934    972.51081   0.04829712  0.047489841           21 
 1679000   0.58149532   -3.6907943    973.86508  0.048335571  0.047462171           18 
 1680000   0.58838698   -3.6927212    974.64704  0.048345587    0.0474346            6 
 1681000   0.57601066   -3.6851576     975.6259  0.048365353  0.047406994           11 
 1682000   0.56435268   -3.6727748    977.30039  0.048419559  0.047379468           15 
 1683000    0.5855576   -3.6849554    975.53731  0.048303491  0.047352217            7 
 1684000   0.57636135   -3.6622419     976.5301  0.048323936  0.047324833           11 
 1685000   0.57687938   -3.6804965    978.87777  0.048411364  0.047297457           12 
 1686000   0.58464316    -3.704508    973.58075  0.048120836  0.047269958           10 
 1687000   0.58472521   -3.6812004    973.96673  0.048111378  0.047242576           17 
 1688000   0.58635935   -3.6898396    975.12952  0.048140281  0.047215104            5 
 1689000   0.57672705   -3.7018641    976.57098  0.048182898  0.047187727           11 
 1690000   0.57830212    -3.709845    974.15113  0.048035066  0.047160291           12 
 1691000   0.58349958   -3.6918728    976.87945  0.048141112  0.047132967           13 
 1692000   0.58727376   -3.6813035    977.16144  0.048126549   0.04710566           21 
 1693000   0.57812544   -3.7092888    977.30912  0.048105391  0.047078368           13 
 1694000    0.5680031    -3.696001    978.10484  0.048116138  0.047051197            7 
 1695000   0.57133647   -3.6979536    977.04337  0.048035564  0.047023987            8 
 1696000   0.58667523   -3.7166586    976.18211  0.047964923  0.046996731            5 
 1697000   0.56930148   -3.6830508    976.86154  0.047970022  0.046969504            7 
 1698000   0.57973769   -3.6933886    978.69384  0.048031696  0.046942298            5 
 1699000   0.56812576   -3.7054891    978.01622  0.047970189  0.046915164           12 
 1700000   0.57049313   -3.7057933    976.79488  0.047882102  0.046888091           15 
 1701000    0.5816721   -3.7116254    977.40656  0.047883919  0.046860973           17 
 1702000   0.57067381    -3.727612    977.31523  0.047851313  0.046833779           19 
 1703000   0.56761494    -3.690517    980.03572  0.047956338  0.046806776            6 
 1704000   0.58256743    -3.704318    977.15663  0.047787394  0.046779793           12 
 1705000   0.57079735    -3.710528    976.95309  0.047749418  0.046752867            7 
 1706000    0.5662135   -3.7234346    979.38735  0.047840335  0.046725948            9 
 1707000   0.58616137   -3.7125489    980.39999  0.047861745  0.046698853            8 
 1708000   0.58079506   -3.7013027    979.28757  0.047779448  0.046671849            7 
 1709000   0.56907967    -3.718369    976.50929  0.047616018  0.046644713           10 
 1710000   0.57385233   -3.7167667    978.39271  0.047679957   0.04661758            7 
 1711000   0.57316238    -3.714185    981.20062  0.047788848  0.046590557           10 
 1712000    0.5699902   -3.7221471    977.48605  0.047580123   0.04656344           11 
 1713000   0.58387816   -3.7178704    978.43874  0.047598693   0.04653636            7 
 1714000   0.56853175   -3.6941668    979.20161  0.047608013  0.046509469           16 
 1715000   0.56256437   -3.7151999    977.11053  0.047478646   0.04648248            7 
 1716000   0.57427492   -3.7081194    980.33102  0.047607373  0.046455557            9 
 1717000    0.5643761   -3.7020054    980.67709  0.047596442  0.046428543           11 
 1718000   0.57878522   -3.7182281       979.76  0.047524253  0.046401579           10 
 1719000   0.56650394   -3.7111244    977.65148   0.04739439  0.046374567            8 
 1720000   0.57146668   -3.7307815    978.08489  0.047387834  0.046347619           15 
 1721000   0.56720676   -3.7238012    977.63586  0.047338556  0.046320469            4 
 1722000   0.57619444   -3.7347719    977.03775  0.047282121  0.046293402            9 
 1723000   0.56139201   -3.7174815    975.60414  0.047185342  0.046266335           24 
 1724000   0.55458927    -3.727864    976.26539  0.047189936  0.046239192            7 
 1725000   0.57168473   -3.7106155    979.66689  0.047326903  0.046212166            8 
 1726000   0.56622561   -3.7411404    978.58443  0.047247221  0.046185063            5 
 1727000   0.56259276   -3.7163137    978.24505  0.047203486  0.046158107           11 
 1728000   0.55645087   -3.7293672    976.30484  0.047082602  0.046130913           10 
 1729000   0.56144657    -3.720912    979.01563  0.047186024  0.046103954           15 
 1730000   0.56386485   -3.7192515    978.33663  0.047126042  0.046076937            7 
 1731000   0.54860488   -3.7284445    976.91487  0.047030371  0.046049835           20 
 1732000   0.56233841   -3.7361735    978.21704   0.04706587  0.046022777           13 
 1733000   0.57117094   -3.7170224    979.99717  0.047124311  0.045995823            8 
 1734000    0.5540943   -3.7316279    979.66754  0.047081293  0.045968897            9 
 1735000   0.55995879   -3.7273203    979.17738  0.047030614  0.045941853           15 
 1736000   0.55580179   -3.7272145    978.47499  0.046969806  0.045914726           17 
 1737000   0.57048657   -3.7335003    979.00604  0.046968242  0.045887722            8 
 1738000    0.5646931   -3.7317034    978.02869  0.046894356  0.045860772           11 
 1739000   0.56689512    -3.723784    979.36286  0.046931323  0.045833793           15 
 1740000   0.57272313   -3.7287805    978.84936  0.046879759   0.04580675           13 
 1741000   0.56239968   -3.7377968    975.51366  0.046693168  0.045779781           16 
 1742000   0.56516531   -3.7290337    976.05691  0.046692351  0.045752511           11 
 1743000   0.56527475   -3.7332794    976.80546  0.046701351  0.045725434           12 
 1744000   0.56223944   -3.7195144    978.65184  0.046762798  0.045698472           11 
 1745000   0.55238434   -3.7393032    978.40738  0.046724326  0.045671482            8 
 1746000   0.55645882   -3.7366005     977.5495   0.04665662  0.045644361           10 
 1747000   0.55847983   -3.7524385    977.88602  0.046645965  0.045617371           13 
 1748000    0.5681986   -3.7458553     980.9079  0.046763344  0.045590496            9 
 1749000   0.56123694   -3.7323823    978.47561  0.046620717  0.045563596           13 
 1750000   0.54693641   -3.7277415    977.28094  0.046537188  0.045536712            8 
 1751000   0.54319593   -3.7427272     978.8546  0.046585503  0.045509777            8 
 1752000   0.55023478   -3.7448008    976.70622  0.046456727  0.045482722           16 
 1753000   0.55869082   -3.7435916    977.66626  0.046475863  0.045455667            8 
 1754000   0.55636457   -3.7291986    977.63262  0.046447768  0.045428641           12 
 1755000   0.54701309   -3.7369512    975.57639  0.046323665  0.045401729           13 
 1756000   0.56032158   -3.7345693    977.92212  0.046408605   0.04537483           12 
 1757000   0.54742056   -3.7506304    980.91996  0.046524377  0.045348004           25 
 1758000   0.54688984   -3.7440277    976.32665  0.046280179  0.045321041           11 
 1759000   0.55293575   -3.7423386    977.05381  0.046288317  0.045294122            9 
 1760000   0.55499222   -3.7585562       977.35  0.046276042  0.045267207            7 
 1761000   0.55276404   -3.7522327    980.45838  0.046396857  0.045240452            6 
 1762000   0.54821147   -3.7368324    979.34028  0.046317645  0.045213818           10 
 1763000   0.55230886   -3.7450815    978.65437  0.046258951  0.045187054           17 
 1764000   0.55432594   -3.7557405    978.09424  0.046206266  0.045160238           11 
 1765000   0.55396193   -3.7184417    980.16727  0.046277964  0.045133451            7 
 1766000   0.54988025   -3.7563189     979.6085  0.046225392  0.045106718            7 
 1767000    0.5582843   -3.7430444    978.99625  0.046170357  0.045080076           17 
 1768000   0.52873116   -3.7584436    977.18579  0.046058908  0.045053217           15 
 1769000    0.5618426   -3.7622511    979.05925  0.046121125  0.045026469            7 
 1770000   0.53794382   -3.7614348    981.96645  0.046231942  0.044999873            6 
 1771000   0.54161778   -3.7577022    981.59957  0.046188574  0.044973376           14 
 1772000   0.55316938    -3.757698     981.6946  0.046166977  0.044946948           12 
 1773000    0.5564298   -3.7571636    982.69783  0.046188091  0.044920472            9 
 1774000   0.54279141    -3.761795    979.96582   0.04603372  0.044894011           11 
 1775000   0.55339025   -3.7809527    977.52169  0.045893037  0.044867557           30 
 1776000   0.53296296   -3.7555478    978.92815   0.04593319  0.044841097           15 
 1777000    0.5547151   -3.7459037    981.46595  0.046026353  0.044814765            5 
 1778000   0.55583659    -3.746332    981.60964  0.046007201  0.044788413           20 
 1779000   0.55709996   -3.7690762    981.15821  0.045960193  0.044762079           11 
 1780000   0.54210951   -3.7806264    983.24424  0.046032034   0.04473583            6 
 1781000   0.54467503   -3.7775646    983.43638  0.046015178  0.044709525           15 
 1782000   0.55116091   -3.7656416    981.40444  0.045894334  0.044683343           11 
 1783000   0.53657942    -3.763135    982.41996  0.045916057  0.044657076           13 
 1784000   0.54436616   -3.7782944    982.20826  0.045880431  0.044630854           17 
 1785000   0.53660191    -3.757302    981.39804  0.045816902  0.044604633           32 
 1786000   0.52978775   -3.7675729     982.7876  0.045856084  0.044578346           25 
 1787000   0.54639689   -3.7508302    982.37156  0.045811022   0.04455215           22 
 1788000   0.53909879   -3.7622647     981.7175  0.045754917  0.044525807            9 
 1789000   0.54965013   -3.7894699    982.02139  0.045743497  0.044499587           11 
 1790000   0.53204101   -3.7874283    980.78189  0.045660237   0.04447325           22 
 1791000   0.54827039   -3.7947917     983.4193  0.045757459  0.044446915           14 
 1792000   0.54257407   -3.7770562    982.22295   0.04567629  0.044420664           14 
 1793000   0.54632895    -3.784563    980.70617   0.04558032  0.044394553           15 
 1794000   0.54445572   -3.7678783    982.10775  0.045620018  0.044368428           12 
 1795000   0.55517031    -3.765568    981.07214  0.045546525  0.044342334           19 
 1796000   0.54868662   -3.7760273      982.449   0.04558505  0.044316133           17 
 1797000   0.54067584   -3.7731683    977.91942   0.04534963  0.044289999           18 
 1798000   0.52386649   -3.7741661    984.30742  0.045620477  0.044263813           21 
 1799000   0.52192129   -3.7675602    982.06104  0.045491062   0.04423769           26 
 1800000   0.53777296    -3.774751      983.627  0.045538287  0.044211605           17 
 1801000   0.53644042   -3.7769618    980.68643   0.04537694  0.044185536            8 
 1802000   0.53724639   -3.7846667    982.83379  0.045451063  0.044159446            8 
 1803000   0.53805179   -3.7841232    983.01994  0.045434458  0.044133455            5 
 1804000   0.53104522   -3.7906637    982.89784  0.045403632   0.04410741            7 
 1805000   0.53167452   -3.7629377    984.44923  0.045450103  0.044081324           16 
 1806000   0.53342186   -3.7996026    982.30274  0.045325892  0.044055377           10 
 1807000   0.52468572   -3.7799514    983.00966   0.04533341  0.044029269           18 
 1808000   0.52053516   -3.7671224     985.7401  0.045434186  0.044003267           29 
 1809000   0.53283752   -3.7834305    979.64699  0.045128385  0.043977234            6 
 1810000   0.54646455   -3.7935748    981.03735  0.045167466  0.043951085           10 
 1811000   0.52973563   -3.7721596    982.95547  0.045230787  0.043925007           16 
 1812000   0.52356719   -3.7802831    983.01773  0.045208689  0.043898946           17 
 1813000   0.52373421   -3.7837054    982.07799  0.045140558  0.043872924            8 
 1814000   0.53765043   -3.7628626    982.54104  0.045136946  0.043846854           18 
 1815000   0.53684655   -3.7869934    979.42144  0.044968845  0.043820779           10 
 1816000   0.52456932   -3.7788401    982.38057  0.045079872  0.043794642           10 
 1817000   0.52963492   -3.7914184    980.96202  0.044990003  0.043768548           19 
 1818000   0.52609274   -3.7778402     979.1208  0.044880858  0.043742375           59 
 1819000   0.53057238   -3.7897394    982.61112  0.045016086  0.043716222            9 
 1820000    0.5278519   -3.7805007    981.25861  0.044929424  0.043690107           17 
 1821000    0.5221474   -3.7763659     982.4787  0.044960585  0.043664071           16 
 1822000   0.53175048   -3.7850832    981.75314  0.044902723  0.043637977           21 
 1823000    0.5191355   -3.7835661    981.31024  0.044857846  0.043611837            9 
 1824000   0.52458498   -3.7914597    979.96192  0.044771652  0.043585777           31 
 1825000    0.5280025   -3.7962755    979.64675  0.044732728  0.043559696            6 
 1826000     0.525799    -3.784125    982.00827  0.044816004   0.04353355            8 
 1827000   0.52611792   -3.8165952    982.71564  0.044823738  0.043507319           12 
 1828000   0.52432226   -3.8113408    979.86015  0.044669044  0.043481164           10 
 1829000   0.52176557   -3.7918841    982.21345  0.044751843  0.043454972           16 
 1830000   0.50873633   -3.7894683    982.01513  0.044718357  0.043428849           14 
 1831000   0.53000479    -3.806105    982.48425  0.044715285  0.043402825           17 
 1832000      0.52785    -3.801117    980.59417  0.044604902  0.043376765           21 
 1833000   0.52015177   -3.8082467    982.62237  0.044672775  0.043350689            9 
 1834000   0.51685757   -3.8004885    982.46092  0.044641081  0.043324648            9 
 1835000   0.51510781   -3.8166229     979.3051  0.044473438  0.043298551           13 
 1836000   0.51520259   -3.7973789    983.44919  0.044637309  0.043272684            9 
 1837000   0.52980279   -3.7922728    985.11587  0.044688617   0.04324691            8 
 1838000   0.52002643   -3.8024662    983.84876  0.044606853  0.043221099           12 
 1839000   0.52218743   -3.8167188    981.63991  0.044482505  0.043195267            9 
 1840000   0.52667824   -3.7965271    982.11169  0.044479696  0.043169324            9 
 1841000   0.52020191   -3.7927576    983.29986  0.044509318  0.043143508            9 
 1842000   0.52157784    -3.811063    982.79151  0.044462157  0.043117768            6 
 1843000   0.51265863   -3.8071958    982.23524  0.044412879  0.043091908           17 
 1844000   0.51244455   -3.7965719     983.4223   0.04444244  0.043066028           14 
 1845000   0.51406056   -3.7921532    982.10712  0.044358949   0.04304018           25 
 1846000   0.51102615   -3.8230377    982.03664  0.044331737  0.043014239           22 
 1847000    0.5171264   -3.8256399    983.39508  0.044369025  0.042988344           13 
 1848000   0.50859965   -3.8114624    985.06415  0.044420281  0.042962472           24 
 1849000   0.51145207   -3.8042829    983.95662  0.044346341  0.042936756           20 
 1850000   0.52314882   -3.8288533    981.26164  0.044200975     0.042911           16 
 1851000   0.52024089   -3.8142831    982.88714  0.044250276  0.042885193           15 
 1852000   0.50628193   -3.7969117    983.18788  0.044239915  0.042859517           20 
 1853000   0.52846869   -3.8009077    983.03352  0.044209099  0.042834026           10 
 1854000   0.51093795   -3.8096566    982.34775   0.04415443  0.042808422            9 
 1855000   0.50941697   -3.7996006     984.7597   0.04423898  0.042782932           18 
 1856000   0.51201988   -3.8261749    983.96248   0.04417935   0.04275726           17 
 1857000   0.51458782   -3.8157224    981.34368   0.04403804  0.042731481           12 
 1858000   0.49353277   -3.8369133    982.37751  0.044060706  0.042705633            8 
 1859000   0.50917775   -3.8110917    984.53436   0.04413369  0.042679823           23 
 1860000   0.49359332   -3.8198268    981.85722  0.043990019  0.042654204            8 
 1861000   0.50521517   -3.8263961    984.40314  0.044080384  0.042628604            9 
 1862000   0.50684612   -3.8199885    984.89247  0.044078611  0.042603138            7 
 1863000   0.51114256   -3.8007804    983.30479  0.043983932  0.042577595           23 
 1864000   0.48903352   -3.8276817    985.49459  0.044058234  0.042552084           21 
 1865000    0.5009125   -3.8275622    981.65351  0.043862981  0.042526508           59 
 1866000   0.50703925   -3.8290253    981.22725  0.043820438  0.042500892           21 
 1867000   0.51818369   -3.8290866    983.07325  0.043879363  0.042475328           23 
 1868000   0.51456116   -3.8234932    980.82442   0.04375555  0.042449762           10 
 1869000   0.52211346   -3.8248231    982.80973  0.043820659  0.042424263           15 
 1870000   0.51413191   -3.8271734    981.97203  0.043759894   0.04239884           20 
 1871000   0.50712643   -3.8289609    982.13629  0.043743822  0.042373224           11 
 1872000   0.49188869   -3.8230701    982.46608  0.043735135   0.04234763           23 
 1873000    0.5010886   -3.8296966    980.64126  0.043630596  0.042322088           11 
 1874000   0.50545195   -3.8157782    982.95768   0.04371032  0.042296529           29 
 1875000   0.49764552   -3.8174011    980.55592  0.043580263  0.042271065           10 
 1876000   0.50913143   -3.8245091    984.52946   0.04373354  0.042245558           13 
 1877000   0.49188826   -3.8297158     980.9058  0.043549361  0.042220008           14 
 1878000   0.49203837   -3.8467641    985.12353  0.043713327  0.042194634           40 
 1879000   0.49805548   -3.8337218    982.61796  0.043578941  0.042169342           20 
 1880000   0.51102647   -3.8350959    984.01565  0.043617715  0.042143955            5 
 1881000   0.50537912   -3.8633299    983.45173  0.043569543  0.042118543            5 
 1882000   0.49713389   -3.8498621    982.66892  0.043511731  0.042093104           20 
 1883000   0.50553061   -3.8497478    983.67868   0.04353331   0.04206761           13 
 1884000   0.50088701   -3.8486693    982.62384  0.043463546  0.042042226           34 
 1885000   0.50875086   -3.8270715    982.14359  0.043419257  0.042016872           11 
 1886000   0.49576381   -3.8255798    985.13081  0.043528226  0.041991531           13 
 1887000   0.49495161   -3.8483395    983.63686  0.043439183  0.041966234            6 
 1888000   0.50523216   -3.8358475    982.73988  0.043376584  0.041940987            7 
 1889000   0.50755212   -3.8434967    983.70801   0.04339633  0.041915688           14 
 1890000   0.49868954   -3.8236146    982.81151  0.043333841  0.041890386           20 
 1891000   0.50632809   -3.8544227    983.27075  0.043331163  0.041865114            9 
 1892000   0.50970994   -3.8348498    984.57129  0.043365543  0.041839816           27 
 1893000   0.49328743   -3.8408221     983.3583  0.043289237  0.041814549           19 
 1894000   0.48862185   -3.8333813     982.4521  0.043226509  0.041789276           19 
 1895000   0.49695595   -3.8379976    982.36496  0.043199866  0.041764043           24 
 1896000   0.48462957   -3.8511688    983.98103  0.043248111   0.04173879           10 
 1897000   0.49084957   -3.8650355    982.87961  0.043176929  0.041713489           12 
 1898000   0.49678567   -3.8504116    983.67963  0.043189306  0.041688124           19 
 1899000   0.49625636   -3.8531975     981.3317  0.043063529  0.041662849           20 
 1900000   0.49169247    -3.861112    981.25642  0.043037562  0.041637545           19 
 1901000   0.49679726   -3.8357645    982.23967  0.043058025  0.041612236           19 
 1902000   0.50480273   -3.8348088    982.87711  0.043063316  0.041587026           31 
 1903000   0.48861092   -3.8531269    983.88138  0.043084664  0.041561824           11 
 1904000    0.4900512    -3.857235    982.85751  0.043017223  0.041536639           22 
 1905000   0.49238061   -3.8448727    982.10492   0.04296172  0.041511493           25 
 1906000   0.48583706    -3.836024      985.254  0.043076863    0.0414864           13 
 1907000   0.49475878   -3.8576737    980.85337  0.042861972  0.041461361           33 
 1908000   0.49971252   -3.8499868    982.55405  0.042913786  0.041436221           18 
 1909000    0.4943614   -3.8803168    983.87242  0.042948857  0.041411029           13 
 1910000     0.485784   -3.8544059    983.35228  0.042903677  0.041385872           21 
 1911000   0.47645412   -3.8596058    982.44996  0.042841879  0.041360788           10 
 1912000   0.50610059   -3.8598855    983.72167  0.042874899  0.041335731           17 
 1913000   0.48403613   -3.8599925    980.90776  0.042729908  0.041310596           13 
 1914000   0.49511029   -3.8485714     983.8817  0.042837064  0.041285447           26 
 1915000   0.49453878   -3.8602366     982.6385  0.042760596   0.04126036           28 
 1916000   0.48590439   -3.8573036    982.65997  0.042739212  0.041235249           33 
 1917000   0.48998959   -3.8543024     982.4971  0.042709838  0.041210047           23 
 1918000   0.48956781   -3.8647867    982.84833   0.04270283  0.041184863           21 
 1919000   0.49602522   -3.8638669    982.46231  0.042663814  0.041159734           18 
 1920000   0.48594083   -3.8561169     979.4594  0.042511259  0.041134593           46 
 1921000   0.48726724   -3.8621497    984.32448  0.042700177  0.041109541           17 
 1922000   0.47592879   -3.8539577     984.8658  0.042701431  0.041084586           18 
 1923000   0.48449522   -3.8613814    983.76883  0.042631688  0.041059613           16 
 1924000   0.49031383   -3.8557797     984.0749  0.042622787  0.041034765           19 
 1925000   0.48613465    -3.856754    983.73517  0.042585938  0.041009879           22 
 1926000   0.47905989    -3.876305    984.68953   0.04260512  0.040985004           26 
 1927000   0.47862926   -3.8623241    983.80067  0.042544571  0.040960199           15 
 1928000   0.48749561   -3.8908835     981.6659  0.042430234  0.040935254           21 
 1929000   0.47438668   -3.8870049    983.37402   0.04248203  0.040910384           27 
 1930000   0.48732787   -3.8787644     983.6628  0.042472487  0.040885488           34 
 1931000   0.48484397   -3.8747727     984.1528  0.042471638  0.040860671           28 
 1932000   0.47878563    -3.859346    981.48751  0.042334692  0.040835925           44 
 1933000   0.47691854   -3.8790902    983.59229   0.04240353  0.040811222           24 
 1934000   0.48043376   -3.8930515    985.45608  0.042461913  0.040786449           14 
 1935000   0.48563796   -3.8798857    985.07469  0.042423544  0.040761702           11 
 1936000    0.4715656   -3.8939753    985.73533  0.042430067  0.040737035           20 
 1937000    0.4757574   -3.8816386    983.80925  0.042325299  0.040712362           16 
 1938000   0.47342613   -3.8727578    984.89122  0.042349984  0.040687715           27 
 1939000   0.47565005   -3.8642042    986.44692  0.042395002  0.040663079           18 
 1940000   0.47519368   -3.8831554    985.47799  0.042331529  0.040638456           38 
 1941000    0.4837391   -3.8879099    985.42534  0.042307459  0.040613803           31 
 1942000   0.48369325   -3.8802348    983.84257  0.042217755  0.040589202           29 
 1943000   0.47844469   -3.8858258    983.85071  0.042196376  0.040564599           85 
 1944000   0.47910751   -3.9020342    984.36279  0.042196622  0.040540047           22 
 1945000   0.46990642   -3.8960022    983.10896  0.042121207  0.040515457           24 
 1946000   0.47591466   -3.8819533    983.72509  0.042125946  0.040490854           25 
 1947000   0.48103204   -3.8911451    985.65993  0.042187122  0.040466403           25 
 1948000    0.4800879   -3.8710031    983.89947  0.042090155  0.040441922           17 
 1949000   0.47572795   -3.8954311    984.05383   0.04207516  0.040417446           17 
 1950000   0.48123854   -3.8865106    984.24889  0.042061918  0.040392827           35 
 1951000   0.47739723   -3.8775135    983.43011  0.042005387  0.040368306           21 
 1952000   0.46694806   -3.8784902    982.94998   0.04196337   0.04034384           19 
 1953000   0.48109476   -3.8919656    984.29499  0.041999274  0.040319266           27 
 1954000   0.46336141   -3.8863532    982.25823  0.041890917  0.040294759           17 
 1955000   0.46884163   -3.9053157     983.4516  0.041920358   0.04027022           25 
 1956000   0.46648272   -3.8834656    983.24362  0.041890066  0.040245639           44 
 1957000    0.4630591   -3.9152133    981.69648   0.04180278  0.040221098           66 
 1958000   0.45913889   -3.9055533    984.40987  0.041896913  0.040196544           42 
 1959000   0.46379632    -3.885915    982.96453  0.041814043  0.040172031           49 
 1960000   0.47220107   -3.8991845    982.76187  0.041784093  0.040147579           58 
 1961000    0.4696912   -3.8959653    984.10586  0.041819899  0.040123096          124 
 1962000   0.48149242   -3.9026365    984.85916  0.041830579  0.040098694           20 
 1963000   0.46519567   -3.8994792    982.17473   0.04169531  0.040074243           20 
 1964000   0.46474224   -3.9003077    984.37451  0.041767418  0.040049785           16 
 1965000   0.46578266   -3.8877115    984.29518  0.041742798  0.040025381           22 
 1966000   0.45757781   -3.9032372    982.84687  0.041660176  0.040000907           11 
 1967000   0.47499341   -3.9011077    984.53418  0.041710481  0.039976392           18 
 1968000   0.47443988   -3.9109588    982.15765  0.041588654  0.039951887           13 
 1969000   0.46845958   -3.8953916    982.02569  0.041561947  0.039927432           28 
 1970000   0.46786118   -3.9065051    981.24104  0.041507658  0.039902976           33 
 1971000   0.47260207   -3.9070245    981.61142  0.041502259  0.039878446           26 
 1972000   0.46447935   -3.8999195    981.89873  0.041493354  0.039853906           20 
 1973000   0.46708491   -3.8910894    981.86101   0.04147073  0.039829424           16 
 1974000   0.46608763   -3.9111224    982.67892   0.04148425  0.039804949           17 
 1975000   0.46997682   -3.9194441    984.28421  0.041530979  0.039780419           22 
 1976000   0.46164945     -3.91009    981.69605  0.041400812  0.039755825           12 
 1977000   0.46706374   -3.9080723    982.61399  0.041418563  0.039731294           28 
 1978000   0.46324549   -3.9051372    978.89877  0.041241101  0.039706798           35 
 1979000   0.46548166   -3.9022727    981.87016  0.041345383    0.0396823           30 
 1980000   0.45453039   -3.8960949    983.40269  0.041389002  0.039657877           57 
 1981000   0.46289193   -3.9075404    981.74636  0.041298434  0.039633488           29 
 1982000   0.47316418   -3.9069368    983.49551   0.04135114  0.039609195           33 
 1983000   0.45947722   -3.8978416    982.78667  0.041300499  0.039584846           16 
 1984000    0.4603226   -3.9056003    981.81771  0.041238983  0.039560521           18 
 1985000   0.46976288   -3.9081003    983.67185  0.041296047  0.039536243           30 
 1986000   0.46363194   -3.9155109    981.24078  0.041173245  0.039511975           29 
 1987000   0.45735316   -3.9213458    981.17972  0.041149963  0.039487607           32 
 1988000   0.46030982   -3.9315377    981.71698  0.041151785  0.039463272           41 
 1989000   0.46003475    -3.932142    980.90813  0.041097207  0.039438968           98 
 1990000   0.46324045    -3.918591     982.4341  0.041140456  0.039414673           54 
 1991000   0.46033438   -3.9453873    981.45461  0.041078797  0.039390288           60 
 1992000   0.46428793   -3.9384878    981.05871  0.041041613  0.039365921           47 
 1993000   0.45153254   -3.9285622    982.97168  0.041101007  0.039341503           23 
 1994000   0.45367681   -3.9211896    982.03028  0.041041052  0.039317091           41 
 1995000    0.4565411   -3.9038185    984.98787  0.041144021  0.039292882           33 
 1996000   0.45560047   -3.9237258    982.63358  0.041025116  0.039268707           18 
 1997000   0.45824863   -3.9315656    981.97157  0.040976947   0.03924457           17 
 1998000   0.45747526    -3.923765    982.99807  0.040999252  0.039220445           25 
 1999000   0.46342571   -3.9202867    983.40997  0.040995913  0.039196265           15 
 2000000   0.46468383   -3.9256479    983.48218  0.040978424  0.039172109           22 
 2001000   0.45216044   -3.9179199    982.52698  0.040918165  0.039147913           25 
 2002000   0.46015777   -3.9253273    981.26563  0.040845223  0.039123699           13 
 2003000   0.46161399   -3.9077198    982.23832  0.040865299  0.039099552           18 
 2004000   0.44897046   -3.9164107    983.33612  0.040890557   0.03907547           43 
 2005000   0.46253719   -3.9368632    983.63198   0.04088246  0.039051407           17 
 2006000   0.46365861   -3.9206157    984.27984  0.040888993  0.039027299           44 
 2007000   0.44932313   -3.9070146    982.69899  0.040802981   0.03900333           10 
 2008000   0.45588778   -3.9373462    981.90175  0.040749575    0.0389793           21 
 2009000   0.45446477   -3.9255931    982.68175  0.040761646  0.038955261           31 
 2010000   0.45091563   -3.9312735    981.77723  0.040703865  0.038931235           59 
 2011000   0.45213507   -3.9320319    981.67216  0.040679271  0.038907185           20 
 2012000   0.45741931   -3.9261417    980.93952  0.040628708   0.03888325           13 
Loop time of 4903.55 on 48 procs for 2000000 steps with 4000 atoms

Performance: 70479.611 tau/day, 407.868 timesteps/s
99.4% CPU use with 48 MPI tasks x no OpenMP threads

MPI task timing breakdown:
Section |  min time  |  avg time  |  max time  |%varavg| %total
---------------------------------------------------------------
Pair    | 311.79     | 335.63     | 349.14     |  49.6 |  6.84
Neigh   | 32.864     | 34.102     | 35.239     |   9.7 |  0.70
Comm    | 311.7      | 328.98     | 357.67     |  55.2 |  6.71
Output  | 4.2561     | 4.258      | 4.2863     |   0.2 |  0.09
Modify  | 4144.8     | 4157.8     | 4167.6     |   8.6 | 84.79
Other   |            | 42.73      |            |       |  0.87

Nlocal:        83.3333 ave          91 max          73 min
Histogram: 1 0 2 5 4 16 8 8 3 1
Nghost:        2199.81 ave        2220 max        2185 min
Histogram: 1 5 10 6 8 8 7 1 1 1
Neighs:        14721.4 ave       16361 max       12113 min
Histogram: 1 0 0 4 6 8 16 9 2 2
FullNghs:      29377.2 ave       32559 max       25543 min
Histogram: 1 0 1 8 7 12 11 6 1 1

Total # of neighbors = 1410108
Ave neighs/atom = 352.52700
Neighbor list builds = 108444
Dangerous builds = 0

#clear
#
#next RN
#
#jump SELF
Total wall time: 1:21:46
